# vtk DataFile Version 3.0
vtk output
ASCII
DATASET UNSTRUCTURED_GRID
POINTS      5151 double 
  0.00000000E+00  1.00000000E+02  0.00000000E+00
  0.00000000E+00  9.80000000E+01  0.00000000E+00
  0.00000000E+00  9.60000000E+01  0.00000000E+00
  0.00000000E+00  9.40000000E+01  0.00000000E+00
  0.00000000E+00  9.20000000E+01  0.00000000E+00
  0.00000000E+00  9.00000000E+01  0.00000000E+00
  0.00000000E+00  8.80000000E+01  0.00000000E+00
  0.00000000E+00  8.60000000E+01  0.00000000E+00
  0.00000000E+00  8.40000000E+01  0.00000000E+00
  0.00000000E+00  8.20000000E+01  0.00000000E+00
  0.00000000E+00  8.00000000E+01  0.00000000E+00
  0.00000000E+00  7.80000000E+01  0.00000000E+00
  0.00000000E+00  7.60000000E+01  0.00000000E+00
  0.00000000E+00  7.40000000E+01  0.00000000E+00
  0.00000000E+00  7.20000000E+01  0.00000000E+00
  0.00000000E+00  7.00000000E+01  0.00000000E+00
  0.00000000E+00  6.80000000E+01  0.00000000E+00
  0.00000000E+00  6.60000000E+01  0.00000000E+00
  0.00000000E+00  6.40000000E+01  0.00000000E+00
  0.00000000E+00  6.20000000E+01  0.00000000E+00
  0.00000000E+00  6.00000000E+01  0.00000000E+00
  0.00000000E+00  5.80000000E+01  0.00000000E+00
  0.00000000E+00  5.60000000E+01  0.00000000E+00
  0.00000000E+00  5.40000000E+01  0.00000000E+00
  0.00000000E+00  5.20000000E+01  0.00000000E+00
  0.00000000E+00  5.00000000E+01  0.00000000E+00
  0.00000000E+00  4.80000000E+01  0.00000000E+00
  0.00000000E+00  4.60000000E+01  0.00000000E+00
  0.00000000E+00  4.40000000E+01  0.00000000E+00
  0.00000000E+00  4.20000000E+01  0.00000000E+00
  0.00000000E+00  4.00000000E+01  0.00000000E+00
  0.00000000E+00  3.80000000E+01  0.00000000E+00
  0.00000000E+00  3.60000000E+01  0.00000000E+00
  0.00000000E+00  3.40000000E+01  0.00000000E+00
  0.00000000E+00  3.20000000E+01  0.00000000E+00
  0.00000000E+00  3.00000000E+01  0.00000000E+00
  0.00000000E+00  2.80000000E+01  0.00000000E+00
  0.00000000E+00  2.60000000E+01  0.00000000E+00
  0.00000000E+00  2.40000000E+01  0.00000000E+00
  0.00000000E+00  2.20000000E+01  0.00000000E+00
  0.00000000E+00  2.00000000E+01  0.00000000E+00
  0.00000000E+00  1.80000000E+01  0.00000000E+00
  0.00000000E+00  1.60000000E+01  0.00000000E+00
  0.00000000E+00  1.40000000E+01  0.00000000E+00
  0.00000000E+00  1.20000000E+01  0.00000000E+00
  0.00000000E+00  1.00000000E+01  0.00000000E+00
  0.00000000E+00  8.00000000E+00  0.00000000E+00
  0.00000000E+00  6.00000000E+00  0.00000000E+00
  0.00000000E+00  4.00000000E+00  0.00000000E+00
  0.00000000E+00  2.00000000E+00  0.00000000E+00
  0.00000000E+00 -3.33066907E-14  0.00000000E+00
  1.00000000E+01  1.00000000E+02  0.00000000E+00
  1.00000000E+01  9.80000000E+01  0.00000000E+00
  1.00000000E+01  9.60000000E+01  0.00000000E+00
  1.00000000E+01  9.40000000E+01  0.00000000E+00
  1.00000000E+01  9.20000000E+01  0.00000000E+00
  1.00000000E+01  9.00000000E+01  0.00000000E+00
  1.00000000E+01  8.80000000E+01  0.00000000E+00
  1.00000000E+01  8.60000000E+01  0.00000000E+00
  1.00000000E+01  8.40000000E+01  0.00000000E+00
  1.00000000E+01  8.20000000E+01  0.00000000E+00
  1.00000000E+01  8.00000000E+01  0.00000000E+00
  1.00000000E+01  7.80000000E+01  0.00000000E+00
  1.00000000E+01  7.60000000E+01  0.00000000E+00
  1.00000000E+01  7.40000000E+01  0.00000000E+00
  1.00000000E+01  7.20000000E+01  0.00000000E+00
  1.00000000E+01  7.00000000E+01  0.00000000E+00
  1.00000000E+01  6.80000000E+01  0.00000000E+00
  1.00000000E+01  6.60000000E+01  0.00000000E+00
  1.00000000E+01  6.40000000E+01  0.00000000E+00
  1.00000000E+01  6.20000000E+01  0.00000000E+00
  1.00000000E+01  6.00000000E+01  0.00000000E+00
  1.00000000E+01  5.80000000E+01  0.00000000E+00
  1.00000000E+01  5.60000000E+01  0.00000000E+00
  1.00000000E+01  5.40000000E+01  0.00000000E+00
  1.00000000E+01  5.20000000E+01  0.00000000E+00
  1.00000000E+01  5.00000000E+01  0.00000000E+00
  1.00000000E+01  4.80000000E+01  0.00000000E+00
  1.00000000E+01  4.60000000E+01  0.00000000E+00
  1.00000000E+01  4.40000000E+01  0.00000000E+00
  1.00000000E+01  4.20000000E+01  0.00000000E+00
  1.00000000E+01  4.00000000E+01  0.00000000E+00
  1.00000000E+01  3.80000000E+01  0.00000000E+00
  1.00000000E+01  3.60000000E+01  0.00000000E+00
  1.00000000E+01  3.40000000E+01  0.00000000E+00
  1.00000000E+01  3.20000000E+01  0.00000000E+00
  1.00000000E+01  3.00000000E+01  0.00000000E+00
  1.00000000E+01  2.80000000E+01  0.00000000E+00
  1.00000000E+01  2.60000000E+01  0.00000000E+00
  1.00000000E+01  2.40000000E+01  0.00000000E+00
  1.00000000E+01  2.20000000E+01  0.00000000E+00
  1.00000000E+01  2.00000000E+01  0.00000000E+00
  1.00000000E+01  1.80000000E+01  0.00000000E+00
  1.00000000E+01  1.60000000E+01  0.00000000E+00
  1.00000000E+01  1.40000000E+01  0.00000000E+00
  1.00000000E+01  1.20000000E+01  0.00000000E+00
  1.00000000E+01  1.00000000E+01  0.00000000E+00
  1.00000000E+01  8.00000000E+00  0.00000000E+00
  1.00000000E+01  6.00000000E+00  0.00000000E+00
  1.00000000E+01  4.00000000E+00  0.00000000E+00
  1.00000000E+01  2.00000000E+00  0.00000000E+00
  1.00000000E+01 -3.33066907E-14  0.00000000E+00
  2.00000000E+01  1.00000000E+02  0.00000000E+00
  2.00000000E+01  9.80000000E+01  0.00000000E+00
  2.00000000E+01  9.60000000E+01  0.00000000E+00
  2.00000000E+01  9.40000000E+01  0.00000000E+00
  2.00000000E+01  9.20000000E+01  0.00000000E+00
  2.00000000E+01  9.00000000E+01  0.00000000E+00
  2.00000000E+01  8.80000000E+01  0.00000000E+00
  2.00000000E+01  8.60000000E+01  0.00000000E+00
  2.00000000E+01  8.40000000E+01  0.00000000E+00
  2.00000000E+01  8.20000000E+01  0.00000000E+00
  2.00000000E+01  8.00000000E+01  0.00000000E+00
  2.00000000E+01  7.80000000E+01  0.00000000E+00
  2.00000000E+01  7.60000000E+01  0.00000000E+00
  2.00000000E+01  7.40000000E+01  0.00000000E+00
  2.00000000E+01  7.20000000E+01  0.00000000E+00
  2.00000000E+01  7.00000000E+01  0.00000000E+00
  2.00000000E+01  6.80000000E+01  0.00000000E+00
  2.00000000E+01  6.60000000E+01  0.00000000E+00
  2.00000000E+01  6.40000000E+01  0.00000000E+00
  2.00000000E+01  6.20000000E+01  0.00000000E+00
  2.00000000E+01  6.00000000E+01  0.00000000E+00
  2.00000000E+01  5.80000000E+01  0.00000000E+00
  2.00000000E+01  5.60000000E+01  0.00000000E+00
  2.00000000E+01  5.40000000E+01  0.00000000E+00
  2.00000000E+01  5.20000000E+01  0.00000000E+00
  2.00000000E+01  5.00000000E+01  0.00000000E+00
  2.00000000E+01  4.80000000E+01  0.00000000E+00
  2.00000000E+01  4.60000000E+01  0.00000000E+00
  2.00000000E+01  4.40000000E+01  0.00000000E+00
  2.00000000E+01  4.20000000E+01  0.00000000E+00
  2.00000000E+01  4.00000000E+01  0.00000000E+00
  2.00000000E+01  3.80000000E+01  0.00000000E+00
  2.00000000E+01  3.60000000E+01  0.00000000E+00
  2.00000000E+01  3.40000000E+01  0.00000000E+00
  2.00000000E+01  3.20000000E+01  0.00000000E+00
  2.00000000E+01  3.00000000E+01  0.00000000E+00
  2.00000000E+01  2.80000000E+01  0.00000000E+00
  2.00000000E+01  2.60000000E+01  0.00000000E+00
  2.00000000E+01  2.40000000E+01  0.00000000E+00
  2.00000000E+01  2.20000000E+01  0.00000000E+00
  2.00000000E+01  2.00000000E+01  0.00000000E+00
  2.00000000E+01  1.80000000E+01  0.00000000E+00
  2.00000000E+01  1.60000000E+01  0.00000000E+00
  2.00000000E+01  1.40000000E+01  0.00000000E+00
  2.00000000E+01  1.20000000E+01  0.00000000E+00
  2.00000000E+01  1.00000000E+01  0.00000000E+00
  2.00000000E+01  8.00000000E+00  0.00000000E+00
  2.00000000E+01  6.00000000E+00  0.00000000E+00
  2.00000000E+01  4.00000000E+00  0.00000000E+00
  2.00000000E+01  2.00000000E+00  0.00000000E+00
  2.00000000E+01 -3.33066907E-14  0.00000000E+00
  3.00000000E+01  1.00000000E+02  0.00000000E+00
  3.00000000E+01  9.80000000E+01  0.00000000E+00
  3.00000000E+01  9.60000000E+01  0.00000000E+00
  3.00000000E+01  9.40000000E+01  0.00000000E+00
  3.00000000E+01  9.20000000E+01  0.00000000E+00
  3.00000000E+01  9.00000000E+01  0.00000000E+00
  3.00000000E+01  8.80000000E+01  0.00000000E+00
  3.00000000E+01  8.60000000E+01  0.00000000E+00
  3.00000000E+01  8.40000000E+01  0.00000000E+00
  3.00000000E+01  8.20000000E+01  0.00000000E+00
  3.00000000E+01  8.00000000E+01  0.00000000E+00
  3.00000000E+01  7.80000000E+01  0.00000000E+00
  3.00000000E+01  7.60000000E+01  0.00000000E+00
  3.00000000E+01  7.40000000E+01  0.00000000E+00
  3.00000000E+01  7.20000000E+01  0.00000000E+00
  3.00000000E+01  7.00000000E+01  0.00000000E+00
  3.00000000E+01  6.80000000E+01  0.00000000E+00
  3.00000000E+01  6.60000000E+01  0.00000000E+00
  3.00000000E+01  6.40000000E+01  0.00000000E+00
  3.00000000E+01  6.20000000E+01  0.00000000E+00
  3.00000000E+01  6.00000000E+01  0.00000000E+00
  3.00000000E+01  5.80000000E+01  0.00000000E+00
  3.00000000E+01  5.60000000E+01  0.00000000E+00
  3.00000000E+01  5.40000000E+01  0.00000000E+00
  3.00000000E+01  5.20000000E+01  0.00000000E+00
  3.00000000E+01  5.00000000E+01  0.00000000E+00
  3.00000000E+01  4.80000000E+01  0.00000000E+00
  3.00000000E+01  4.60000000E+01  0.00000000E+00
  3.00000000E+01  4.40000000E+01  0.00000000E+00
  3.00000000E+01  4.20000000E+01  0.00000000E+00
  3.00000000E+01  4.00000000E+01  0.00000000E+00
  3.00000000E+01  3.80000000E+01  0.00000000E+00
  3.00000000E+01  3.60000000E+01  0.00000000E+00
  3.00000000E+01  3.40000000E+01  0.00000000E+00
  3.00000000E+01  3.20000000E+01  0.00000000E+00
  3.00000000E+01  3.00000000E+01  0.00000000E+00
  3.00000000E+01  2.80000000E+01  0.00000000E+00
  3.00000000E+01  2.60000000E+01  0.00000000E+00
  3.00000000E+01  2.40000000E+01  0.00000000E+00
  3.00000000E+01  2.20000000E+01  0.00000000E+00
  3.00000000E+01  2.00000000E+01  0.00000000E+00
  3.00000000E+01  1.80000000E+01  0.00000000E+00
  3.00000000E+01  1.60000000E+01  0.00000000E+00
  3.00000000E+01  1.40000000E+01  0.00000000E+00
  3.00000000E+01  1.20000000E+01  0.00000000E+00
  3.00000000E+01  1.00000000E+01  0.00000000E+00
  3.00000000E+01  8.00000000E+00  0.00000000E+00
  3.00000000E+01  6.00000000E+00  0.00000000E+00
  3.00000000E+01  4.00000000E+00  0.00000000E+00
  3.00000000E+01  2.00000000E+00  0.00000000E+00
  3.00000000E+01 -3.33066907E-14  0.00000000E+00
  4.00000000E+01  1.00000000E+02  0.00000000E+00
  4.00000000E+01  9.80000000E+01  0.00000000E+00
  4.00000000E+01  9.60000000E+01  0.00000000E+00
  4.00000000E+01  9.40000000E+01  0.00000000E+00
  4.00000000E+01  9.20000000E+01  0.00000000E+00
  4.00000000E+01  9.00000000E+01  0.00000000E+00
  4.00000000E+01  8.80000000E+01  0.00000000E+00
  4.00000000E+01  8.60000000E+01  0.00000000E+00
  4.00000000E+01  8.40000000E+01  0.00000000E+00
  4.00000000E+01  8.20000000E+01  0.00000000E+00
  4.00000000E+01  8.00000000E+01  0.00000000E+00
  4.00000000E+01  7.80000000E+01  0.00000000E+00
  4.00000000E+01  7.60000000E+01  0.00000000E+00
  4.00000000E+01  7.40000000E+01  0.00000000E+00
  4.00000000E+01  7.20000000E+01  0.00000000E+00
  4.00000000E+01  7.00000000E+01  0.00000000E+00
  4.00000000E+01  6.80000000E+01  0.00000000E+00
  4.00000000E+01  6.60000000E+01  0.00000000E+00
  4.00000000E+01  6.40000000E+01  0.00000000E+00
  4.00000000E+01  6.20000000E+01  0.00000000E+00
  4.00000000E+01  6.00000000E+01  0.00000000E+00
  4.00000000E+01  5.80000000E+01  0.00000000E+00
  4.00000000E+01  5.60000000E+01  0.00000000E+00
  4.00000000E+01  5.40000000E+01  0.00000000E+00
  4.00000000E+01  5.20000000E+01  0.00000000E+00
  4.00000000E+01  5.00000000E+01  0.00000000E+00
  4.00000000E+01  4.80000000E+01  0.00000000E+00
  4.00000000E+01  4.60000000E+01  0.00000000E+00
  4.00000000E+01  4.40000000E+01  0.00000000E+00
  4.00000000E+01  4.20000000E+01  0.00000000E+00
  4.00000000E+01  4.00000000E+01  0.00000000E+00
  4.00000000E+01  3.80000000E+01  0.00000000E+00
  4.00000000E+01  3.60000000E+01  0.00000000E+00
  4.00000000E+01  3.40000000E+01  0.00000000E+00
  4.00000000E+01  3.20000000E+01  0.00000000E+00
  4.00000000E+01  3.00000000E+01  0.00000000E+00
  4.00000000E+01  2.80000000E+01  0.00000000E+00
  4.00000000E+01  2.60000000E+01  0.00000000E+00
  4.00000000E+01  2.40000000E+01  0.00000000E+00
  4.00000000E+01  2.20000000E+01  0.00000000E+00
  4.00000000E+01  2.00000000E+01  0.00000000E+00
  4.00000000E+01  1.80000000E+01  0.00000000E+00
  4.00000000E+01  1.60000000E+01  0.00000000E+00
  4.00000000E+01  1.40000000E+01  0.00000000E+00
  4.00000000E+01  1.20000000E+01  0.00000000E+00
  4.00000000E+01  1.00000000E+01  0.00000000E+00
  4.00000000E+01  8.00000000E+00  0.00000000E+00
  4.00000000E+01  6.00000000E+00  0.00000000E+00
  4.00000000E+01  4.00000000E+00  0.00000000E+00
  4.00000000E+01  2.00000000E+00  0.00000000E+00
  4.00000000E+01 -3.33066907E-14  0.00000000E+00
  5.00000000E+01  1.00000000E+02  0.00000000E+00
  5.00000000E+01  9.80000000E+01  0.00000000E+00
  5.00000000E+01  9.60000000E+01  0.00000000E+00
  5.00000000E+01  9.40000000E+01  0.00000000E+00
  5.00000000E+01  9.20000000E+01  0.00000000E+00
  5.00000000E+01  9.00000000E+01  0.00000000E+00
  5.00000000E+01  8.80000000E+01  0.00000000E+00
  5.00000000E+01  8.60000000E+01  0.00000000E+00
  5.00000000E+01  8.40000000E+01  0.00000000E+00
  5.00000000E+01  8.20000000E+01  0.00000000E+00
  5.00000000E+01  8.00000000E+01  0.00000000E+00
  5.00000000E+01  7.80000000E+01  0.00000000E+00
  5.00000000E+01  7.60000000E+01  0.00000000E+00
  5.00000000E+01  7.40000000E+01  0.00000000E+00
  5.00000000E+01  7.20000000E+01  0.00000000E+00
  5.00000000E+01  7.00000000E+01  0.00000000E+00
  5.00000000E+01  6.80000000E+01  0.00000000E+00
  5.00000000E+01  6.60000000E+01  0.00000000E+00
  5.00000000E+01  6.40000000E+01  0.00000000E+00
  5.00000000E+01  6.20000000E+01  0.00000000E+00
  5.00000000E+01  6.00000000E+01  0.00000000E+00
  5.00000000E+01  5.80000000E+01  0.00000000E+00
  5.00000000E+01  5.60000000E+01  0.00000000E+00
  5.00000000E+01  5.40000000E+01  0.00000000E+00
  5.00000000E+01  5.20000000E+01  0.00000000E+00
  5.00000000E+01  5.00000000E+01  0.00000000E+00
  5.00000000E+01  4.80000000E+01  0.00000000E+00
  5.00000000E+01  4.60000000E+01  0.00000000E+00
  5.00000000E+01  4.40000000E+01  0.00000000E+00
  5.00000000E+01  4.20000000E+01  0.00000000E+00
  5.00000000E+01  4.00000000E+01  0.00000000E+00
  5.00000000E+01  3.80000000E+01  0.00000000E+00
  5.00000000E+01  3.60000000E+01  0.00000000E+00
  5.00000000E+01  3.40000000E+01  0.00000000E+00
  5.00000000E+01  3.20000000E+01  0.00000000E+00
  5.00000000E+01  3.00000000E+01  0.00000000E+00
  5.00000000E+01  2.80000000E+01  0.00000000E+00
  5.00000000E+01  2.60000000E+01  0.00000000E+00
  5.00000000E+01  2.40000000E+01  0.00000000E+00
  5.00000000E+01  2.20000000E+01  0.00000000E+00
  5.00000000E+01  2.00000000E+01  0.00000000E+00
  5.00000000E+01  1.80000000E+01  0.00000000E+00
  5.00000000E+01  1.60000000E+01  0.00000000E+00
  5.00000000E+01  1.40000000E+01  0.00000000E+00
  5.00000000E+01  1.20000000E+01  0.00000000E+00
  5.00000000E+01  1.00000000E+01  0.00000000E+00
  5.00000000E+01  8.00000000E+00  0.00000000E+00
  5.00000000E+01  6.00000000E+00  0.00000000E+00
  5.00000000E+01  4.00000000E+00  0.00000000E+00
  5.00000000E+01  2.00000000E+00  0.00000000E+00
  5.00000000E+01 -3.33066907E-14  0.00000000E+00
  6.00000000E+01  1.00000000E+02  0.00000000E+00
  6.00000000E+01  9.80000000E+01  0.00000000E+00
  6.00000000E+01  9.60000000E+01  0.00000000E+00
  6.00000000E+01  9.40000000E+01  0.00000000E+00
  6.00000000E+01  9.20000000E+01  0.00000000E+00
  6.00000000E+01  9.00000000E+01  0.00000000E+00
  6.00000000E+01  8.80000000E+01  0.00000000E+00
  6.00000000E+01  8.60000000E+01  0.00000000E+00
  6.00000000E+01  8.40000000E+01  0.00000000E+00
  6.00000000E+01  8.20000000E+01  0.00000000E+00
  6.00000000E+01  8.00000000E+01  0.00000000E+00
  6.00000000E+01  7.80000000E+01  0.00000000E+00
  6.00000000E+01  7.60000000E+01  0.00000000E+00
  6.00000000E+01  7.40000000E+01  0.00000000E+00
  6.00000000E+01  7.20000000E+01  0.00000000E+00
  6.00000000E+01  7.00000000E+01  0.00000000E+00
  6.00000000E+01  6.80000000E+01  0.00000000E+00
  6.00000000E+01  6.60000000E+01  0.00000000E+00
  6.00000000E+01  6.40000000E+01  0.00000000E+00
  6.00000000E+01  6.20000000E+01  0.00000000E+00
  6.00000000E+01  6.00000000E+01  0.00000000E+00
  6.00000000E+01  5.80000000E+01  0.00000000E+00
  6.00000000E+01  5.60000000E+01  0.00000000E+00
  6.00000000E+01  5.40000000E+01  0.00000000E+00
  6.00000000E+01  5.20000000E+01  0.00000000E+00
  6.00000000E+01  5.00000000E+01  0.00000000E+00
  6.00000000E+01  4.80000000E+01  0.00000000E+00
  6.00000000E+01  4.60000000E+01  0.00000000E+00
  6.00000000E+01  4.40000000E+01  0.00000000E+00
  6.00000000E+01  4.20000000E+01  0.00000000E+00
  6.00000000E+01  4.00000000E+01  0.00000000E+00
  6.00000000E+01  3.80000000E+01  0.00000000E+00
  6.00000000E+01  3.60000000E+01  0.00000000E+00
  6.00000000E+01  3.40000000E+01  0.00000000E+00
  6.00000000E+01  3.20000000E+01  0.00000000E+00
  6.00000000E+01  3.00000000E+01  0.00000000E+00
  6.00000000E+01  2.80000000E+01  0.00000000E+00
  6.00000000E+01  2.60000000E+01  0.00000000E+00
  6.00000000E+01  2.40000000E+01  0.00000000E+00
  6.00000000E+01  2.20000000E+01  0.00000000E+00
  6.00000000E+01  2.00000000E+01  0.00000000E+00
  6.00000000E+01  1.80000000E+01  0.00000000E+00
  6.00000000E+01  1.60000000E+01  0.00000000E+00
  6.00000000E+01  1.40000000E+01  0.00000000E+00
  6.00000000E+01  1.20000000E+01  0.00000000E+00
  6.00000000E+01  1.00000000E+01  0.00000000E+00
  6.00000000E+01  8.00000000E+00  0.00000000E+00
  6.00000000E+01  6.00000000E+00  0.00000000E+00
  6.00000000E+01  4.00000000E+00  0.00000000E+00
  6.00000000E+01  2.00000000E+00  0.00000000E+00
  6.00000000E+01 -3.33066907E-14  0.00000000E+00
  7.00000000E+01  1.00000000E+02  0.00000000E+00
  7.00000000E+01  9.80000000E+01  0.00000000E+00
  7.00000000E+01  9.60000000E+01  0.00000000E+00
  7.00000000E+01  9.40000000E+01  0.00000000E+00
  7.00000000E+01  9.20000000E+01  0.00000000E+00
  7.00000000E+01  9.00000000E+01  0.00000000E+00
  7.00000000E+01  8.80000000E+01  0.00000000E+00
  7.00000000E+01  8.60000000E+01  0.00000000E+00
  7.00000000E+01  8.40000000E+01  0.00000000E+00
  7.00000000E+01  8.20000000E+01  0.00000000E+00
  7.00000000E+01  8.00000000E+01  0.00000000E+00
  7.00000000E+01  7.80000000E+01  0.00000000E+00
  7.00000000E+01  7.60000000E+01  0.00000000E+00
  7.00000000E+01  7.40000000E+01  0.00000000E+00
  7.00000000E+01  7.20000000E+01  0.00000000E+00
  7.00000000E+01  7.00000000E+01  0.00000000E+00
  7.00000000E+01  6.80000000E+01  0.00000000E+00
  7.00000000E+01  6.60000000E+01  0.00000000E+00
  7.00000000E+01  6.40000000E+01  0.00000000E+00
  7.00000000E+01  6.20000000E+01  0.00000000E+00
  7.00000000E+01  6.00000000E+01  0.00000000E+00
  7.00000000E+01  5.80000000E+01  0.00000000E+00
  7.00000000E+01  5.60000000E+01  0.00000000E+00
  7.00000000E+01  5.40000000E+01  0.00000000E+00
  7.00000000E+01  5.20000000E+01  0.00000000E+00
  7.00000000E+01  5.00000000E+01  0.00000000E+00
  7.00000000E+01  4.80000000E+01  0.00000000E+00
  7.00000000E+01  4.60000000E+01  0.00000000E+00
  7.00000000E+01  4.40000000E+01  0.00000000E+00
  7.00000000E+01  4.20000000E+01  0.00000000E+00
  7.00000000E+01  4.00000000E+01  0.00000000E+00
  7.00000000E+01  3.80000000E+01  0.00000000E+00
  7.00000000E+01  3.60000000E+01  0.00000000E+00
  7.00000000E+01  3.40000000E+01  0.00000000E+00
  7.00000000E+01  3.20000000E+01  0.00000000E+00
  7.00000000E+01  3.00000000E+01  0.00000000E+00
  7.00000000E+01  2.80000000E+01  0.00000000E+00
  7.00000000E+01  2.60000000E+01  0.00000000E+00
  7.00000000E+01  2.40000000E+01  0.00000000E+00
  7.00000000E+01  2.20000000E+01  0.00000000E+00
  7.00000000E+01  2.00000000E+01  0.00000000E+00
  7.00000000E+01  1.80000000E+01  0.00000000E+00
  7.00000000E+01  1.60000000E+01  0.00000000E+00
  7.00000000E+01  1.40000000E+01  0.00000000E+00
  7.00000000E+01  1.20000000E+01  0.00000000E+00
  7.00000000E+01  1.00000000E+01  0.00000000E+00
  7.00000000E+01  8.00000000E+00  0.00000000E+00
  7.00000000E+01  6.00000000E+00  0.00000000E+00
  7.00000000E+01  4.00000000E+00  0.00000000E+00
  7.00000000E+01  2.00000000E+00  0.00000000E+00
  7.00000000E+01 -3.33066907E-14  0.00000000E+00
  8.00000000E+01  1.00000000E+02  0.00000000E+00
  8.00000000E+01  9.80000000E+01  0.00000000E+00
  8.00000000E+01  9.60000000E+01  0.00000000E+00
  8.00000000E+01  9.40000000E+01  0.00000000E+00
  8.00000000E+01  9.20000000E+01  0.00000000E+00
  8.00000000E+01  9.00000000E+01  0.00000000E+00
  8.00000000E+01  8.80000000E+01  0.00000000E+00
  8.00000000E+01  8.60000000E+01  0.00000000E+00
  8.00000000E+01  8.40000000E+01  0.00000000E+00
  8.00000000E+01  8.20000000E+01  0.00000000E+00
  8.00000000E+01  8.00000000E+01  0.00000000E+00
  8.00000000E+01  7.80000000E+01  0.00000000E+00
  8.00000000E+01  7.60000000E+01  0.00000000E+00
  8.00000000E+01  7.40000000E+01  0.00000000E+00
  8.00000000E+01  7.20000000E+01  0.00000000E+00
  8.00000000E+01  7.00000000E+01  0.00000000E+00
  8.00000000E+01  6.80000000E+01  0.00000000E+00
  8.00000000E+01  6.60000000E+01  0.00000000E+00
  8.00000000E+01  6.40000000E+01  0.00000000E+00
  8.00000000E+01  6.20000000E+01  0.00000000E+00
  8.00000000E+01  6.00000000E+01  0.00000000E+00
  8.00000000E+01  5.80000000E+01  0.00000000E+00
  8.00000000E+01  5.60000000E+01  0.00000000E+00
  8.00000000E+01  5.40000000E+01  0.00000000E+00
  8.00000000E+01  5.20000000E+01  0.00000000E+00
  8.00000000E+01  5.00000000E+01  0.00000000E+00
  8.00000000E+01  4.80000000E+01  0.00000000E+00
  8.00000000E+01  4.60000000E+01  0.00000000E+00
  8.00000000E+01  4.40000000E+01  0.00000000E+00
  8.00000000E+01  4.20000000E+01  0.00000000E+00
  8.00000000E+01  4.00000000E+01  0.00000000E+00
  8.00000000E+01  3.80000000E+01  0.00000000E+00
  8.00000000E+01  3.60000000E+01  0.00000000E+00
  8.00000000E+01  3.40000000E+01  0.00000000E+00
  8.00000000E+01  3.20000000E+01  0.00000000E+00
  8.00000000E+01  3.00000000E+01  0.00000000E+00
  8.00000000E+01  2.80000000E+01  0.00000000E+00
  8.00000000E+01  2.60000000E+01  0.00000000E+00
  8.00000000E+01  2.40000000E+01  0.00000000E+00
  8.00000000E+01  2.20000000E+01  0.00000000E+00
  8.00000000E+01  2.00000000E+01  0.00000000E+00
  8.00000000E+01  1.80000000E+01  0.00000000E+00
  8.00000000E+01  1.60000000E+01  0.00000000E+00
  8.00000000E+01  1.40000000E+01  0.00000000E+00
  8.00000000E+01  1.20000000E+01  0.00000000E+00
  8.00000000E+01  1.00000000E+01  0.00000000E+00
  8.00000000E+01  8.00000000E+00  0.00000000E+00
  8.00000000E+01  6.00000000E+00  0.00000000E+00
  8.00000000E+01  4.00000000E+00  0.00000000E+00
  8.00000000E+01  2.00000000E+00  0.00000000E+00
  8.00000000E+01 -3.33066907E-14  0.00000000E+00
  9.00000000E+01  1.00000000E+02  0.00000000E+00
  9.00000000E+01  9.80000000E+01  0.00000000E+00
  9.00000000E+01  9.60000000E+01  0.00000000E+00
  9.00000000E+01  9.40000000E+01  0.00000000E+00
  9.00000000E+01  9.20000000E+01  0.00000000E+00
  9.00000000E+01  9.00000000E+01  0.00000000E+00
  9.00000000E+01  8.80000000E+01  0.00000000E+00
  9.00000000E+01  8.60000000E+01  0.00000000E+00
  9.00000000E+01  8.40000000E+01  0.00000000E+00
  9.00000000E+01  8.20000000E+01  0.00000000E+00
  9.00000000E+01  8.00000000E+01  0.00000000E+00
  9.00000000E+01  7.80000000E+01  0.00000000E+00
  9.00000000E+01  7.60000000E+01  0.00000000E+00
  9.00000000E+01  7.40000000E+01  0.00000000E+00
  9.00000000E+01  7.20000000E+01  0.00000000E+00
  9.00000000E+01  7.00000000E+01  0.00000000E+00
  9.00000000E+01  6.80000000E+01  0.00000000E+00
  9.00000000E+01  6.60000000E+01  0.00000000E+00
  9.00000000E+01  6.40000000E+01  0.00000000E+00
  9.00000000E+01  6.20000000E+01  0.00000000E+00
  9.00000000E+01  6.00000000E+01  0.00000000E+00
  9.00000000E+01  5.80000000E+01  0.00000000E+00
  9.00000000E+01  5.60000000E+01  0.00000000E+00
  9.00000000E+01  5.40000000E+01  0.00000000E+00
  9.00000000E+01  5.20000000E+01  0.00000000E+00
  9.00000000E+01  5.00000000E+01  0.00000000E+00
  9.00000000E+01  4.80000000E+01  0.00000000E+00
  9.00000000E+01  4.60000000E+01  0.00000000E+00
  9.00000000E+01  4.40000000E+01  0.00000000E+00
  9.00000000E+01  4.20000000E+01  0.00000000E+00
  9.00000000E+01  4.00000000E+01  0.00000000E+00
  9.00000000E+01  3.80000000E+01  0.00000000E+00
  9.00000000E+01  3.60000000E+01  0.00000000E+00
  9.00000000E+01  3.40000000E+01  0.00000000E+00
  9.00000000E+01  3.20000000E+01  0.00000000E+00
  9.00000000E+01  3.00000000E+01  0.00000000E+00
  9.00000000E+01  2.80000000E+01  0.00000000E+00
  9.00000000E+01  2.60000000E+01  0.00000000E+00
  9.00000000E+01  2.40000000E+01  0.00000000E+00
  9.00000000E+01  2.20000000E+01  0.00000000E+00
  9.00000000E+01  2.00000000E+01  0.00000000E+00
  9.00000000E+01  1.80000000E+01  0.00000000E+00
  9.00000000E+01  1.60000000E+01  0.00000000E+00
  9.00000000E+01  1.40000000E+01  0.00000000E+00
  9.00000000E+01  1.20000000E+01  0.00000000E+00
  9.00000000E+01  1.00000000E+01  0.00000000E+00
  9.00000000E+01  8.00000000E+00  0.00000000E+00
  9.00000000E+01  6.00000000E+00  0.00000000E+00
  9.00000000E+01  4.00000000E+00  0.00000000E+00
  9.00000000E+01  2.00000000E+00  0.00000000E+00
  9.00000000E+01 -3.33066907E-14  0.00000000E+00
  1.00000000E+02  1.00000000E+02  0.00000000E+00
  1.00000000E+02  9.80000000E+01  0.00000000E+00
  1.00000000E+02  9.60000000E+01  0.00000000E+00
  1.00000000E+02  9.40000000E+01  0.00000000E+00
  1.00000000E+02  9.20000000E+01  0.00000000E+00
  1.00000000E+02  9.00000000E+01  0.00000000E+00
  1.00000000E+02  8.80000000E+01  0.00000000E+00
  1.00000000E+02  8.60000000E+01  0.00000000E+00
  1.00000000E+02  8.40000000E+01  0.00000000E+00
  1.00000000E+02  8.20000000E+01  0.00000000E+00
  1.00000000E+02  8.00000000E+01  0.00000000E+00
  1.00000000E+02  7.80000000E+01  0.00000000E+00
  1.00000000E+02  7.60000000E+01  0.00000000E+00
  1.00000000E+02  7.40000000E+01  0.00000000E+00
  1.00000000E+02  7.20000000E+01  0.00000000E+00
  1.00000000E+02  7.00000000E+01  0.00000000E+00
  1.00000000E+02  6.80000000E+01  0.00000000E+00
  1.00000000E+02  6.60000000E+01  0.00000000E+00
  1.00000000E+02  6.40000000E+01  0.00000000E+00
  1.00000000E+02  6.20000000E+01  0.00000000E+00
  1.00000000E+02  6.00000000E+01  0.00000000E+00
  1.00000000E+02  5.80000000E+01  0.00000000E+00
  1.00000000E+02  5.60000000E+01  0.00000000E+00
  1.00000000E+02  5.40000000E+01  0.00000000E+00
  1.00000000E+02  5.20000000E+01  0.00000000E+00
  1.00000000E+02  5.00000000E+01  0.00000000E+00
  1.00000000E+02  4.80000000E+01  0.00000000E+00
  1.00000000E+02  4.60000000E+01  0.00000000E+00
  1.00000000E+02  4.40000000E+01  0.00000000E+00
  1.00000000E+02  4.20000000E+01  0.00000000E+00
  1.00000000E+02  4.00000000E+01  0.00000000E+00
  1.00000000E+02  3.80000000E+01  0.00000000E+00
  1.00000000E+02  3.60000000E+01  0.00000000E+00
  1.00000000E+02  3.40000000E+01  0.00000000E+00
  1.00000000E+02  3.20000000E+01  0.00000000E+00
  1.00000000E+02  3.00000000E+01  0.00000000E+00
  1.00000000E+02  2.80000000E+01  0.00000000E+00
  1.00000000E+02  2.60000000E+01  0.00000000E+00
  1.00000000E+02  2.40000000E+01  0.00000000E+00
  1.00000000E+02  2.20000000E+01  0.00000000E+00
  1.00000000E+02  2.00000000E+01  0.00000000E+00
  1.00000000E+02  1.80000000E+01  0.00000000E+00
  1.00000000E+02  1.60000000E+01  0.00000000E+00
  1.00000000E+02  1.40000000E+01  0.00000000E+00
  1.00000000E+02  1.20000000E+01  0.00000000E+00
  1.00000000E+02  1.00000000E+01  0.00000000E+00
  1.00000000E+02  8.00000000E+00  0.00000000E+00
  1.00000000E+02  6.00000000E+00  0.00000000E+00
  1.00000000E+02  4.00000000E+00  0.00000000E+00
  1.00000000E+02  2.00000000E+00  0.00000000E+00
  1.00000000E+02 -3.33066907E-14  0.00000000E+00
  1.10000000E+02  1.00000000E+02  0.00000000E+00
  1.10000000E+02  9.80000000E+01  0.00000000E+00
  1.10000000E+02  9.60000000E+01  0.00000000E+00
  1.10000000E+02  9.40000000E+01  0.00000000E+00
  1.10000000E+02  9.20000000E+01  0.00000000E+00
  1.10000000E+02  9.00000000E+01  0.00000000E+00
  1.10000000E+02  8.80000000E+01  0.00000000E+00
  1.10000000E+02  8.60000000E+01  0.00000000E+00
  1.10000000E+02  8.40000000E+01  0.00000000E+00
  1.10000000E+02  8.20000000E+01  0.00000000E+00
  1.10000000E+02  8.00000000E+01  0.00000000E+00
  1.10000000E+02  7.80000000E+01  0.00000000E+00
  1.10000000E+02  7.60000000E+01  0.00000000E+00
  1.10000000E+02  7.40000000E+01  0.00000000E+00
  1.10000000E+02  7.20000000E+01  0.00000000E+00
  1.10000000E+02  7.00000000E+01  0.00000000E+00
  1.10000000E+02  6.80000000E+01  0.00000000E+00
  1.10000000E+02  6.60000000E+01  0.00000000E+00
  1.10000000E+02  6.40000000E+01  0.00000000E+00
  1.10000000E+02  6.20000000E+01  0.00000000E+00
  1.10000000E+02  6.00000000E+01  0.00000000E+00
  1.10000000E+02  5.80000000E+01  0.00000000E+00
  1.10000000E+02  5.60000000E+01  0.00000000E+00
  1.10000000E+02  5.40000000E+01  0.00000000E+00
  1.10000000E+02  5.20000000E+01  0.00000000E+00
  1.10000000E+02  5.00000000E+01  0.00000000E+00
  1.10000000E+02  4.80000000E+01  0.00000000E+00
  1.10000000E+02  4.60000000E+01  0.00000000E+00
  1.10000000E+02  4.40000000E+01  0.00000000E+00
  1.10000000E+02  4.20000000E+01  0.00000000E+00
  1.10000000E+02  4.00000000E+01  0.00000000E+00
  1.10000000E+02  3.80000000E+01  0.00000000E+00
  1.10000000E+02  3.60000000E+01  0.00000000E+00
  1.10000000E+02  3.40000000E+01  0.00000000E+00
  1.10000000E+02  3.20000000E+01  0.00000000E+00
  1.10000000E+02  3.00000000E+01  0.00000000E+00
  1.10000000E+02  2.80000000E+01  0.00000000E+00
  1.10000000E+02  2.60000000E+01  0.00000000E+00
  1.10000000E+02  2.40000000E+01  0.00000000E+00
  1.10000000E+02  2.20000000E+01  0.00000000E+00
  1.10000000E+02  2.00000000E+01  0.00000000E+00
  1.10000000E+02  1.80000000E+01  0.00000000E+00
  1.10000000E+02  1.60000000E+01  0.00000000E+00
  1.10000000E+02  1.40000000E+01  0.00000000E+00
  1.10000000E+02  1.20000000E+01  0.00000000E+00
  1.10000000E+02  1.00000000E+01  0.00000000E+00
  1.10000000E+02  8.00000000E+00  0.00000000E+00
  1.10000000E+02  6.00000000E+00  0.00000000E+00
  1.10000000E+02  4.00000000E+00  0.00000000E+00
  1.10000000E+02  2.00000000E+00  0.00000000E+00
  1.10000000E+02 -3.33066907E-14  0.00000000E+00
  1.20000000E+02  1.00000000E+02  0.00000000E+00
  1.20000000E+02  9.80000000E+01  0.00000000E+00
  1.20000000E+02  9.60000000E+01  0.00000000E+00
  1.20000000E+02  9.40000000E+01  0.00000000E+00
  1.20000000E+02  9.20000000E+01  0.00000000E+00
  1.20000000E+02  9.00000000E+01  0.00000000E+00
  1.20000000E+02  8.80000000E+01  0.00000000E+00
  1.20000000E+02  8.60000000E+01  0.00000000E+00
  1.20000000E+02  8.40000000E+01  0.00000000E+00
  1.20000000E+02  8.20000000E+01  0.00000000E+00
  1.20000000E+02  8.00000000E+01  0.00000000E+00
  1.20000000E+02  7.80000000E+01  0.00000000E+00
  1.20000000E+02  7.60000000E+01  0.00000000E+00
  1.20000000E+02  7.40000000E+01  0.00000000E+00
  1.20000000E+02  7.20000000E+01  0.00000000E+00
  1.20000000E+02  7.00000000E+01  0.00000000E+00
  1.20000000E+02  6.80000000E+01  0.00000000E+00
  1.20000000E+02  6.60000000E+01  0.00000000E+00
  1.20000000E+02  6.40000000E+01  0.00000000E+00
  1.20000000E+02  6.20000000E+01  0.00000000E+00
  1.20000000E+02  6.00000000E+01  0.00000000E+00
  1.20000000E+02  5.80000000E+01  0.00000000E+00
  1.20000000E+02  5.60000000E+01  0.00000000E+00
  1.20000000E+02  5.40000000E+01  0.00000000E+00
  1.20000000E+02  5.20000000E+01  0.00000000E+00
  1.20000000E+02  5.00000000E+01  0.00000000E+00
  1.20000000E+02  4.80000000E+01  0.00000000E+00
  1.20000000E+02  4.60000000E+01  0.00000000E+00
  1.20000000E+02  4.40000000E+01  0.00000000E+00
  1.20000000E+02  4.20000000E+01  0.00000000E+00
  1.20000000E+02  4.00000000E+01  0.00000000E+00
  1.20000000E+02  3.80000000E+01  0.00000000E+00
  1.20000000E+02  3.60000000E+01  0.00000000E+00
  1.20000000E+02  3.40000000E+01  0.00000000E+00
  1.20000000E+02  3.20000000E+01  0.00000000E+00
  1.20000000E+02  3.00000000E+01  0.00000000E+00
  1.20000000E+02  2.80000000E+01  0.00000000E+00
  1.20000000E+02  2.60000000E+01  0.00000000E+00
  1.20000000E+02  2.40000000E+01  0.00000000E+00
  1.20000000E+02  2.20000000E+01  0.00000000E+00
  1.20000000E+02  2.00000000E+01  0.00000000E+00
  1.20000000E+02  1.80000000E+01  0.00000000E+00
  1.20000000E+02  1.60000000E+01  0.00000000E+00
  1.20000000E+02  1.40000000E+01  0.00000000E+00
  1.20000000E+02  1.20000000E+01  0.00000000E+00
  1.20000000E+02  1.00000000E+01  0.00000000E+00
  1.20000000E+02  8.00000000E+00  0.00000000E+00
  1.20000000E+02  6.00000000E+00  0.00000000E+00
  1.20000000E+02  4.00000000E+00  0.00000000E+00
  1.20000000E+02  2.00000000E+00  0.00000000E+00
  1.20000000E+02 -3.33066907E-14  0.00000000E+00
  1.30000000E+02  1.00000000E+02  0.00000000E+00
  1.30000000E+02  9.80000000E+01  0.00000000E+00
  1.30000000E+02  9.60000000E+01  0.00000000E+00
  1.30000000E+02  9.40000000E+01  0.00000000E+00
  1.30000000E+02  9.20000000E+01  0.00000000E+00
  1.30000000E+02  9.00000000E+01  0.00000000E+00
  1.30000000E+02  8.80000000E+01  0.00000000E+00
  1.30000000E+02  8.60000000E+01  0.00000000E+00
  1.30000000E+02  8.40000000E+01  0.00000000E+00
  1.30000000E+02  8.20000000E+01  0.00000000E+00
  1.30000000E+02  8.00000000E+01  0.00000000E+00
  1.30000000E+02  7.80000000E+01  0.00000000E+00
  1.30000000E+02  7.60000000E+01  0.00000000E+00
  1.30000000E+02  7.40000000E+01  0.00000000E+00
  1.30000000E+02  7.20000000E+01  0.00000000E+00
  1.30000000E+02  7.00000000E+01  0.00000000E+00
  1.30000000E+02  6.80000000E+01  0.00000000E+00
  1.30000000E+02  6.60000000E+01  0.00000000E+00
  1.30000000E+02  6.40000000E+01  0.00000000E+00
  1.30000000E+02  6.20000000E+01  0.00000000E+00
  1.30000000E+02  6.00000000E+01  0.00000000E+00
  1.30000000E+02  5.80000000E+01  0.00000000E+00
  1.30000000E+02  5.60000000E+01  0.00000000E+00
  1.30000000E+02  5.40000000E+01  0.00000000E+00
  1.30000000E+02  5.20000000E+01  0.00000000E+00
  1.30000000E+02  5.00000000E+01  0.00000000E+00
  1.30000000E+02  4.80000000E+01  0.00000000E+00
  1.30000000E+02  4.60000000E+01  0.00000000E+00
  1.30000000E+02  4.40000000E+01  0.00000000E+00
  1.30000000E+02  4.20000000E+01  0.00000000E+00
  1.30000000E+02  4.00000000E+01  0.00000000E+00
  1.30000000E+02  3.80000000E+01  0.00000000E+00
  1.30000000E+02  3.60000000E+01  0.00000000E+00
  1.30000000E+02  3.40000000E+01  0.00000000E+00
  1.30000000E+02  3.20000000E+01  0.00000000E+00
  1.30000000E+02  3.00000000E+01  0.00000000E+00
  1.30000000E+02  2.80000000E+01  0.00000000E+00
  1.30000000E+02  2.60000000E+01  0.00000000E+00
  1.30000000E+02  2.40000000E+01  0.00000000E+00
  1.30000000E+02  2.20000000E+01  0.00000000E+00
  1.30000000E+02  2.00000000E+01  0.00000000E+00
  1.30000000E+02  1.80000000E+01  0.00000000E+00
  1.30000000E+02  1.60000000E+01  0.00000000E+00
  1.30000000E+02  1.40000000E+01  0.00000000E+00
  1.30000000E+02  1.20000000E+01  0.00000000E+00
  1.30000000E+02  1.00000000E+01  0.00000000E+00
  1.30000000E+02  8.00000000E+00  0.00000000E+00
  1.30000000E+02  6.00000000E+00  0.00000000E+00
  1.30000000E+02  4.00000000E+00  0.00000000E+00
  1.30000000E+02  2.00000000E+00  0.00000000E+00
  1.30000000E+02 -3.33066907E-14  0.00000000E+00
  1.40000000E+02  1.00000000E+02  0.00000000E+00
  1.40000000E+02  9.80000000E+01  0.00000000E+00
  1.40000000E+02  9.60000000E+01  0.00000000E+00
  1.40000000E+02  9.40000000E+01  0.00000000E+00
  1.40000000E+02  9.20000000E+01  0.00000000E+00
  1.40000000E+02  9.00000000E+01  0.00000000E+00
  1.40000000E+02  8.80000000E+01  0.00000000E+00
  1.40000000E+02  8.60000000E+01  0.00000000E+00
  1.40000000E+02  8.40000000E+01  0.00000000E+00
  1.40000000E+02  8.20000000E+01  0.00000000E+00
  1.40000000E+02  8.00000000E+01  0.00000000E+00
  1.40000000E+02  7.80000000E+01  0.00000000E+00
  1.40000000E+02  7.60000000E+01  0.00000000E+00
  1.40000000E+02  7.40000000E+01  0.00000000E+00
  1.40000000E+02  7.20000000E+01  0.00000000E+00
  1.40000000E+02  7.00000000E+01  0.00000000E+00
  1.40000000E+02  6.80000000E+01  0.00000000E+00
  1.40000000E+02  6.60000000E+01  0.00000000E+00
  1.40000000E+02  6.40000000E+01  0.00000000E+00
  1.40000000E+02  6.20000000E+01  0.00000000E+00
  1.40000000E+02  6.00000000E+01  0.00000000E+00
  1.40000000E+02  5.80000000E+01  0.00000000E+00
  1.40000000E+02  5.60000000E+01  0.00000000E+00
  1.40000000E+02  5.40000000E+01  0.00000000E+00
  1.40000000E+02  5.20000000E+01  0.00000000E+00
  1.40000000E+02  5.00000000E+01  0.00000000E+00
  1.40000000E+02  4.80000000E+01  0.00000000E+00
  1.40000000E+02  4.60000000E+01  0.00000000E+00
  1.40000000E+02  4.40000000E+01  0.00000000E+00
  1.40000000E+02  4.20000000E+01  0.00000000E+00
  1.40000000E+02  4.00000000E+01  0.00000000E+00
  1.40000000E+02  3.80000000E+01  0.00000000E+00
  1.40000000E+02  3.60000000E+01  0.00000000E+00
  1.40000000E+02  3.40000000E+01  0.00000000E+00
  1.40000000E+02  3.20000000E+01  0.00000000E+00
  1.40000000E+02  3.00000000E+01  0.00000000E+00
  1.40000000E+02  2.80000000E+01  0.00000000E+00
  1.40000000E+02  2.60000000E+01  0.00000000E+00
  1.40000000E+02  2.40000000E+01  0.00000000E+00
  1.40000000E+02  2.20000000E+01  0.00000000E+00
  1.40000000E+02  2.00000000E+01  0.00000000E+00
  1.40000000E+02  1.80000000E+01  0.00000000E+00
  1.40000000E+02  1.60000000E+01  0.00000000E+00
  1.40000000E+02  1.40000000E+01  0.00000000E+00
  1.40000000E+02  1.20000000E+01  0.00000000E+00
  1.40000000E+02  1.00000000E+01  0.00000000E+00
  1.40000000E+02  8.00000000E+00  0.00000000E+00
  1.40000000E+02  6.00000000E+00  0.00000000E+00
  1.40000000E+02  4.00000000E+00  0.00000000E+00
  1.40000000E+02  2.00000000E+00  0.00000000E+00
  1.40000000E+02 -3.33066907E-14  0.00000000E+00
  1.50000000E+02  1.00000000E+02  0.00000000E+00
  1.50000000E+02  9.80000000E+01  0.00000000E+00
  1.50000000E+02  9.60000000E+01  0.00000000E+00
  1.50000000E+02  9.40000000E+01  0.00000000E+00
  1.50000000E+02  9.20000000E+01  0.00000000E+00
  1.50000000E+02  9.00000000E+01  0.00000000E+00
  1.50000000E+02  8.80000000E+01  0.00000000E+00
  1.50000000E+02  8.60000000E+01  0.00000000E+00
  1.50000000E+02  8.40000000E+01  0.00000000E+00
  1.50000000E+02  8.20000000E+01  0.00000000E+00
  1.50000000E+02  8.00000000E+01  0.00000000E+00
  1.50000000E+02  7.80000000E+01  0.00000000E+00
  1.50000000E+02  7.60000000E+01  0.00000000E+00
  1.50000000E+02  7.40000000E+01  0.00000000E+00
  1.50000000E+02  7.20000000E+01  0.00000000E+00
  1.50000000E+02  7.00000000E+01  0.00000000E+00
  1.50000000E+02  6.80000000E+01  0.00000000E+00
  1.50000000E+02  6.60000000E+01  0.00000000E+00
  1.50000000E+02  6.40000000E+01  0.00000000E+00
  1.50000000E+02  6.20000000E+01  0.00000000E+00
  1.50000000E+02  6.00000000E+01  0.00000000E+00
  1.50000000E+02  5.80000000E+01  0.00000000E+00
  1.50000000E+02  5.60000000E+01  0.00000000E+00
  1.50000000E+02  5.40000000E+01  0.00000000E+00
  1.50000000E+02  5.20000000E+01  0.00000000E+00
  1.50000000E+02  5.00000000E+01  0.00000000E+00
  1.50000000E+02  4.80000000E+01  0.00000000E+00
  1.50000000E+02  4.60000000E+01  0.00000000E+00
  1.50000000E+02  4.40000000E+01  0.00000000E+00
  1.50000000E+02  4.20000000E+01  0.00000000E+00
  1.50000000E+02  4.00000000E+01  0.00000000E+00
  1.50000000E+02  3.80000000E+01  0.00000000E+00
  1.50000000E+02  3.60000000E+01  0.00000000E+00
  1.50000000E+02  3.40000000E+01  0.00000000E+00
  1.50000000E+02  3.20000000E+01  0.00000000E+00
  1.50000000E+02  3.00000000E+01  0.00000000E+00
  1.50000000E+02  2.80000000E+01  0.00000000E+00
  1.50000000E+02  2.60000000E+01  0.00000000E+00
  1.50000000E+02  2.40000000E+01  0.00000000E+00
  1.50000000E+02  2.20000000E+01  0.00000000E+00
  1.50000000E+02  2.00000000E+01  0.00000000E+00
  1.50000000E+02  1.80000000E+01  0.00000000E+00
  1.50000000E+02  1.60000000E+01  0.00000000E+00
  1.50000000E+02  1.40000000E+01  0.00000000E+00
  1.50000000E+02  1.20000000E+01  0.00000000E+00
  1.50000000E+02  1.00000000E+01  0.00000000E+00
  1.50000000E+02  8.00000000E+00  0.00000000E+00
  1.50000000E+02  6.00000000E+00  0.00000000E+00
  1.50000000E+02  4.00000000E+00  0.00000000E+00
  1.50000000E+02  2.00000000E+00  0.00000000E+00
  1.50000000E+02 -3.33066907E-14  0.00000000E+00
  1.60000000E+02  1.00000000E+02  0.00000000E+00
  1.60000000E+02  9.80000000E+01  0.00000000E+00
  1.60000000E+02  9.60000000E+01  0.00000000E+00
  1.60000000E+02  9.40000000E+01  0.00000000E+00
  1.60000000E+02  9.20000000E+01  0.00000000E+00
  1.60000000E+02  9.00000000E+01  0.00000000E+00
  1.60000000E+02  8.80000000E+01  0.00000000E+00
  1.60000000E+02  8.60000000E+01  0.00000000E+00
  1.60000000E+02  8.40000000E+01  0.00000000E+00
  1.60000000E+02  8.20000000E+01  0.00000000E+00
  1.60000000E+02  8.00000000E+01  0.00000000E+00
  1.60000000E+02  7.80000000E+01  0.00000000E+00
  1.60000000E+02  7.60000000E+01  0.00000000E+00
  1.60000000E+02  7.40000000E+01  0.00000000E+00
  1.60000000E+02  7.20000000E+01  0.00000000E+00
  1.60000000E+02  7.00000000E+01  0.00000000E+00
  1.60000000E+02  6.80000000E+01  0.00000000E+00
  1.60000000E+02  6.60000000E+01  0.00000000E+00
  1.60000000E+02  6.40000000E+01  0.00000000E+00
  1.60000000E+02  6.20000000E+01  0.00000000E+00
  1.60000000E+02  6.00000000E+01  0.00000000E+00
  1.60000000E+02  5.80000000E+01  0.00000000E+00
  1.60000000E+02  5.60000000E+01  0.00000000E+00
  1.60000000E+02  5.40000000E+01  0.00000000E+00
  1.60000000E+02  5.20000000E+01  0.00000000E+00
  1.60000000E+02  5.00000000E+01  0.00000000E+00
  1.60000000E+02  4.80000000E+01  0.00000000E+00
  1.60000000E+02  4.60000000E+01  0.00000000E+00
  1.60000000E+02  4.40000000E+01  0.00000000E+00
  1.60000000E+02  4.20000000E+01  0.00000000E+00
  1.60000000E+02  4.00000000E+01  0.00000000E+00
  1.60000000E+02  3.80000000E+01  0.00000000E+00
  1.60000000E+02  3.60000000E+01  0.00000000E+00
  1.60000000E+02  3.40000000E+01  0.00000000E+00
  1.60000000E+02  3.20000000E+01  0.00000000E+00
  1.60000000E+02  3.00000000E+01  0.00000000E+00
  1.60000000E+02  2.80000000E+01  0.00000000E+00
  1.60000000E+02  2.60000000E+01  0.00000000E+00
  1.60000000E+02  2.40000000E+01  0.00000000E+00
  1.60000000E+02  2.20000000E+01  0.00000000E+00
  1.60000000E+02  2.00000000E+01  0.00000000E+00
  1.60000000E+02  1.80000000E+01  0.00000000E+00
  1.60000000E+02  1.60000000E+01  0.00000000E+00
  1.60000000E+02  1.40000000E+01  0.00000000E+00
  1.60000000E+02  1.20000000E+01  0.00000000E+00
  1.60000000E+02  1.00000000E+01  0.00000000E+00
  1.60000000E+02  8.00000000E+00  0.00000000E+00
  1.60000000E+02  6.00000000E+00  0.00000000E+00
  1.60000000E+02  4.00000000E+00  0.00000000E+00
  1.60000000E+02  2.00000000E+00  0.00000000E+00
  1.60000000E+02 -3.33066907E-14  0.00000000E+00
  1.70000000E+02  1.00000000E+02  0.00000000E+00
  1.70000000E+02  9.80000000E+01  0.00000000E+00
  1.70000000E+02  9.60000000E+01  0.00000000E+00
  1.70000000E+02  9.40000000E+01  0.00000000E+00
  1.70000000E+02  9.20000000E+01  0.00000000E+00
  1.70000000E+02  9.00000000E+01  0.00000000E+00
  1.70000000E+02  8.80000000E+01  0.00000000E+00
  1.70000000E+02  8.60000000E+01  0.00000000E+00
  1.70000000E+02  8.40000000E+01  0.00000000E+00
  1.70000000E+02  8.20000000E+01  0.00000000E+00
  1.70000000E+02  8.00000000E+01  0.00000000E+00
  1.70000000E+02  7.80000000E+01  0.00000000E+00
  1.70000000E+02  7.60000000E+01  0.00000000E+00
  1.70000000E+02  7.40000000E+01  0.00000000E+00
  1.70000000E+02  7.20000000E+01  0.00000000E+00
  1.70000000E+02  7.00000000E+01  0.00000000E+00
  1.70000000E+02  6.80000000E+01  0.00000000E+00
  1.70000000E+02  6.60000000E+01  0.00000000E+00
  1.70000000E+02  6.40000000E+01  0.00000000E+00
  1.70000000E+02  6.20000000E+01  0.00000000E+00
  1.70000000E+02  6.00000000E+01  0.00000000E+00
  1.70000000E+02  5.80000000E+01  0.00000000E+00
  1.70000000E+02  5.60000000E+01  0.00000000E+00
  1.70000000E+02  5.40000000E+01  0.00000000E+00
  1.70000000E+02  5.20000000E+01  0.00000000E+00
  1.70000000E+02  5.00000000E+01  0.00000000E+00
  1.70000000E+02  4.80000000E+01  0.00000000E+00
  1.70000000E+02  4.60000000E+01  0.00000000E+00
  1.70000000E+02  4.40000000E+01  0.00000000E+00
  1.70000000E+02  4.20000000E+01  0.00000000E+00
  1.70000000E+02  4.00000000E+01  0.00000000E+00
  1.70000000E+02  3.80000000E+01  0.00000000E+00
  1.70000000E+02  3.60000000E+01  0.00000000E+00
  1.70000000E+02  3.40000000E+01  0.00000000E+00
  1.70000000E+02  3.20000000E+01  0.00000000E+00
  1.70000000E+02  3.00000000E+01  0.00000000E+00
  1.70000000E+02  2.80000000E+01  0.00000000E+00
  1.70000000E+02  2.60000000E+01  0.00000000E+00
  1.70000000E+02  2.40000000E+01  0.00000000E+00
  1.70000000E+02  2.20000000E+01  0.00000000E+00
  1.70000000E+02  2.00000000E+01  0.00000000E+00
  1.70000000E+02  1.80000000E+01  0.00000000E+00
  1.70000000E+02  1.60000000E+01  0.00000000E+00
  1.70000000E+02  1.40000000E+01  0.00000000E+00
  1.70000000E+02  1.20000000E+01  0.00000000E+00
  1.70000000E+02  1.00000000E+01  0.00000000E+00
  1.70000000E+02  8.00000000E+00  0.00000000E+00
  1.70000000E+02  6.00000000E+00  0.00000000E+00
  1.70000000E+02  4.00000000E+00  0.00000000E+00
  1.70000000E+02  2.00000000E+00  0.00000000E+00
  1.70000000E+02 -3.33066907E-14  0.00000000E+00
  1.80000000E+02  1.00000000E+02  0.00000000E+00
  1.80000000E+02  9.80000000E+01  0.00000000E+00
  1.80000000E+02  9.60000000E+01  0.00000000E+00
  1.80000000E+02  9.40000000E+01  0.00000000E+00
  1.80000000E+02  9.20000000E+01  0.00000000E+00
  1.80000000E+02  9.00000000E+01  0.00000000E+00
  1.80000000E+02  8.80000000E+01  0.00000000E+00
  1.80000000E+02  8.60000000E+01  0.00000000E+00
  1.80000000E+02  8.40000000E+01  0.00000000E+00
  1.80000000E+02  8.20000000E+01  0.00000000E+00
  1.80000000E+02  8.00000000E+01  0.00000000E+00
  1.80000000E+02  7.80000000E+01  0.00000000E+00
  1.80000000E+02  7.60000000E+01  0.00000000E+00
  1.80000000E+02  7.40000000E+01  0.00000000E+00
  1.80000000E+02  7.20000000E+01  0.00000000E+00
  1.80000000E+02  7.00000000E+01  0.00000000E+00
  1.80000000E+02  6.80000000E+01  0.00000000E+00
  1.80000000E+02  6.60000000E+01  0.00000000E+00
  1.80000000E+02  6.40000000E+01  0.00000000E+00
  1.80000000E+02  6.20000000E+01  0.00000000E+00
  1.80000000E+02  6.00000000E+01  0.00000000E+00
  1.80000000E+02  5.80000000E+01  0.00000000E+00
  1.80000000E+02  5.60000000E+01  0.00000000E+00
  1.80000000E+02  5.40000000E+01  0.00000000E+00
  1.80000000E+02  5.20000000E+01  0.00000000E+00
  1.80000000E+02  5.00000000E+01  0.00000000E+00
  1.80000000E+02  4.80000000E+01  0.00000000E+00
  1.80000000E+02  4.60000000E+01  0.00000000E+00
  1.80000000E+02  4.40000000E+01  0.00000000E+00
  1.80000000E+02  4.20000000E+01  0.00000000E+00
  1.80000000E+02  4.00000000E+01  0.00000000E+00
  1.80000000E+02  3.80000000E+01  0.00000000E+00
  1.80000000E+02  3.60000000E+01  0.00000000E+00
  1.80000000E+02  3.40000000E+01  0.00000000E+00
  1.80000000E+02  3.20000000E+01  0.00000000E+00
  1.80000000E+02  3.00000000E+01  0.00000000E+00
  1.80000000E+02  2.80000000E+01  0.00000000E+00
  1.80000000E+02  2.60000000E+01  0.00000000E+00
  1.80000000E+02  2.40000000E+01  0.00000000E+00
  1.80000000E+02  2.20000000E+01  0.00000000E+00
  1.80000000E+02  2.00000000E+01  0.00000000E+00
  1.80000000E+02  1.80000000E+01  0.00000000E+00
  1.80000000E+02  1.60000000E+01  0.00000000E+00
  1.80000000E+02  1.40000000E+01  0.00000000E+00
  1.80000000E+02  1.20000000E+01  0.00000000E+00
  1.80000000E+02  1.00000000E+01  0.00000000E+00
  1.80000000E+02  8.00000000E+00  0.00000000E+00
  1.80000000E+02  6.00000000E+00  0.00000000E+00
  1.80000000E+02  4.00000000E+00  0.00000000E+00
  1.80000000E+02  2.00000000E+00  0.00000000E+00
  1.80000000E+02 -3.33066907E-14  0.00000000E+00
  1.90000000E+02  1.00000000E+02  0.00000000E+00
  1.90000000E+02  9.80000000E+01  0.00000000E+00
  1.90000000E+02  9.60000000E+01  0.00000000E+00
  1.90000000E+02  9.40000000E+01  0.00000000E+00
  1.90000000E+02  9.20000000E+01  0.00000000E+00
  1.90000000E+02  9.00000000E+01  0.00000000E+00
  1.90000000E+02  8.80000000E+01  0.00000000E+00
  1.90000000E+02  8.60000000E+01  0.00000000E+00
  1.90000000E+02  8.40000000E+01  0.00000000E+00
  1.90000000E+02  8.20000000E+01  0.00000000E+00
  1.90000000E+02  8.00000000E+01  0.00000000E+00
  1.90000000E+02  7.80000000E+01  0.00000000E+00
  1.90000000E+02  7.60000000E+01  0.00000000E+00
  1.90000000E+02  7.40000000E+01  0.00000000E+00
  1.90000000E+02  7.20000000E+01  0.00000000E+00
  1.90000000E+02  7.00000000E+01  0.00000000E+00
  1.90000000E+02  6.80000000E+01  0.00000000E+00
  1.90000000E+02  6.60000000E+01  0.00000000E+00
  1.90000000E+02  6.40000000E+01  0.00000000E+00
  1.90000000E+02  6.20000000E+01  0.00000000E+00
  1.90000000E+02  6.00000000E+01  0.00000000E+00
  1.90000000E+02  5.80000000E+01  0.00000000E+00
  1.90000000E+02  5.60000000E+01  0.00000000E+00
  1.90000000E+02  5.40000000E+01  0.00000000E+00
  1.90000000E+02  5.20000000E+01  0.00000000E+00
  1.90000000E+02  5.00000000E+01  0.00000000E+00
  1.90000000E+02  4.80000000E+01  0.00000000E+00
  1.90000000E+02  4.60000000E+01  0.00000000E+00
  1.90000000E+02  4.40000000E+01  0.00000000E+00
  1.90000000E+02  4.20000000E+01  0.00000000E+00
  1.90000000E+02  4.00000000E+01  0.00000000E+00
  1.90000000E+02  3.80000000E+01  0.00000000E+00
  1.90000000E+02  3.60000000E+01  0.00000000E+00
  1.90000000E+02  3.40000000E+01  0.00000000E+00
  1.90000000E+02  3.20000000E+01  0.00000000E+00
  1.90000000E+02  3.00000000E+01  0.00000000E+00
  1.90000000E+02  2.80000000E+01  0.00000000E+00
  1.90000000E+02  2.60000000E+01  0.00000000E+00
  1.90000000E+02  2.40000000E+01  0.00000000E+00
  1.90000000E+02  2.20000000E+01  0.00000000E+00
  1.90000000E+02  2.00000000E+01  0.00000000E+00
  1.90000000E+02  1.80000000E+01  0.00000000E+00
  1.90000000E+02  1.60000000E+01  0.00000000E+00
  1.90000000E+02  1.40000000E+01  0.00000000E+00
  1.90000000E+02  1.20000000E+01  0.00000000E+00
  1.90000000E+02  1.00000000E+01  0.00000000E+00
  1.90000000E+02  8.00000000E+00  0.00000000E+00
  1.90000000E+02  6.00000000E+00  0.00000000E+00
  1.90000000E+02  4.00000000E+00  0.00000000E+00
  1.90000000E+02  2.00000000E+00  0.00000000E+00
  1.90000000E+02 -3.33066907E-14  0.00000000E+00
  2.00000000E+02  1.00000000E+02  0.00000000E+00
  2.00000000E+02  9.80000000E+01  0.00000000E+00
  2.00000000E+02  9.60000000E+01  0.00000000E+00
  2.00000000E+02  9.40000000E+01  0.00000000E+00
  2.00000000E+02  9.20000000E+01  0.00000000E+00
  2.00000000E+02  9.00000000E+01  0.00000000E+00
  2.00000000E+02  8.80000000E+01  0.00000000E+00
  2.00000000E+02  8.60000000E+01  0.00000000E+00
  2.00000000E+02  8.40000000E+01  0.00000000E+00
  2.00000000E+02  8.20000000E+01  0.00000000E+00
  2.00000000E+02  8.00000000E+01  0.00000000E+00
  2.00000000E+02  7.80000000E+01  0.00000000E+00
  2.00000000E+02  7.60000000E+01  0.00000000E+00
  2.00000000E+02  7.40000000E+01  0.00000000E+00
  2.00000000E+02  7.20000000E+01  0.00000000E+00
  2.00000000E+02  7.00000000E+01  0.00000000E+00
  2.00000000E+02  6.80000000E+01  0.00000000E+00
  2.00000000E+02  6.60000000E+01  0.00000000E+00
  2.00000000E+02  6.40000000E+01  0.00000000E+00
  2.00000000E+02  6.20000000E+01  0.00000000E+00
  2.00000000E+02  6.00000000E+01  0.00000000E+00
  2.00000000E+02  5.80000000E+01  0.00000000E+00
  2.00000000E+02  5.60000000E+01  0.00000000E+00
  2.00000000E+02  5.40000000E+01  0.00000000E+00
  2.00000000E+02  5.20000000E+01  0.00000000E+00
  2.00000000E+02  5.00000000E+01  0.00000000E+00
  2.00000000E+02  4.80000000E+01  0.00000000E+00
  2.00000000E+02  4.60000000E+01  0.00000000E+00
  2.00000000E+02  4.40000000E+01  0.00000000E+00
  2.00000000E+02  4.20000000E+01  0.00000000E+00
  2.00000000E+02  4.00000000E+01  0.00000000E+00
  2.00000000E+02  3.80000000E+01  0.00000000E+00
  2.00000000E+02  3.60000000E+01  0.00000000E+00
  2.00000000E+02  3.40000000E+01  0.00000000E+00
  2.00000000E+02  3.20000000E+01  0.00000000E+00
  2.00000000E+02  3.00000000E+01  0.00000000E+00
  2.00000000E+02  2.80000000E+01  0.00000000E+00
  2.00000000E+02  2.60000000E+01  0.00000000E+00
  2.00000000E+02  2.40000000E+01  0.00000000E+00
  2.00000000E+02  2.20000000E+01  0.00000000E+00
  2.00000000E+02  2.00000000E+01  0.00000000E+00
  2.00000000E+02  1.80000000E+01  0.00000000E+00
  2.00000000E+02  1.60000000E+01  0.00000000E+00
  2.00000000E+02  1.40000000E+01  0.00000000E+00
  2.00000000E+02  1.20000000E+01  0.00000000E+00
  2.00000000E+02  1.00000000E+01  0.00000000E+00
  2.00000000E+02  8.00000000E+00  0.00000000E+00
  2.00000000E+02  6.00000000E+00  0.00000000E+00
  2.00000000E+02  4.00000000E+00  0.00000000E+00
  2.00000000E+02  2.00000000E+00  0.00000000E+00
  2.00000000E+02 -3.33066907E-14  0.00000000E+00
  2.10000000E+02  1.00000000E+02  0.00000000E+00
  2.10000000E+02  9.80000000E+01  0.00000000E+00
  2.10000000E+02  9.60000000E+01  0.00000000E+00
  2.10000000E+02  9.40000000E+01  0.00000000E+00
  2.10000000E+02  9.20000000E+01  0.00000000E+00
  2.10000000E+02  9.00000000E+01  0.00000000E+00
  2.10000000E+02  8.80000000E+01  0.00000000E+00
  2.10000000E+02  8.60000000E+01  0.00000000E+00
  2.10000000E+02  8.40000000E+01  0.00000000E+00
  2.10000000E+02  8.20000000E+01  0.00000000E+00
  2.10000000E+02  8.00000000E+01  0.00000000E+00
  2.10000000E+02  7.80000000E+01  0.00000000E+00
  2.10000000E+02  7.60000000E+01  0.00000000E+00
  2.10000000E+02  7.40000000E+01  0.00000000E+00
  2.10000000E+02  7.20000000E+01  0.00000000E+00
  2.10000000E+02  7.00000000E+01  0.00000000E+00
  2.10000000E+02  6.80000000E+01  0.00000000E+00
  2.10000000E+02  6.60000000E+01  0.00000000E+00
  2.10000000E+02  6.40000000E+01  0.00000000E+00
  2.10000000E+02  6.20000000E+01  0.00000000E+00
  2.10000000E+02  6.00000000E+01  0.00000000E+00
  2.10000000E+02  5.80000000E+01  0.00000000E+00
  2.10000000E+02  5.60000000E+01  0.00000000E+00
  2.10000000E+02  5.40000000E+01  0.00000000E+00
  2.10000000E+02  5.20000000E+01  0.00000000E+00
  2.10000000E+02  5.00000000E+01  0.00000000E+00
  2.10000000E+02  4.80000000E+01  0.00000000E+00
  2.10000000E+02  4.60000000E+01  0.00000000E+00
  2.10000000E+02  4.40000000E+01  0.00000000E+00
  2.10000000E+02  4.20000000E+01  0.00000000E+00
  2.10000000E+02  4.00000000E+01  0.00000000E+00
  2.10000000E+02  3.80000000E+01  0.00000000E+00
  2.10000000E+02  3.60000000E+01  0.00000000E+00
  2.10000000E+02  3.40000000E+01  0.00000000E+00
  2.10000000E+02  3.20000000E+01  0.00000000E+00
  2.10000000E+02  3.00000000E+01  0.00000000E+00
  2.10000000E+02  2.80000000E+01  0.00000000E+00
  2.10000000E+02  2.60000000E+01  0.00000000E+00
  2.10000000E+02  2.40000000E+01  0.00000000E+00
  2.10000000E+02  2.20000000E+01  0.00000000E+00
  2.10000000E+02  2.00000000E+01  0.00000000E+00
  2.10000000E+02  1.80000000E+01  0.00000000E+00
  2.10000000E+02  1.60000000E+01  0.00000000E+00
  2.10000000E+02  1.40000000E+01  0.00000000E+00
  2.10000000E+02  1.20000000E+01  0.00000000E+00
  2.10000000E+02  1.00000000E+01  0.00000000E+00
  2.10000000E+02  8.00000000E+00  0.00000000E+00
  2.10000000E+02  6.00000000E+00  0.00000000E+00
  2.10000000E+02  4.00000000E+00  0.00000000E+00
  2.10000000E+02  2.00000000E+00  0.00000000E+00
  2.10000000E+02 -3.33066907E-14  0.00000000E+00
  2.20000000E+02  1.00000000E+02  0.00000000E+00
  2.20000000E+02  9.80000000E+01  0.00000000E+00
  2.20000000E+02  9.60000000E+01  0.00000000E+00
  2.20000000E+02  9.40000000E+01  0.00000000E+00
  2.20000000E+02  9.20000000E+01  0.00000000E+00
  2.20000000E+02  9.00000000E+01  0.00000000E+00
  2.20000000E+02  8.80000000E+01  0.00000000E+00
  2.20000000E+02  8.60000000E+01  0.00000000E+00
  2.20000000E+02  8.40000000E+01  0.00000000E+00
  2.20000000E+02  8.20000000E+01  0.00000000E+00
  2.20000000E+02  8.00000000E+01  0.00000000E+00
  2.20000000E+02  7.80000000E+01  0.00000000E+00
  2.20000000E+02  7.60000000E+01  0.00000000E+00
  2.20000000E+02  7.40000000E+01  0.00000000E+00
  2.20000000E+02  7.20000000E+01  0.00000000E+00
  2.20000000E+02  7.00000000E+01  0.00000000E+00
  2.20000000E+02  6.80000000E+01  0.00000000E+00
  2.20000000E+02  6.60000000E+01  0.00000000E+00
  2.20000000E+02  6.40000000E+01  0.00000000E+00
  2.20000000E+02  6.20000000E+01  0.00000000E+00
  2.20000000E+02  6.00000000E+01  0.00000000E+00
  2.20000000E+02  5.80000000E+01  0.00000000E+00
  2.20000000E+02  5.60000000E+01  0.00000000E+00
  2.20000000E+02  5.40000000E+01  0.00000000E+00
  2.20000000E+02  5.20000000E+01  0.00000000E+00
  2.20000000E+02  5.00000000E+01  0.00000000E+00
  2.20000000E+02  4.80000000E+01  0.00000000E+00
  2.20000000E+02  4.60000000E+01  0.00000000E+00
  2.20000000E+02  4.40000000E+01  0.00000000E+00
  2.20000000E+02  4.20000000E+01  0.00000000E+00
  2.20000000E+02  4.00000000E+01  0.00000000E+00
  2.20000000E+02  3.80000000E+01  0.00000000E+00
  2.20000000E+02  3.60000000E+01  0.00000000E+00
  2.20000000E+02  3.40000000E+01  0.00000000E+00
  2.20000000E+02  3.20000000E+01  0.00000000E+00
  2.20000000E+02  3.00000000E+01  0.00000000E+00
  2.20000000E+02  2.80000000E+01  0.00000000E+00
  2.20000000E+02  2.60000000E+01  0.00000000E+00
  2.20000000E+02  2.40000000E+01  0.00000000E+00
  2.20000000E+02  2.20000000E+01  0.00000000E+00
  2.20000000E+02  2.00000000E+01  0.00000000E+00
  2.20000000E+02  1.80000000E+01  0.00000000E+00
  2.20000000E+02  1.60000000E+01  0.00000000E+00
  2.20000000E+02  1.40000000E+01  0.00000000E+00
  2.20000000E+02  1.20000000E+01  0.00000000E+00
  2.20000000E+02  1.00000000E+01  0.00000000E+00
  2.20000000E+02  8.00000000E+00  0.00000000E+00
  2.20000000E+02  6.00000000E+00  0.00000000E+00
  2.20000000E+02  4.00000000E+00  0.00000000E+00
  2.20000000E+02  2.00000000E+00  0.00000000E+00
  2.20000000E+02 -3.33066907E-14  0.00000000E+00
  2.30000000E+02  1.00000000E+02  0.00000000E+00
  2.30000000E+02  9.80000000E+01  0.00000000E+00
  2.30000000E+02  9.60000000E+01  0.00000000E+00
  2.30000000E+02  9.40000000E+01  0.00000000E+00
  2.30000000E+02  9.20000000E+01  0.00000000E+00
  2.30000000E+02  9.00000000E+01  0.00000000E+00
  2.30000000E+02  8.80000000E+01  0.00000000E+00
  2.30000000E+02  8.60000000E+01  0.00000000E+00
  2.30000000E+02  8.40000000E+01  0.00000000E+00
  2.30000000E+02  8.20000000E+01  0.00000000E+00
  2.30000000E+02  8.00000000E+01  0.00000000E+00
  2.30000000E+02  7.80000000E+01  0.00000000E+00
  2.30000000E+02  7.60000000E+01  0.00000000E+00
  2.30000000E+02  7.40000000E+01  0.00000000E+00
  2.30000000E+02  7.20000000E+01  0.00000000E+00
  2.30000000E+02  7.00000000E+01  0.00000000E+00
  2.30000000E+02  6.80000000E+01  0.00000000E+00
  2.30000000E+02  6.60000000E+01  0.00000000E+00
  2.30000000E+02  6.40000000E+01  0.00000000E+00
  2.30000000E+02  6.20000000E+01  0.00000000E+00
  2.30000000E+02  6.00000000E+01  0.00000000E+00
  2.30000000E+02  5.80000000E+01  0.00000000E+00
  2.30000000E+02  5.60000000E+01  0.00000000E+00
  2.30000000E+02  5.40000000E+01  0.00000000E+00
  2.30000000E+02  5.20000000E+01  0.00000000E+00
  2.30000000E+02  5.00000000E+01  0.00000000E+00
  2.30000000E+02  4.80000000E+01  0.00000000E+00
  2.30000000E+02  4.60000000E+01  0.00000000E+00
  2.30000000E+02  4.40000000E+01  0.00000000E+00
  2.30000000E+02  4.20000000E+01  0.00000000E+00
  2.30000000E+02  4.00000000E+01  0.00000000E+00
  2.30000000E+02  3.80000000E+01  0.00000000E+00
  2.30000000E+02  3.60000000E+01  0.00000000E+00
  2.30000000E+02  3.40000000E+01  0.00000000E+00
  2.30000000E+02  3.20000000E+01  0.00000000E+00
  2.30000000E+02  3.00000000E+01  0.00000000E+00
  2.30000000E+02  2.80000000E+01  0.00000000E+00
  2.30000000E+02  2.60000000E+01  0.00000000E+00
  2.30000000E+02  2.40000000E+01  0.00000000E+00
  2.30000000E+02  2.20000000E+01  0.00000000E+00
  2.30000000E+02  2.00000000E+01  0.00000000E+00
  2.30000000E+02  1.80000000E+01  0.00000000E+00
  2.30000000E+02  1.60000000E+01  0.00000000E+00
  2.30000000E+02  1.40000000E+01  0.00000000E+00
  2.30000000E+02  1.20000000E+01  0.00000000E+00
  2.30000000E+02  1.00000000E+01  0.00000000E+00
  2.30000000E+02  8.00000000E+00  0.00000000E+00
  2.30000000E+02  6.00000000E+00  0.00000000E+00
  2.30000000E+02  4.00000000E+00  0.00000000E+00
  2.30000000E+02  2.00000000E+00  0.00000000E+00
  2.30000000E+02 -3.33066907E-14  0.00000000E+00
  2.40000000E+02  1.00000000E+02  0.00000000E+00
  2.40000000E+02  9.80000000E+01  0.00000000E+00
  2.40000000E+02  9.60000000E+01  0.00000000E+00
  2.40000000E+02  9.40000000E+01  0.00000000E+00
  2.40000000E+02  9.20000000E+01  0.00000000E+00
  2.40000000E+02  9.00000000E+01  0.00000000E+00
  2.40000000E+02  8.80000000E+01  0.00000000E+00
  2.40000000E+02  8.60000000E+01  0.00000000E+00
  2.40000000E+02  8.40000000E+01  0.00000000E+00
  2.40000000E+02  8.20000000E+01  0.00000000E+00
  2.40000000E+02  8.00000000E+01  0.00000000E+00
  2.40000000E+02  7.80000000E+01  0.00000000E+00
  2.40000000E+02  7.60000000E+01  0.00000000E+00
  2.40000000E+02  7.40000000E+01  0.00000000E+00
  2.40000000E+02  7.20000000E+01  0.00000000E+00
  2.40000000E+02  7.00000000E+01  0.00000000E+00
  2.40000000E+02  6.80000000E+01  0.00000000E+00
  2.40000000E+02  6.60000000E+01  0.00000000E+00
  2.40000000E+02  6.40000000E+01  0.00000000E+00
  2.40000000E+02  6.20000000E+01  0.00000000E+00
  2.40000000E+02  6.00000000E+01  0.00000000E+00
  2.40000000E+02  5.80000000E+01  0.00000000E+00
  2.40000000E+02  5.60000000E+01  0.00000000E+00
  2.40000000E+02  5.40000000E+01  0.00000000E+00
  2.40000000E+02  5.20000000E+01  0.00000000E+00
  2.40000000E+02  5.00000000E+01  0.00000000E+00
  2.40000000E+02  4.80000000E+01  0.00000000E+00
  2.40000000E+02  4.60000000E+01  0.00000000E+00
  2.40000000E+02  4.40000000E+01  0.00000000E+00
  2.40000000E+02  4.20000000E+01  0.00000000E+00
  2.40000000E+02  4.00000000E+01  0.00000000E+00
  2.40000000E+02  3.80000000E+01  0.00000000E+00
  2.40000000E+02  3.60000000E+01  0.00000000E+00
  2.40000000E+02  3.40000000E+01  0.00000000E+00
  2.40000000E+02  3.20000000E+01  0.00000000E+00
  2.40000000E+02  3.00000000E+01  0.00000000E+00
  2.40000000E+02  2.80000000E+01  0.00000000E+00
  2.40000000E+02  2.60000000E+01  0.00000000E+00
  2.40000000E+02  2.40000000E+01  0.00000000E+00
  2.40000000E+02  2.20000000E+01  0.00000000E+00
  2.40000000E+02  2.00000000E+01  0.00000000E+00
  2.40000000E+02  1.80000000E+01  0.00000000E+00
  2.40000000E+02  1.60000000E+01  0.00000000E+00
  2.40000000E+02  1.40000000E+01  0.00000000E+00
  2.40000000E+02  1.20000000E+01  0.00000000E+00
  2.40000000E+02  1.00000000E+01  0.00000000E+00
  2.40000000E+02  8.00000000E+00  0.00000000E+00
  2.40000000E+02  6.00000000E+00  0.00000000E+00
  2.40000000E+02  4.00000000E+00  0.00000000E+00
  2.40000000E+02  2.00000000E+00  0.00000000E+00
  2.40000000E+02 -3.33066907E-14  0.00000000E+00
  2.50000000E+02  1.00000000E+02  0.00000000E+00
  2.50000000E+02  9.80000000E+01  0.00000000E+00
  2.50000000E+02  9.60000000E+01  0.00000000E+00
  2.50000000E+02  9.40000000E+01  0.00000000E+00
  2.50000000E+02  9.20000000E+01  0.00000000E+00
  2.50000000E+02  9.00000000E+01  0.00000000E+00
  2.50000000E+02  8.80000000E+01  0.00000000E+00
  2.50000000E+02  8.60000000E+01  0.00000000E+00
  2.50000000E+02  8.40000000E+01  0.00000000E+00
  2.50000000E+02  8.20000000E+01  0.00000000E+00
  2.50000000E+02  8.00000000E+01  0.00000000E+00
  2.50000000E+02  7.80000000E+01  0.00000000E+00
  2.50000000E+02  7.60000000E+01  0.00000000E+00
  2.50000000E+02  7.40000000E+01  0.00000000E+00
  2.50000000E+02  7.20000000E+01  0.00000000E+00
  2.50000000E+02  7.00000000E+01  0.00000000E+00
  2.50000000E+02  6.80000000E+01  0.00000000E+00
  2.50000000E+02  6.60000000E+01  0.00000000E+00
  2.50000000E+02  6.40000000E+01  0.00000000E+00
  2.50000000E+02  6.20000000E+01  0.00000000E+00
  2.50000000E+02  6.00000000E+01  0.00000000E+00
  2.50000000E+02  5.80000000E+01  0.00000000E+00
  2.50000000E+02  5.60000000E+01  0.00000000E+00
  2.50000000E+02  5.40000000E+01  0.00000000E+00
  2.50000000E+02  5.20000000E+01  0.00000000E+00
  2.50000000E+02  5.00000000E+01  0.00000000E+00
  2.50000000E+02  4.80000000E+01  0.00000000E+00
  2.50000000E+02  4.60000000E+01  0.00000000E+00
  2.50000000E+02  4.40000000E+01  0.00000000E+00
  2.50000000E+02  4.20000000E+01  0.00000000E+00
  2.50000000E+02  4.00000000E+01  0.00000000E+00
  2.50000000E+02  3.80000000E+01  0.00000000E+00
  2.50000000E+02  3.60000000E+01  0.00000000E+00
  2.50000000E+02  3.40000000E+01  0.00000000E+00
  2.50000000E+02  3.20000000E+01  0.00000000E+00
  2.50000000E+02  3.00000000E+01  0.00000000E+00
  2.50000000E+02  2.80000000E+01  0.00000000E+00
  2.50000000E+02  2.60000000E+01  0.00000000E+00
  2.50000000E+02  2.40000000E+01  0.00000000E+00
  2.50000000E+02  2.20000000E+01  0.00000000E+00
  2.50000000E+02  2.00000000E+01  0.00000000E+00
  2.50000000E+02  1.80000000E+01  0.00000000E+00
  2.50000000E+02  1.60000000E+01  0.00000000E+00
  2.50000000E+02  1.40000000E+01  0.00000000E+00
  2.50000000E+02  1.20000000E+01  0.00000000E+00
  2.50000000E+02  1.00000000E+01  0.00000000E+00
  2.50000000E+02  8.00000000E+00  0.00000000E+00
  2.50000000E+02  6.00000000E+00  0.00000000E+00
  2.50000000E+02  4.00000000E+00  0.00000000E+00
  2.50000000E+02  2.00000000E+00  0.00000000E+00
  2.50000000E+02 -3.33066907E-14  0.00000000E+00
  2.60000000E+02  1.00000000E+02  0.00000000E+00
  2.60000000E+02  9.80000000E+01  0.00000000E+00
  2.60000000E+02  9.60000000E+01  0.00000000E+00
  2.60000000E+02  9.40000000E+01  0.00000000E+00
  2.60000000E+02  9.20000000E+01  0.00000000E+00
  2.60000000E+02  9.00000000E+01  0.00000000E+00
  2.60000000E+02  8.80000000E+01  0.00000000E+00
  2.60000000E+02  8.60000000E+01  0.00000000E+00
  2.60000000E+02  8.40000000E+01  0.00000000E+00
  2.60000000E+02  8.20000000E+01  0.00000000E+00
  2.60000000E+02  8.00000000E+01  0.00000000E+00
  2.60000000E+02  7.80000000E+01  0.00000000E+00
  2.60000000E+02  7.60000000E+01  0.00000000E+00
  2.60000000E+02  7.40000000E+01  0.00000000E+00
  2.60000000E+02  7.20000000E+01  0.00000000E+00
  2.60000000E+02  7.00000000E+01  0.00000000E+00
  2.60000000E+02  6.80000000E+01  0.00000000E+00
  2.60000000E+02  6.60000000E+01  0.00000000E+00
  2.60000000E+02  6.40000000E+01  0.00000000E+00
  2.60000000E+02  6.20000000E+01  0.00000000E+00
  2.60000000E+02  6.00000000E+01  0.00000000E+00
  2.60000000E+02  5.80000000E+01  0.00000000E+00
  2.60000000E+02  5.60000000E+01  0.00000000E+00
  2.60000000E+02  5.40000000E+01  0.00000000E+00
  2.60000000E+02  5.20000000E+01  0.00000000E+00
  2.60000000E+02  5.00000000E+01  0.00000000E+00
  2.60000000E+02  4.80000000E+01  0.00000000E+00
  2.60000000E+02  4.60000000E+01  0.00000000E+00
  2.60000000E+02  4.40000000E+01  0.00000000E+00
  2.60000000E+02  4.20000000E+01  0.00000000E+00
  2.60000000E+02  4.00000000E+01  0.00000000E+00
  2.60000000E+02  3.80000000E+01  0.00000000E+00
  2.60000000E+02  3.60000000E+01  0.00000000E+00
  2.60000000E+02  3.40000000E+01  0.00000000E+00
  2.60000000E+02  3.20000000E+01  0.00000000E+00
  2.60000000E+02  3.00000000E+01  0.00000000E+00
  2.60000000E+02  2.80000000E+01  0.00000000E+00
  2.60000000E+02  2.60000000E+01  0.00000000E+00
  2.60000000E+02  2.40000000E+01  0.00000000E+00
  2.60000000E+02  2.20000000E+01  0.00000000E+00
  2.60000000E+02  2.00000000E+01  0.00000000E+00
  2.60000000E+02  1.80000000E+01  0.00000000E+00
  2.60000000E+02  1.60000000E+01  0.00000000E+00
  2.60000000E+02  1.40000000E+01  0.00000000E+00
  2.60000000E+02  1.20000000E+01  0.00000000E+00
  2.60000000E+02  1.00000000E+01  0.00000000E+00
  2.60000000E+02  8.00000000E+00  0.00000000E+00
  2.60000000E+02  6.00000000E+00  0.00000000E+00
  2.60000000E+02  4.00000000E+00  0.00000000E+00
  2.60000000E+02  2.00000000E+00  0.00000000E+00
  2.60000000E+02 -3.33066907E-14  0.00000000E+00
  2.70000000E+02  1.00000000E+02  0.00000000E+00
  2.70000000E+02  9.80000000E+01  0.00000000E+00
  2.70000000E+02  9.60000000E+01  0.00000000E+00
  2.70000000E+02  9.40000000E+01  0.00000000E+00
  2.70000000E+02  9.20000000E+01  0.00000000E+00
  2.70000000E+02  9.00000000E+01  0.00000000E+00
  2.70000000E+02  8.80000000E+01  0.00000000E+00
  2.70000000E+02  8.60000000E+01  0.00000000E+00
  2.70000000E+02  8.40000000E+01  0.00000000E+00
  2.70000000E+02  8.20000000E+01  0.00000000E+00
  2.70000000E+02  8.00000000E+01  0.00000000E+00
  2.70000000E+02  7.80000000E+01  0.00000000E+00
  2.70000000E+02  7.60000000E+01  0.00000000E+00
  2.70000000E+02  7.40000000E+01  0.00000000E+00
  2.70000000E+02  7.20000000E+01  0.00000000E+00
  2.70000000E+02  7.00000000E+01  0.00000000E+00
  2.70000000E+02  6.80000000E+01  0.00000000E+00
  2.70000000E+02  6.60000000E+01  0.00000000E+00
  2.70000000E+02  6.40000000E+01  0.00000000E+00
  2.70000000E+02  6.20000000E+01  0.00000000E+00
  2.70000000E+02  6.00000000E+01  0.00000000E+00
  2.70000000E+02  5.80000000E+01  0.00000000E+00
  2.70000000E+02  5.60000000E+01  0.00000000E+00
  2.70000000E+02  5.40000000E+01  0.00000000E+00
  2.70000000E+02  5.20000000E+01  0.00000000E+00
  2.70000000E+02  5.00000000E+01  0.00000000E+00
  2.70000000E+02  4.80000000E+01  0.00000000E+00
  2.70000000E+02  4.60000000E+01  0.00000000E+00
  2.70000000E+02  4.40000000E+01  0.00000000E+00
  2.70000000E+02  4.20000000E+01  0.00000000E+00
  2.70000000E+02  4.00000000E+01  0.00000000E+00
  2.70000000E+02  3.80000000E+01  0.00000000E+00
  2.70000000E+02  3.60000000E+01  0.00000000E+00
  2.70000000E+02  3.40000000E+01  0.00000000E+00
  2.70000000E+02  3.20000000E+01  0.00000000E+00
  2.70000000E+02  3.00000000E+01  0.00000000E+00
  2.70000000E+02  2.80000000E+01  0.00000000E+00
  2.70000000E+02  2.60000000E+01  0.00000000E+00
  2.70000000E+02  2.40000000E+01  0.00000000E+00
  2.70000000E+02  2.20000000E+01  0.00000000E+00
  2.70000000E+02  2.00000000E+01  0.00000000E+00
  2.70000000E+02  1.80000000E+01  0.00000000E+00
  2.70000000E+02  1.60000000E+01  0.00000000E+00
  2.70000000E+02  1.40000000E+01  0.00000000E+00
  2.70000000E+02  1.20000000E+01  0.00000000E+00
  2.70000000E+02  1.00000000E+01  0.00000000E+00
  2.70000000E+02  8.00000000E+00  0.00000000E+00
  2.70000000E+02  6.00000000E+00  0.00000000E+00
  2.70000000E+02  4.00000000E+00  0.00000000E+00
  2.70000000E+02  2.00000000E+00  0.00000000E+00
  2.70000000E+02 -3.33066907E-14  0.00000000E+00
  2.80000000E+02  1.00000000E+02  0.00000000E+00
  2.80000000E+02  9.80000000E+01  0.00000000E+00
  2.80000000E+02  9.60000000E+01  0.00000000E+00
  2.80000000E+02  9.40000000E+01  0.00000000E+00
  2.80000000E+02  9.20000000E+01  0.00000000E+00
  2.80000000E+02  9.00000000E+01  0.00000000E+00
  2.80000000E+02  8.80000000E+01  0.00000000E+00
  2.80000000E+02  8.60000000E+01  0.00000000E+00
  2.80000000E+02  8.40000000E+01  0.00000000E+00
  2.80000000E+02  8.20000000E+01  0.00000000E+00
  2.80000000E+02  8.00000000E+01  0.00000000E+00
  2.80000000E+02  7.80000000E+01  0.00000000E+00
  2.80000000E+02  7.60000000E+01  0.00000000E+00
  2.80000000E+02  7.40000000E+01  0.00000000E+00
  2.80000000E+02  7.20000000E+01  0.00000000E+00
  2.80000000E+02  7.00000000E+01  0.00000000E+00
  2.80000000E+02  6.80000000E+01  0.00000000E+00
  2.80000000E+02  6.60000000E+01  0.00000000E+00
  2.80000000E+02  6.40000000E+01  0.00000000E+00
  2.80000000E+02  6.20000000E+01  0.00000000E+00
  2.80000000E+02  6.00000000E+01  0.00000000E+00
  2.80000000E+02  5.80000000E+01  0.00000000E+00
  2.80000000E+02  5.60000000E+01  0.00000000E+00
  2.80000000E+02  5.40000000E+01  0.00000000E+00
  2.80000000E+02  5.20000000E+01  0.00000000E+00
  2.80000000E+02  5.00000000E+01  0.00000000E+00
  2.80000000E+02  4.80000000E+01  0.00000000E+00
  2.80000000E+02  4.60000000E+01  0.00000000E+00
  2.80000000E+02  4.40000000E+01  0.00000000E+00
  2.80000000E+02  4.20000000E+01  0.00000000E+00
  2.80000000E+02  4.00000000E+01  0.00000000E+00
  2.80000000E+02  3.80000000E+01  0.00000000E+00
  2.80000000E+02  3.60000000E+01  0.00000000E+00
  2.80000000E+02  3.40000000E+01  0.00000000E+00
  2.80000000E+02  3.20000000E+01  0.00000000E+00
  2.80000000E+02  3.00000000E+01  0.00000000E+00
  2.80000000E+02  2.80000000E+01  0.00000000E+00
  2.80000000E+02  2.60000000E+01  0.00000000E+00
  2.80000000E+02  2.40000000E+01  0.00000000E+00
  2.80000000E+02  2.20000000E+01  0.00000000E+00
  2.80000000E+02  2.00000000E+01  0.00000000E+00
  2.80000000E+02  1.80000000E+01  0.00000000E+00
  2.80000000E+02  1.60000000E+01  0.00000000E+00
  2.80000000E+02  1.40000000E+01  0.00000000E+00
  2.80000000E+02  1.20000000E+01  0.00000000E+00
  2.80000000E+02  1.00000000E+01  0.00000000E+00
  2.80000000E+02  8.00000000E+00  0.00000000E+00
  2.80000000E+02  6.00000000E+00  0.00000000E+00
  2.80000000E+02  4.00000000E+00  0.00000000E+00
  2.80000000E+02  2.00000000E+00  0.00000000E+00
  2.80000000E+02 -3.33066907E-14  0.00000000E+00
  2.90000000E+02  1.00000000E+02  0.00000000E+00
  2.90000000E+02  9.80000000E+01  0.00000000E+00
  2.90000000E+02  9.60000000E+01  0.00000000E+00
  2.90000000E+02  9.40000000E+01  0.00000000E+00
  2.90000000E+02  9.20000000E+01  0.00000000E+00
  2.90000000E+02  9.00000000E+01  0.00000000E+00
  2.90000000E+02  8.80000000E+01  0.00000000E+00
  2.90000000E+02  8.60000000E+01  0.00000000E+00
  2.90000000E+02  8.40000000E+01  0.00000000E+00
  2.90000000E+02  8.20000000E+01  0.00000000E+00
  2.90000000E+02  8.00000000E+01  0.00000000E+00
  2.90000000E+02  7.80000000E+01  0.00000000E+00
  2.90000000E+02  7.60000000E+01  0.00000000E+00
  2.90000000E+02  7.40000000E+01  0.00000000E+00
  2.90000000E+02  7.20000000E+01  0.00000000E+00
  2.90000000E+02  7.00000000E+01  0.00000000E+00
  2.90000000E+02  6.80000000E+01  0.00000000E+00
  2.90000000E+02  6.60000000E+01  0.00000000E+00
  2.90000000E+02  6.40000000E+01  0.00000000E+00
  2.90000000E+02  6.20000000E+01  0.00000000E+00
  2.90000000E+02  6.00000000E+01  0.00000000E+00
  2.90000000E+02  5.80000000E+01  0.00000000E+00
  2.90000000E+02  5.60000000E+01  0.00000000E+00
  2.90000000E+02  5.40000000E+01  0.00000000E+00
  2.90000000E+02  5.20000000E+01  0.00000000E+00
  2.90000000E+02  5.00000000E+01  0.00000000E+00
  2.90000000E+02  4.80000000E+01  0.00000000E+00
  2.90000000E+02  4.60000000E+01  0.00000000E+00
  2.90000000E+02  4.40000000E+01  0.00000000E+00
  2.90000000E+02  4.20000000E+01  0.00000000E+00
  2.90000000E+02  4.00000000E+01  0.00000000E+00
  2.90000000E+02  3.80000000E+01  0.00000000E+00
  2.90000000E+02  3.60000000E+01  0.00000000E+00
  2.90000000E+02  3.40000000E+01  0.00000000E+00
  2.90000000E+02  3.20000000E+01  0.00000000E+00
  2.90000000E+02  3.00000000E+01  0.00000000E+00
  2.90000000E+02  2.80000000E+01  0.00000000E+00
  2.90000000E+02  2.60000000E+01  0.00000000E+00
  2.90000000E+02  2.40000000E+01  0.00000000E+00
  2.90000000E+02  2.20000000E+01  0.00000000E+00
  2.90000000E+02  2.00000000E+01  0.00000000E+00
  2.90000000E+02  1.80000000E+01  0.00000000E+00
  2.90000000E+02  1.60000000E+01  0.00000000E+00
  2.90000000E+02  1.40000000E+01  0.00000000E+00
  2.90000000E+02  1.20000000E+01  0.00000000E+00
  2.90000000E+02  1.00000000E+01  0.00000000E+00
  2.90000000E+02  8.00000000E+00  0.00000000E+00
  2.90000000E+02  6.00000000E+00  0.00000000E+00
  2.90000000E+02  4.00000000E+00  0.00000000E+00
  2.90000000E+02  2.00000000E+00  0.00000000E+00
  2.90000000E+02 -3.33066907E-14  0.00000000E+00
  3.00000000E+02  1.00000000E+02  0.00000000E+00
  3.00000000E+02  9.80000000E+01  0.00000000E+00
  3.00000000E+02  9.60000000E+01  0.00000000E+00
  3.00000000E+02  9.40000000E+01  0.00000000E+00
  3.00000000E+02  9.20000000E+01  0.00000000E+00
  3.00000000E+02  9.00000000E+01  0.00000000E+00
  3.00000000E+02  8.80000000E+01  0.00000000E+00
  3.00000000E+02  8.60000000E+01  0.00000000E+00
  3.00000000E+02  8.40000000E+01  0.00000000E+00
  3.00000000E+02  8.20000000E+01  0.00000000E+00
  3.00000000E+02  8.00000000E+01  0.00000000E+00
  3.00000000E+02  7.80000000E+01  0.00000000E+00
  3.00000000E+02  7.60000000E+01  0.00000000E+00
  3.00000000E+02  7.40000000E+01  0.00000000E+00
  3.00000000E+02  7.20000000E+01  0.00000000E+00
  3.00000000E+02  7.00000000E+01  0.00000000E+00
  3.00000000E+02  6.80000000E+01  0.00000000E+00
  3.00000000E+02  6.60000000E+01  0.00000000E+00
  3.00000000E+02  6.40000000E+01  0.00000000E+00
  3.00000000E+02  6.20000000E+01  0.00000000E+00
  3.00000000E+02  6.00000000E+01  0.00000000E+00
  3.00000000E+02  5.80000000E+01  0.00000000E+00
  3.00000000E+02  5.60000000E+01  0.00000000E+00
  3.00000000E+02  5.40000000E+01  0.00000000E+00
  3.00000000E+02  5.20000000E+01  0.00000000E+00
  3.00000000E+02  5.00000000E+01  0.00000000E+00
  3.00000000E+02  4.80000000E+01  0.00000000E+00
  3.00000000E+02  4.60000000E+01  0.00000000E+00
  3.00000000E+02  4.40000000E+01  0.00000000E+00
  3.00000000E+02  4.20000000E+01  0.00000000E+00
  3.00000000E+02  4.00000000E+01  0.00000000E+00
  3.00000000E+02  3.80000000E+01  0.00000000E+00
  3.00000000E+02  3.60000000E+01  0.00000000E+00
  3.00000000E+02  3.40000000E+01  0.00000000E+00
  3.00000000E+02  3.20000000E+01  0.00000000E+00
  3.00000000E+02  3.00000000E+01  0.00000000E+00
  3.00000000E+02  2.80000000E+01  0.00000000E+00
  3.00000000E+02  2.60000000E+01  0.00000000E+00
  3.00000000E+02  2.40000000E+01  0.00000000E+00
  3.00000000E+02  2.20000000E+01  0.00000000E+00
  3.00000000E+02  2.00000000E+01  0.00000000E+00
  3.00000000E+02  1.80000000E+01  0.00000000E+00
  3.00000000E+02  1.60000000E+01  0.00000000E+00
  3.00000000E+02  1.40000000E+01  0.00000000E+00
  3.00000000E+02  1.20000000E+01  0.00000000E+00
  3.00000000E+02  1.00000000E+01  0.00000000E+00
  3.00000000E+02  8.00000000E+00  0.00000000E+00
  3.00000000E+02  6.00000000E+00  0.00000000E+00
  3.00000000E+02  4.00000000E+00  0.00000000E+00
  3.00000000E+02  2.00000000E+00  0.00000000E+00
  3.00000000E+02 -3.33066907E-14  0.00000000E+00
  3.10000000E+02  1.00000000E+02  0.00000000E+00
  3.10000000E+02  9.80000000E+01  0.00000000E+00
  3.10000000E+02  9.60000000E+01  0.00000000E+00
  3.10000000E+02  9.40000000E+01  0.00000000E+00
  3.10000000E+02  9.20000000E+01  0.00000000E+00
  3.10000000E+02  9.00000000E+01  0.00000000E+00
  3.10000000E+02  8.80000000E+01  0.00000000E+00
  3.10000000E+02  8.60000000E+01  0.00000000E+00
  3.10000000E+02  8.40000000E+01  0.00000000E+00
  3.10000000E+02  8.20000000E+01  0.00000000E+00
  3.10000000E+02  8.00000000E+01  0.00000000E+00
  3.10000000E+02  7.80000000E+01  0.00000000E+00
  3.10000000E+02  7.60000000E+01  0.00000000E+00
  3.10000000E+02  7.40000000E+01  0.00000000E+00
  3.10000000E+02  7.20000000E+01  0.00000000E+00
  3.10000000E+02  7.00000000E+01  0.00000000E+00
  3.10000000E+02  6.80000000E+01  0.00000000E+00
  3.10000000E+02  6.60000000E+01  0.00000000E+00
  3.10000000E+02  6.40000000E+01  0.00000000E+00
  3.10000000E+02  6.20000000E+01  0.00000000E+00
  3.10000000E+02  6.00000000E+01  0.00000000E+00
  3.10000000E+02  5.80000000E+01  0.00000000E+00
  3.10000000E+02  5.60000000E+01  0.00000000E+00
  3.10000000E+02  5.40000000E+01  0.00000000E+00
  3.10000000E+02  5.20000000E+01  0.00000000E+00
  3.10000000E+02  5.00000000E+01  0.00000000E+00
  3.10000000E+02  4.80000000E+01  0.00000000E+00
  3.10000000E+02  4.60000000E+01  0.00000000E+00
  3.10000000E+02  4.40000000E+01  0.00000000E+00
  3.10000000E+02  4.20000000E+01  0.00000000E+00
  3.10000000E+02  4.00000000E+01  0.00000000E+00
  3.10000000E+02  3.80000000E+01  0.00000000E+00
  3.10000000E+02  3.60000000E+01  0.00000000E+00
  3.10000000E+02  3.40000000E+01  0.00000000E+00
  3.10000000E+02  3.20000000E+01  0.00000000E+00
  3.10000000E+02  3.00000000E+01  0.00000000E+00
  3.10000000E+02  2.80000000E+01  0.00000000E+00
  3.10000000E+02  2.60000000E+01  0.00000000E+00
  3.10000000E+02  2.40000000E+01  0.00000000E+00
  3.10000000E+02  2.20000000E+01  0.00000000E+00
  3.10000000E+02  2.00000000E+01  0.00000000E+00
  3.10000000E+02  1.80000000E+01  0.00000000E+00
  3.10000000E+02  1.60000000E+01  0.00000000E+00
  3.10000000E+02  1.40000000E+01  0.00000000E+00
  3.10000000E+02  1.20000000E+01  0.00000000E+00
  3.10000000E+02  1.00000000E+01  0.00000000E+00
  3.10000000E+02  8.00000000E+00  0.00000000E+00
  3.10000000E+02  6.00000000E+00  0.00000000E+00
  3.10000000E+02  4.00000000E+00  0.00000000E+00
  3.10000000E+02  2.00000000E+00  0.00000000E+00
  3.10000000E+02 -3.33066907E-14  0.00000000E+00
  3.20000000E+02  1.00000000E+02  0.00000000E+00
  3.20000000E+02  9.80000000E+01  0.00000000E+00
  3.20000000E+02  9.60000000E+01  0.00000000E+00
  3.20000000E+02  9.40000000E+01  0.00000000E+00
  3.20000000E+02  9.20000000E+01  0.00000000E+00
  3.20000000E+02  9.00000000E+01  0.00000000E+00
  3.20000000E+02  8.80000000E+01  0.00000000E+00
  3.20000000E+02  8.60000000E+01  0.00000000E+00
  3.20000000E+02  8.40000000E+01  0.00000000E+00
  3.20000000E+02  8.20000000E+01  0.00000000E+00
  3.20000000E+02  8.00000000E+01  0.00000000E+00
  3.20000000E+02  7.80000000E+01  0.00000000E+00
  3.20000000E+02  7.60000000E+01  0.00000000E+00
  3.20000000E+02  7.40000000E+01  0.00000000E+00
  3.20000000E+02  7.20000000E+01  0.00000000E+00
  3.20000000E+02  7.00000000E+01  0.00000000E+00
  3.20000000E+02  6.80000000E+01  0.00000000E+00
  3.20000000E+02  6.60000000E+01  0.00000000E+00
  3.20000000E+02  6.40000000E+01  0.00000000E+00
  3.20000000E+02  6.20000000E+01  0.00000000E+00
  3.20000000E+02  6.00000000E+01  0.00000000E+00
  3.20000000E+02  5.80000000E+01  0.00000000E+00
  3.20000000E+02  5.60000000E+01  0.00000000E+00
  3.20000000E+02  5.40000000E+01  0.00000000E+00
  3.20000000E+02  5.20000000E+01  0.00000000E+00
  3.20000000E+02  5.00000000E+01  0.00000000E+00
  3.20000000E+02  4.80000000E+01  0.00000000E+00
  3.20000000E+02  4.60000000E+01  0.00000000E+00
  3.20000000E+02  4.40000000E+01  0.00000000E+00
  3.20000000E+02  4.20000000E+01  0.00000000E+00
  3.20000000E+02  4.00000000E+01  0.00000000E+00
  3.20000000E+02  3.80000000E+01  0.00000000E+00
  3.20000000E+02  3.60000000E+01  0.00000000E+00
  3.20000000E+02  3.40000000E+01  0.00000000E+00
  3.20000000E+02  3.20000000E+01  0.00000000E+00
  3.20000000E+02  3.00000000E+01  0.00000000E+00
  3.20000000E+02  2.80000000E+01  0.00000000E+00
  3.20000000E+02  2.60000000E+01  0.00000000E+00
  3.20000000E+02  2.40000000E+01  0.00000000E+00
  3.20000000E+02  2.20000000E+01  0.00000000E+00
  3.20000000E+02  2.00000000E+01  0.00000000E+00
  3.20000000E+02  1.80000000E+01  0.00000000E+00
  3.20000000E+02  1.60000000E+01  0.00000000E+00
  3.20000000E+02  1.40000000E+01  0.00000000E+00
  3.20000000E+02  1.20000000E+01  0.00000000E+00
  3.20000000E+02  1.00000000E+01  0.00000000E+00
  3.20000000E+02  8.00000000E+00  0.00000000E+00
  3.20000000E+02  6.00000000E+00  0.00000000E+00
  3.20000000E+02  4.00000000E+00  0.00000000E+00
  3.20000000E+02  2.00000000E+00  0.00000000E+00
  3.20000000E+02 -3.33066907E-14  0.00000000E+00
  3.30000000E+02  1.00000000E+02  0.00000000E+00
  3.30000000E+02  9.80000000E+01  0.00000000E+00
  3.30000000E+02  9.60000000E+01  0.00000000E+00
  3.30000000E+02  9.40000000E+01  0.00000000E+00
  3.30000000E+02  9.20000000E+01  0.00000000E+00
  3.30000000E+02  9.00000000E+01  0.00000000E+00
  3.30000000E+02  8.80000000E+01  0.00000000E+00
  3.30000000E+02  8.60000000E+01  0.00000000E+00
  3.30000000E+02  8.40000000E+01  0.00000000E+00
  3.30000000E+02  8.20000000E+01  0.00000000E+00
  3.30000000E+02  8.00000000E+01  0.00000000E+00
  3.30000000E+02  7.80000000E+01  0.00000000E+00
  3.30000000E+02  7.60000000E+01  0.00000000E+00
  3.30000000E+02  7.40000000E+01  0.00000000E+00
  3.30000000E+02  7.20000000E+01  0.00000000E+00
  3.30000000E+02  7.00000000E+01  0.00000000E+00
  3.30000000E+02  6.80000000E+01  0.00000000E+00
  3.30000000E+02  6.60000000E+01  0.00000000E+00
  3.30000000E+02  6.40000000E+01  0.00000000E+00
  3.30000000E+02  6.20000000E+01  0.00000000E+00
  3.30000000E+02  6.00000000E+01  0.00000000E+00
  3.30000000E+02  5.80000000E+01  0.00000000E+00
  3.30000000E+02  5.60000000E+01  0.00000000E+00
  3.30000000E+02  5.40000000E+01  0.00000000E+00
  3.30000000E+02  5.20000000E+01  0.00000000E+00
  3.30000000E+02  5.00000000E+01  0.00000000E+00
  3.30000000E+02  4.80000000E+01  0.00000000E+00
  3.30000000E+02  4.60000000E+01  0.00000000E+00
  3.30000000E+02  4.40000000E+01  0.00000000E+00
  3.30000000E+02  4.20000000E+01  0.00000000E+00
  3.30000000E+02  4.00000000E+01  0.00000000E+00
  3.30000000E+02  3.80000000E+01  0.00000000E+00
  3.30000000E+02  3.60000000E+01  0.00000000E+00
  3.30000000E+02  3.40000000E+01  0.00000000E+00
  3.30000000E+02  3.20000000E+01  0.00000000E+00
  3.30000000E+02  3.00000000E+01  0.00000000E+00
  3.30000000E+02  2.80000000E+01  0.00000000E+00
  3.30000000E+02  2.60000000E+01  0.00000000E+00
  3.30000000E+02  2.40000000E+01  0.00000000E+00
  3.30000000E+02  2.20000000E+01  0.00000000E+00
  3.30000000E+02  2.00000000E+01  0.00000000E+00
  3.30000000E+02  1.80000000E+01  0.00000000E+00
  3.30000000E+02  1.60000000E+01  0.00000000E+00
  3.30000000E+02  1.40000000E+01  0.00000000E+00
  3.30000000E+02  1.20000000E+01  0.00000000E+00
  3.30000000E+02  1.00000000E+01  0.00000000E+00
  3.30000000E+02  8.00000000E+00  0.00000000E+00
  3.30000000E+02  6.00000000E+00  0.00000000E+00
  3.30000000E+02  4.00000000E+00  0.00000000E+00
  3.30000000E+02  2.00000000E+00  0.00000000E+00
  3.30000000E+02 -3.33066907E-14  0.00000000E+00
  3.40000000E+02  1.00000000E+02  0.00000000E+00
  3.40000000E+02  9.80000000E+01  0.00000000E+00
  3.40000000E+02  9.60000000E+01  0.00000000E+00
  3.40000000E+02  9.40000000E+01  0.00000000E+00
  3.40000000E+02  9.20000000E+01  0.00000000E+00
  3.40000000E+02  9.00000000E+01  0.00000000E+00
  3.40000000E+02  8.80000000E+01  0.00000000E+00
  3.40000000E+02  8.60000000E+01  0.00000000E+00
  3.40000000E+02  8.40000000E+01  0.00000000E+00
  3.40000000E+02  8.20000000E+01  0.00000000E+00
  3.40000000E+02  8.00000000E+01  0.00000000E+00
  3.40000000E+02  7.80000000E+01  0.00000000E+00
  3.40000000E+02  7.60000000E+01  0.00000000E+00
  3.40000000E+02  7.40000000E+01  0.00000000E+00
  3.40000000E+02  7.20000000E+01  0.00000000E+00
  3.40000000E+02  7.00000000E+01  0.00000000E+00
  3.40000000E+02  6.80000000E+01  0.00000000E+00
  3.40000000E+02  6.60000000E+01  0.00000000E+00
  3.40000000E+02  6.40000000E+01  0.00000000E+00
  3.40000000E+02  6.20000000E+01  0.00000000E+00
  3.40000000E+02  6.00000000E+01  0.00000000E+00
  3.40000000E+02  5.80000000E+01  0.00000000E+00
  3.40000000E+02  5.60000000E+01  0.00000000E+00
  3.40000000E+02  5.40000000E+01  0.00000000E+00
  3.40000000E+02  5.20000000E+01  0.00000000E+00
  3.40000000E+02  5.00000000E+01  0.00000000E+00
  3.40000000E+02  4.80000000E+01  0.00000000E+00
  3.40000000E+02  4.60000000E+01  0.00000000E+00
  3.40000000E+02  4.40000000E+01  0.00000000E+00
  3.40000000E+02  4.20000000E+01  0.00000000E+00
  3.40000000E+02  4.00000000E+01  0.00000000E+00
  3.40000000E+02  3.80000000E+01  0.00000000E+00
  3.40000000E+02  3.60000000E+01  0.00000000E+00
  3.40000000E+02  3.40000000E+01  0.00000000E+00
  3.40000000E+02  3.20000000E+01  0.00000000E+00
  3.40000000E+02  3.00000000E+01  0.00000000E+00
  3.40000000E+02  2.80000000E+01  0.00000000E+00
  3.40000000E+02  2.60000000E+01  0.00000000E+00
  3.40000000E+02  2.40000000E+01  0.00000000E+00
  3.40000000E+02  2.20000000E+01  0.00000000E+00
  3.40000000E+02  2.00000000E+01  0.00000000E+00
  3.40000000E+02  1.80000000E+01  0.00000000E+00
  3.40000000E+02  1.60000000E+01  0.00000000E+00
  3.40000000E+02  1.40000000E+01  0.00000000E+00
  3.40000000E+02  1.20000000E+01  0.00000000E+00
  3.40000000E+02  1.00000000E+01  0.00000000E+00
  3.40000000E+02  8.00000000E+00  0.00000000E+00
  3.40000000E+02  6.00000000E+00  0.00000000E+00
  3.40000000E+02  4.00000000E+00  0.00000000E+00
  3.40000000E+02  2.00000000E+00  0.00000000E+00
  3.40000000E+02 -3.33066907E-14  0.00000000E+00
  3.50000000E+02  1.00000000E+02  0.00000000E+00
  3.50000000E+02  9.80000000E+01  0.00000000E+00
  3.50000000E+02  9.60000000E+01  0.00000000E+00
  3.50000000E+02  9.40000000E+01  0.00000000E+00
  3.50000000E+02  9.20000000E+01  0.00000000E+00
  3.50000000E+02  9.00000000E+01  0.00000000E+00
  3.50000000E+02  8.80000000E+01  0.00000000E+00
  3.50000000E+02  8.60000000E+01  0.00000000E+00
  3.50000000E+02  8.40000000E+01  0.00000000E+00
  3.50000000E+02  8.20000000E+01  0.00000000E+00
  3.50000000E+02  8.00000000E+01  0.00000000E+00
  3.50000000E+02  7.80000000E+01  0.00000000E+00
  3.50000000E+02  7.60000000E+01  0.00000000E+00
  3.50000000E+02  7.40000000E+01  0.00000000E+00
  3.50000000E+02  7.20000000E+01  0.00000000E+00
  3.50000000E+02  7.00000000E+01  0.00000000E+00
  3.50000000E+02  6.80000000E+01  0.00000000E+00
  3.50000000E+02  6.60000000E+01  0.00000000E+00
  3.50000000E+02  6.40000000E+01  0.00000000E+00
  3.50000000E+02  6.20000000E+01  0.00000000E+00
  3.50000000E+02  6.00000000E+01  0.00000000E+00
  3.50000000E+02  5.80000000E+01  0.00000000E+00
  3.50000000E+02  5.60000000E+01  0.00000000E+00
  3.50000000E+02  5.40000000E+01  0.00000000E+00
  3.50000000E+02  5.20000000E+01  0.00000000E+00
  3.50000000E+02  5.00000000E+01  0.00000000E+00
  3.50000000E+02  4.80000000E+01  0.00000000E+00
  3.50000000E+02  4.60000000E+01  0.00000000E+00
  3.50000000E+02  4.40000000E+01  0.00000000E+00
  3.50000000E+02  4.20000000E+01  0.00000000E+00
  3.50000000E+02  4.00000000E+01  0.00000000E+00
  3.50000000E+02  3.80000000E+01  0.00000000E+00
  3.50000000E+02  3.60000000E+01  0.00000000E+00
  3.50000000E+02  3.40000000E+01  0.00000000E+00
  3.50000000E+02  3.20000000E+01  0.00000000E+00
  3.50000000E+02  3.00000000E+01  0.00000000E+00
  3.50000000E+02  2.80000000E+01  0.00000000E+00
  3.50000000E+02  2.60000000E+01  0.00000000E+00
  3.50000000E+02  2.40000000E+01  0.00000000E+00
  3.50000000E+02  2.20000000E+01  0.00000000E+00
  3.50000000E+02  2.00000000E+01  0.00000000E+00
  3.50000000E+02  1.80000000E+01  0.00000000E+00
  3.50000000E+02  1.60000000E+01  0.00000000E+00
  3.50000000E+02  1.40000000E+01  0.00000000E+00
  3.50000000E+02  1.20000000E+01  0.00000000E+00
  3.50000000E+02  1.00000000E+01  0.00000000E+00
  3.50000000E+02  8.00000000E+00  0.00000000E+00
  3.50000000E+02  6.00000000E+00  0.00000000E+00
  3.50000000E+02  4.00000000E+00  0.00000000E+00
  3.50000000E+02  2.00000000E+00  0.00000000E+00
  3.50000000E+02 -3.33066907E-14  0.00000000E+00
  3.60000000E+02  1.00000000E+02  0.00000000E+00
  3.60000000E+02  9.80000000E+01  0.00000000E+00
  3.60000000E+02  9.60000000E+01  0.00000000E+00
  3.60000000E+02  9.40000000E+01  0.00000000E+00
  3.60000000E+02  9.20000000E+01  0.00000000E+00
  3.60000000E+02  9.00000000E+01  0.00000000E+00
  3.60000000E+02  8.80000000E+01  0.00000000E+00
  3.60000000E+02  8.60000000E+01  0.00000000E+00
  3.60000000E+02  8.40000000E+01  0.00000000E+00
  3.60000000E+02  8.20000000E+01  0.00000000E+00
  3.60000000E+02  8.00000000E+01  0.00000000E+00
  3.60000000E+02  7.80000000E+01  0.00000000E+00
  3.60000000E+02  7.60000000E+01  0.00000000E+00
  3.60000000E+02  7.40000000E+01  0.00000000E+00
  3.60000000E+02  7.20000000E+01  0.00000000E+00
  3.60000000E+02  7.00000000E+01  0.00000000E+00
  3.60000000E+02  6.80000000E+01  0.00000000E+00
  3.60000000E+02  6.60000000E+01  0.00000000E+00
  3.60000000E+02  6.40000000E+01  0.00000000E+00
  3.60000000E+02  6.20000000E+01  0.00000000E+00
  3.60000000E+02  6.00000000E+01  0.00000000E+00
  3.60000000E+02  5.80000000E+01  0.00000000E+00
  3.60000000E+02  5.60000000E+01  0.00000000E+00
  3.60000000E+02  5.40000000E+01  0.00000000E+00
  3.60000000E+02  5.20000000E+01  0.00000000E+00
  3.60000000E+02  5.00000000E+01  0.00000000E+00
  3.60000000E+02  4.80000000E+01  0.00000000E+00
  3.60000000E+02  4.60000000E+01  0.00000000E+00
  3.60000000E+02  4.40000000E+01  0.00000000E+00
  3.60000000E+02  4.20000000E+01  0.00000000E+00
  3.60000000E+02  4.00000000E+01  0.00000000E+00
  3.60000000E+02  3.80000000E+01  0.00000000E+00
  3.60000000E+02  3.60000000E+01  0.00000000E+00
  3.60000000E+02  3.40000000E+01  0.00000000E+00
  3.60000000E+02  3.20000000E+01  0.00000000E+00
  3.60000000E+02  3.00000000E+01  0.00000000E+00
  3.60000000E+02  2.80000000E+01  0.00000000E+00
  3.60000000E+02  2.60000000E+01  0.00000000E+00
  3.60000000E+02  2.40000000E+01  0.00000000E+00
  3.60000000E+02  2.20000000E+01  0.00000000E+00
  3.60000000E+02  2.00000000E+01  0.00000000E+00
  3.60000000E+02  1.80000000E+01  0.00000000E+00
  3.60000000E+02  1.60000000E+01  0.00000000E+00
  3.60000000E+02  1.40000000E+01  0.00000000E+00
  3.60000000E+02  1.20000000E+01  0.00000000E+00
  3.60000000E+02  1.00000000E+01  0.00000000E+00
  3.60000000E+02  8.00000000E+00  0.00000000E+00
  3.60000000E+02  6.00000000E+00  0.00000000E+00
  3.60000000E+02  4.00000000E+00  0.00000000E+00
  3.60000000E+02  2.00000000E+00  0.00000000E+00
  3.60000000E+02 -3.33066907E-14  0.00000000E+00
  3.70000000E+02  1.00000000E+02  0.00000000E+00
  3.70000000E+02  9.80000000E+01  0.00000000E+00
  3.70000000E+02  9.60000000E+01  0.00000000E+00
  3.70000000E+02  9.40000000E+01  0.00000000E+00
  3.70000000E+02  9.20000000E+01  0.00000000E+00
  3.70000000E+02  9.00000000E+01  0.00000000E+00
  3.70000000E+02  8.80000000E+01  0.00000000E+00
  3.70000000E+02  8.60000000E+01  0.00000000E+00
  3.70000000E+02  8.40000000E+01  0.00000000E+00
  3.70000000E+02  8.20000000E+01  0.00000000E+00
  3.70000000E+02  8.00000000E+01  0.00000000E+00
  3.70000000E+02  7.80000000E+01  0.00000000E+00
  3.70000000E+02  7.60000000E+01  0.00000000E+00
  3.70000000E+02  7.40000000E+01  0.00000000E+00
  3.70000000E+02  7.20000000E+01  0.00000000E+00
  3.70000000E+02  7.00000000E+01  0.00000000E+00
  3.70000000E+02  6.80000000E+01  0.00000000E+00
  3.70000000E+02  6.60000000E+01  0.00000000E+00
  3.70000000E+02  6.40000000E+01  0.00000000E+00
  3.70000000E+02  6.20000000E+01  0.00000000E+00
  3.70000000E+02  6.00000000E+01  0.00000000E+00
  3.70000000E+02  5.80000000E+01  0.00000000E+00
  3.70000000E+02  5.60000000E+01  0.00000000E+00
  3.70000000E+02  5.40000000E+01  0.00000000E+00
  3.70000000E+02  5.20000000E+01  0.00000000E+00
  3.70000000E+02  5.00000000E+01  0.00000000E+00
  3.70000000E+02  4.80000000E+01  0.00000000E+00
  3.70000000E+02  4.60000000E+01  0.00000000E+00
  3.70000000E+02  4.40000000E+01  0.00000000E+00
  3.70000000E+02  4.20000000E+01  0.00000000E+00
  3.70000000E+02  4.00000000E+01  0.00000000E+00
  3.70000000E+02  3.80000000E+01  0.00000000E+00
  3.70000000E+02  3.60000000E+01  0.00000000E+00
  3.70000000E+02  3.40000000E+01  0.00000000E+00
  3.70000000E+02  3.20000000E+01  0.00000000E+00
  3.70000000E+02  3.00000000E+01  0.00000000E+00
  3.70000000E+02  2.80000000E+01  0.00000000E+00
  3.70000000E+02  2.60000000E+01  0.00000000E+00
  3.70000000E+02  2.40000000E+01  0.00000000E+00
  3.70000000E+02  2.20000000E+01  0.00000000E+00
  3.70000000E+02  2.00000000E+01  0.00000000E+00
  3.70000000E+02  1.80000000E+01  0.00000000E+00
  3.70000000E+02  1.60000000E+01  0.00000000E+00
  3.70000000E+02  1.40000000E+01  0.00000000E+00
  3.70000000E+02  1.20000000E+01  0.00000000E+00
  3.70000000E+02  1.00000000E+01  0.00000000E+00
  3.70000000E+02  8.00000000E+00  0.00000000E+00
  3.70000000E+02  6.00000000E+00  0.00000000E+00
  3.70000000E+02  4.00000000E+00  0.00000000E+00
  3.70000000E+02  2.00000000E+00  0.00000000E+00
  3.70000000E+02 -3.33066907E-14  0.00000000E+00
  3.80000000E+02  1.00000000E+02  0.00000000E+00
  3.80000000E+02  9.80000000E+01  0.00000000E+00
  3.80000000E+02  9.60000000E+01  0.00000000E+00
  3.80000000E+02  9.40000000E+01  0.00000000E+00
  3.80000000E+02  9.20000000E+01  0.00000000E+00
  3.80000000E+02  9.00000000E+01  0.00000000E+00
  3.80000000E+02  8.80000000E+01  0.00000000E+00
  3.80000000E+02  8.60000000E+01  0.00000000E+00
  3.80000000E+02  8.40000000E+01  0.00000000E+00
  3.80000000E+02  8.20000000E+01  0.00000000E+00
  3.80000000E+02  8.00000000E+01  0.00000000E+00
  3.80000000E+02  7.80000000E+01  0.00000000E+00
  3.80000000E+02  7.60000000E+01  0.00000000E+00
  3.80000000E+02  7.40000000E+01  0.00000000E+00
  3.80000000E+02  7.20000000E+01  0.00000000E+00
  3.80000000E+02  7.00000000E+01  0.00000000E+00
  3.80000000E+02  6.80000000E+01  0.00000000E+00
  3.80000000E+02  6.60000000E+01  0.00000000E+00
  3.80000000E+02  6.40000000E+01  0.00000000E+00
  3.80000000E+02  6.20000000E+01  0.00000000E+00
  3.80000000E+02  6.00000000E+01  0.00000000E+00
  3.80000000E+02  5.80000000E+01  0.00000000E+00
  3.80000000E+02  5.60000000E+01  0.00000000E+00
  3.80000000E+02  5.40000000E+01  0.00000000E+00
  3.80000000E+02  5.20000000E+01  0.00000000E+00
  3.80000000E+02  5.00000000E+01  0.00000000E+00
  3.80000000E+02  4.80000000E+01  0.00000000E+00
  3.80000000E+02  4.60000000E+01  0.00000000E+00
  3.80000000E+02  4.40000000E+01  0.00000000E+00
  3.80000000E+02  4.20000000E+01  0.00000000E+00
  3.80000000E+02  4.00000000E+01  0.00000000E+00
  3.80000000E+02  3.80000000E+01  0.00000000E+00
  3.80000000E+02  3.60000000E+01  0.00000000E+00
  3.80000000E+02  3.40000000E+01  0.00000000E+00
  3.80000000E+02  3.20000000E+01  0.00000000E+00
  3.80000000E+02  3.00000000E+01  0.00000000E+00
  3.80000000E+02  2.80000000E+01  0.00000000E+00
  3.80000000E+02  2.60000000E+01  0.00000000E+00
  3.80000000E+02  2.40000000E+01  0.00000000E+00
  3.80000000E+02  2.20000000E+01  0.00000000E+00
  3.80000000E+02  2.00000000E+01  0.00000000E+00
  3.80000000E+02  1.80000000E+01  0.00000000E+00
  3.80000000E+02  1.60000000E+01  0.00000000E+00
  3.80000000E+02  1.40000000E+01  0.00000000E+00
  3.80000000E+02  1.20000000E+01  0.00000000E+00
  3.80000000E+02  1.00000000E+01  0.00000000E+00
  3.80000000E+02  8.00000000E+00  0.00000000E+00
  3.80000000E+02  6.00000000E+00  0.00000000E+00
  3.80000000E+02  4.00000000E+00  0.00000000E+00
  3.80000000E+02  2.00000000E+00  0.00000000E+00
  3.80000000E+02 -3.33066907E-14  0.00000000E+00
  3.90000000E+02  1.00000000E+02  0.00000000E+00
  3.90000000E+02  9.80000000E+01  0.00000000E+00
  3.90000000E+02  9.60000000E+01  0.00000000E+00
  3.90000000E+02  9.40000000E+01  0.00000000E+00
  3.90000000E+02  9.20000000E+01  0.00000000E+00
  3.90000000E+02  9.00000000E+01  0.00000000E+00
  3.90000000E+02  8.80000000E+01  0.00000000E+00
  3.90000000E+02  8.60000000E+01  0.00000000E+00
  3.90000000E+02  8.40000000E+01  0.00000000E+00
  3.90000000E+02  8.20000000E+01  0.00000000E+00
  3.90000000E+02  8.00000000E+01  0.00000000E+00
  3.90000000E+02  7.80000000E+01  0.00000000E+00
  3.90000000E+02  7.60000000E+01  0.00000000E+00
  3.90000000E+02  7.40000000E+01  0.00000000E+00
  3.90000000E+02  7.20000000E+01  0.00000000E+00
  3.90000000E+02  7.00000000E+01  0.00000000E+00
  3.90000000E+02  6.80000000E+01  0.00000000E+00
  3.90000000E+02  6.60000000E+01  0.00000000E+00
  3.90000000E+02  6.40000000E+01  0.00000000E+00
  3.90000000E+02  6.20000000E+01  0.00000000E+00
  3.90000000E+02  6.00000000E+01  0.00000000E+00
  3.90000000E+02  5.80000000E+01  0.00000000E+00
  3.90000000E+02  5.60000000E+01  0.00000000E+00
  3.90000000E+02  5.40000000E+01  0.00000000E+00
  3.90000000E+02  5.20000000E+01  0.00000000E+00
  3.90000000E+02  5.00000000E+01  0.00000000E+00
  3.90000000E+02  4.80000000E+01  0.00000000E+00
  3.90000000E+02  4.60000000E+01  0.00000000E+00
  3.90000000E+02  4.40000000E+01  0.00000000E+00
  3.90000000E+02  4.20000000E+01  0.00000000E+00
  3.90000000E+02  4.00000000E+01  0.00000000E+00
  3.90000000E+02  3.80000000E+01  0.00000000E+00
  3.90000000E+02  3.60000000E+01  0.00000000E+00
  3.90000000E+02  3.40000000E+01  0.00000000E+00
  3.90000000E+02  3.20000000E+01  0.00000000E+00
  3.90000000E+02  3.00000000E+01  0.00000000E+00
  3.90000000E+02  2.80000000E+01  0.00000000E+00
  3.90000000E+02  2.60000000E+01  0.00000000E+00
  3.90000000E+02  2.40000000E+01  0.00000000E+00
  3.90000000E+02  2.20000000E+01  0.00000000E+00
  3.90000000E+02  2.00000000E+01  0.00000000E+00
  3.90000000E+02  1.80000000E+01  0.00000000E+00
  3.90000000E+02  1.60000000E+01  0.00000000E+00
  3.90000000E+02  1.40000000E+01  0.00000000E+00
  3.90000000E+02  1.20000000E+01  0.00000000E+00
  3.90000000E+02  1.00000000E+01  0.00000000E+00
  3.90000000E+02  8.00000000E+00  0.00000000E+00
  3.90000000E+02  6.00000000E+00  0.00000000E+00
  3.90000000E+02  4.00000000E+00  0.00000000E+00
  3.90000000E+02  2.00000000E+00  0.00000000E+00
  3.90000000E+02 -3.33066907E-14  0.00000000E+00
  4.00000000E+02  1.00000000E+02  0.00000000E+00
  4.00000000E+02  9.80000000E+01  0.00000000E+00
  4.00000000E+02  9.60000000E+01  0.00000000E+00
  4.00000000E+02  9.40000000E+01  0.00000000E+00
  4.00000000E+02  9.20000000E+01  0.00000000E+00
  4.00000000E+02  9.00000000E+01  0.00000000E+00
  4.00000000E+02  8.80000000E+01  0.00000000E+00
  4.00000000E+02  8.60000000E+01  0.00000000E+00
  4.00000000E+02  8.40000000E+01  0.00000000E+00
  4.00000000E+02  8.20000000E+01  0.00000000E+00
  4.00000000E+02  8.00000000E+01  0.00000000E+00
  4.00000000E+02  7.80000000E+01  0.00000000E+00
  4.00000000E+02  7.60000000E+01  0.00000000E+00
  4.00000000E+02  7.40000000E+01  0.00000000E+00
  4.00000000E+02  7.20000000E+01  0.00000000E+00
  4.00000000E+02  7.00000000E+01  0.00000000E+00
  4.00000000E+02  6.80000000E+01  0.00000000E+00
  4.00000000E+02  6.60000000E+01  0.00000000E+00
  4.00000000E+02  6.40000000E+01  0.00000000E+00
  4.00000000E+02  6.20000000E+01  0.00000000E+00
  4.00000000E+02  6.00000000E+01  0.00000000E+00
  4.00000000E+02  5.80000000E+01  0.00000000E+00
  4.00000000E+02  5.60000000E+01  0.00000000E+00
  4.00000000E+02  5.40000000E+01  0.00000000E+00
  4.00000000E+02  5.20000000E+01  0.00000000E+00
  4.00000000E+02  5.00000000E+01  0.00000000E+00
  4.00000000E+02  4.80000000E+01  0.00000000E+00
  4.00000000E+02  4.60000000E+01  0.00000000E+00
  4.00000000E+02  4.40000000E+01  0.00000000E+00
  4.00000000E+02  4.20000000E+01  0.00000000E+00
  4.00000000E+02  4.00000000E+01  0.00000000E+00
  4.00000000E+02  3.80000000E+01  0.00000000E+00
  4.00000000E+02  3.60000000E+01  0.00000000E+00
  4.00000000E+02  3.40000000E+01  0.00000000E+00
  4.00000000E+02  3.20000000E+01  0.00000000E+00
  4.00000000E+02  3.00000000E+01  0.00000000E+00
  4.00000000E+02  2.80000000E+01  0.00000000E+00
  4.00000000E+02  2.60000000E+01  0.00000000E+00
  4.00000000E+02  2.40000000E+01  0.00000000E+00
  4.00000000E+02  2.20000000E+01  0.00000000E+00
  4.00000000E+02  2.00000000E+01  0.00000000E+00
  4.00000000E+02  1.80000000E+01  0.00000000E+00
  4.00000000E+02  1.60000000E+01  0.00000000E+00
  4.00000000E+02  1.40000000E+01  0.00000000E+00
  4.00000000E+02  1.20000000E+01  0.00000000E+00
  4.00000000E+02  1.00000000E+01  0.00000000E+00
  4.00000000E+02  8.00000000E+00  0.00000000E+00
  4.00000000E+02  6.00000000E+00  0.00000000E+00
  4.00000000E+02  4.00000000E+00  0.00000000E+00
  4.00000000E+02  2.00000000E+00  0.00000000E+00
  4.00000000E+02 -3.33066907E-14  0.00000000E+00
  4.10000000E+02  1.00000000E+02  0.00000000E+00
  4.10000000E+02  9.80000000E+01  0.00000000E+00
  4.10000000E+02  9.60000000E+01  0.00000000E+00
  4.10000000E+02  9.40000000E+01  0.00000000E+00
  4.10000000E+02  9.20000000E+01  0.00000000E+00
  4.10000000E+02  9.00000000E+01  0.00000000E+00
  4.10000000E+02  8.80000000E+01  0.00000000E+00
  4.10000000E+02  8.60000000E+01  0.00000000E+00
  4.10000000E+02  8.40000000E+01  0.00000000E+00
  4.10000000E+02  8.20000000E+01  0.00000000E+00
  4.10000000E+02  8.00000000E+01  0.00000000E+00
  4.10000000E+02  7.80000000E+01  0.00000000E+00
  4.10000000E+02  7.60000000E+01  0.00000000E+00
  4.10000000E+02  7.40000000E+01  0.00000000E+00
  4.10000000E+02  7.20000000E+01  0.00000000E+00
  4.10000000E+02  7.00000000E+01  0.00000000E+00
  4.10000000E+02  6.80000000E+01  0.00000000E+00
  4.10000000E+02  6.60000000E+01  0.00000000E+00
  4.10000000E+02  6.40000000E+01  0.00000000E+00
  4.10000000E+02  6.20000000E+01  0.00000000E+00
  4.10000000E+02  6.00000000E+01  0.00000000E+00
  4.10000000E+02  5.80000000E+01  0.00000000E+00
  4.10000000E+02  5.60000000E+01  0.00000000E+00
  4.10000000E+02  5.40000000E+01  0.00000000E+00
  4.10000000E+02  5.20000000E+01  0.00000000E+00
  4.10000000E+02  5.00000000E+01  0.00000000E+00
  4.10000000E+02  4.80000000E+01  0.00000000E+00
  4.10000000E+02  4.60000000E+01  0.00000000E+00
  4.10000000E+02  4.40000000E+01  0.00000000E+00
  4.10000000E+02  4.20000000E+01  0.00000000E+00
  4.10000000E+02  4.00000000E+01  0.00000000E+00
  4.10000000E+02  3.80000000E+01  0.00000000E+00
  4.10000000E+02  3.60000000E+01  0.00000000E+00
  4.10000000E+02  3.40000000E+01  0.00000000E+00
  4.10000000E+02  3.20000000E+01  0.00000000E+00
  4.10000000E+02  3.00000000E+01  0.00000000E+00
  4.10000000E+02  2.80000000E+01  0.00000000E+00
  4.10000000E+02  2.60000000E+01  0.00000000E+00
  4.10000000E+02  2.40000000E+01  0.00000000E+00
  4.10000000E+02  2.20000000E+01  0.00000000E+00
  4.10000000E+02  2.00000000E+01  0.00000000E+00
  4.10000000E+02  1.80000000E+01  0.00000000E+00
  4.10000000E+02  1.60000000E+01  0.00000000E+00
  4.10000000E+02  1.40000000E+01  0.00000000E+00
  4.10000000E+02  1.20000000E+01  0.00000000E+00
  4.10000000E+02  1.00000000E+01  0.00000000E+00
  4.10000000E+02  8.00000000E+00  0.00000000E+00
  4.10000000E+02  6.00000000E+00  0.00000000E+00
  4.10000000E+02  4.00000000E+00  0.00000000E+00
  4.10000000E+02  2.00000000E+00  0.00000000E+00
  4.10000000E+02 -3.33066907E-14  0.00000000E+00
  4.20000000E+02  1.00000000E+02  0.00000000E+00
  4.20000000E+02  9.80000000E+01  0.00000000E+00
  4.20000000E+02  9.60000000E+01  0.00000000E+00
  4.20000000E+02  9.40000000E+01  0.00000000E+00
  4.20000000E+02  9.20000000E+01  0.00000000E+00
  4.20000000E+02  9.00000000E+01  0.00000000E+00
  4.20000000E+02  8.80000000E+01  0.00000000E+00
  4.20000000E+02  8.60000000E+01  0.00000000E+00
  4.20000000E+02  8.40000000E+01  0.00000000E+00
  4.20000000E+02  8.20000000E+01  0.00000000E+00
  4.20000000E+02  8.00000000E+01  0.00000000E+00
  4.20000000E+02  7.80000000E+01  0.00000000E+00
  4.20000000E+02  7.60000000E+01  0.00000000E+00
  4.20000000E+02  7.40000000E+01  0.00000000E+00
  4.20000000E+02  7.20000000E+01  0.00000000E+00
  4.20000000E+02  7.00000000E+01  0.00000000E+00
  4.20000000E+02  6.80000000E+01  0.00000000E+00
  4.20000000E+02  6.60000000E+01  0.00000000E+00
  4.20000000E+02  6.40000000E+01  0.00000000E+00
  4.20000000E+02  6.20000000E+01  0.00000000E+00
  4.20000000E+02  6.00000000E+01  0.00000000E+00
  4.20000000E+02  5.80000000E+01  0.00000000E+00
  4.20000000E+02  5.60000000E+01  0.00000000E+00
  4.20000000E+02  5.40000000E+01  0.00000000E+00
  4.20000000E+02  5.20000000E+01  0.00000000E+00
  4.20000000E+02  5.00000000E+01  0.00000000E+00
  4.20000000E+02  4.80000000E+01  0.00000000E+00
  4.20000000E+02  4.60000000E+01  0.00000000E+00
  4.20000000E+02  4.40000000E+01  0.00000000E+00
  4.20000000E+02  4.20000000E+01  0.00000000E+00
  4.20000000E+02  4.00000000E+01  0.00000000E+00
  4.20000000E+02  3.80000000E+01  0.00000000E+00
  4.20000000E+02  3.60000000E+01  0.00000000E+00
  4.20000000E+02  3.40000000E+01  0.00000000E+00
  4.20000000E+02  3.20000000E+01  0.00000000E+00
  4.20000000E+02  3.00000000E+01  0.00000000E+00
  4.20000000E+02  2.80000000E+01  0.00000000E+00
  4.20000000E+02  2.60000000E+01  0.00000000E+00
  4.20000000E+02  2.40000000E+01  0.00000000E+00
  4.20000000E+02  2.20000000E+01  0.00000000E+00
  4.20000000E+02  2.00000000E+01  0.00000000E+00
  4.20000000E+02  1.80000000E+01  0.00000000E+00
  4.20000000E+02  1.60000000E+01  0.00000000E+00
  4.20000000E+02  1.40000000E+01  0.00000000E+00
  4.20000000E+02  1.20000000E+01  0.00000000E+00
  4.20000000E+02  1.00000000E+01  0.00000000E+00
  4.20000000E+02  8.00000000E+00  0.00000000E+00
  4.20000000E+02  6.00000000E+00  0.00000000E+00
  4.20000000E+02  4.00000000E+00  0.00000000E+00
  4.20000000E+02  2.00000000E+00  0.00000000E+00
  4.20000000E+02 -3.33066907E-14  0.00000000E+00
  4.30000000E+02  1.00000000E+02  0.00000000E+00
  4.30000000E+02  9.80000000E+01  0.00000000E+00
  4.30000000E+02  9.60000000E+01  0.00000000E+00
  4.30000000E+02  9.40000000E+01  0.00000000E+00
  4.30000000E+02  9.20000000E+01  0.00000000E+00
  4.30000000E+02  9.00000000E+01  0.00000000E+00
  4.30000000E+02  8.80000000E+01  0.00000000E+00
  4.30000000E+02  8.60000000E+01  0.00000000E+00
  4.30000000E+02  8.40000000E+01  0.00000000E+00
  4.30000000E+02  8.20000000E+01  0.00000000E+00
  4.30000000E+02  8.00000000E+01  0.00000000E+00
  4.30000000E+02  7.80000000E+01  0.00000000E+00
  4.30000000E+02  7.60000000E+01  0.00000000E+00
  4.30000000E+02  7.40000000E+01  0.00000000E+00
  4.30000000E+02  7.20000000E+01  0.00000000E+00
  4.30000000E+02  7.00000000E+01  0.00000000E+00
  4.30000000E+02  6.80000000E+01  0.00000000E+00
  4.30000000E+02  6.60000000E+01  0.00000000E+00
  4.30000000E+02  6.40000000E+01  0.00000000E+00
  4.30000000E+02  6.20000000E+01  0.00000000E+00
  4.30000000E+02  6.00000000E+01  0.00000000E+00
  4.30000000E+02  5.80000000E+01  0.00000000E+00
  4.30000000E+02  5.60000000E+01  0.00000000E+00
  4.30000000E+02  5.40000000E+01  0.00000000E+00
  4.30000000E+02  5.20000000E+01  0.00000000E+00
  4.30000000E+02  5.00000000E+01  0.00000000E+00
  4.30000000E+02  4.80000000E+01  0.00000000E+00
  4.30000000E+02  4.60000000E+01  0.00000000E+00
  4.30000000E+02  4.40000000E+01  0.00000000E+00
  4.30000000E+02  4.20000000E+01  0.00000000E+00
  4.30000000E+02  4.00000000E+01  0.00000000E+00
  4.30000000E+02  3.80000000E+01  0.00000000E+00
  4.30000000E+02  3.60000000E+01  0.00000000E+00
  4.30000000E+02  3.40000000E+01  0.00000000E+00
  4.30000000E+02  3.20000000E+01  0.00000000E+00
  4.30000000E+02  3.00000000E+01  0.00000000E+00
  4.30000000E+02  2.80000000E+01  0.00000000E+00
  4.30000000E+02  2.60000000E+01  0.00000000E+00
  4.30000000E+02  2.40000000E+01  0.00000000E+00
  4.30000000E+02  2.20000000E+01  0.00000000E+00
  4.30000000E+02  2.00000000E+01  0.00000000E+00
  4.30000000E+02  1.80000000E+01  0.00000000E+00
  4.30000000E+02  1.60000000E+01  0.00000000E+00
  4.30000000E+02  1.40000000E+01  0.00000000E+00
  4.30000000E+02  1.20000000E+01  0.00000000E+00
  4.30000000E+02  1.00000000E+01  0.00000000E+00
  4.30000000E+02  8.00000000E+00  0.00000000E+00
  4.30000000E+02  6.00000000E+00  0.00000000E+00
  4.30000000E+02  4.00000000E+00  0.00000000E+00
  4.30000000E+02  2.00000000E+00  0.00000000E+00
  4.30000000E+02 -3.33066907E-14  0.00000000E+00
  4.40000000E+02  1.00000000E+02  0.00000000E+00
  4.40000000E+02  9.80000000E+01  0.00000000E+00
  4.40000000E+02  9.60000000E+01  0.00000000E+00
  4.40000000E+02  9.40000000E+01  0.00000000E+00
  4.40000000E+02  9.20000000E+01  0.00000000E+00
  4.40000000E+02  9.00000000E+01  0.00000000E+00
  4.40000000E+02  8.80000000E+01  0.00000000E+00
  4.40000000E+02  8.60000000E+01  0.00000000E+00
  4.40000000E+02  8.40000000E+01  0.00000000E+00
  4.40000000E+02  8.20000000E+01  0.00000000E+00
  4.40000000E+02  8.00000000E+01  0.00000000E+00
  4.40000000E+02  7.80000000E+01  0.00000000E+00
  4.40000000E+02  7.60000000E+01  0.00000000E+00
  4.40000000E+02  7.40000000E+01  0.00000000E+00
  4.40000000E+02  7.20000000E+01  0.00000000E+00
  4.40000000E+02  7.00000000E+01  0.00000000E+00
  4.40000000E+02  6.80000000E+01  0.00000000E+00
  4.40000000E+02  6.60000000E+01  0.00000000E+00
  4.40000000E+02  6.40000000E+01  0.00000000E+00
  4.40000000E+02  6.20000000E+01  0.00000000E+00
  4.40000000E+02  6.00000000E+01  0.00000000E+00
  4.40000000E+02  5.80000000E+01  0.00000000E+00
  4.40000000E+02  5.60000000E+01  0.00000000E+00
  4.40000000E+02  5.40000000E+01  0.00000000E+00
  4.40000000E+02  5.20000000E+01  0.00000000E+00
  4.40000000E+02  5.00000000E+01  0.00000000E+00
  4.40000000E+02  4.80000000E+01  0.00000000E+00
  4.40000000E+02  4.60000000E+01  0.00000000E+00
  4.40000000E+02  4.40000000E+01  0.00000000E+00
  4.40000000E+02  4.20000000E+01  0.00000000E+00
  4.40000000E+02  4.00000000E+01  0.00000000E+00
  4.40000000E+02  3.80000000E+01  0.00000000E+00
  4.40000000E+02  3.60000000E+01  0.00000000E+00
  4.40000000E+02  3.40000000E+01  0.00000000E+00
  4.40000000E+02  3.20000000E+01  0.00000000E+00
  4.40000000E+02  3.00000000E+01  0.00000000E+00
  4.40000000E+02  2.80000000E+01  0.00000000E+00
  4.40000000E+02  2.60000000E+01  0.00000000E+00
  4.40000000E+02  2.40000000E+01  0.00000000E+00
  4.40000000E+02  2.20000000E+01  0.00000000E+00
  4.40000000E+02  2.00000000E+01  0.00000000E+00
  4.40000000E+02  1.80000000E+01  0.00000000E+00
  4.40000000E+02  1.60000000E+01  0.00000000E+00
  4.40000000E+02  1.40000000E+01  0.00000000E+00
  4.40000000E+02  1.20000000E+01  0.00000000E+00
  4.40000000E+02  1.00000000E+01  0.00000000E+00
  4.40000000E+02  8.00000000E+00  0.00000000E+00
  4.40000000E+02  6.00000000E+00  0.00000000E+00
  4.40000000E+02  4.00000000E+00  0.00000000E+00
  4.40000000E+02  2.00000000E+00  0.00000000E+00
  4.40000000E+02 -3.33066907E-14  0.00000000E+00
  4.50000000E+02  1.00000000E+02  0.00000000E+00
  4.50000000E+02  9.80000000E+01  0.00000000E+00
  4.50000000E+02  9.60000000E+01  0.00000000E+00
  4.50000000E+02  9.40000000E+01  0.00000000E+00
  4.50000000E+02  9.20000000E+01  0.00000000E+00
  4.50000000E+02  9.00000000E+01  0.00000000E+00
  4.50000000E+02  8.80000000E+01  0.00000000E+00
  4.50000000E+02  8.60000000E+01  0.00000000E+00
  4.50000000E+02  8.40000000E+01  0.00000000E+00
  4.50000000E+02  8.20000000E+01  0.00000000E+00
  4.50000000E+02  8.00000000E+01  0.00000000E+00
  4.50000000E+02  7.80000000E+01  0.00000000E+00
  4.50000000E+02  7.60000000E+01  0.00000000E+00
  4.50000000E+02  7.40000000E+01  0.00000000E+00
  4.50000000E+02  7.20000000E+01  0.00000000E+00
  4.50000000E+02  7.00000000E+01  0.00000000E+00
  4.50000000E+02  6.80000000E+01  0.00000000E+00
  4.50000000E+02  6.60000000E+01  0.00000000E+00
  4.50000000E+02  6.40000000E+01  0.00000000E+00
  4.50000000E+02  6.20000000E+01  0.00000000E+00
  4.50000000E+02  6.00000000E+01  0.00000000E+00
  4.50000000E+02  5.80000000E+01  0.00000000E+00
  4.50000000E+02  5.60000000E+01  0.00000000E+00
  4.50000000E+02  5.40000000E+01  0.00000000E+00
  4.50000000E+02  5.20000000E+01  0.00000000E+00
  4.50000000E+02  5.00000000E+01  0.00000000E+00
  4.50000000E+02  4.80000000E+01  0.00000000E+00
  4.50000000E+02  4.60000000E+01  0.00000000E+00
  4.50000000E+02  4.40000000E+01  0.00000000E+00
  4.50000000E+02  4.20000000E+01  0.00000000E+00
  4.50000000E+02  4.00000000E+01  0.00000000E+00
  4.50000000E+02  3.80000000E+01  0.00000000E+00
  4.50000000E+02  3.60000000E+01  0.00000000E+00
  4.50000000E+02  3.40000000E+01  0.00000000E+00
  4.50000000E+02  3.20000000E+01  0.00000000E+00
  4.50000000E+02  3.00000000E+01  0.00000000E+00
  4.50000000E+02  2.80000000E+01  0.00000000E+00
  4.50000000E+02  2.60000000E+01  0.00000000E+00
  4.50000000E+02  2.40000000E+01  0.00000000E+00
  4.50000000E+02  2.20000000E+01  0.00000000E+00
  4.50000000E+02  2.00000000E+01  0.00000000E+00
  4.50000000E+02  1.80000000E+01  0.00000000E+00
  4.50000000E+02  1.60000000E+01  0.00000000E+00
  4.50000000E+02  1.40000000E+01  0.00000000E+00
  4.50000000E+02  1.20000000E+01  0.00000000E+00
  4.50000000E+02  1.00000000E+01  0.00000000E+00
  4.50000000E+02  8.00000000E+00  0.00000000E+00
  4.50000000E+02  6.00000000E+00  0.00000000E+00
  4.50000000E+02  4.00000000E+00  0.00000000E+00
  4.50000000E+02  2.00000000E+00  0.00000000E+00
  4.50000000E+02 -3.33066907E-14  0.00000000E+00
  4.60000000E+02  1.00000000E+02  0.00000000E+00
  4.60000000E+02  9.80000000E+01  0.00000000E+00
  4.60000000E+02  9.60000000E+01  0.00000000E+00
  4.60000000E+02  9.40000000E+01  0.00000000E+00
  4.60000000E+02  9.20000000E+01  0.00000000E+00
  4.60000000E+02  9.00000000E+01  0.00000000E+00
  4.60000000E+02  8.80000000E+01  0.00000000E+00
  4.60000000E+02  8.60000000E+01  0.00000000E+00
  4.60000000E+02  8.40000000E+01  0.00000000E+00
  4.60000000E+02  8.20000000E+01  0.00000000E+00
  4.60000000E+02  8.00000000E+01  0.00000000E+00
  4.60000000E+02  7.80000000E+01  0.00000000E+00
  4.60000000E+02  7.60000000E+01  0.00000000E+00
  4.60000000E+02  7.40000000E+01  0.00000000E+00
  4.60000000E+02  7.20000000E+01  0.00000000E+00
  4.60000000E+02  7.00000000E+01  0.00000000E+00
  4.60000000E+02  6.80000000E+01  0.00000000E+00
  4.60000000E+02  6.60000000E+01  0.00000000E+00
  4.60000000E+02  6.40000000E+01  0.00000000E+00
  4.60000000E+02  6.20000000E+01  0.00000000E+00
  4.60000000E+02  6.00000000E+01  0.00000000E+00
  4.60000000E+02  5.80000000E+01  0.00000000E+00
  4.60000000E+02  5.60000000E+01  0.00000000E+00
  4.60000000E+02  5.40000000E+01  0.00000000E+00
  4.60000000E+02  5.20000000E+01  0.00000000E+00
  4.60000000E+02  5.00000000E+01  0.00000000E+00
  4.60000000E+02  4.80000000E+01  0.00000000E+00
  4.60000000E+02  4.60000000E+01  0.00000000E+00
  4.60000000E+02  4.40000000E+01  0.00000000E+00
  4.60000000E+02  4.20000000E+01  0.00000000E+00
  4.60000000E+02  4.00000000E+01  0.00000000E+00
  4.60000000E+02  3.80000000E+01  0.00000000E+00
  4.60000000E+02  3.60000000E+01  0.00000000E+00
  4.60000000E+02  3.40000000E+01  0.00000000E+00
  4.60000000E+02  3.20000000E+01  0.00000000E+00
  4.60000000E+02  3.00000000E+01  0.00000000E+00
  4.60000000E+02  2.80000000E+01  0.00000000E+00
  4.60000000E+02  2.60000000E+01  0.00000000E+00
  4.60000000E+02  2.40000000E+01  0.00000000E+00
  4.60000000E+02  2.20000000E+01  0.00000000E+00
  4.60000000E+02  2.00000000E+01  0.00000000E+00
  4.60000000E+02  1.80000000E+01  0.00000000E+00
  4.60000000E+02  1.60000000E+01  0.00000000E+00
  4.60000000E+02  1.40000000E+01  0.00000000E+00
  4.60000000E+02  1.20000000E+01  0.00000000E+00
  4.60000000E+02  1.00000000E+01  0.00000000E+00
  4.60000000E+02  8.00000000E+00  0.00000000E+00
  4.60000000E+02  6.00000000E+00  0.00000000E+00
  4.60000000E+02  4.00000000E+00  0.00000000E+00
  4.60000000E+02  2.00000000E+00  0.00000000E+00
  4.60000000E+02 -3.33066907E-14  0.00000000E+00
  4.70000000E+02  1.00000000E+02  0.00000000E+00
  4.70000000E+02  9.80000000E+01  0.00000000E+00
  4.70000000E+02  9.60000000E+01  0.00000000E+00
  4.70000000E+02  9.40000000E+01  0.00000000E+00
  4.70000000E+02  9.20000000E+01  0.00000000E+00
  4.70000000E+02  9.00000000E+01  0.00000000E+00
  4.70000000E+02  8.80000000E+01  0.00000000E+00
  4.70000000E+02  8.60000000E+01  0.00000000E+00
  4.70000000E+02  8.40000000E+01  0.00000000E+00
  4.70000000E+02  8.20000000E+01  0.00000000E+00
  4.70000000E+02  8.00000000E+01  0.00000000E+00
  4.70000000E+02  7.80000000E+01  0.00000000E+00
  4.70000000E+02  7.60000000E+01  0.00000000E+00
  4.70000000E+02  7.40000000E+01  0.00000000E+00
  4.70000000E+02  7.20000000E+01  0.00000000E+00
  4.70000000E+02  7.00000000E+01  0.00000000E+00
  4.70000000E+02  6.80000000E+01  0.00000000E+00
  4.70000000E+02  6.60000000E+01  0.00000000E+00
  4.70000000E+02  6.40000000E+01  0.00000000E+00
  4.70000000E+02  6.20000000E+01  0.00000000E+00
  4.70000000E+02  6.00000000E+01  0.00000000E+00
  4.70000000E+02  5.80000000E+01  0.00000000E+00
  4.70000000E+02  5.60000000E+01  0.00000000E+00
  4.70000000E+02  5.40000000E+01  0.00000000E+00
  4.70000000E+02  5.20000000E+01  0.00000000E+00
  4.70000000E+02  5.00000000E+01  0.00000000E+00
  4.70000000E+02  4.80000000E+01  0.00000000E+00
  4.70000000E+02  4.60000000E+01  0.00000000E+00
  4.70000000E+02  4.40000000E+01  0.00000000E+00
  4.70000000E+02  4.20000000E+01  0.00000000E+00
  4.70000000E+02  4.00000000E+01  0.00000000E+00
  4.70000000E+02  3.80000000E+01  0.00000000E+00
  4.70000000E+02  3.60000000E+01  0.00000000E+00
  4.70000000E+02  3.40000000E+01  0.00000000E+00
  4.70000000E+02  3.20000000E+01  0.00000000E+00
  4.70000000E+02  3.00000000E+01  0.00000000E+00
  4.70000000E+02  2.80000000E+01  0.00000000E+00
  4.70000000E+02  2.60000000E+01  0.00000000E+00
  4.70000000E+02  2.40000000E+01  0.00000000E+00
  4.70000000E+02  2.20000000E+01  0.00000000E+00
  4.70000000E+02  2.00000000E+01  0.00000000E+00
  4.70000000E+02  1.80000000E+01  0.00000000E+00
  4.70000000E+02  1.60000000E+01  0.00000000E+00
  4.70000000E+02  1.40000000E+01  0.00000000E+00
  4.70000000E+02  1.20000000E+01  0.00000000E+00
  4.70000000E+02  1.00000000E+01  0.00000000E+00
  4.70000000E+02  8.00000000E+00  0.00000000E+00
  4.70000000E+02  6.00000000E+00  0.00000000E+00
  4.70000000E+02  4.00000000E+00  0.00000000E+00
  4.70000000E+02  2.00000000E+00  0.00000000E+00
  4.70000000E+02 -3.33066907E-14  0.00000000E+00
  4.80000000E+02  1.00000000E+02  0.00000000E+00
  4.80000000E+02  9.80000000E+01  0.00000000E+00
  4.80000000E+02  9.60000000E+01  0.00000000E+00
  4.80000000E+02  9.40000000E+01  0.00000000E+00
  4.80000000E+02  9.20000000E+01  0.00000000E+00
  4.80000000E+02  9.00000000E+01  0.00000000E+00
  4.80000000E+02  8.80000000E+01  0.00000000E+00
  4.80000000E+02  8.60000000E+01  0.00000000E+00
  4.80000000E+02  8.40000000E+01  0.00000000E+00
  4.80000000E+02  8.20000000E+01  0.00000000E+00
  4.80000000E+02  8.00000000E+01  0.00000000E+00
  4.80000000E+02  7.80000000E+01  0.00000000E+00
  4.80000000E+02  7.60000000E+01  0.00000000E+00
  4.80000000E+02  7.40000000E+01  0.00000000E+00
  4.80000000E+02  7.20000000E+01  0.00000000E+00
  4.80000000E+02  7.00000000E+01  0.00000000E+00
  4.80000000E+02  6.80000000E+01  0.00000000E+00
  4.80000000E+02  6.60000000E+01  0.00000000E+00
  4.80000000E+02  6.40000000E+01  0.00000000E+00
  4.80000000E+02  6.20000000E+01  0.00000000E+00
  4.80000000E+02  6.00000000E+01  0.00000000E+00
  4.80000000E+02  5.80000000E+01  0.00000000E+00
  4.80000000E+02  5.60000000E+01  0.00000000E+00
  4.80000000E+02  5.40000000E+01  0.00000000E+00
  4.80000000E+02  5.20000000E+01  0.00000000E+00
  4.80000000E+02  5.00000000E+01  0.00000000E+00
  4.80000000E+02  4.80000000E+01  0.00000000E+00
  4.80000000E+02  4.60000000E+01  0.00000000E+00
  4.80000000E+02  4.40000000E+01  0.00000000E+00
  4.80000000E+02  4.20000000E+01  0.00000000E+00
  4.80000000E+02  4.00000000E+01  0.00000000E+00
  4.80000000E+02  3.80000000E+01  0.00000000E+00
  4.80000000E+02  3.60000000E+01  0.00000000E+00
  4.80000000E+02  3.40000000E+01  0.00000000E+00
  4.80000000E+02  3.20000000E+01  0.00000000E+00
  4.80000000E+02  3.00000000E+01  0.00000000E+00
  4.80000000E+02  2.80000000E+01  0.00000000E+00
  4.80000000E+02  2.60000000E+01  0.00000000E+00
  4.80000000E+02  2.40000000E+01  0.00000000E+00
  4.80000000E+02  2.20000000E+01  0.00000000E+00
  4.80000000E+02  2.00000000E+01  0.00000000E+00
  4.80000000E+02  1.80000000E+01  0.00000000E+00
  4.80000000E+02  1.60000000E+01  0.00000000E+00
  4.80000000E+02  1.40000000E+01  0.00000000E+00
  4.80000000E+02  1.20000000E+01  0.00000000E+00
  4.80000000E+02  1.00000000E+01  0.00000000E+00
  4.80000000E+02  8.00000000E+00  0.00000000E+00
  4.80000000E+02  6.00000000E+00  0.00000000E+00
  4.80000000E+02  4.00000000E+00  0.00000000E+00
  4.80000000E+02  2.00000000E+00  0.00000000E+00
  4.80000000E+02 -3.33066907E-14  0.00000000E+00
  4.90000000E+02  1.00000000E+02  0.00000000E+00
  4.90000000E+02  9.80000000E+01  0.00000000E+00
  4.90000000E+02  9.60000000E+01  0.00000000E+00
  4.90000000E+02  9.40000000E+01  0.00000000E+00
  4.90000000E+02  9.20000000E+01  0.00000000E+00
  4.90000000E+02  9.00000000E+01  0.00000000E+00
  4.90000000E+02  8.80000000E+01  0.00000000E+00
  4.90000000E+02  8.60000000E+01  0.00000000E+00
  4.90000000E+02  8.40000000E+01  0.00000000E+00
  4.90000000E+02  8.20000000E+01  0.00000000E+00
  4.90000000E+02  8.00000000E+01  0.00000000E+00
  4.90000000E+02  7.80000000E+01  0.00000000E+00
  4.90000000E+02  7.60000000E+01  0.00000000E+00
  4.90000000E+02  7.40000000E+01  0.00000000E+00
  4.90000000E+02  7.20000000E+01  0.00000000E+00
  4.90000000E+02  7.00000000E+01  0.00000000E+00
  4.90000000E+02  6.80000000E+01  0.00000000E+00
  4.90000000E+02  6.60000000E+01  0.00000000E+00
  4.90000000E+02  6.40000000E+01  0.00000000E+00
  4.90000000E+02  6.20000000E+01  0.00000000E+00
  4.90000000E+02  6.00000000E+01  0.00000000E+00
  4.90000000E+02  5.80000000E+01  0.00000000E+00
  4.90000000E+02  5.60000000E+01  0.00000000E+00
  4.90000000E+02  5.40000000E+01  0.00000000E+00
  4.90000000E+02  5.20000000E+01  0.00000000E+00
  4.90000000E+02  5.00000000E+01  0.00000000E+00
  4.90000000E+02  4.80000000E+01  0.00000000E+00
  4.90000000E+02  4.60000000E+01  0.00000000E+00
  4.90000000E+02  4.40000000E+01  0.00000000E+00
  4.90000000E+02  4.20000000E+01  0.00000000E+00
  4.90000000E+02  4.00000000E+01  0.00000000E+00
  4.90000000E+02  3.80000000E+01  0.00000000E+00
  4.90000000E+02  3.60000000E+01  0.00000000E+00
  4.90000000E+02  3.40000000E+01  0.00000000E+00
  4.90000000E+02  3.20000000E+01  0.00000000E+00
  4.90000000E+02  3.00000000E+01  0.00000000E+00
  4.90000000E+02  2.80000000E+01  0.00000000E+00
  4.90000000E+02  2.60000000E+01  0.00000000E+00
  4.90000000E+02  2.40000000E+01  0.00000000E+00
  4.90000000E+02  2.20000000E+01  0.00000000E+00
  4.90000000E+02  2.00000000E+01  0.00000000E+00
  4.90000000E+02  1.80000000E+01  0.00000000E+00
  4.90000000E+02  1.60000000E+01  0.00000000E+00
  4.90000000E+02  1.40000000E+01  0.00000000E+00
  4.90000000E+02  1.20000000E+01  0.00000000E+00
  4.90000000E+02  1.00000000E+01  0.00000000E+00
  4.90000000E+02  8.00000000E+00  0.00000000E+00
  4.90000000E+02  6.00000000E+00  0.00000000E+00
  4.90000000E+02  4.00000000E+00  0.00000000E+00
  4.90000000E+02  2.00000000E+00  0.00000000E+00
  4.90000000E+02 -3.33066907E-14  0.00000000E+00
  5.00000000E+02  1.00000000E+02  0.00000000E+00
  5.00000000E+02  9.80000000E+01  0.00000000E+00
  5.00000000E+02  9.60000000E+01  0.00000000E+00
  5.00000000E+02  9.40000000E+01  0.00000000E+00
  5.00000000E+02  9.20000000E+01  0.00000000E+00
  5.00000000E+02  9.00000000E+01  0.00000000E+00
  5.00000000E+02  8.80000000E+01  0.00000000E+00
  5.00000000E+02  8.60000000E+01  0.00000000E+00
  5.00000000E+02  8.40000000E+01  0.00000000E+00
  5.00000000E+02  8.20000000E+01  0.00000000E+00
  5.00000000E+02  8.00000000E+01  0.00000000E+00
  5.00000000E+02  7.80000000E+01  0.00000000E+00
  5.00000000E+02  7.60000000E+01  0.00000000E+00
  5.00000000E+02  7.40000000E+01  0.00000000E+00
  5.00000000E+02  7.20000000E+01  0.00000000E+00
  5.00000000E+02  7.00000000E+01  0.00000000E+00
  5.00000000E+02  6.80000000E+01  0.00000000E+00
  5.00000000E+02  6.60000000E+01  0.00000000E+00
  5.00000000E+02  6.40000000E+01  0.00000000E+00
  5.00000000E+02  6.20000000E+01  0.00000000E+00
  5.00000000E+02  6.00000000E+01  0.00000000E+00
  5.00000000E+02  5.80000000E+01  0.00000000E+00
  5.00000000E+02  5.60000000E+01  0.00000000E+00
  5.00000000E+02  5.40000000E+01  0.00000000E+00
  5.00000000E+02  5.20000000E+01  0.00000000E+00
  5.00000000E+02  5.00000000E+01  0.00000000E+00
  5.00000000E+02  4.80000000E+01  0.00000000E+00
  5.00000000E+02  4.60000000E+01  0.00000000E+00
  5.00000000E+02  4.40000000E+01  0.00000000E+00
  5.00000000E+02  4.20000000E+01  0.00000000E+00
  5.00000000E+02  4.00000000E+01  0.00000000E+00
  5.00000000E+02  3.80000000E+01  0.00000000E+00
  5.00000000E+02  3.60000000E+01  0.00000000E+00
  5.00000000E+02  3.40000000E+01  0.00000000E+00
  5.00000000E+02  3.20000000E+01  0.00000000E+00
  5.00000000E+02  3.00000000E+01  0.00000000E+00
  5.00000000E+02  2.80000000E+01  0.00000000E+00
  5.00000000E+02  2.60000000E+01  0.00000000E+00
  5.00000000E+02  2.40000000E+01  0.00000000E+00
  5.00000000E+02  2.20000000E+01  0.00000000E+00
  5.00000000E+02  2.00000000E+01  0.00000000E+00
  5.00000000E+02  1.80000000E+01  0.00000000E+00
  5.00000000E+02  1.60000000E+01  0.00000000E+00
  5.00000000E+02  1.40000000E+01  0.00000000E+00
  5.00000000E+02  1.20000000E+01  0.00000000E+00
  5.00000000E+02  1.00000000E+01  0.00000000E+00
  5.00000000E+02  8.00000000E+00  0.00000000E+00
  5.00000000E+02  6.00000000E+00  0.00000000E+00
  5.00000000E+02  4.00000000E+00  0.00000000E+00
  5.00000000E+02  2.00000000E+00  0.00000000E+00
  5.00000000E+02 -3.33066907E-14  0.00000000E+00
  5.10000000E+02  1.00000000E+02  0.00000000E+00
  5.10000000E+02  9.80000000E+01  0.00000000E+00
  5.10000000E+02  9.60000000E+01  0.00000000E+00
  5.10000000E+02  9.40000000E+01  0.00000000E+00
  5.10000000E+02  9.20000000E+01  0.00000000E+00
  5.10000000E+02  9.00000000E+01  0.00000000E+00
  5.10000000E+02  8.80000000E+01  0.00000000E+00
  5.10000000E+02  8.60000000E+01  0.00000000E+00
  5.10000000E+02  8.40000000E+01  0.00000000E+00
  5.10000000E+02  8.20000000E+01  0.00000000E+00
  5.10000000E+02  8.00000000E+01  0.00000000E+00
  5.10000000E+02  7.80000000E+01  0.00000000E+00
  5.10000000E+02  7.60000000E+01  0.00000000E+00
  5.10000000E+02  7.40000000E+01  0.00000000E+00
  5.10000000E+02  7.20000000E+01  0.00000000E+00
  5.10000000E+02  7.00000000E+01  0.00000000E+00
  5.10000000E+02  6.80000000E+01  0.00000000E+00
  5.10000000E+02  6.60000000E+01  0.00000000E+00
  5.10000000E+02  6.40000000E+01  0.00000000E+00
  5.10000000E+02  6.20000000E+01  0.00000000E+00
  5.10000000E+02  6.00000000E+01  0.00000000E+00
  5.10000000E+02  5.80000000E+01  0.00000000E+00
  5.10000000E+02  5.60000000E+01  0.00000000E+00
  5.10000000E+02  5.40000000E+01  0.00000000E+00
  5.10000000E+02  5.20000000E+01  0.00000000E+00
  5.10000000E+02  5.00000000E+01  0.00000000E+00
  5.10000000E+02  4.80000000E+01  0.00000000E+00
  5.10000000E+02  4.60000000E+01  0.00000000E+00
  5.10000000E+02  4.40000000E+01  0.00000000E+00
  5.10000000E+02  4.20000000E+01  0.00000000E+00
  5.10000000E+02  4.00000000E+01  0.00000000E+00
  5.10000000E+02  3.80000000E+01  0.00000000E+00
  5.10000000E+02  3.60000000E+01  0.00000000E+00
  5.10000000E+02  3.40000000E+01  0.00000000E+00
  5.10000000E+02  3.20000000E+01  0.00000000E+00
  5.10000000E+02  3.00000000E+01  0.00000000E+00
  5.10000000E+02  2.80000000E+01  0.00000000E+00
  5.10000000E+02  2.60000000E+01  0.00000000E+00
  5.10000000E+02  2.40000000E+01  0.00000000E+00
  5.10000000E+02  2.20000000E+01  0.00000000E+00
  5.10000000E+02  2.00000000E+01  0.00000000E+00
  5.10000000E+02  1.80000000E+01  0.00000000E+00
  5.10000000E+02  1.60000000E+01  0.00000000E+00
  5.10000000E+02  1.40000000E+01  0.00000000E+00
  5.10000000E+02  1.20000000E+01  0.00000000E+00
  5.10000000E+02  1.00000000E+01  0.00000000E+00
  5.10000000E+02  8.00000000E+00  0.00000000E+00
  5.10000000E+02  6.00000000E+00  0.00000000E+00
  5.10000000E+02  4.00000000E+00  0.00000000E+00
  5.10000000E+02  2.00000000E+00  0.00000000E+00
  5.10000000E+02 -3.33066907E-14  0.00000000E+00
  5.20000000E+02  1.00000000E+02  0.00000000E+00
  5.20000000E+02  9.80000000E+01  0.00000000E+00
  5.20000000E+02  9.60000000E+01  0.00000000E+00
  5.20000000E+02  9.40000000E+01  0.00000000E+00
  5.20000000E+02  9.20000000E+01  0.00000000E+00
  5.20000000E+02  9.00000000E+01  0.00000000E+00
  5.20000000E+02  8.80000000E+01  0.00000000E+00
  5.20000000E+02  8.60000000E+01  0.00000000E+00
  5.20000000E+02  8.40000000E+01  0.00000000E+00
  5.20000000E+02  8.20000000E+01  0.00000000E+00
  5.20000000E+02  8.00000000E+01  0.00000000E+00
  5.20000000E+02  7.80000000E+01  0.00000000E+00
  5.20000000E+02  7.60000000E+01  0.00000000E+00
  5.20000000E+02  7.40000000E+01  0.00000000E+00
  5.20000000E+02  7.20000000E+01  0.00000000E+00
  5.20000000E+02  7.00000000E+01  0.00000000E+00
  5.20000000E+02  6.80000000E+01  0.00000000E+00
  5.20000000E+02  6.60000000E+01  0.00000000E+00
  5.20000000E+02  6.40000000E+01  0.00000000E+00
  5.20000000E+02  6.20000000E+01  0.00000000E+00
  5.20000000E+02  6.00000000E+01  0.00000000E+00
  5.20000000E+02  5.80000000E+01  0.00000000E+00
  5.20000000E+02  5.60000000E+01  0.00000000E+00
  5.20000000E+02  5.40000000E+01  0.00000000E+00
  5.20000000E+02  5.20000000E+01  0.00000000E+00
  5.20000000E+02  5.00000000E+01  0.00000000E+00
  5.20000000E+02  4.80000000E+01  0.00000000E+00
  5.20000000E+02  4.60000000E+01  0.00000000E+00
  5.20000000E+02  4.40000000E+01  0.00000000E+00
  5.20000000E+02  4.20000000E+01  0.00000000E+00
  5.20000000E+02  4.00000000E+01  0.00000000E+00
  5.20000000E+02  3.80000000E+01  0.00000000E+00
  5.20000000E+02  3.60000000E+01  0.00000000E+00
  5.20000000E+02  3.40000000E+01  0.00000000E+00
  5.20000000E+02  3.20000000E+01  0.00000000E+00
  5.20000000E+02  3.00000000E+01  0.00000000E+00
  5.20000000E+02  2.80000000E+01  0.00000000E+00
  5.20000000E+02  2.60000000E+01  0.00000000E+00
  5.20000000E+02  2.40000000E+01  0.00000000E+00
  5.20000000E+02  2.20000000E+01  0.00000000E+00
  5.20000000E+02  2.00000000E+01  0.00000000E+00
  5.20000000E+02  1.80000000E+01  0.00000000E+00
  5.20000000E+02  1.60000000E+01  0.00000000E+00
  5.20000000E+02  1.40000000E+01  0.00000000E+00
  5.20000000E+02  1.20000000E+01  0.00000000E+00
  5.20000000E+02  1.00000000E+01  0.00000000E+00
  5.20000000E+02  8.00000000E+00  0.00000000E+00
  5.20000000E+02  6.00000000E+00  0.00000000E+00
  5.20000000E+02  4.00000000E+00  0.00000000E+00
  5.20000000E+02  2.00000000E+00  0.00000000E+00
  5.20000000E+02 -3.33066907E-14  0.00000000E+00
  5.30000000E+02  1.00000000E+02  0.00000000E+00
  5.30000000E+02  9.80000000E+01  0.00000000E+00
  5.30000000E+02  9.60000000E+01  0.00000000E+00
  5.30000000E+02  9.40000000E+01  0.00000000E+00
  5.30000000E+02  9.20000000E+01  0.00000000E+00
  5.30000000E+02  9.00000000E+01  0.00000000E+00
  5.30000000E+02  8.80000000E+01  0.00000000E+00
  5.30000000E+02  8.60000000E+01  0.00000000E+00
  5.30000000E+02  8.40000000E+01  0.00000000E+00
  5.30000000E+02  8.20000000E+01  0.00000000E+00
  5.30000000E+02  8.00000000E+01  0.00000000E+00
  5.30000000E+02  7.80000000E+01  0.00000000E+00
  5.30000000E+02  7.60000000E+01  0.00000000E+00
  5.30000000E+02  7.40000000E+01  0.00000000E+00
  5.30000000E+02  7.20000000E+01  0.00000000E+00
  5.30000000E+02  7.00000000E+01  0.00000000E+00
  5.30000000E+02  6.80000000E+01  0.00000000E+00
  5.30000000E+02  6.60000000E+01  0.00000000E+00
  5.30000000E+02  6.40000000E+01  0.00000000E+00
  5.30000000E+02  6.20000000E+01  0.00000000E+00
  5.30000000E+02  6.00000000E+01  0.00000000E+00
  5.30000000E+02  5.80000000E+01  0.00000000E+00
  5.30000000E+02  5.60000000E+01  0.00000000E+00
  5.30000000E+02  5.40000000E+01  0.00000000E+00
  5.30000000E+02  5.20000000E+01  0.00000000E+00
  5.30000000E+02  5.00000000E+01  0.00000000E+00
  5.30000000E+02  4.80000000E+01  0.00000000E+00
  5.30000000E+02  4.60000000E+01  0.00000000E+00
  5.30000000E+02  4.40000000E+01  0.00000000E+00
  5.30000000E+02  4.20000000E+01  0.00000000E+00
  5.30000000E+02  4.00000000E+01  0.00000000E+00
  5.30000000E+02  3.80000000E+01  0.00000000E+00
  5.30000000E+02  3.60000000E+01  0.00000000E+00
  5.30000000E+02  3.40000000E+01  0.00000000E+00
  5.30000000E+02  3.20000000E+01  0.00000000E+00
  5.30000000E+02  3.00000000E+01  0.00000000E+00
  5.30000000E+02  2.80000000E+01  0.00000000E+00
  5.30000000E+02  2.60000000E+01  0.00000000E+00
  5.30000000E+02  2.40000000E+01  0.00000000E+00
  5.30000000E+02  2.20000000E+01  0.00000000E+00
  5.30000000E+02  2.00000000E+01  0.00000000E+00
  5.30000000E+02  1.80000000E+01  0.00000000E+00
  5.30000000E+02  1.60000000E+01  0.00000000E+00
  5.30000000E+02  1.40000000E+01  0.00000000E+00
  5.30000000E+02  1.20000000E+01  0.00000000E+00
  5.30000000E+02  1.00000000E+01  0.00000000E+00
  5.30000000E+02  8.00000000E+00  0.00000000E+00
  5.30000000E+02  6.00000000E+00  0.00000000E+00
  5.30000000E+02  4.00000000E+00  0.00000000E+00
  5.30000000E+02  2.00000000E+00  0.00000000E+00
  5.30000000E+02 -3.33066907E-14  0.00000000E+00
  5.40000000E+02  1.00000000E+02  0.00000000E+00
  5.40000000E+02  9.80000000E+01  0.00000000E+00
  5.40000000E+02  9.60000000E+01  0.00000000E+00
  5.40000000E+02  9.40000000E+01  0.00000000E+00
  5.40000000E+02  9.20000000E+01  0.00000000E+00
  5.40000000E+02  9.00000000E+01  0.00000000E+00
  5.40000000E+02  8.80000000E+01  0.00000000E+00
  5.40000000E+02  8.60000000E+01  0.00000000E+00
  5.40000000E+02  8.40000000E+01  0.00000000E+00
  5.40000000E+02  8.20000000E+01  0.00000000E+00
  5.40000000E+02  8.00000000E+01  0.00000000E+00
  5.40000000E+02  7.80000000E+01  0.00000000E+00
  5.40000000E+02  7.60000000E+01  0.00000000E+00
  5.40000000E+02  7.40000000E+01  0.00000000E+00
  5.40000000E+02  7.20000000E+01  0.00000000E+00
  5.40000000E+02  7.00000000E+01  0.00000000E+00
  5.40000000E+02  6.80000000E+01  0.00000000E+00
  5.40000000E+02  6.60000000E+01  0.00000000E+00
  5.40000000E+02  6.40000000E+01  0.00000000E+00
  5.40000000E+02  6.20000000E+01  0.00000000E+00
  5.40000000E+02  6.00000000E+01  0.00000000E+00
  5.40000000E+02  5.80000000E+01  0.00000000E+00
  5.40000000E+02  5.60000000E+01  0.00000000E+00
  5.40000000E+02  5.40000000E+01  0.00000000E+00
  5.40000000E+02  5.20000000E+01  0.00000000E+00
  5.40000000E+02  5.00000000E+01  0.00000000E+00
  5.40000000E+02  4.80000000E+01  0.00000000E+00
  5.40000000E+02  4.60000000E+01  0.00000000E+00
  5.40000000E+02  4.40000000E+01  0.00000000E+00
  5.40000000E+02  4.20000000E+01  0.00000000E+00
  5.40000000E+02  4.00000000E+01  0.00000000E+00
  5.40000000E+02  3.80000000E+01  0.00000000E+00
  5.40000000E+02  3.60000000E+01  0.00000000E+00
  5.40000000E+02  3.40000000E+01  0.00000000E+00
  5.40000000E+02  3.20000000E+01  0.00000000E+00
  5.40000000E+02  3.00000000E+01  0.00000000E+00
  5.40000000E+02  2.80000000E+01  0.00000000E+00
  5.40000000E+02  2.60000000E+01  0.00000000E+00
  5.40000000E+02  2.40000000E+01  0.00000000E+00
  5.40000000E+02  2.20000000E+01  0.00000000E+00
  5.40000000E+02  2.00000000E+01  0.00000000E+00
  5.40000000E+02  1.80000000E+01  0.00000000E+00
  5.40000000E+02  1.60000000E+01  0.00000000E+00
  5.40000000E+02  1.40000000E+01  0.00000000E+00
  5.40000000E+02  1.20000000E+01  0.00000000E+00
  5.40000000E+02  1.00000000E+01  0.00000000E+00
  5.40000000E+02  8.00000000E+00  0.00000000E+00
  5.40000000E+02  6.00000000E+00  0.00000000E+00
  5.40000000E+02  4.00000000E+00  0.00000000E+00
  5.40000000E+02  2.00000000E+00  0.00000000E+00
  5.40000000E+02 -3.33066907E-14  0.00000000E+00
  5.50000000E+02  1.00000000E+02  0.00000000E+00
  5.50000000E+02  9.80000000E+01  0.00000000E+00
  5.50000000E+02  9.60000000E+01  0.00000000E+00
  5.50000000E+02  9.40000000E+01  0.00000000E+00
  5.50000000E+02  9.20000000E+01  0.00000000E+00
  5.50000000E+02  9.00000000E+01  0.00000000E+00
  5.50000000E+02  8.80000000E+01  0.00000000E+00
  5.50000000E+02  8.60000000E+01  0.00000000E+00
  5.50000000E+02  8.40000000E+01  0.00000000E+00
  5.50000000E+02  8.20000000E+01  0.00000000E+00
  5.50000000E+02  8.00000000E+01  0.00000000E+00
  5.50000000E+02  7.80000000E+01  0.00000000E+00
  5.50000000E+02  7.60000000E+01  0.00000000E+00
  5.50000000E+02  7.40000000E+01  0.00000000E+00
  5.50000000E+02  7.20000000E+01  0.00000000E+00
  5.50000000E+02  7.00000000E+01  0.00000000E+00
  5.50000000E+02  6.80000000E+01  0.00000000E+00
  5.50000000E+02  6.60000000E+01  0.00000000E+00
  5.50000000E+02  6.40000000E+01  0.00000000E+00
  5.50000000E+02  6.20000000E+01  0.00000000E+00
  5.50000000E+02  6.00000000E+01  0.00000000E+00
  5.50000000E+02  5.80000000E+01  0.00000000E+00
  5.50000000E+02  5.60000000E+01  0.00000000E+00
  5.50000000E+02  5.40000000E+01  0.00000000E+00
  5.50000000E+02  5.20000000E+01  0.00000000E+00
  5.50000000E+02  5.00000000E+01  0.00000000E+00
  5.50000000E+02  4.80000000E+01  0.00000000E+00
  5.50000000E+02  4.60000000E+01  0.00000000E+00
  5.50000000E+02  4.40000000E+01  0.00000000E+00
  5.50000000E+02  4.20000000E+01  0.00000000E+00
  5.50000000E+02  4.00000000E+01  0.00000000E+00
  5.50000000E+02  3.80000000E+01  0.00000000E+00
  5.50000000E+02  3.60000000E+01  0.00000000E+00
  5.50000000E+02  3.40000000E+01  0.00000000E+00
  5.50000000E+02  3.20000000E+01  0.00000000E+00
  5.50000000E+02  3.00000000E+01  0.00000000E+00
  5.50000000E+02  2.80000000E+01  0.00000000E+00
  5.50000000E+02  2.60000000E+01  0.00000000E+00
  5.50000000E+02  2.40000000E+01  0.00000000E+00
  5.50000000E+02  2.20000000E+01  0.00000000E+00
  5.50000000E+02  2.00000000E+01  0.00000000E+00
  5.50000000E+02  1.80000000E+01  0.00000000E+00
  5.50000000E+02  1.60000000E+01  0.00000000E+00
  5.50000000E+02  1.40000000E+01  0.00000000E+00
  5.50000000E+02  1.20000000E+01  0.00000000E+00
  5.50000000E+02  1.00000000E+01  0.00000000E+00
  5.50000000E+02  8.00000000E+00  0.00000000E+00
  5.50000000E+02  6.00000000E+00  0.00000000E+00
  5.50000000E+02  4.00000000E+00  0.00000000E+00
  5.50000000E+02  2.00000000E+00  0.00000000E+00
  5.50000000E+02 -3.33066907E-14  0.00000000E+00
  5.60000000E+02  1.00000000E+02  0.00000000E+00
  5.60000000E+02  9.80000000E+01  0.00000000E+00
  5.60000000E+02  9.60000000E+01  0.00000000E+00
  5.60000000E+02  9.40000000E+01  0.00000000E+00
  5.60000000E+02  9.20000000E+01  0.00000000E+00
  5.60000000E+02  9.00000000E+01  0.00000000E+00
  5.60000000E+02  8.80000000E+01  0.00000000E+00
  5.60000000E+02  8.60000000E+01  0.00000000E+00
  5.60000000E+02  8.40000000E+01  0.00000000E+00
  5.60000000E+02  8.20000000E+01  0.00000000E+00
  5.60000000E+02  8.00000000E+01  0.00000000E+00
  5.60000000E+02  7.80000000E+01  0.00000000E+00
  5.60000000E+02  7.60000000E+01  0.00000000E+00
  5.60000000E+02  7.40000000E+01  0.00000000E+00
  5.60000000E+02  7.20000000E+01  0.00000000E+00
  5.60000000E+02  7.00000000E+01  0.00000000E+00
  5.60000000E+02  6.80000000E+01  0.00000000E+00
  5.60000000E+02  6.60000000E+01  0.00000000E+00
  5.60000000E+02  6.40000000E+01  0.00000000E+00
  5.60000000E+02  6.20000000E+01  0.00000000E+00
  5.60000000E+02  6.00000000E+01  0.00000000E+00
  5.60000000E+02  5.80000000E+01  0.00000000E+00
  5.60000000E+02  5.60000000E+01  0.00000000E+00
  5.60000000E+02  5.40000000E+01  0.00000000E+00
  5.60000000E+02  5.20000000E+01  0.00000000E+00
  5.60000000E+02  5.00000000E+01  0.00000000E+00
  5.60000000E+02  4.80000000E+01  0.00000000E+00
  5.60000000E+02  4.60000000E+01  0.00000000E+00
  5.60000000E+02  4.40000000E+01  0.00000000E+00
  5.60000000E+02  4.20000000E+01  0.00000000E+00
  5.60000000E+02  4.00000000E+01  0.00000000E+00
  5.60000000E+02  3.80000000E+01  0.00000000E+00
  5.60000000E+02  3.60000000E+01  0.00000000E+00
  5.60000000E+02  3.40000000E+01  0.00000000E+00
  5.60000000E+02  3.20000000E+01  0.00000000E+00
  5.60000000E+02  3.00000000E+01  0.00000000E+00
  5.60000000E+02  2.80000000E+01  0.00000000E+00
  5.60000000E+02  2.60000000E+01  0.00000000E+00
  5.60000000E+02  2.40000000E+01  0.00000000E+00
  5.60000000E+02  2.20000000E+01  0.00000000E+00
  5.60000000E+02  2.00000000E+01  0.00000000E+00
  5.60000000E+02  1.80000000E+01  0.00000000E+00
  5.60000000E+02  1.60000000E+01  0.00000000E+00
  5.60000000E+02  1.40000000E+01  0.00000000E+00
  5.60000000E+02  1.20000000E+01  0.00000000E+00
  5.60000000E+02  1.00000000E+01  0.00000000E+00
  5.60000000E+02  8.00000000E+00  0.00000000E+00
  5.60000000E+02  6.00000000E+00  0.00000000E+00
  5.60000000E+02  4.00000000E+00  0.00000000E+00
  5.60000000E+02  2.00000000E+00  0.00000000E+00
  5.60000000E+02 -3.33066907E-14  0.00000000E+00
  5.70000000E+02  1.00000000E+02  0.00000000E+00
  5.70000000E+02  9.80000000E+01  0.00000000E+00
  5.70000000E+02  9.60000000E+01  0.00000000E+00
  5.70000000E+02  9.40000000E+01  0.00000000E+00
  5.70000000E+02  9.20000000E+01  0.00000000E+00
  5.70000000E+02  9.00000000E+01  0.00000000E+00
  5.70000000E+02  8.80000000E+01  0.00000000E+00
  5.70000000E+02  8.60000000E+01  0.00000000E+00
  5.70000000E+02  8.40000000E+01  0.00000000E+00
  5.70000000E+02  8.20000000E+01  0.00000000E+00
  5.70000000E+02  8.00000000E+01  0.00000000E+00
  5.70000000E+02  7.80000000E+01  0.00000000E+00
  5.70000000E+02  7.60000000E+01  0.00000000E+00
  5.70000000E+02  7.40000000E+01  0.00000000E+00
  5.70000000E+02  7.20000000E+01  0.00000000E+00
  5.70000000E+02  7.00000000E+01  0.00000000E+00
  5.70000000E+02  6.80000000E+01  0.00000000E+00
  5.70000000E+02  6.60000000E+01  0.00000000E+00
  5.70000000E+02  6.40000000E+01  0.00000000E+00
  5.70000000E+02  6.20000000E+01  0.00000000E+00
  5.70000000E+02  6.00000000E+01  0.00000000E+00
  5.70000000E+02  5.80000000E+01  0.00000000E+00
  5.70000000E+02  5.60000000E+01  0.00000000E+00
  5.70000000E+02  5.40000000E+01  0.00000000E+00
  5.70000000E+02  5.20000000E+01  0.00000000E+00
  5.70000000E+02  5.00000000E+01  0.00000000E+00
  5.70000000E+02  4.80000000E+01  0.00000000E+00
  5.70000000E+02  4.60000000E+01  0.00000000E+00
  5.70000000E+02  4.40000000E+01  0.00000000E+00
  5.70000000E+02  4.20000000E+01  0.00000000E+00
  5.70000000E+02  4.00000000E+01  0.00000000E+00
  5.70000000E+02  3.80000000E+01  0.00000000E+00
  5.70000000E+02  3.60000000E+01  0.00000000E+00
  5.70000000E+02  3.40000000E+01  0.00000000E+00
  5.70000000E+02  3.20000000E+01  0.00000000E+00
  5.70000000E+02  3.00000000E+01  0.00000000E+00
  5.70000000E+02  2.80000000E+01  0.00000000E+00
  5.70000000E+02  2.60000000E+01  0.00000000E+00
  5.70000000E+02  2.40000000E+01  0.00000000E+00
  5.70000000E+02  2.20000000E+01  0.00000000E+00
  5.70000000E+02  2.00000000E+01  0.00000000E+00
  5.70000000E+02  1.80000000E+01  0.00000000E+00
  5.70000000E+02  1.60000000E+01  0.00000000E+00
  5.70000000E+02  1.40000000E+01  0.00000000E+00
  5.70000000E+02  1.20000000E+01  0.00000000E+00
  5.70000000E+02  1.00000000E+01  0.00000000E+00
  5.70000000E+02  8.00000000E+00  0.00000000E+00
  5.70000000E+02  6.00000000E+00  0.00000000E+00
  5.70000000E+02  4.00000000E+00  0.00000000E+00
  5.70000000E+02  2.00000000E+00  0.00000000E+00
  5.70000000E+02 -3.33066907E-14  0.00000000E+00
  5.80000000E+02  1.00000000E+02  0.00000000E+00
  5.80000000E+02  9.80000000E+01  0.00000000E+00
  5.80000000E+02  9.60000000E+01  0.00000000E+00
  5.80000000E+02  9.40000000E+01  0.00000000E+00
  5.80000000E+02  9.20000000E+01  0.00000000E+00
  5.80000000E+02  9.00000000E+01  0.00000000E+00
  5.80000000E+02  8.80000000E+01  0.00000000E+00
  5.80000000E+02  8.60000000E+01  0.00000000E+00
  5.80000000E+02  8.40000000E+01  0.00000000E+00
  5.80000000E+02  8.20000000E+01  0.00000000E+00
  5.80000000E+02  8.00000000E+01  0.00000000E+00
  5.80000000E+02  7.80000000E+01  0.00000000E+00
  5.80000000E+02  7.60000000E+01  0.00000000E+00
  5.80000000E+02  7.40000000E+01  0.00000000E+00
  5.80000000E+02  7.20000000E+01  0.00000000E+00
  5.80000000E+02  7.00000000E+01  0.00000000E+00
  5.80000000E+02  6.80000000E+01  0.00000000E+00
  5.80000000E+02  6.60000000E+01  0.00000000E+00
  5.80000000E+02  6.40000000E+01  0.00000000E+00
  5.80000000E+02  6.20000000E+01  0.00000000E+00
  5.80000000E+02  6.00000000E+01  0.00000000E+00
  5.80000000E+02  5.80000000E+01  0.00000000E+00
  5.80000000E+02  5.60000000E+01  0.00000000E+00
  5.80000000E+02  5.40000000E+01  0.00000000E+00
  5.80000000E+02  5.20000000E+01  0.00000000E+00
  5.80000000E+02  5.00000000E+01  0.00000000E+00
  5.80000000E+02  4.80000000E+01  0.00000000E+00
  5.80000000E+02  4.60000000E+01  0.00000000E+00
  5.80000000E+02  4.40000000E+01  0.00000000E+00
  5.80000000E+02  4.20000000E+01  0.00000000E+00
  5.80000000E+02  4.00000000E+01  0.00000000E+00
  5.80000000E+02  3.80000000E+01  0.00000000E+00
  5.80000000E+02  3.60000000E+01  0.00000000E+00
  5.80000000E+02  3.40000000E+01  0.00000000E+00
  5.80000000E+02  3.20000000E+01  0.00000000E+00
  5.80000000E+02  3.00000000E+01  0.00000000E+00
  5.80000000E+02  2.80000000E+01  0.00000000E+00
  5.80000000E+02  2.60000000E+01  0.00000000E+00
  5.80000000E+02  2.40000000E+01  0.00000000E+00
  5.80000000E+02  2.20000000E+01  0.00000000E+00
  5.80000000E+02  2.00000000E+01  0.00000000E+00
  5.80000000E+02  1.80000000E+01  0.00000000E+00
  5.80000000E+02  1.60000000E+01  0.00000000E+00
  5.80000000E+02  1.40000000E+01  0.00000000E+00
  5.80000000E+02  1.20000000E+01  0.00000000E+00
  5.80000000E+02  1.00000000E+01  0.00000000E+00
  5.80000000E+02  8.00000000E+00  0.00000000E+00
  5.80000000E+02  6.00000000E+00  0.00000000E+00
  5.80000000E+02  4.00000000E+00  0.00000000E+00
  5.80000000E+02  2.00000000E+00  0.00000000E+00
  5.80000000E+02 -3.33066907E-14  0.00000000E+00
  5.90000000E+02  1.00000000E+02  0.00000000E+00
  5.90000000E+02  9.80000000E+01  0.00000000E+00
  5.90000000E+02  9.60000000E+01  0.00000000E+00
  5.90000000E+02  9.40000000E+01  0.00000000E+00
  5.90000000E+02  9.20000000E+01  0.00000000E+00
  5.90000000E+02  9.00000000E+01  0.00000000E+00
  5.90000000E+02  8.80000000E+01  0.00000000E+00
  5.90000000E+02  8.60000000E+01  0.00000000E+00
  5.90000000E+02  8.40000000E+01  0.00000000E+00
  5.90000000E+02  8.20000000E+01  0.00000000E+00
  5.90000000E+02  8.00000000E+01  0.00000000E+00
  5.90000000E+02  7.80000000E+01  0.00000000E+00
  5.90000000E+02  7.60000000E+01  0.00000000E+00
  5.90000000E+02  7.40000000E+01  0.00000000E+00
  5.90000000E+02  7.20000000E+01  0.00000000E+00
  5.90000000E+02  7.00000000E+01  0.00000000E+00
  5.90000000E+02  6.80000000E+01  0.00000000E+00
  5.90000000E+02  6.60000000E+01  0.00000000E+00
  5.90000000E+02  6.40000000E+01  0.00000000E+00
  5.90000000E+02  6.20000000E+01  0.00000000E+00
  5.90000000E+02  6.00000000E+01  0.00000000E+00
  5.90000000E+02  5.80000000E+01  0.00000000E+00
  5.90000000E+02  5.60000000E+01  0.00000000E+00
  5.90000000E+02  5.40000000E+01  0.00000000E+00
  5.90000000E+02  5.20000000E+01  0.00000000E+00
  5.90000000E+02  5.00000000E+01  0.00000000E+00
  5.90000000E+02  4.80000000E+01  0.00000000E+00
  5.90000000E+02  4.60000000E+01  0.00000000E+00
  5.90000000E+02  4.40000000E+01  0.00000000E+00
  5.90000000E+02  4.20000000E+01  0.00000000E+00
  5.90000000E+02  4.00000000E+01  0.00000000E+00
  5.90000000E+02  3.80000000E+01  0.00000000E+00
  5.90000000E+02  3.60000000E+01  0.00000000E+00
  5.90000000E+02  3.40000000E+01  0.00000000E+00
  5.90000000E+02  3.20000000E+01  0.00000000E+00
  5.90000000E+02  3.00000000E+01  0.00000000E+00
  5.90000000E+02  2.80000000E+01  0.00000000E+00
  5.90000000E+02  2.60000000E+01  0.00000000E+00
  5.90000000E+02  2.40000000E+01  0.00000000E+00
  5.90000000E+02  2.20000000E+01  0.00000000E+00
  5.90000000E+02  2.00000000E+01  0.00000000E+00
  5.90000000E+02  1.80000000E+01  0.00000000E+00
  5.90000000E+02  1.60000000E+01  0.00000000E+00
  5.90000000E+02  1.40000000E+01  0.00000000E+00
  5.90000000E+02  1.20000000E+01  0.00000000E+00
  5.90000000E+02  1.00000000E+01  0.00000000E+00
  5.90000000E+02  8.00000000E+00  0.00000000E+00
  5.90000000E+02  6.00000000E+00  0.00000000E+00
  5.90000000E+02  4.00000000E+00  0.00000000E+00
  5.90000000E+02  2.00000000E+00  0.00000000E+00
  5.90000000E+02 -3.33066907E-14  0.00000000E+00
  6.00000000E+02  1.00000000E+02  0.00000000E+00
  6.00000000E+02  9.80000000E+01  0.00000000E+00
  6.00000000E+02  9.60000000E+01  0.00000000E+00
  6.00000000E+02  9.40000000E+01  0.00000000E+00
  6.00000000E+02  9.20000000E+01  0.00000000E+00
  6.00000000E+02  9.00000000E+01  0.00000000E+00
  6.00000000E+02  8.80000000E+01  0.00000000E+00
  6.00000000E+02  8.60000000E+01  0.00000000E+00
  6.00000000E+02  8.40000000E+01  0.00000000E+00
  6.00000000E+02  8.20000000E+01  0.00000000E+00
  6.00000000E+02  8.00000000E+01  0.00000000E+00
  6.00000000E+02  7.80000000E+01  0.00000000E+00
  6.00000000E+02  7.60000000E+01  0.00000000E+00
  6.00000000E+02  7.40000000E+01  0.00000000E+00
  6.00000000E+02  7.20000000E+01  0.00000000E+00
  6.00000000E+02  7.00000000E+01  0.00000000E+00
  6.00000000E+02  6.80000000E+01  0.00000000E+00
  6.00000000E+02  6.60000000E+01  0.00000000E+00
  6.00000000E+02  6.40000000E+01  0.00000000E+00
  6.00000000E+02  6.20000000E+01  0.00000000E+00
  6.00000000E+02  6.00000000E+01  0.00000000E+00
  6.00000000E+02  5.80000000E+01  0.00000000E+00
  6.00000000E+02  5.60000000E+01  0.00000000E+00
  6.00000000E+02  5.40000000E+01  0.00000000E+00
  6.00000000E+02  5.20000000E+01  0.00000000E+00
  6.00000000E+02  5.00000000E+01  0.00000000E+00
  6.00000000E+02  4.80000000E+01  0.00000000E+00
  6.00000000E+02  4.60000000E+01  0.00000000E+00
  6.00000000E+02  4.40000000E+01  0.00000000E+00
  6.00000000E+02  4.20000000E+01  0.00000000E+00
  6.00000000E+02  4.00000000E+01  0.00000000E+00
  6.00000000E+02  3.80000000E+01  0.00000000E+00
  6.00000000E+02  3.60000000E+01  0.00000000E+00
  6.00000000E+02  3.40000000E+01  0.00000000E+00
  6.00000000E+02  3.20000000E+01  0.00000000E+00
  6.00000000E+02  3.00000000E+01  0.00000000E+00
  6.00000000E+02  2.80000000E+01  0.00000000E+00
  6.00000000E+02  2.60000000E+01  0.00000000E+00
  6.00000000E+02  2.40000000E+01  0.00000000E+00
  6.00000000E+02  2.20000000E+01  0.00000000E+00
  6.00000000E+02  2.00000000E+01  0.00000000E+00
  6.00000000E+02  1.80000000E+01  0.00000000E+00
  6.00000000E+02  1.60000000E+01  0.00000000E+00
  6.00000000E+02  1.40000000E+01  0.00000000E+00
  6.00000000E+02  1.20000000E+01  0.00000000E+00
  6.00000000E+02  1.00000000E+01  0.00000000E+00
  6.00000000E+02  8.00000000E+00  0.00000000E+00
  6.00000000E+02  6.00000000E+00  0.00000000E+00
  6.00000000E+02  4.00000000E+00  0.00000000E+00
  6.00000000E+02  2.00000000E+00  0.00000000E+00
  6.00000000E+02 -3.33066907E-14  0.00000000E+00
  6.10000000E+02  1.00000000E+02  0.00000000E+00
  6.10000000E+02  9.80000000E+01  0.00000000E+00
  6.10000000E+02  9.60000000E+01  0.00000000E+00
  6.10000000E+02  9.40000000E+01  0.00000000E+00
  6.10000000E+02  9.20000000E+01  0.00000000E+00
  6.10000000E+02  9.00000000E+01  0.00000000E+00
  6.10000000E+02  8.80000000E+01  0.00000000E+00
  6.10000000E+02  8.60000000E+01  0.00000000E+00
  6.10000000E+02  8.40000000E+01  0.00000000E+00
  6.10000000E+02  8.20000000E+01  0.00000000E+00
  6.10000000E+02  8.00000000E+01  0.00000000E+00
  6.10000000E+02  7.80000000E+01  0.00000000E+00
  6.10000000E+02  7.60000000E+01  0.00000000E+00
  6.10000000E+02  7.40000000E+01  0.00000000E+00
  6.10000000E+02  7.20000000E+01  0.00000000E+00
  6.10000000E+02  7.00000000E+01  0.00000000E+00
  6.10000000E+02  6.80000000E+01  0.00000000E+00
  6.10000000E+02  6.60000000E+01  0.00000000E+00
  6.10000000E+02  6.40000000E+01  0.00000000E+00
  6.10000000E+02  6.20000000E+01  0.00000000E+00
  6.10000000E+02  6.00000000E+01  0.00000000E+00
  6.10000000E+02  5.80000000E+01  0.00000000E+00
  6.10000000E+02  5.60000000E+01  0.00000000E+00
  6.10000000E+02  5.40000000E+01  0.00000000E+00
  6.10000000E+02  5.20000000E+01  0.00000000E+00
  6.10000000E+02  5.00000000E+01  0.00000000E+00
  6.10000000E+02  4.80000000E+01  0.00000000E+00
  6.10000000E+02  4.60000000E+01  0.00000000E+00
  6.10000000E+02  4.40000000E+01  0.00000000E+00
  6.10000000E+02  4.20000000E+01  0.00000000E+00
  6.10000000E+02  4.00000000E+01  0.00000000E+00
  6.10000000E+02  3.80000000E+01  0.00000000E+00
  6.10000000E+02  3.60000000E+01  0.00000000E+00
  6.10000000E+02  3.40000000E+01  0.00000000E+00
  6.10000000E+02  3.20000000E+01  0.00000000E+00
  6.10000000E+02  3.00000000E+01  0.00000000E+00
  6.10000000E+02  2.80000000E+01  0.00000000E+00
  6.10000000E+02  2.60000000E+01  0.00000000E+00
  6.10000000E+02  2.40000000E+01  0.00000000E+00
  6.10000000E+02  2.20000000E+01  0.00000000E+00
  6.10000000E+02  2.00000000E+01  0.00000000E+00
  6.10000000E+02  1.80000000E+01  0.00000000E+00
  6.10000000E+02  1.60000000E+01  0.00000000E+00
  6.10000000E+02  1.40000000E+01  0.00000000E+00
  6.10000000E+02  1.20000000E+01  0.00000000E+00
  6.10000000E+02  1.00000000E+01  0.00000000E+00
  6.10000000E+02  8.00000000E+00  0.00000000E+00
  6.10000000E+02  6.00000000E+00  0.00000000E+00
  6.10000000E+02  4.00000000E+00  0.00000000E+00
  6.10000000E+02  2.00000000E+00  0.00000000E+00
  6.10000000E+02 -3.33066907E-14  0.00000000E+00
  6.20000000E+02  1.00000000E+02  0.00000000E+00
  6.20000000E+02  9.80000000E+01  0.00000000E+00
  6.20000000E+02  9.60000000E+01  0.00000000E+00
  6.20000000E+02  9.40000000E+01  0.00000000E+00
  6.20000000E+02  9.20000000E+01  0.00000000E+00
  6.20000000E+02  9.00000000E+01  0.00000000E+00
  6.20000000E+02  8.80000000E+01  0.00000000E+00
  6.20000000E+02  8.60000000E+01  0.00000000E+00
  6.20000000E+02  8.40000000E+01  0.00000000E+00
  6.20000000E+02  8.20000000E+01  0.00000000E+00
  6.20000000E+02  8.00000000E+01  0.00000000E+00
  6.20000000E+02  7.80000000E+01  0.00000000E+00
  6.20000000E+02  7.60000000E+01  0.00000000E+00
  6.20000000E+02  7.40000000E+01  0.00000000E+00
  6.20000000E+02  7.20000000E+01  0.00000000E+00
  6.20000000E+02  7.00000000E+01  0.00000000E+00
  6.20000000E+02  6.80000000E+01  0.00000000E+00
  6.20000000E+02  6.60000000E+01  0.00000000E+00
  6.20000000E+02  6.40000000E+01  0.00000000E+00
  6.20000000E+02  6.20000000E+01  0.00000000E+00
  6.20000000E+02  6.00000000E+01  0.00000000E+00
  6.20000000E+02  5.80000000E+01  0.00000000E+00
  6.20000000E+02  5.60000000E+01  0.00000000E+00
  6.20000000E+02  5.40000000E+01  0.00000000E+00
  6.20000000E+02  5.20000000E+01  0.00000000E+00
  6.20000000E+02  5.00000000E+01  0.00000000E+00
  6.20000000E+02  4.80000000E+01  0.00000000E+00
  6.20000000E+02  4.60000000E+01  0.00000000E+00
  6.20000000E+02  4.40000000E+01  0.00000000E+00
  6.20000000E+02  4.20000000E+01  0.00000000E+00
  6.20000000E+02  4.00000000E+01  0.00000000E+00
  6.20000000E+02  3.80000000E+01  0.00000000E+00
  6.20000000E+02  3.60000000E+01  0.00000000E+00
  6.20000000E+02  3.40000000E+01  0.00000000E+00
  6.20000000E+02  3.20000000E+01  0.00000000E+00
  6.20000000E+02  3.00000000E+01  0.00000000E+00
  6.20000000E+02  2.80000000E+01  0.00000000E+00
  6.20000000E+02  2.60000000E+01  0.00000000E+00
  6.20000000E+02  2.40000000E+01  0.00000000E+00
  6.20000000E+02  2.20000000E+01  0.00000000E+00
  6.20000000E+02  2.00000000E+01  0.00000000E+00
  6.20000000E+02  1.80000000E+01  0.00000000E+00
  6.20000000E+02  1.60000000E+01  0.00000000E+00
  6.20000000E+02  1.40000000E+01  0.00000000E+00
  6.20000000E+02  1.20000000E+01  0.00000000E+00
  6.20000000E+02  1.00000000E+01  0.00000000E+00
  6.20000000E+02  8.00000000E+00  0.00000000E+00
  6.20000000E+02  6.00000000E+00  0.00000000E+00
  6.20000000E+02  4.00000000E+00  0.00000000E+00
  6.20000000E+02  2.00000000E+00  0.00000000E+00
  6.20000000E+02 -3.33066907E-14  0.00000000E+00
  6.30000000E+02  1.00000000E+02  0.00000000E+00
  6.30000000E+02  9.80000000E+01  0.00000000E+00
  6.30000000E+02  9.60000000E+01  0.00000000E+00
  6.30000000E+02  9.40000000E+01  0.00000000E+00
  6.30000000E+02  9.20000000E+01  0.00000000E+00
  6.30000000E+02  9.00000000E+01  0.00000000E+00
  6.30000000E+02  8.80000000E+01  0.00000000E+00
  6.30000000E+02  8.60000000E+01  0.00000000E+00
  6.30000000E+02  8.40000000E+01  0.00000000E+00
  6.30000000E+02  8.20000000E+01  0.00000000E+00
  6.30000000E+02  8.00000000E+01  0.00000000E+00
  6.30000000E+02  7.80000000E+01  0.00000000E+00
  6.30000000E+02  7.60000000E+01  0.00000000E+00
  6.30000000E+02  7.40000000E+01  0.00000000E+00
  6.30000000E+02  7.20000000E+01  0.00000000E+00
  6.30000000E+02  7.00000000E+01  0.00000000E+00
  6.30000000E+02  6.80000000E+01  0.00000000E+00
  6.30000000E+02  6.60000000E+01  0.00000000E+00
  6.30000000E+02  6.40000000E+01  0.00000000E+00
  6.30000000E+02  6.20000000E+01  0.00000000E+00
  6.30000000E+02  6.00000000E+01  0.00000000E+00
  6.30000000E+02  5.80000000E+01  0.00000000E+00
  6.30000000E+02  5.60000000E+01  0.00000000E+00
  6.30000000E+02  5.40000000E+01  0.00000000E+00
  6.30000000E+02  5.20000000E+01  0.00000000E+00
  6.30000000E+02  5.00000000E+01  0.00000000E+00
  6.30000000E+02  4.80000000E+01  0.00000000E+00
  6.30000000E+02  4.60000000E+01  0.00000000E+00
  6.30000000E+02  4.40000000E+01  0.00000000E+00
  6.30000000E+02  4.20000000E+01  0.00000000E+00
  6.30000000E+02  4.00000000E+01  0.00000000E+00
  6.30000000E+02  3.80000000E+01  0.00000000E+00
  6.30000000E+02  3.60000000E+01  0.00000000E+00
  6.30000000E+02  3.40000000E+01  0.00000000E+00
  6.30000000E+02  3.20000000E+01  0.00000000E+00
  6.30000000E+02  3.00000000E+01  0.00000000E+00
  6.30000000E+02  2.80000000E+01  0.00000000E+00
  6.30000000E+02  2.60000000E+01  0.00000000E+00
  6.30000000E+02  2.40000000E+01  0.00000000E+00
  6.30000000E+02  2.20000000E+01  0.00000000E+00
  6.30000000E+02  2.00000000E+01  0.00000000E+00
  6.30000000E+02  1.80000000E+01  0.00000000E+00
  6.30000000E+02  1.60000000E+01  0.00000000E+00
  6.30000000E+02  1.40000000E+01  0.00000000E+00
  6.30000000E+02  1.20000000E+01  0.00000000E+00
  6.30000000E+02  1.00000000E+01  0.00000000E+00
  6.30000000E+02  8.00000000E+00  0.00000000E+00
  6.30000000E+02  6.00000000E+00  0.00000000E+00
  6.30000000E+02  4.00000000E+00  0.00000000E+00
  6.30000000E+02  2.00000000E+00  0.00000000E+00
  6.30000000E+02 -3.33066907E-14  0.00000000E+00
  6.40000000E+02  1.00000000E+02  0.00000000E+00
  6.40000000E+02  9.80000000E+01  0.00000000E+00
  6.40000000E+02  9.60000000E+01  0.00000000E+00
  6.40000000E+02  9.40000000E+01  0.00000000E+00
  6.40000000E+02  9.20000000E+01  0.00000000E+00
  6.40000000E+02  9.00000000E+01  0.00000000E+00
  6.40000000E+02  8.80000000E+01  0.00000000E+00
  6.40000000E+02  8.60000000E+01  0.00000000E+00
  6.40000000E+02  8.40000000E+01  0.00000000E+00
  6.40000000E+02  8.20000000E+01  0.00000000E+00
  6.40000000E+02  8.00000000E+01  0.00000000E+00
  6.40000000E+02  7.80000000E+01  0.00000000E+00
  6.40000000E+02  7.60000000E+01  0.00000000E+00
  6.40000000E+02  7.40000000E+01  0.00000000E+00
  6.40000000E+02  7.20000000E+01  0.00000000E+00
  6.40000000E+02  7.00000000E+01  0.00000000E+00
  6.40000000E+02  6.80000000E+01  0.00000000E+00
  6.40000000E+02  6.60000000E+01  0.00000000E+00
  6.40000000E+02  6.40000000E+01  0.00000000E+00
  6.40000000E+02  6.20000000E+01  0.00000000E+00
  6.40000000E+02  6.00000000E+01  0.00000000E+00
  6.40000000E+02  5.80000000E+01  0.00000000E+00
  6.40000000E+02  5.60000000E+01  0.00000000E+00
  6.40000000E+02  5.40000000E+01  0.00000000E+00
  6.40000000E+02  5.20000000E+01  0.00000000E+00
  6.40000000E+02  5.00000000E+01  0.00000000E+00
  6.40000000E+02  4.80000000E+01  0.00000000E+00
  6.40000000E+02  4.60000000E+01  0.00000000E+00
  6.40000000E+02  4.40000000E+01  0.00000000E+00
  6.40000000E+02  4.20000000E+01  0.00000000E+00
  6.40000000E+02  4.00000000E+01  0.00000000E+00
  6.40000000E+02  3.80000000E+01  0.00000000E+00
  6.40000000E+02  3.60000000E+01  0.00000000E+00
  6.40000000E+02  3.40000000E+01  0.00000000E+00
  6.40000000E+02  3.20000000E+01  0.00000000E+00
  6.40000000E+02  3.00000000E+01  0.00000000E+00
  6.40000000E+02  2.80000000E+01  0.00000000E+00
  6.40000000E+02  2.60000000E+01  0.00000000E+00
  6.40000000E+02  2.40000000E+01  0.00000000E+00
  6.40000000E+02  2.20000000E+01  0.00000000E+00
  6.40000000E+02  2.00000000E+01  0.00000000E+00
  6.40000000E+02  1.80000000E+01  0.00000000E+00
  6.40000000E+02  1.60000000E+01  0.00000000E+00
  6.40000000E+02  1.40000000E+01  0.00000000E+00
  6.40000000E+02  1.20000000E+01  0.00000000E+00
  6.40000000E+02  1.00000000E+01  0.00000000E+00
  6.40000000E+02  8.00000000E+00  0.00000000E+00
  6.40000000E+02  6.00000000E+00  0.00000000E+00
  6.40000000E+02  4.00000000E+00  0.00000000E+00
  6.40000000E+02  2.00000000E+00  0.00000000E+00
  6.40000000E+02 -3.33066907E-14  0.00000000E+00
  6.50000000E+02  1.00000000E+02  0.00000000E+00
  6.50000000E+02  9.80000000E+01  0.00000000E+00
  6.50000000E+02  9.60000000E+01  0.00000000E+00
  6.50000000E+02  9.40000000E+01  0.00000000E+00
  6.50000000E+02  9.20000000E+01  0.00000000E+00
  6.50000000E+02  9.00000000E+01  0.00000000E+00
  6.50000000E+02  8.80000000E+01  0.00000000E+00
  6.50000000E+02  8.60000000E+01  0.00000000E+00
  6.50000000E+02  8.40000000E+01  0.00000000E+00
  6.50000000E+02  8.20000000E+01  0.00000000E+00
  6.50000000E+02  8.00000000E+01  0.00000000E+00
  6.50000000E+02  7.80000000E+01  0.00000000E+00
  6.50000000E+02  7.60000000E+01  0.00000000E+00
  6.50000000E+02  7.40000000E+01  0.00000000E+00
  6.50000000E+02  7.20000000E+01  0.00000000E+00
  6.50000000E+02  7.00000000E+01  0.00000000E+00
  6.50000000E+02  6.80000000E+01  0.00000000E+00
  6.50000000E+02  6.60000000E+01  0.00000000E+00
  6.50000000E+02  6.40000000E+01  0.00000000E+00
  6.50000000E+02  6.20000000E+01  0.00000000E+00
  6.50000000E+02  6.00000000E+01  0.00000000E+00
  6.50000000E+02  5.80000000E+01  0.00000000E+00
  6.50000000E+02  5.60000000E+01  0.00000000E+00
  6.50000000E+02  5.40000000E+01  0.00000000E+00
  6.50000000E+02  5.20000000E+01  0.00000000E+00
  6.50000000E+02  5.00000000E+01  0.00000000E+00
  6.50000000E+02  4.80000000E+01  0.00000000E+00
  6.50000000E+02  4.60000000E+01  0.00000000E+00
  6.50000000E+02  4.40000000E+01  0.00000000E+00
  6.50000000E+02  4.20000000E+01  0.00000000E+00
  6.50000000E+02  4.00000000E+01  0.00000000E+00
  6.50000000E+02  3.80000000E+01  0.00000000E+00
  6.50000000E+02  3.60000000E+01  0.00000000E+00
  6.50000000E+02  3.40000000E+01  0.00000000E+00
  6.50000000E+02  3.20000000E+01  0.00000000E+00
  6.50000000E+02  3.00000000E+01  0.00000000E+00
  6.50000000E+02  2.80000000E+01  0.00000000E+00
  6.50000000E+02  2.60000000E+01  0.00000000E+00
  6.50000000E+02  2.40000000E+01  0.00000000E+00
  6.50000000E+02  2.20000000E+01  0.00000000E+00
  6.50000000E+02  2.00000000E+01  0.00000000E+00
  6.50000000E+02  1.80000000E+01  0.00000000E+00
  6.50000000E+02  1.60000000E+01  0.00000000E+00
  6.50000000E+02  1.40000000E+01  0.00000000E+00
  6.50000000E+02  1.20000000E+01  0.00000000E+00
  6.50000000E+02  1.00000000E+01  0.00000000E+00
  6.50000000E+02  8.00000000E+00  0.00000000E+00
  6.50000000E+02  6.00000000E+00  0.00000000E+00
  6.50000000E+02  4.00000000E+00  0.00000000E+00
  6.50000000E+02  2.00000000E+00  0.00000000E+00
  6.50000000E+02 -3.33066907E-14  0.00000000E+00
  6.60000000E+02  1.00000000E+02  0.00000000E+00
  6.60000000E+02  9.80000000E+01  0.00000000E+00
  6.60000000E+02  9.60000000E+01  0.00000000E+00
  6.60000000E+02  9.40000000E+01  0.00000000E+00
  6.60000000E+02  9.20000000E+01  0.00000000E+00
  6.60000000E+02  9.00000000E+01  0.00000000E+00
  6.60000000E+02  8.80000000E+01  0.00000000E+00
  6.60000000E+02  8.60000000E+01  0.00000000E+00
  6.60000000E+02  8.40000000E+01  0.00000000E+00
  6.60000000E+02  8.20000000E+01  0.00000000E+00
  6.60000000E+02  8.00000000E+01  0.00000000E+00
  6.60000000E+02  7.80000000E+01  0.00000000E+00
  6.60000000E+02  7.60000000E+01  0.00000000E+00
  6.60000000E+02  7.40000000E+01  0.00000000E+00
  6.60000000E+02  7.20000000E+01  0.00000000E+00
  6.60000000E+02  7.00000000E+01  0.00000000E+00
  6.60000000E+02  6.80000000E+01  0.00000000E+00
  6.60000000E+02  6.60000000E+01  0.00000000E+00
  6.60000000E+02  6.40000000E+01  0.00000000E+00
  6.60000000E+02  6.20000000E+01  0.00000000E+00
  6.60000000E+02  6.00000000E+01  0.00000000E+00
  6.60000000E+02  5.80000000E+01  0.00000000E+00
  6.60000000E+02  5.60000000E+01  0.00000000E+00
  6.60000000E+02  5.40000000E+01  0.00000000E+00
  6.60000000E+02  5.20000000E+01  0.00000000E+00
  6.60000000E+02  5.00000000E+01  0.00000000E+00
  6.60000000E+02  4.80000000E+01  0.00000000E+00
  6.60000000E+02  4.60000000E+01  0.00000000E+00
  6.60000000E+02  4.40000000E+01  0.00000000E+00
  6.60000000E+02  4.20000000E+01  0.00000000E+00
  6.60000000E+02  4.00000000E+01  0.00000000E+00
  6.60000000E+02  3.80000000E+01  0.00000000E+00
  6.60000000E+02  3.60000000E+01  0.00000000E+00
  6.60000000E+02  3.40000000E+01  0.00000000E+00
  6.60000000E+02  3.20000000E+01  0.00000000E+00
  6.60000000E+02  3.00000000E+01  0.00000000E+00
  6.60000000E+02  2.80000000E+01  0.00000000E+00
  6.60000000E+02  2.60000000E+01  0.00000000E+00
  6.60000000E+02  2.40000000E+01  0.00000000E+00
  6.60000000E+02  2.20000000E+01  0.00000000E+00
  6.60000000E+02  2.00000000E+01  0.00000000E+00
  6.60000000E+02  1.80000000E+01  0.00000000E+00
  6.60000000E+02  1.60000000E+01  0.00000000E+00
  6.60000000E+02  1.40000000E+01  0.00000000E+00
  6.60000000E+02  1.20000000E+01  0.00000000E+00
  6.60000000E+02  1.00000000E+01  0.00000000E+00
  6.60000000E+02  8.00000000E+00  0.00000000E+00
  6.60000000E+02  6.00000000E+00  0.00000000E+00
  6.60000000E+02  4.00000000E+00  0.00000000E+00
  6.60000000E+02  2.00000000E+00  0.00000000E+00
  6.60000000E+02 -3.33066907E-14  0.00000000E+00
  6.70000000E+02  1.00000000E+02  0.00000000E+00
  6.70000000E+02  9.80000000E+01  0.00000000E+00
  6.70000000E+02  9.60000000E+01  0.00000000E+00
  6.70000000E+02  9.40000000E+01  0.00000000E+00
  6.70000000E+02  9.20000000E+01  0.00000000E+00
  6.70000000E+02  9.00000000E+01  0.00000000E+00
  6.70000000E+02  8.80000000E+01  0.00000000E+00
  6.70000000E+02  8.60000000E+01  0.00000000E+00
  6.70000000E+02  8.40000000E+01  0.00000000E+00
  6.70000000E+02  8.20000000E+01  0.00000000E+00
  6.70000000E+02  8.00000000E+01  0.00000000E+00
  6.70000000E+02  7.80000000E+01  0.00000000E+00
  6.70000000E+02  7.60000000E+01  0.00000000E+00
  6.70000000E+02  7.40000000E+01  0.00000000E+00
  6.70000000E+02  7.20000000E+01  0.00000000E+00
  6.70000000E+02  7.00000000E+01  0.00000000E+00
  6.70000000E+02  6.80000000E+01  0.00000000E+00
  6.70000000E+02  6.60000000E+01  0.00000000E+00
  6.70000000E+02  6.40000000E+01  0.00000000E+00
  6.70000000E+02  6.20000000E+01  0.00000000E+00
  6.70000000E+02  6.00000000E+01  0.00000000E+00
  6.70000000E+02  5.80000000E+01  0.00000000E+00
  6.70000000E+02  5.60000000E+01  0.00000000E+00
  6.70000000E+02  5.40000000E+01  0.00000000E+00
  6.70000000E+02  5.20000000E+01  0.00000000E+00
  6.70000000E+02  5.00000000E+01  0.00000000E+00
  6.70000000E+02  4.80000000E+01  0.00000000E+00
  6.70000000E+02  4.60000000E+01  0.00000000E+00
  6.70000000E+02  4.40000000E+01  0.00000000E+00
  6.70000000E+02  4.20000000E+01  0.00000000E+00
  6.70000000E+02  4.00000000E+01  0.00000000E+00
  6.70000000E+02  3.80000000E+01  0.00000000E+00
  6.70000000E+02  3.60000000E+01  0.00000000E+00
  6.70000000E+02  3.40000000E+01  0.00000000E+00
  6.70000000E+02  3.20000000E+01  0.00000000E+00
  6.70000000E+02  3.00000000E+01  0.00000000E+00
  6.70000000E+02  2.80000000E+01  0.00000000E+00
  6.70000000E+02  2.60000000E+01  0.00000000E+00
  6.70000000E+02  2.40000000E+01  0.00000000E+00
  6.70000000E+02  2.20000000E+01  0.00000000E+00
  6.70000000E+02  2.00000000E+01  0.00000000E+00
  6.70000000E+02  1.80000000E+01  0.00000000E+00
  6.70000000E+02  1.60000000E+01  0.00000000E+00
  6.70000000E+02  1.40000000E+01  0.00000000E+00
  6.70000000E+02  1.20000000E+01  0.00000000E+00
  6.70000000E+02  1.00000000E+01  0.00000000E+00
  6.70000000E+02  8.00000000E+00  0.00000000E+00
  6.70000000E+02  6.00000000E+00  0.00000000E+00
  6.70000000E+02  4.00000000E+00  0.00000000E+00
  6.70000000E+02  2.00000000E+00  0.00000000E+00
  6.70000000E+02 -3.33066907E-14  0.00000000E+00
  6.80000000E+02  1.00000000E+02  0.00000000E+00
  6.80000000E+02  9.80000000E+01  0.00000000E+00
  6.80000000E+02  9.60000000E+01  0.00000000E+00
  6.80000000E+02  9.40000000E+01  0.00000000E+00
  6.80000000E+02  9.20000000E+01  0.00000000E+00
  6.80000000E+02  9.00000000E+01  0.00000000E+00
  6.80000000E+02  8.80000000E+01  0.00000000E+00
  6.80000000E+02  8.60000000E+01  0.00000000E+00
  6.80000000E+02  8.40000000E+01  0.00000000E+00
  6.80000000E+02  8.20000000E+01  0.00000000E+00
  6.80000000E+02  8.00000000E+01  0.00000000E+00
  6.80000000E+02  7.80000000E+01  0.00000000E+00
  6.80000000E+02  7.60000000E+01  0.00000000E+00
  6.80000000E+02  7.40000000E+01  0.00000000E+00
  6.80000000E+02  7.20000000E+01  0.00000000E+00
  6.80000000E+02  7.00000000E+01  0.00000000E+00
  6.80000000E+02  6.80000000E+01  0.00000000E+00
  6.80000000E+02  6.60000000E+01  0.00000000E+00
  6.80000000E+02  6.40000000E+01  0.00000000E+00
  6.80000000E+02  6.20000000E+01  0.00000000E+00
  6.80000000E+02  6.00000000E+01  0.00000000E+00
  6.80000000E+02  5.80000000E+01  0.00000000E+00
  6.80000000E+02  5.60000000E+01  0.00000000E+00
  6.80000000E+02  5.40000000E+01  0.00000000E+00
  6.80000000E+02  5.20000000E+01  0.00000000E+00
  6.80000000E+02  5.00000000E+01  0.00000000E+00
  6.80000000E+02  4.80000000E+01  0.00000000E+00
  6.80000000E+02  4.60000000E+01  0.00000000E+00
  6.80000000E+02  4.40000000E+01  0.00000000E+00
  6.80000000E+02  4.20000000E+01  0.00000000E+00
  6.80000000E+02  4.00000000E+01  0.00000000E+00
  6.80000000E+02  3.80000000E+01  0.00000000E+00
  6.80000000E+02  3.60000000E+01  0.00000000E+00
  6.80000000E+02  3.40000000E+01  0.00000000E+00
  6.80000000E+02  3.20000000E+01  0.00000000E+00
  6.80000000E+02  3.00000000E+01  0.00000000E+00
  6.80000000E+02  2.80000000E+01  0.00000000E+00
  6.80000000E+02  2.60000000E+01  0.00000000E+00
  6.80000000E+02  2.40000000E+01  0.00000000E+00
  6.80000000E+02  2.20000000E+01  0.00000000E+00
  6.80000000E+02  2.00000000E+01  0.00000000E+00
  6.80000000E+02  1.80000000E+01  0.00000000E+00
  6.80000000E+02  1.60000000E+01  0.00000000E+00
  6.80000000E+02  1.40000000E+01  0.00000000E+00
  6.80000000E+02  1.20000000E+01  0.00000000E+00
  6.80000000E+02  1.00000000E+01  0.00000000E+00
  6.80000000E+02  8.00000000E+00  0.00000000E+00
  6.80000000E+02  6.00000000E+00  0.00000000E+00
  6.80000000E+02  4.00000000E+00  0.00000000E+00
  6.80000000E+02  2.00000000E+00  0.00000000E+00
  6.80000000E+02 -3.33066907E-14  0.00000000E+00
  6.90000000E+02  1.00000000E+02  0.00000000E+00
  6.90000000E+02  9.80000000E+01  0.00000000E+00
  6.90000000E+02  9.60000000E+01  0.00000000E+00
  6.90000000E+02  9.40000000E+01  0.00000000E+00
  6.90000000E+02  9.20000000E+01  0.00000000E+00
  6.90000000E+02  9.00000000E+01  0.00000000E+00
  6.90000000E+02  8.80000000E+01  0.00000000E+00
  6.90000000E+02  8.60000000E+01  0.00000000E+00
  6.90000000E+02  8.40000000E+01  0.00000000E+00
  6.90000000E+02  8.20000000E+01  0.00000000E+00
  6.90000000E+02  8.00000000E+01  0.00000000E+00
  6.90000000E+02  7.80000000E+01  0.00000000E+00
  6.90000000E+02  7.60000000E+01  0.00000000E+00
  6.90000000E+02  7.40000000E+01  0.00000000E+00
  6.90000000E+02  7.20000000E+01  0.00000000E+00
  6.90000000E+02  7.00000000E+01  0.00000000E+00
  6.90000000E+02  6.80000000E+01  0.00000000E+00
  6.90000000E+02  6.60000000E+01  0.00000000E+00
  6.90000000E+02  6.40000000E+01  0.00000000E+00
  6.90000000E+02  6.20000000E+01  0.00000000E+00
  6.90000000E+02  6.00000000E+01  0.00000000E+00
  6.90000000E+02  5.80000000E+01  0.00000000E+00
  6.90000000E+02  5.60000000E+01  0.00000000E+00
  6.90000000E+02  5.40000000E+01  0.00000000E+00
  6.90000000E+02  5.20000000E+01  0.00000000E+00
  6.90000000E+02  5.00000000E+01  0.00000000E+00
  6.90000000E+02  4.80000000E+01  0.00000000E+00
  6.90000000E+02  4.60000000E+01  0.00000000E+00
  6.90000000E+02  4.40000000E+01  0.00000000E+00
  6.90000000E+02  4.20000000E+01  0.00000000E+00
  6.90000000E+02  4.00000000E+01  0.00000000E+00
  6.90000000E+02  3.80000000E+01  0.00000000E+00
  6.90000000E+02  3.60000000E+01  0.00000000E+00
  6.90000000E+02  3.40000000E+01  0.00000000E+00
  6.90000000E+02  3.20000000E+01  0.00000000E+00
  6.90000000E+02  3.00000000E+01  0.00000000E+00
  6.90000000E+02  2.80000000E+01  0.00000000E+00
  6.90000000E+02  2.60000000E+01  0.00000000E+00
  6.90000000E+02  2.40000000E+01  0.00000000E+00
  6.90000000E+02  2.20000000E+01  0.00000000E+00
  6.90000000E+02  2.00000000E+01  0.00000000E+00
  6.90000000E+02  1.80000000E+01  0.00000000E+00
  6.90000000E+02  1.60000000E+01  0.00000000E+00
  6.90000000E+02  1.40000000E+01  0.00000000E+00
  6.90000000E+02  1.20000000E+01  0.00000000E+00
  6.90000000E+02  1.00000000E+01  0.00000000E+00
  6.90000000E+02  8.00000000E+00  0.00000000E+00
  6.90000000E+02  6.00000000E+00  0.00000000E+00
  6.90000000E+02  4.00000000E+00  0.00000000E+00
  6.90000000E+02  2.00000000E+00  0.00000000E+00
  6.90000000E+02 -3.33066907E-14  0.00000000E+00
  7.00000000E+02  1.00000000E+02  0.00000000E+00
  7.00000000E+02  9.80000000E+01  0.00000000E+00
  7.00000000E+02  9.60000000E+01  0.00000000E+00
  7.00000000E+02  9.40000000E+01  0.00000000E+00
  7.00000000E+02  9.20000000E+01  0.00000000E+00
  7.00000000E+02  9.00000000E+01  0.00000000E+00
  7.00000000E+02  8.80000000E+01  0.00000000E+00
  7.00000000E+02  8.60000000E+01  0.00000000E+00
  7.00000000E+02  8.40000000E+01  0.00000000E+00
  7.00000000E+02  8.20000000E+01  0.00000000E+00
  7.00000000E+02  8.00000000E+01  0.00000000E+00
  7.00000000E+02  7.80000000E+01  0.00000000E+00
  7.00000000E+02  7.60000000E+01  0.00000000E+00
  7.00000000E+02  7.40000000E+01  0.00000000E+00
  7.00000000E+02  7.20000000E+01  0.00000000E+00
  7.00000000E+02  7.00000000E+01  0.00000000E+00
  7.00000000E+02  6.80000000E+01  0.00000000E+00
  7.00000000E+02  6.60000000E+01  0.00000000E+00
  7.00000000E+02  6.40000000E+01  0.00000000E+00
  7.00000000E+02  6.20000000E+01  0.00000000E+00
  7.00000000E+02  6.00000000E+01  0.00000000E+00
  7.00000000E+02  5.80000000E+01  0.00000000E+00
  7.00000000E+02  5.60000000E+01  0.00000000E+00
  7.00000000E+02  5.40000000E+01  0.00000000E+00
  7.00000000E+02  5.20000000E+01  0.00000000E+00
  7.00000000E+02  5.00000000E+01  0.00000000E+00
  7.00000000E+02  4.80000000E+01  0.00000000E+00
  7.00000000E+02  4.60000000E+01  0.00000000E+00
  7.00000000E+02  4.40000000E+01  0.00000000E+00
  7.00000000E+02  4.20000000E+01  0.00000000E+00
  7.00000000E+02  4.00000000E+01  0.00000000E+00
  7.00000000E+02  3.80000000E+01  0.00000000E+00
  7.00000000E+02  3.60000000E+01  0.00000000E+00
  7.00000000E+02  3.40000000E+01  0.00000000E+00
  7.00000000E+02  3.20000000E+01  0.00000000E+00
  7.00000000E+02  3.00000000E+01  0.00000000E+00
  7.00000000E+02  2.80000000E+01  0.00000000E+00
  7.00000000E+02  2.60000000E+01  0.00000000E+00
  7.00000000E+02  2.40000000E+01  0.00000000E+00
  7.00000000E+02  2.20000000E+01  0.00000000E+00
  7.00000000E+02  2.00000000E+01  0.00000000E+00
  7.00000000E+02  1.80000000E+01  0.00000000E+00
  7.00000000E+02  1.60000000E+01  0.00000000E+00
  7.00000000E+02  1.40000000E+01  0.00000000E+00
  7.00000000E+02  1.20000000E+01  0.00000000E+00
  7.00000000E+02  1.00000000E+01  0.00000000E+00
  7.00000000E+02  8.00000000E+00  0.00000000E+00
  7.00000000E+02  6.00000000E+00  0.00000000E+00
  7.00000000E+02  4.00000000E+00  0.00000000E+00
  7.00000000E+02  2.00000000E+00  0.00000000E+00
  7.00000000E+02 -3.33066907E-14  0.00000000E+00
  7.10000000E+02  1.00000000E+02  0.00000000E+00
  7.10000000E+02  9.80000000E+01  0.00000000E+00
  7.10000000E+02  9.60000000E+01  0.00000000E+00
  7.10000000E+02  9.40000000E+01  0.00000000E+00
  7.10000000E+02  9.20000000E+01  0.00000000E+00
  7.10000000E+02  9.00000000E+01  0.00000000E+00
  7.10000000E+02  8.80000000E+01  0.00000000E+00
  7.10000000E+02  8.60000000E+01  0.00000000E+00
  7.10000000E+02  8.40000000E+01  0.00000000E+00
  7.10000000E+02  8.20000000E+01  0.00000000E+00
  7.10000000E+02  8.00000000E+01  0.00000000E+00
  7.10000000E+02  7.80000000E+01  0.00000000E+00
  7.10000000E+02  7.60000000E+01  0.00000000E+00
  7.10000000E+02  7.40000000E+01  0.00000000E+00
  7.10000000E+02  7.20000000E+01  0.00000000E+00
  7.10000000E+02  7.00000000E+01  0.00000000E+00
  7.10000000E+02  6.80000000E+01  0.00000000E+00
  7.10000000E+02  6.60000000E+01  0.00000000E+00
  7.10000000E+02  6.40000000E+01  0.00000000E+00
  7.10000000E+02  6.20000000E+01  0.00000000E+00
  7.10000000E+02  6.00000000E+01  0.00000000E+00
  7.10000000E+02  5.80000000E+01  0.00000000E+00
  7.10000000E+02  5.60000000E+01  0.00000000E+00
  7.10000000E+02  5.40000000E+01  0.00000000E+00
  7.10000000E+02  5.20000000E+01  0.00000000E+00
  7.10000000E+02  5.00000000E+01  0.00000000E+00
  7.10000000E+02  4.80000000E+01  0.00000000E+00
  7.10000000E+02  4.60000000E+01  0.00000000E+00
  7.10000000E+02  4.40000000E+01  0.00000000E+00
  7.10000000E+02  4.20000000E+01  0.00000000E+00
  7.10000000E+02  4.00000000E+01  0.00000000E+00
  7.10000000E+02  3.80000000E+01  0.00000000E+00
  7.10000000E+02  3.60000000E+01  0.00000000E+00
  7.10000000E+02  3.40000000E+01  0.00000000E+00
  7.10000000E+02  3.20000000E+01  0.00000000E+00
  7.10000000E+02  3.00000000E+01  0.00000000E+00
  7.10000000E+02  2.80000000E+01  0.00000000E+00
  7.10000000E+02  2.60000000E+01  0.00000000E+00
  7.10000000E+02  2.40000000E+01  0.00000000E+00
  7.10000000E+02  2.20000000E+01  0.00000000E+00
  7.10000000E+02  2.00000000E+01  0.00000000E+00
  7.10000000E+02  1.80000000E+01  0.00000000E+00
  7.10000000E+02  1.60000000E+01  0.00000000E+00
  7.10000000E+02  1.40000000E+01  0.00000000E+00
  7.10000000E+02  1.20000000E+01  0.00000000E+00
  7.10000000E+02  1.00000000E+01  0.00000000E+00
  7.10000000E+02  8.00000000E+00  0.00000000E+00
  7.10000000E+02  6.00000000E+00  0.00000000E+00
  7.10000000E+02  4.00000000E+00  0.00000000E+00
  7.10000000E+02  2.00000000E+00  0.00000000E+00
  7.10000000E+02 -3.33066907E-14  0.00000000E+00
  7.20000000E+02  1.00000000E+02  0.00000000E+00
  7.20000000E+02  9.80000000E+01  0.00000000E+00
  7.20000000E+02  9.60000000E+01  0.00000000E+00
  7.20000000E+02  9.40000000E+01  0.00000000E+00
  7.20000000E+02  9.20000000E+01  0.00000000E+00
  7.20000000E+02  9.00000000E+01  0.00000000E+00
  7.20000000E+02  8.80000000E+01  0.00000000E+00
  7.20000000E+02  8.60000000E+01  0.00000000E+00
  7.20000000E+02  8.40000000E+01  0.00000000E+00
  7.20000000E+02  8.20000000E+01  0.00000000E+00
  7.20000000E+02  8.00000000E+01  0.00000000E+00
  7.20000000E+02  7.80000000E+01  0.00000000E+00
  7.20000000E+02  7.60000000E+01  0.00000000E+00
  7.20000000E+02  7.40000000E+01  0.00000000E+00
  7.20000000E+02  7.20000000E+01  0.00000000E+00
  7.20000000E+02  7.00000000E+01  0.00000000E+00
  7.20000000E+02  6.80000000E+01  0.00000000E+00
  7.20000000E+02  6.60000000E+01  0.00000000E+00
  7.20000000E+02  6.40000000E+01  0.00000000E+00
  7.20000000E+02  6.20000000E+01  0.00000000E+00
  7.20000000E+02  6.00000000E+01  0.00000000E+00
  7.20000000E+02  5.80000000E+01  0.00000000E+00
  7.20000000E+02  5.60000000E+01  0.00000000E+00
  7.20000000E+02  5.40000000E+01  0.00000000E+00
  7.20000000E+02  5.20000000E+01  0.00000000E+00
  7.20000000E+02  5.00000000E+01  0.00000000E+00
  7.20000000E+02  4.80000000E+01  0.00000000E+00
  7.20000000E+02  4.60000000E+01  0.00000000E+00
  7.20000000E+02  4.40000000E+01  0.00000000E+00
  7.20000000E+02  4.20000000E+01  0.00000000E+00
  7.20000000E+02  4.00000000E+01  0.00000000E+00
  7.20000000E+02  3.80000000E+01  0.00000000E+00
  7.20000000E+02  3.60000000E+01  0.00000000E+00
  7.20000000E+02  3.40000000E+01  0.00000000E+00
  7.20000000E+02  3.20000000E+01  0.00000000E+00
  7.20000000E+02  3.00000000E+01  0.00000000E+00
  7.20000000E+02  2.80000000E+01  0.00000000E+00
  7.20000000E+02  2.60000000E+01  0.00000000E+00
  7.20000000E+02  2.40000000E+01  0.00000000E+00
  7.20000000E+02  2.20000000E+01  0.00000000E+00
  7.20000000E+02  2.00000000E+01  0.00000000E+00
  7.20000000E+02  1.80000000E+01  0.00000000E+00
  7.20000000E+02  1.60000000E+01  0.00000000E+00
  7.20000000E+02  1.40000000E+01  0.00000000E+00
  7.20000000E+02  1.20000000E+01  0.00000000E+00
  7.20000000E+02  1.00000000E+01  0.00000000E+00
  7.20000000E+02  8.00000000E+00  0.00000000E+00
  7.20000000E+02  6.00000000E+00  0.00000000E+00
  7.20000000E+02  4.00000000E+00  0.00000000E+00
  7.20000000E+02  2.00000000E+00  0.00000000E+00
  7.20000000E+02 -3.33066907E-14  0.00000000E+00
  7.30000000E+02  1.00000000E+02  0.00000000E+00
  7.30000000E+02  9.80000000E+01  0.00000000E+00
  7.30000000E+02  9.60000000E+01  0.00000000E+00
  7.30000000E+02  9.40000000E+01  0.00000000E+00
  7.30000000E+02  9.20000000E+01  0.00000000E+00
  7.30000000E+02  9.00000000E+01  0.00000000E+00
  7.30000000E+02  8.80000000E+01  0.00000000E+00
  7.30000000E+02  8.60000000E+01  0.00000000E+00
  7.30000000E+02  8.40000000E+01  0.00000000E+00
  7.30000000E+02  8.20000000E+01  0.00000000E+00
  7.30000000E+02  8.00000000E+01  0.00000000E+00
  7.30000000E+02  7.80000000E+01  0.00000000E+00
  7.30000000E+02  7.60000000E+01  0.00000000E+00
  7.30000000E+02  7.40000000E+01  0.00000000E+00
  7.30000000E+02  7.20000000E+01  0.00000000E+00
  7.30000000E+02  7.00000000E+01  0.00000000E+00
  7.30000000E+02  6.80000000E+01  0.00000000E+00
  7.30000000E+02  6.60000000E+01  0.00000000E+00
  7.30000000E+02  6.40000000E+01  0.00000000E+00
  7.30000000E+02  6.20000000E+01  0.00000000E+00
  7.30000000E+02  6.00000000E+01  0.00000000E+00
  7.30000000E+02  5.80000000E+01  0.00000000E+00
  7.30000000E+02  5.60000000E+01  0.00000000E+00
  7.30000000E+02  5.40000000E+01  0.00000000E+00
  7.30000000E+02  5.20000000E+01  0.00000000E+00
  7.30000000E+02  5.00000000E+01  0.00000000E+00
  7.30000000E+02  4.80000000E+01  0.00000000E+00
  7.30000000E+02  4.60000000E+01  0.00000000E+00
  7.30000000E+02  4.40000000E+01  0.00000000E+00
  7.30000000E+02  4.20000000E+01  0.00000000E+00
  7.30000000E+02  4.00000000E+01  0.00000000E+00
  7.30000000E+02  3.80000000E+01  0.00000000E+00
  7.30000000E+02  3.60000000E+01  0.00000000E+00
  7.30000000E+02  3.40000000E+01  0.00000000E+00
  7.30000000E+02  3.20000000E+01  0.00000000E+00
  7.30000000E+02  3.00000000E+01  0.00000000E+00
  7.30000000E+02  2.80000000E+01  0.00000000E+00
  7.30000000E+02  2.60000000E+01  0.00000000E+00
  7.30000000E+02  2.40000000E+01  0.00000000E+00
  7.30000000E+02  2.20000000E+01  0.00000000E+00
  7.30000000E+02  2.00000000E+01  0.00000000E+00
  7.30000000E+02  1.80000000E+01  0.00000000E+00
  7.30000000E+02  1.60000000E+01  0.00000000E+00
  7.30000000E+02  1.40000000E+01  0.00000000E+00
  7.30000000E+02  1.20000000E+01  0.00000000E+00
  7.30000000E+02  1.00000000E+01  0.00000000E+00
  7.30000000E+02  8.00000000E+00  0.00000000E+00
  7.30000000E+02  6.00000000E+00  0.00000000E+00
  7.30000000E+02  4.00000000E+00  0.00000000E+00
  7.30000000E+02  2.00000000E+00  0.00000000E+00
  7.30000000E+02 -3.33066907E-14  0.00000000E+00
  7.40000000E+02  1.00000000E+02  0.00000000E+00
  7.40000000E+02  9.80000000E+01  0.00000000E+00
  7.40000000E+02  9.60000000E+01  0.00000000E+00
  7.40000000E+02  9.40000000E+01  0.00000000E+00
  7.40000000E+02  9.20000000E+01  0.00000000E+00
  7.40000000E+02  9.00000000E+01  0.00000000E+00
  7.40000000E+02  8.80000000E+01  0.00000000E+00
  7.40000000E+02  8.60000000E+01  0.00000000E+00
  7.40000000E+02  8.40000000E+01  0.00000000E+00
  7.40000000E+02  8.20000000E+01  0.00000000E+00
  7.40000000E+02  8.00000000E+01  0.00000000E+00
  7.40000000E+02  7.80000000E+01  0.00000000E+00
  7.40000000E+02  7.60000000E+01  0.00000000E+00
  7.40000000E+02  7.40000000E+01  0.00000000E+00
  7.40000000E+02  7.20000000E+01  0.00000000E+00
  7.40000000E+02  7.00000000E+01  0.00000000E+00
  7.40000000E+02  6.80000000E+01  0.00000000E+00
  7.40000000E+02  6.60000000E+01  0.00000000E+00
  7.40000000E+02  6.40000000E+01  0.00000000E+00
  7.40000000E+02  6.20000000E+01  0.00000000E+00
  7.40000000E+02  6.00000000E+01  0.00000000E+00
  7.40000000E+02  5.80000000E+01  0.00000000E+00
  7.40000000E+02  5.60000000E+01  0.00000000E+00
  7.40000000E+02  5.40000000E+01  0.00000000E+00
  7.40000000E+02  5.20000000E+01  0.00000000E+00
  7.40000000E+02  5.00000000E+01  0.00000000E+00
  7.40000000E+02  4.80000000E+01  0.00000000E+00
  7.40000000E+02  4.60000000E+01  0.00000000E+00
  7.40000000E+02  4.40000000E+01  0.00000000E+00
  7.40000000E+02  4.20000000E+01  0.00000000E+00
  7.40000000E+02  4.00000000E+01  0.00000000E+00
  7.40000000E+02  3.80000000E+01  0.00000000E+00
  7.40000000E+02  3.60000000E+01  0.00000000E+00
  7.40000000E+02  3.40000000E+01  0.00000000E+00
  7.40000000E+02  3.20000000E+01  0.00000000E+00
  7.40000000E+02  3.00000000E+01  0.00000000E+00
  7.40000000E+02  2.80000000E+01  0.00000000E+00
  7.40000000E+02  2.60000000E+01  0.00000000E+00
  7.40000000E+02  2.40000000E+01  0.00000000E+00
  7.40000000E+02  2.20000000E+01  0.00000000E+00
  7.40000000E+02  2.00000000E+01  0.00000000E+00
  7.40000000E+02  1.80000000E+01  0.00000000E+00
  7.40000000E+02  1.60000000E+01  0.00000000E+00
  7.40000000E+02  1.40000000E+01  0.00000000E+00
  7.40000000E+02  1.20000000E+01  0.00000000E+00
  7.40000000E+02  1.00000000E+01  0.00000000E+00
  7.40000000E+02  8.00000000E+00  0.00000000E+00
  7.40000000E+02  6.00000000E+00  0.00000000E+00
  7.40000000E+02  4.00000000E+00  0.00000000E+00
  7.40000000E+02  2.00000000E+00  0.00000000E+00
  7.40000000E+02 -3.33066907E-14  0.00000000E+00
  7.50000000E+02  1.00000000E+02  0.00000000E+00
  7.50000000E+02  9.80000000E+01  0.00000000E+00
  7.50000000E+02  9.60000000E+01  0.00000000E+00
  7.50000000E+02  9.40000000E+01  0.00000000E+00
  7.50000000E+02  9.20000000E+01  0.00000000E+00
  7.50000000E+02  9.00000000E+01  0.00000000E+00
  7.50000000E+02  8.80000000E+01  0.00000000E+00
  7.50000000E+02  8.60000000E+01  0.00000000E+00
  7.50000000E+02  8.40000000E+01  0.00000000E+00
  7.50000000E+02  8.20000000E+01  0.00000000E+00
  7.50000000E+02  8.00000000E+01  0.00000000E+00
  7.50000000E+02  7.80000000E+01  0.00000000E+00
  7.50000000E+02  7.60000000E+01  0.00000000E+00
  7.50000000E+02  7.40000000E+01  0.00000000E+00
  7.50000000E+02  7.20000000E+01  0.00000000E+00
  7.50000000E+02  7.00000000E+01  0.00000000E+00
  7.50000000E+02  6.80000000E+01  0.00000000E+00
  7.50000000E+02  6.60000000E+01  0.00000000E+00
  7.50000000E+02  6.40000000E+01  0.00000000E+00
  7.50000000E+02  6.20000000E+01  0.00000000E+00
  7.50000000E+02  6.00000000E+01  0.00000000E+00
  7.50000000E+02  5.80000000E+01  0.00000000E+00
  7.50000000E+02  5.60000000E+01  0.00000000E+00
  7.50000000E+02  5.40000000E+01  0.00000000E+00
  7.50000000E+02  5.20000000E+01  0.00000000E+00
  7.50000000E+02  5.00000000E+01  0.00000000E+00
  7.50000000E+02  4.80000000E+01  0.00000000E+00
  7.50000000E+02  4.60000000E+01  0.00000000E+00
  7.50000000E+02  4.40000000E+01  0.00000000E+00
  7.50000000E+02  4.20000000E+01  0.00000000E+00
  7.50000000E+02  4.00000000E+01  0.00000000E+00
  7.50000000E+02  3.80000000E+01  0.00000000E+00
  7.50000000E+02  3.60000000E+01  0.00000000E+00
  7.50000000E+02  3.40000000E+01  0.00000000E+00
  7.50000000E+02  3.20000000E+01  0.00000000E+00
  7.50000000E+02  3.00000000E+01  0.00000000E+00
  7.50000000E+02  2.80000000E+01  0.00000000E+00
  7.50000000E+02  2.60000000E+01  0.00000000E+00
  7.50000000E+02  2.40000000E+01  0.00000000E+00
  7.50000000E+02  2.20000000E+01  0.00000000E+00
  7.50000000E+02  2.00000000E+01  0.00000000E+00
  7.50000000E+02  1.80000000E+01  0.00000000E+00
  7.50000000E+02  1.60000000E+01  0.00000000E+00
  7.50000000E+02  1.40000000E+01  0.00000000E+00
  7.50000000E+02  1.20000000E+01  0.00000000E+00
  7.50000000E+02  1.00000000E+01  0.00000000E+00
  7.50000000E+02  8.00000000E+00  0.00000000E+00
  7.50000000E+02  6.00000000E+00  0.00000000E+00
  7.50000000E+02  4.00000000E+00  0.00000000E+00
  7.50000000E+02  2.00000000E+00  0.00000000E+00
  7.50000000E+02 -3.33066907E-14  0.00000000E+00
  7.60000000E+02  1.00000000E+02  0.00000000E+00
  7.60000000E+02  9.80000000E+01  0.00000000E+00
  7.60000000E+02  9.60000000E+01  0.00000000E+00
  7.60000000E+02  9.40000000E+01  0.00000000E+00
  7.60000000E+02  9.20000000E+01  0.00000000E+00
  7.60000000E+02  9.00000000E+01  0.00000000E+00
  7.60000000E+02  8.80000000E+01  0.00000000E+00
  7.60000000E+02  8.60000000E+01  0.00000000E+00
  7.60000000E+02  8.40000000E+01  0.00000000E+00
  7.60000000E+02  8.20000000E+01  0.00000000E+00
  7.60000000E+02  8.00000000E+01  0.00000000E+00
  7.60000000E+02  7.80000000E+01  0.00000000E+00
  7.60000000E+02  7.60000000E+01  0.00000000E+00
  7.60000000E+02  7.40000000E+01  0.00000000E+00
  7.60000000E+02  7.20000000E+01  0.00000000E+00
  7.60000000E+02  7.00000000E+01  0.00000000E+00
  7.60000000E+02  6.80000000E+01  0.00000000E+00
  7.60000000E+02  6.60000000E+01  0.00000000E+00
  7.60000000E+02  6.40000000E+01  0.00000000E+00
  7.60000000E+02  6.20000000E+01  0.00000000E+00
  7.60000000E+02  6.00000000E+01  0.00000000E+00
  7.60000000E+02  5.80000000E+01  0.00000000E+00
  7.60000000E+02  5.60000000E+01  0.00000000E+00
  7.60000000E+02  5.40000000E+01  0.00000000E+00
  7.60000000E+02  5.20000000E+01  0.00000000E+00
  7.60000000E+02  5.00000000E+01  0.00000000E+00
  7.60000000E+02  4.80000000E+01  0.00000000E+00
  7.60000000E+02  4.60000000E+01  0.00000000E+00
  7.60000000E+02  4.40000000E+01  0.00000000E+00
  7.60000000E+02  4.20000000E+01  0.00000000E+00
  7.60000000E+02  4.00000000E+01  0.00000000E+00
  7.60000000E+02  3.80000000E+01  0.00000000E+00
  7.60000000E+02  3.60000000E+01  0.00000000E+00
  7.60000000E+02  3.40000000E+01  0.00000000E+00
  7.60000000E+02  3.20000000E+01  0.00000000E+00
  7.60000000E+02  3.00000000E+01  0.00000000E+00
  7.60000000E+02  2.80000000E+01  0.00000000E+00
  7.60000000E+02  2.60000000E+01  0.00000000E+00
  7.60000000E+02  2.40000000E+01  0.00000000E+00
  7.60000000E+02  2.20000000E+01  0.00000000E+00
  7.60000000E+02  2.00000000E+01  0.00000000E+00
  7.60000000E+02  1.80000000E+01  0.00000000E+00
  7.60000000E+02  1.60000000E+01  0.00000000E+00
  7.60000000E+02  1.40000000E+01  0.00000000E+00
  7.60000000E+02  1.20000000E+01  0.00000000E+00
  7.60000000E+02  1.00000000E+01  0.00000000E+00
  7.60000000E+02  8.00000000E+00  0.00000000E+00
  7.60000000E+02  6.00000000E+00  0.00000000E+00
  7.60000000E+02  4.00000000E+00  0.00000000E+00
  7.60000000E+02  2.00000000E+00  0.00000000E+00
  7.60000000E+02 -3.33066907E-14  0.00000000E+00
  7.70000000E+02  1.00000000E+02  0.00000000E+00
  7.70000000E+02  9.80000000E+01  0.00000000E+00
  7.70000000E+02  9.60000000E+01  0.00000000E+00
  7.70000000E+02  9.40000000E+01  0.00000000E+00
  7.70000000E+02  9.20000000E+01  0.00000000E+00
  7.70000000E+02  9.00000000E+01  0.00000000E+00
  7.70000000E+02  8.80000000E+01  0.00000000E+00
  7.70000000E+02  8.60000000E+01  0.00000000E+00
  7.70000000E+02  8.40000000E+01  0.00000000E+00
  7.70000000E+02  8.20000000E+01  0.00000000E+00
  7.70000000E+02  8.00000000E+01  0.00000000E+00
  7.70000000E+02  7.80000000E+01  0.00000000E+00
  7.70000000E+02  7.60000000E+01  0.00000000E+00
  7.70000000E+02  7.40000000E+01  0.00000000E+00
  7.70000000E+02  7.20000000E+01  0.00000000E+00
  7.70000000E+02  7.00000000E+01  0.00000000E+00
  7.70000000E+02  6.80000000E+01  0.00000000E+00
  7.70000000E+02  6.60000000E+01  0.00000000E+00
  7.70000000E+02  6.40000000E+01  0.00000000E+00
  7.70000000E+02  6.20000000E+01  0.00000000E+00
  7.70000000E+02  6.00000000E+01  0.00000000E+00
  7.70000000E+02  5.80000000E+01  0.00000000E+00
  7.70000000E+02  5.60000000E+01  0.00000000E+00
  7.70000000E+02  5.40000000E+01  0.00000000E+00
  7.70000000E+02  5.20000000E+01  0.00000000E+00
  7.70000000E+02  5.00000000E+01  0.00000000E+00
  7.70000000E+02  4.80000000E+01  0.00000000E+00
  7.70000000E+02  4.60000000E+01  0.00000000E+00
  7.70000000E+02  4.40000000E+01  0.00000000E+00
  7.70000000E+02  4.20000000E+01  0.00000000E+00
  7.70000000E+02  4.00000000E+01  0.00000000E+00
  7.70000000E+02  3.80000000E+01  0.00000000E+00
  7.70000000E+02  3.60000000E+01  0.00000000E+00
  7.70000000E+02  3.40000000E+01  0.00000000E+00
  7.70000000E+02  3.20000000E+01  0.00000000E+00
  7.70000000E+02  3.00000000E+01  0.00000000E+00
  7.70000000E+02  2.80000000E+01  0.00000000E+00
  7.70000000E+02  2.60000000E+01  0.00000000E+00
  7.70000000E+02  2.40000000E+01  0.00000000E+00
  7.70000000E+02  2.20000000E+01  0.00000000E+00
  7.70000000E+02  2.00000000E+01  0.00000000E+00
  7.70000000E+02  1.80000000E+01  0.00000000E+00
  7.70000000E+02  1.60000000E+01  0.00000000E+00
  7.70000000E+02  1.40000000E+01  0.00000000E+00
  7.70000000E+02  1.20000000E+01  0.00000000E+00
  7.70000000E+02  1.00000000E+01  0.00000000E+00
  7.70000000E+02  8.00000000E+00  0.00000000E+00
  7.70000000E+02  6.00000000E+00  0.00000000E+00
  7.70000000E+02  4.00000000E+00  0.00000000E+00
  7.70000000E+02  2.00000000E+00  0.00000000E+00
  7.70000000E+02 -3.33066907E-14  0.00000000E+00
  7.80000000E+02  1.00000000E+02  0.00000000E+00
  7.80000000E+02  9.80000000E+01  0.00000000E+00
  7.80000000E+02  9.60000000E+01  0.00000000E+00
  7.80000000E+02  9.40000000E+01  0.00000000E+00
  7.80000000E+02  9.20000000E+01  0.00000000E+00
  7.80000000E+02  9.00000000E+01  0.00000000E+00
  7.80000000E+02  8.80000000E+01  0.00000000E+00
  7.80000000E+02  8.60000000E+01  0.00000000E+00
  7.80000000E+02  8.40000000E+01  0.00000000E+00
  7.80000000E+02  8.20000000E+01  0.00000000E+00
  7.80000000E+02  8.00000000E+01  0.00000000E+00
  7.80000000E+02  7.80000000E+01  0.00000000E+00
  7.80000000E+02  7.60000000E+01  0.00000000E+00
  7.80000000E+02  7.40000000E+01  0.00000000E+00
  7.80000000E+02  7.20000000E+01  0.00000000E+00
  7.80000000E+02  7.00000000E+01  0.00000000E+00
  7.80000000E+02  6.80000000E+01  0.00000000E+00
  7.80000000E+02  6.60000000E+01  0.00000000E+00
  7.80000000E+02  6.40000000E+01  0.00000000E+00
  7.80000000E+02  6.20000000E+01  0.00000000E+00
  7.80000000E+02  6.00000000E+01  0.00000000E+00
  7.80000000E+02  5.80000000E+01  0.00000000E+00
  7.80000000E+02  5.60000000E+01  0.00000000E+00
  7.80000000E+02  5.40000000E+01  0.00000000E+00
  7.80000000E+02  5.20000000E+01  0.00000000E+00
  7.80000000E+02  5.00000000E+01  0.00000000E+00
  7.80000000E+02  4.80000000E+01  0.00000000E+00
  7.80000000E+02  4.60000000E+01  0.00000000E+00
  7.80000000E+02  4.40000000E+01  0.00000000E+00
  7.80000000E+02  4.20000000E+01  0.00000000E+00
  7.80000000E+02  4.00000000E+01  0.00000000E+00
  7.80000000E+02  3.80000000E+01  0.00000000E+00
  7.80000000E+02  3.60000000E+01  0.00000000E+00
  7.80000000E+02  3.40000000E+01  0.00000000E+00
  7.80000000E+02  3.20000000E+01  0.00000000E+00
  7.80000000E+02  3.00000000E+01  0.00000000E+00
  7.80000000E+02  2.80000000E+01  0.00000000E+00
  7.80000000E+02  2.60000000E+01  0.00000000E+00
  7.80000000E+02  2.40000000E+01  0.00000000E+00
  7.80000000E+02  2.20000000E+01  0.00000000E+00
  7.80000000E+02  2.00000000E+01  0.00000000E+00
  7.80000000E+02  1.80000000E+01  0.00000000E+00
  7.80000000E+02  1.60000000E+01  0.00000000E+00
  7.80000000E+02  1.40000000E+01  0.00000000E+00
  7.80000000E+02  1.20000000E+01  0.00000000E+00
  7.80000000E+02  1.00000000E+01  0.00000000E+00
  7.80000000E+02  8.00000000E+00  0.00000000E+00
  7.80000000E+02  6.00000000E+00  0.00000000E+00
  7.80000000E+02  4.00000000E+00  0.00000000E+00
  7.80000000E+02  2.00000000E+00  0.00000000E+00
  7.80000000E+02 -3.33066907E-14  0.00000000E+00
  7.90000000E+02  1.00000000E+02  0.00000000E+00
  7.90000000E+02  9.80000000E+01  0.00000000E+00
  7.90000000E+02  9.60000000E+01  0.00000000E+00
  7.90000000E+02  9.40000000E+01  0.00000000E+00
  7.90000000E+02  9.20000000E+01  0.00000000E+00
  7.90000000E+02  9.00000000E+01  0.00000000E+00
  7.90000000E+02  8.80000000E+01  0.00000000E+00
  7.90000000E+02  8.60000000E+01  0.00000000E+00
  7.90000000E+02  8.40000000E+01  0.00000000E+00
  7.90000000E+02  8.20000000E+01  0.00000000E+00
  7.90000000E+02  8.00000000E+01  0.00000000E+00
  7.90000000E+02  7.80000000E+01  0.00000000E+00
  7.90000000E+02  7.60000000E+01  0.00000000E+00
  7.90000000E+02  7.40000000E+01  0.00000000E+00
  7.90000000E+02  7.20000000E+01  0.00000000E+00
  7.90000000E+02  7.00000000E+01  0.00000000E+00
  7.90000000E+02  6.80000000E+01  0.00000000E+00
  7.90000000E+02  6.60000000E+01  0.00000000E+00
  7.90000000E+02  6.40000000E+01  0.00000000E+00
  7.90000000E+02  6.20000000E+01  0.00000000E+00
  7.90000000E+02  6.00000000E+01  0.00000000E+00
  7.90000000E+02  5.80000000E+01  0.00000000E+00
  7.90000000E+02  5.60000000E+01  0.00000000E+00
  7.90000000E+02  5.40000000E+01  0.00000000E+00
  7.90000000E+02  5.20000000E+01  0.00000000E+00
  7.90000000E+02  5.00000000E+01  0.00000000E+00
  7.90000000E+02  4.80000000E+01  0.00000000E+00
  7.90000000E+02  4.60000000E+01  0.00000000E+00
  7.90000000E+02  4.40000000E+01  0.00000000E+00
  7.90000000E+02  4.20000000E+01  0.00000000E+00
  7.90000000E+02  4.00000000E+01  0.00000000E+00
  7.90000000E+02  3.80000000E+01  0.00000000E+00
  7.90000000E+02  3.60000000E+01  0.00000000E+00
  7.90000000E+02  3.40000000E+01  0.00000000E+00
  7.90000000E+02  3.20000000E+01  0.00000000E+00
  7.90000000E+02  3.00000000E+01  0.00000000E+00
  7.90000000E+02  2.80000000E+01  0.00000000E+00
  7.90000000E+02  2.60000000E+01  0.00000000E+00
  7.90000000E+02  2.40000000E+01  0.00000000E+00
  7.90000000E+02  2.20000000E+01  0.00000000E+00
  7.90000000E+02  2.00000000E+01  0.00000000E+00
  7.90000000E+02  1.80000000E+01  0.00000000E+00
  7.90000000E+02  1.60000000E+01  0.00000000E+00
  7.90000000E+02  1.40000000E+01  0.00000000E+00
  7.90000000E+02  1.20000000E+01  0.00000000E+00
  7.90000000E+02  1.00000000E+01  0.00000000E+00
  7.90000000E+02  8.00000000E+00  0.00000000E+00
  7.90000000E+02  6.00000000E+00  0.00000000E+00
  7.90000000E+02  4.00000000E+00  0.00000000E+00
  7.90000000E+02  2.00000000E+00  0.00000000E+00
  7.90000000E+02 -3.33066907E-14  0.00000000E+00
  8.00000000E+02  1.00000000E+02  0.00000000E+00
  8.00000000E+02  9.80000000E+01  0.00000000E+00
  8.00000000E+02  9.60000000E+01  0.00000000E+00
  8.00000000E+02  9.40000000E+01  0.00000000E+00
  8.00000000E+02  9.20000000E+01  0.00000000E+00
  8.00000000E+02  9.00000000E+01  0.00000000E+00
  8.00000000E+02  8.80000000E+01  0.00000000E+00
  8.00000000E+02  8.60000000E+01  0.00000000E+00
  8.00000000E+02  8.40000000E+01  0.00000000E+00
  8.00000000E+02  8.20000000E+01  0.00000000E+00
  8.00000000E+02  8.00000000E+01  0.00000000E+00
  8.00000000E+02  7.80000000E+01  0.00000000E+00
  8.00000000E+02  7.60000000E+01  0.00000000E+00
  8.00000000E+02  7.40000000E+01  0.00000000E+00
  8.00000000E+02  7.20000000E+01  0.00000000E+00
  8.00000000E+02  7.00000000E+01  0.00000000E+00
  8.00000000E+02  6.80000000E+01  0.00000000E+00
  8.00000000E+02  6.60000000E+01  0.00000000E+00
  8.00000000E+02  6.40000000E+01  0.00000000E+00
  8.00000000E+02  6.20000000E+01  0.00000000E+00
  8.00000000E+02  6.00000000E+01  0.00000000E+00
  8.00000000E+02  5.80000000E+01  0.00000000E+00
  8.00000000E+02  5.60000000E+01  0.00000000E+00
  8.00000000E+02  5.40000000E+01  0.00000000E+00
  8.00000000E+02  5.20000000E+01  0.00000000E+00
  8.00000000E+02  5.00000000E+01  0.00000000E+00
  8.00000000E+02  4.80000000E+01  0.00000000E+00
  8.00000000E+02  4.60000000E+01  0.00000000E+00
  8.00000000E+02  4.40000000E+01  0.00000000E+00
  8.00000000E+02  4.20000000E+01  0.00000000E+00
  8.00000000E+02  4.00000000E+01  0.00000000E+00
  8.00000000E+02  3.80000000E+01  0.00000000E+00
  8.00000000E+02  3.60000000E+01  0.00000000E+00
  8.00000000E+02  3.40000000E+01  0.00000000E+00
  8.00000000E+02  3.20000000E+01  0.00000000E+00
  8.00000000E+02  3.00000000E+01  0.00000000E+00
  8.00000000E+02  2.80000000E+01  0.00000000E+00
  8.00000000E+02  2.60000000E+01  0.00000000E+00
  8.00000000E+02  2.40000000E+01  0.00000000E+00
  8.00000000E+02  2.20000000E+01  0.00000000E+00
  8.00000000E+02  2.00000000E+01  0.00000000E+00
  8.00000000E+02  1.80000000E+01  0.00000000E+00
  8.00000000E+02  1.60000000E+01  0.00000000E+00
  8.00000000E+02  1.40000000E+01  0.00000000E+00
  8.00000000E+02  1.20000000E+01  0.00000000E+00
  8.00000000E+02  1.00000000E+01  0.00000000E+00
  8.00000000E+02  8.00000000E+00  0.00000000E+00
  8.00000000E+02  6.00000000E+00  0.00000000E+00
  8.00000000E+02  4.00000000E+00  0.00000000E+00
  8.00000000E+02  2.00000000E+00  0.00000000E+00
  8.00000000E+02 -3.33066907E-14  0.00000000E+00
  8.10000000E+02  1.00000000E+02  0.00000000E+00
  8.10000000E+02  9.80000000E+01  0.00000000E+00
  8.10000000E+02  9.60000000E+01  0.00000000E+00
  8.10000000E+02  9.40000000E+01  0.00000000E+00
  8.10000000E+02  9.20000000E+01  0.00000000E+00
  8.10000000E+02  9.00000000E+01  0.00000000E+00
  8.10000000E+02  8.80000000E+01  0.00000000E+00
  8.10000000E+02  8.60000000E+01  0.00000000E+00
  8.10000000E+02  8.40000000E+01  0.00000000E+00
  8.10000000E+02  8.20000000E+01  0.00000000E+00
  8.10000000E+02  8.00000000E+01  0.00000000E+00
  8.10000000E+02  7.80000000E+01  0.00000000E+00
  8.10000000E+02  7.60000000E+01  0.00000000E+00
  8.10000000E+02  7.40000000E+01  0.00000000E+00
  8.10000000E+02  7.20000000E+01  0.00000000E+00
  8.10000000E+02  7.00000000E+01  0.00000000E+00
  8.10000000E+02  6.80000000E+01  0.00000000E+00
  8.10000000E+02  6.60000000E+01  0.00000000E+00
  8.10000000E+02  6.40000000E+01  0.00000000E+00
  8.10000000E+02  6.20000000E+01  0.00000000E+00
  8.10000000E+02  6.00000000E+01  0.00000000E+00
  8.10000000E+02  5.80000000E+01  0.00000000E+00
  8.10000000E+02  5.60000000E+01  0.00000000E+00
  8.10000000E+02  5.40000000E+01  0.00000000E+00
  8.10000000E+02  5.20000000E+01  0.00000000E+00
  8.10000000E+02  5.00000000E+01  0.00000000E+00
  8.10000000E+02  4.80000000E+01  0.00000000E+00
  8.10000000E+02  4.60000000E+01  0.00000000E+00
  8.10000000E+02  4.40000000E+01  0.00000000E+00
  8.10000000E+02  4.20000000E+01  0.00000000E+00
  8.10000000E+02  4.00000000E+01  0.00000000E+00
  8.10000000E+02  3.80000000E+01  0.00000000E+00
  8.10000000E+02  3.60000000E+01  0.00000000E+00
  8.10000000E+02  3.40000000E+01  0.00000000E+00
  8.10000000E+02  3.20000000E+01  0.00000000E+00
  8.10000000E+02  3.00000000E+01  0.00000000E+00
  8.10000000E+02  2.80000000E+01  0.00000000E+00
  8.10000000E+02  2.60000000E+01  0.00000000E+00
  8.10000000E+02  2.40000000E+01  0.00000000E+00
  8.10000000E+02  2.20000000E+01  0.00000000E+00
  8.10000000E+02  2.00000000E+01  0.00000000E+00
  8.10000000E+02  1.80000000E+01  0.00000000E+00
  8.10000000E+02  1.60000000E+01  0.00000000E+00
  8.10000000E+02  1.40000000E+01  0.00000000E+00
  8.10000000E+02  1.20000000E+01  0.00000000E+00
  8.10000000E+02  1.00000000E+01  0.00000000E+00
  8.10000000E+02  8.00000000E+00  0.00000000E+00
  8.10000000E+02  6.00000000E+00  0.00000000E+00
  8.10000000E+02  4.00000000E+00  0.00000000E+00
  8.10000000E+02  2.00000000E+00  0.00000000E+00
  8.10000000E+02 -3.33066907E-14  0.00000000E+00
  8.20000000E+02  1.00000000E+02  0.00000000E+00
  8.20000000E+02  9.80000000E+01  0.00000000E+00
  8.20000000E+02  9.60000000E+01  0.00000000E+00
  8.20000000E+02  9.40000000E+01  0.00000000E+00
  8.20000000E+02  9.20000000E+01  0.00000000E+00
  8.20000000E+02  9.00000000E+01  0.00000000E+00
  8.20000000E+02  8.80000000E+01  0.00000000E+00
  8.20000000E+02  8.60000000E+01  0.00000000E+00
  8.20000000E+02  8.40000000E+01  0.00000000E+00
  8.20000000E+02  8.20000000E+01  0.00000000E+00
  8.20000000E+02  8.00000000E+01  0.00000000E+00
  8.20000000E+02  7.80000000E+01  0.00000000E+00
  8.20000000E+02  7.60000000E+01  0.00000000E+00
  8.20000000E+02  7.40000000E+01  0.00000000E+00
  8.20000000E+02  7.20000000E+01  0.00000000E+00
  8.20000000E+02  7.00000000E+01  0.00000000E+00
  8.20000000E+02  6.80000000E+01  0.00000000E+00
  8.20000000E+02  6.60000000E+01  0.00000000E+00
  8.20000000E+02  6.40000000E+01  0.00000000E+00
  8.20000000E+02  6.20000000E+01  0.00000000E+00
  8.20000000E+02  6.00000000E+01  0.00000000E+00
  8.20000000E+02  5.80000000E+01  0.00000000E+00
  8.20000000E+02  5.60000000E+01  0.00000000E+00
  8.20000000E+02  5.40000000E+01  0.00000000E+00
  8.20000000E+02  5.20000000E+01  0.00000000E+00
  8.20000000E+02  5.00000000E+01  0.00000000E+00
  8.20000000E+02  4.80000000E+01  0.00000000E+00
  8.20000000E+02  4.60000000E+01  0.00000000E+00
  8.20000000E+02  4.40000000E+01  0.00000000E+00
  8.20000000E+02  4.20000000E+01  0.00000000E+00
  8.20000000E+02  4.00000000E+01  0.00000000E+00
  8.20000000E+02  3.80000000E+01  0.00000000E+00
  8.20000000E+02  3.60000000E+01  0.00000000E+00
  8.20000000E+02  3.40000000E+01  0.00000000E+00
  8.20000000E+02  3.20000000E+01  0.00000000E+00
  8.20000000E+02  3.00000000E+01  0.00000000E+00
  8.20000000E+02  2.80000000E+01  0.00000000E+00
  8.20000000E+02  2.60000000E+01  0.00000000E+00
  8.20000000E+02  2.40000000E+01  0.00000000E+00
  8.20000000E+02  2.20000000E+01  0.00000000E+00
  8.20000000E+02  2.00000000E+01  0.00000000E+00
  8.20000000E+02  1.80000000E+01  0.00000000E+00
  8.20000000E+02  1.60000000E+01  0.00000000E+00
  8.20000000E+02  1.40000000E+01  0.00000000E+00
  8.20000000E+02  1.20000000E+01  0.00000000E+00
  8.20000000E+02  1.00000000E+01  0.00000000E+00
  8.20000000E+02  8.00000000E+00  0.00000000E+00
  8.20000000E+02  6.00000000E+00  0.00000000E+00
  8.20000000E+02  4.00000000E+00  0.00000000E+00
  8.20000000E+02  2.00000000E+00  0.00000000E+00
  8.20000000E+02 -3.33066907E-14  0.00000000E+00
  8.30000000E+02  1.00000000E+02  0.00000000E+00
  8.30000000E+02  9.80000000E+01  0.00000000E+00
  8.30000000E+02  9.60000000E+01  0.00000000E+00
  8.30000000E+02  9.40000000E+01  0.00000000E+00
  8.30000000E+02  9.20000000E+01  0.00000000E+00
  8.30000000E+02  9.00000000E+01  0.00000000E+00
  8.30000000E+02  8.80000000E+01  0.00000000E+00
  8.30000000E+02  8.60000000E+01  0.00000000E+00
  8.30000000E+02  8.40000000E+01  0.00000000E+00
  8.30000000E+02  8.20000000E+01  0.00000000E+00
  8.30000000E+02  8.00000000E+01  0.00000000E+00
  8.30000000E+02  7.80000000E+01  0.00000000E+00
  8.30000000E+02  7.60000000E+01  0.00000000E+00
  8.30000000E+02  7.40000000E+01  0.00000000E+00
  8.30000000E+02  7.20000000E+01  0.00000000E+00
  8.30000000E+02  7.00000000E+01  0.00000000E+00
  8.30000000E+02  6.80000000E+01  0.00000000E+00
  8.30000000E+02  6.60000000E+01  0.00000000E+00
  8.30000000E+02  6.40000000E+01  0.00000000E+00
  8.30000000E+02  6.20000000E+01  0.00000000E+00
  8.30000000E+02  6.00000000E+01  0.00000000E+00
  8.30000000E+02  5.80000000E+01  0.00000000E+00
  8.30000000E+02  5.60000000E+01  0.00000000E+00
  8.30000000E+02  5.40000000E+01  0.00000000E+00
  8.30000000E+02  5.20000000E+01  0.00000000E+00
  8.30000000E+02  5.00000000E+01  0.00000000E+00
  8.30000000E+02  4.80000000E+01  0.00000000E+00
  8.30000000E+02  4.60000000E+01  0.00000000E+00
  8.30000000E+02  4.40000000E+01  0.00000000E+00
  8.30000000E+02  4.20000000E+01  0.00000000E+00
  8.30000000E+02  4.00000000E+01  0.00000000E+00
  8.30000000E+02  3.80000000E+01  0.00000000E+00
  8.30000000E+02  3.60000000E+01  0.00000000E+00
  8.30000000E+02  3.40000000E+01  0.00000000E+00
  8.30000000E+02  3.20000000E+01  0.00000000E+00
  8.30000000E+02  3.00000000E+01  0.00000000E+00
  8.30000000E+02  2.80000000E+01  0.00000000E+00
  8.30000000E+02  2.60000000E+01  0.00000000E+00
  8.30000000E+02  2.40000000E+01  0.00000000E+00
  8.30000000E+02  2.20000000E+01  0.00000000E+00
  8.30000000E+02  2.00000000E+01  0.00000000E+00
  8.30000000E+02  1.80000000E+01  0.00000000E+00
  8.30000000E+02  1.60000000E+01  0.00000000E+00
  8.30000000E+02  1.40000000E+01  0.00000000E+00
  8.30000000E+02  1.20000000E+01  0.00000000E+00
  8.30000000E+02  1.00000000E+01  0.00000000E+00
  8.30000000E+02  8.00000000E+00  0.00000000E+00
  8.30000000E+02  6.00000000E+00  0.00000000E+00
  8.30000000E+02  4.00000000E+00  0.00000000E+00
  8.30000000E+02  2.00000000E+00  0.00000000E+00
  8.30000000E+02 -3.33066907E-14  0.00000000E+00
  8.40000000E+02  1.00000000E+02  0.00000000E+00
  8.40000000E+02  9.80000000E+01  0.00000000E+00
  8.40000000E+02  9.60000000E+01  0.00000000E+00
  8.40000000E+02  9.40000000E+01  0.00000000E+00
  8.40000000E+02  9.20000000E+01  0.00000000E+00
  8.40000000E+02  9.00000000E+01  0.00000000E+00
  8.40000000E+02  8.80000000E+01  0.00000000E+00
  8.40000000E+02  8.60000000E+01  0.00000000E+00
  8.40000000E+02  8.40000000E+01  0.00000000E+00
  8.40000000E+02  8.20000000E+01  0.00000000E+00
  8.40000000E+02  8.00000000E+01  0.00000000E+00
  8.40000000E+02  7.80000000E+01  0.00000000E+00
  8.40000000E+02  7.60000000E+01  0.00000000E+00
  8.40000000E+02  7.40000000E+01  0.00000000E+00
  8.40000000E+02  7.20000000E+01  0.00000000E+00
  8.40000000E+02  7.00000000E+01  0.00000000E+00
  8.40000000E+02  6.80000000E+01  0.00000000E+00
  8.40000000E+02  6.60000000E+01  0.00000000E+00
  8.40000000E+02  6.40000000E+01  0.00000000E+00
  8.40000000E+02  6.20000000E+01  0.00000000E+00
  8.40000000E+02  6.00000000E+01  0.00000000E+00
  8.40000000E+02  5.80000000E+01  0.00000000E+00
  8.40000000E+02  5.60000000E+01  0.00000000E+00
  8.40000000E+02  5.40000000E+01  0.00000000E+00
  8.40000000E+02  5.20000000E+01  0.00000000E+00
  8.40000000E+02  5.00000000E+01  0.00000000E+00
  8.40000000E+02  4.80000000E+01  0.00000000E+00
  8.40000000E+02  4.60000000E+01  0.00000000E+00
  8.40000000E+02  4.40000000E+01  0.00000000E+00
  8.40000000E+02  4.20000000E+01  0.00000000E+00
  8.40000000E+02  4.00000000E+01  0.00000000E+00
  8.40000000E+02  3.80000000E+01  0.00000000E+00
  8.40000000E+02  3.60000000E+01  0.00000000E+00
  8.40000000E+02  3.40000000E+01  0.00000000E+00
  8.40000000E+02  3.20000000E+01  0.00000000E+00
  8.40000000E+02  3.00000000E+01  0.00000000E+00
  8.40000000E+02  2.80000000E+01  0.00000000E+00
  8.40000000E+02  2.60000000E+01  0.00000000E+00
  8.40000000E+02  2.40000000E+01  0.00000000E+00
  8.40000000E+02  2.20000000E+01  0.00000000E+00
  8.40000000E+02  2.00000000E+01  0.00000000E+00
  8.40000000E+02  1.80000000E+01  0.00000000E+00
  8.40000000E+02  1.60000000E+01  0.00000000E+00
  8.40000000E+02  1.40000000E+01  0.00000000E+00
  8.40000000E+02  1.20000000E+01  0.00000000E+00
  8.40000000E+02  1.00000000E+01  0.00000000E+00
  8.40000000E+02  8.00000000E+00  0.00000000E+00
  8.40000000E+02  6.00000000E+00  0.00000000E+00
  8.40000000E+02  4.00000000E+00  0.00000000E+00
  8.40000000E+02  2.00000000E+00  0.00000000E+00
  8.40000000E+02 -3.33066907E-14  0.00000000E+00
  8.50000000E+02  1.00000000E+02  0.00000000E+00
  8.50000000E+02  9.80000000E+01  0.00000000E+00
  8.50000000E+02  9.60000000E+01  0.00000000E+00
  8.50000000E+02  9.40000000E+01  0.00000000E+00
  8.50000000E+02  9.20000000E+01  0.00000000E+00
  8.50000000E+02  9.00000000E+01  0.00000000E+00
  8.50000000E+02  8.80000000E+01  0.00000000E+00
  8.50000000E+02  8.60000000E+01  0.00000000E+00
  8.50000000E+02  8.40000000E+01  0.00000000E+00
  8.50000000E+02  8.20000000E+01  0.00000000E+00
  8.50000000E+02  8.00000000E+01  0.00000000E+00
  8.50000000E+02  7.80000000E+01  0.00000000E+00
  8.50000000E+02  7.60000000E+01  0.00000000E+00
  8.50000000E+02  7.40000000E+01  0.00000000E+00
  8.50000000E+02  7.20000000E+01  0.00000000E+00
  8.50000000E+02  7.00000000E+01  0.00000000E+00
  8.50000000E+02  6.80000000E+01  0.00000000E+00
  8.50000000E+02  6.60000000E+01  0.00000000E+00
  8.50000000E+02  6.40000000E+01  0.00000000E+00
  8.50000000E+02  6.20000000E+01  0.00000000E+00
  8.50000000E+02  6.00000000E+01  0.00000000E+00
  8.50000000E+02  5.80000000E+01  0.00000000E+00
  8.50000000E+02  5.60000000E+01  0.00000000E+00
  8.50000000E+02  5.40000000E+01  0.00000000E+00
  8.50000000E+02  5.20000000E+01  0.00000000E+00
  8.50000000E+02  5.00000000E+01  0.00000000E+00
  8.50000000E+02  4.80000000E+01  0.00000000E+00
  8.50000000E+02  4.60000000E+01  0.00000000E+00
  8.50000000E+02  4.40000000E+01  0.00000000E+00
  8.50000000E+02  4.20000000E+01  0.00000000E+00
  8.50000000E+02  4.00000000E+01  0.00000000E+00
  8.50000000E+02  3.80000000E+01  0.00000000E+00
  8.50000000E+02  3.60000000E+01  0.00000000E+00
  8.50000000E+02  3.40000000E+01  0.00000000E+00
  8.50000000E+02  3.20000000E+01  0.00000000E+00
  8.50000000E+02  3.00000000E+01  0.00000000E+00
  8.50000000E+02  2.80000000E+01  0.00000000E+00
  8.50000000E+02  2.60000000E+01  0.00000000E+00
  8.50000000E+02  2.40000000E+01  0.00000000E+00
  8.50000000E+02  2.20000000E+01  0.00000000E+00
  8.50000000E+02  2.00000000E+01  0.00000000E+00
  8.50000000E+02  1.80000000E+01  0.00000000E+00
  8.50000000E+02  1.60000000E+01  0.00000000E+00
  8.50000000E+02  1.40000000E+01  0.00000000E+00
  8.50000000E+02  1.20000000E+01  0.00000000E+00
  8.50000000E+02  1.00000000E+01  0.00000000E+00
  8.50000000E+02  8.00000000E+00  0.00000000E+00
  8.50000000E+02  6.00000000E+00  0.00000000E+00
  8.50000000E+02  4.00000000E+00  0.00000000E+00
  8.50000000E+02  2.00000000E+00  0.00000000E+00
  8.50000000E+02 -3.33066907E-14  0.00000000E+00
  8.60000000E+02  1.00000000E+02  0.00000000E+00
  8.60000000E+02  9.80000000E+01  0.00000000E+00
  8.60000000E+02  9.60000000E+01  0.00000000E+00
  8.60000000E+02  9.40000000E+01  0.00000000E+00
  8.60000000E+02  9.20000000E+01  0.00000000E+00
  8.60000000E+02  9.00000000E+01  0.00000000E+00
  8.60000000E+02  8.80000000E+01  0.00000000E+00
  8.60000000E+02  8.60000000E+01  0.00000000E+00
  8.60000000E+02  8.40000000E+01  0.00000000E+00
  8.60000000E+02  8.20000000E+01  0.00000000E+00
  8.60000000E+02  8.00000000E+01  0.00000000E+00
  8.60000000E+02  7.80000000E+01  0.00000000E+00
  8.60000000E+02  7.60000000E+01  0.00000000E+00
  8.60000000E+02  7.40000000E+01  0.00000000E+00
  8.60000000E+02  7.20000000E+01  0.00000000E+00
  8.60000000E+02  7.00000000E+01  0.00000000E+00
  8.60000000E+02  6.80000000E+01  0.00000000E+00
  8.60000000E+02  6.60000000E+01  0.00000000E+00
  8.60000000E+02  6.40000000E+01  0.00000000E+00
  8.60000000E+02  6.20000000E+01  0.00000000E+00
  8.60000000E+02  6.00000000E+01  0.00000000E+00
  8.60000000E+02  5.80000000E+01  0.00000000E+00
  8.60000000E+02  5.60000000E+01  0.00000000E+00
  8.60000000E+02  5.40000000E+01  0.00000000E+00
  8.60000000E+02  5.20000000E+01  0.00000000E+00
  8.60000000E+02  5.00000000E+01  0.00000000E+00
  8.60000000E+02  4.80000000E+01  0.00000000E+00
  8.60000000E+02  4.60000000E+01  0.00000000E+00
  8.60000000E+02  4.40000000E+01  0.00000000E+00
  8.60000000E+02  4.20000000E+01  0.00000000E+00
  8.60000000E+02  4.00000000E+01  0.00000000E+00
  8.60000000E+02  3.80000000E+01  0.00000000E+00
  8.60000000E+02  3.60000000E+01  0.00000000E+00
  8.60000000E+02  3.40000000E+01  0.00000000E+00
  8.60000000E+02  3.20000000E+01  0.00000000E+00
  8.60000000E+02  3.00000000E+01  0.00000000E+00
  8.60000000E+02  2.80000000E+01  0.00000000E+00
  8.60000000E+02  2.60000000E+01  0.00000000E+00
  8.60000000E+02  2.40000000E+01  0.00000000E+00
  8.60000000E+02  2.20000000E+01  0.00000000E+00
  8.60000000E+02  2.00000000E+01  0.00000000E+00
  8.60000000E+02  1.80000000E+01  0.00000000E+00
  8.60000000E+02  1.60000000E+01  0.00000000E+00
  8.60000000E+02  1.40000000E+01  0.00000000E+00
  8.60000000E+02  1.20000000E+01  0.00000000E+00
  8.60000000E+02  1.00000000E+01  0.00000000E+00
  8.60000000E+02  8.00000000E+00  0.00000000E+00
  8.60000000E+02  6.00000000E+00  0.00000000E+00
  8.60000000E+02  4.00000000E+00  0.00000000E+00
  8.60000000E+02  2.00000000E+00  0.00000000E+00
  8.60000000E+02 -3.33066907E-14  0.00000000E+00
  8.70000000E+02  1.00000000E+02  0.00000000E+00
  8.70000000E+02  9.80000000E+01  0.00000000E+00
  8.70000000E+02  9.60000000E+01  0.00000000E+00
  8.70000000E+02  9.40000000E+01  0.00000000E+00
  8.70000000E+02  9.20000000E+01  0.00000000E+00
  8.70000000E+02  9.00000000E+01  0.00000000E+00
  8.70000000E+02  8.80000000E+01  0.00000000E+00
  8.70000000E+02  8.60000000E+01  0.00000000E+00
  8.70000000E+02  8.40000000E+01  0.00000000E+00
  8.70000000E+02  8.20000000E+01  0.00000000E+00
  8.70000000E+02  8.00000000E+01  0.00000000E+00
  8.70000000E+02  7.80000000E+01  0.00000000E+00
  8.70000000E+02  7.60000000E+01  0.00000000E+00
  8.70000000E+02  7.40000000E+01  0.00000000E+00
  8.70000000E+02  7.20000000E+01  0.00000000E+00
  8.70000000E+02  7.00000000E+01  0.00000000E+00
  8.70000000E+02  6.80000000E+01  0.00000000E+00
  8.70000000E+02  6.60000000E+01  0.00000000E+00
  8.70000000E+02  6.40000000E+01  0.00000000E+00
  8.70000000E+02  6.20000000E+01  0.00000000E+00
  8.70000000E+02  6.00000000E+01  0.00000000E+00
  8.70000000E+02  5.80000000E+01  0.00000000E+00
  8.70000000E+02  5.60000000E+01  0.00000000E+00
  8.70000000E+02  5.40000000E+01  0.00000000E+00
  8.70000000E+02  5.20000000E+01  0.00000000E+00
  8.70000000E+02  5.00000000E+01  0.00000000E+00
  8.70000000E+02  4.80000000E+01  0.00000000E+00
  8.70000000E+02  4.60000000E+01  0.00000000E+00
  8.70000000E+02  4.40000000E+01  0.00000000E+00
  8.70000000E+02  4.20000000E+01  0.00000000E+00
  8.70000000E+02  4.00000000E+01  0.00000000E+00
  8.70000000E+02  3.80000000E+01  0.00000000E+00
  8.70000000E+02  3.60000000E+01  0.00000000E+00
  8.70000000E+02  3.40000000E+01  0.00000000E+00
  8.70000000E+02  3.20000000E+01  0.00000000E+00
  8.70000000E+02  3.00000000E+01  0.00000000E+00
  8.70000000E+02  2.80000000E+01  0.00000000E+00
  8.70000000E+02  2.60000000E+01  0.00000000E+00
  8.70000000E+02  2.40000000E+01  0.00000000E+00
  8.70000000E+02  2.20000000E+01  0.00000000E+00
  8.70000000E+02  2.00000000E+01  0.00000000E+00
  8.70000000E+02  1.80000000E+01  0.00000000E+00
  8.70000000E+02  1.60000000E+01  0.00000000E+00
  8.70000000E+02  1.40000000E+01  0.00000000E+00
  8.70000000E+02  1.20000000E+01  0.00000000E+00
  8.70000000E+02  1.00000000E+01  0.00000000E+00
  8.70000000E+02  8.00000000E+00  0.00000000E+00
  8.70000000E+02  6.00000000E+00  0.00000000E+00
  8.70000000E+02  4.00000000E+00  0.00000000E+00
  8.70000000E+02  2.00000000E+00  0.00000000E+00
  8.70000000E+02 -3.33066907E-14  0.00000000E+00
  8.80000000E+02  1.00000000E+02  0.00000000E+00
  8.80000000E+02  9.80000000E+01  0.00000000E+00
  8.80000000E+02  9.60000000E+01  0.00000000E+00
  8.80000000E+02  9.40000000E+01  0.00000000E+00
  8.80000000E+02  9.20000000E+01  0.00000000E+00
  8.80000000E+02  9.00000000E+01  0.00000000E+00
  8.80000000E+02  8.80000000E+01  0.00000000E+00
  8.80000000E+02  8.60000000E+01  0.00000000E+00
  8.80000000E+02  8.40000000E+01  0.00000000E+00
  8.80000000E+02  8.20000000E+01  0.00000000E+00
  8.80000000E+02  8.00000000E+01  0.00000000E+00
  8.80000000E+02  7.80000000E+01  0.00000000E+00
  8.80000000E+02  7.60000000E+01  0.00000000E+00
  8.80000000E+02  7.40000000E+01  0.00000000E+00
  8.80000000E+02  7.20000000E+01  0.00000000E+00
  8.80000000E+02  7.00000000E+01  0.00000000E+00
  8.80000000E+02  6.80000000E+01  0.00000000E+00
  8.80000000E+02  6.60000000E+01  0.00000000E+00
  8.80000000E+02  6.40000000E+01  0.00000000E+00
  8.80000000E+02  6.20000000E+01  0.00000000E+00
  8.80000000E+02  6.00000000E+01  0.00000000E+00
  8.80000000E+02  5.80000000E+01  0.00000000E+00
  8.80000000E+02  5.60000000E+01  0.00000000E+00
  8.80000000E+02  5.40000000E+01  0.00000000E+00
  8.80000000E+02  5.20000000E+01  0.00000000E+00
  8.80000000E+02  5.00000000E+01  0.00000000E+00
  8.80000000E+02  4.80000000E+01  0.00000000E+00
  8.80000000E+02  4.60000000E+01  0.00000000E+00
  8.80000000E+02  4.40000000E+01  0.00000000E+00
  8.80000000E+02  4.20000000E+01  0.00000000E+00
  8.80000000E+02  4.00000000E+01  0.00000000E+00
  8.80000000E+02  3.80000000E+01  0.00000000E+00
  8.80000000E+02  3.60000000E+01  0.00000000E+00
  8.80000000E+02  3.40000000E+01  0.00000000E+00
  8.80000000E+02  3.20000000E+01  0.00000000E+00
  8.80000000E+02  3.00000000E+01  0.00000000E+00
  8.80000000E+02  2.80000000E+01  0.00000000E+00
  8.80000000E+02  2.60000000E+01  0.00000000E+00
  8.80000000E+02  2.40000000E+01  0.00000000E+00
  8.80000000E+02  2.20000000E+01  0.00000000E+00
  8.80000000E+02  2.00000000E+01  0.00000000E+00
  8.80000000E+02  1.80000000E+01  0.00000000E+00
  8.80000000E+02  1.60000000E+01  0.00000000E+00
  8.80000000E+02  1.40000000E+01  0.00000000E+00
  8.80000000E+02  1.20000000E+01  0.00000000E+00
  8.80000000E+02  1.00000000E+01  0.00000000E+00
  8.80000000E+02  8.00000000E+00  0.00000000E+00
  8.80000000E+02  6.00000000E+00  0.00000000E+00
  8.80000000E+02  4.00000000E+00  0.00000000E+00
  8.80000000E+02  2.00000000E+00  0.00000000E+00
  8.80000000E+02 -3.33066907E-14  0.00000000E+00
  8.90000000E+02  1.00000000E+02  0.00000000E+00
  8.90000000E+02  9.80000000E+01  0.00000000E+00
  8.90000000E+02  9.60000000E+01  0.00000000E+00
  8.90000000E+02  9.40000000E+01  0.00000000E+00
  8.90000000E+02  9.20000000E+01  0.00000000E+00
  8.90000000E+02  9.00000000E+01  0.00000000E+00
  8.90000000E+02  8.80000000E+01  0.00000000E+00
  8.90000000E+02  8.60000000E+01  0.00000000E+00
  8.90000000E+02  8.40000000E+01  0.00000000E+00
  8.90000000E+02  8.20000000E+01  0.00000000E+00
  8.90000000E+02  8.00000000E+01  0.00000000E+00
  8.90000000E+02  7.80000000E+01  0.00000000E+00
  8.90000000E+02  7.60000000E+01  0.00000000E+00
  8.90000000E+02  7.40000000E+01  0.00000000E+00
  8.90000000E+02  7.20000000E+01  0.00000000E+00
  8.90000000E+02  7.00000000E+01  0.00000000E+00
  8.90000000E+02  6.80000000E+01  0.00000000E+00
  8.90000000E+02  6.60000000E+01  0.00000000E+00
  8.90000000E+02  6.40000000E+01  0.00000000E+00
  8.90000000E+02  6.20000000E+01  0.00000000E+00
  8.90000000E+02  6.00000000E+01  0.00000000E+00
  8.90000000E+02  5.80000000E+01  0.00000000E+00
  8.90000000E+02  5.60000000E+01  0.00000000E+00
  8.90000000E+02  5.40000000E+01  0.00000000E+00
  8.90000000E+02  5.20000000E+01  0.00000000E+00
  8.90000000E+02  5.00000000E+01  0.00000000E+00
  8.90000000E+02  4.80000000E+01  0.00000000E+00
  8.90000000E+02  4.60000000E+01  0.00000000E+00
  8.90000000E+02  4.40000000E+01  0.00000000E+00
  8.90000000E+02  4.20000000E+01  0.00000000E+00
  8.90000000E+02  4.00000000E+01  0.00000000E+00
  8.90000000E+02  3.80000000E+01  0.00000000E+00
  8.90000000E+02  3.60000000E+01  0.00000000E+00
  8.90000000E+02  3.40000000E+01  0.00000000E+00
  8.90000000E+02  3.20000000E+01  0.00000000E+00
  8.90000000E+02  3.00000000E+01  0.00000000E+00
  8.90000000E+02  2.80000000E+01  0.00000000E+00
  8.90000000E+02  2.60000000E+01  0.00000000E+00
  8.90000000E+02  2.40000000E+01  0.00000000E+00
  8.90000000E+02  2.20000000E+01  0.00000000E+00
  8.90000000E+02  2.00000000E+01  0.00000000E+00
  8.90000000E+02  1.80000000E+01  0.00000000E+00
  8.90000000E+02  1.60000000E+01  0.00000000E+00
  8.90000000E+02  1.40000000E+01  0.00000000E+00
  8.90000000E+02  1.20000000E+01  0.00000000E+00
  8.90000000E+02  1.00000000E+01  0.00000000E+00
  8.90000000E+02  8.00000000E+00  0.00000000E+00
  8.90000000E+02  6.00000000E+00  0.00000000E+00
  8.90000000E+02  4.00000000E+00  0.00000000E+00
  8.90000000E+02  2.00000000E+00  0.00000000E+00
  8.90000000E+02 -3.33066907E-14  0.00000000E+00
  9.00000000E+02  1.00000000E+02  0.00000000E+00
  9.00000000E+02  9.80000000E+01  0.00000000E+00
  9.00000000E+02  9.60000000E+01  0.00000000E+00
  9.00000000E+02  9.40000000E+01  0.00000000E+00
  9.00000000E+02  9.20000000E+01  0.00000000E+00
  9.00000000E+02  9.00000000E+01  0.00000000E+00
  9.00000000E+02  8.80000000E+01  0.00000000E+00
  9.00000000E+02  8.60000000E+01  0.00000000E+00
  9.00000000E+02  8.40000000E+01  0.00000000E+00
  9.00000000E+02  8.20000000E+01  0.00000000E+00
  9.00000000E+02  8.00000000E+01  0.00000000E+00
  9.00000000E+02  7.80000000E+01  0.00000000E+00
  9.00000000E+02  7.60000000E+01  0.00000000E+00
  9.00000000E+02  7.40000000E+01  0.00000000E+00
  9.00000000E+02  7.20000000E+01  0.00000000E+00
  9.00000000E+02  7.00000000E+01  0.00000000E+00
  9.00000000E+02  6.80000000E+01  0.00000000E+00
  9.00000000E+02  6.60000000E+01  0.00000000E+00
  9.00000000E+02  6.40000000E+01  0.00000000E+00
  9.00000000E+02  6.20000000E+01  0.00000000E+00
  9.00000000E+02  6.00000000E+01  0.00000000E+00
  9.00000000E+02  5.80000000E+01  0.00000000E+00
  9.00000000E+02  5.60000000E+01  0.00000000E+00
  9.00000000E+02  5.40000000E+01  0.00000000E+00
  9.00000000E+02  5.20000000E+01  0.00000000E+00
  9.00000000E+02  5.00000000E+01  0.00000000E+00
  9.00000000E+02  4.80000000E+01  0.00000000E+00
  9.00000000E+02  4.60000000E+01  0.00000000E+00
  9.00000000E+02  4.40000000E+01  0.00000000E+00
  9.00000000E+02  4.20000000E+01  0.00000000E+00
  9.00000000E+02  4.00000000E+01  0.00000000E+00
  9.00000000E+02  3.80000000E+01  0.00000000E+00
  9.00000000E+02  3.60000000E+01  0.00000000E+00
  9.00000000E+02  3.40000000E+01  0.00000000E+00
  9.00000000E+02  3.20000000E+01  0.00000000E+00
  9.00000000E+02  3.00000000E+01  0.00000000E+00
  9.00000000E+02  2.80000000E+01  0.00000000E+00
  9.00000000E+02  2.60000000E+01  0.00000000E+00
  9.00000000E+02  2.40000000E+01  0.00000000E+00
  9.00000000E+02  2.20000000E+01  0.00000000E+00
  9.00000000E+02  2.00000000E+01  0.00000000E+00
  9.00000000E+02  1.80000000E+01  0.00000000E+00
  9.00000000E+02  1.60000000E+01  0.00000000E+00
  9.00000000E+02  1.40000000E+01  0.00000000E+00
  9.00000000E+02  1.20000000E+01  0.00000000E+00
  9.00000000E+02  1.00000000E+01  0.00000000E+00
  9.00000000E+02  8.00000000E+00  0.00000000E+00
  9.00000000E+02  6.00000000E+00  0.00000000E+00
  9.00000000E+02  4.00000000E+00  0.00000000E+00
  9.00000000E+02  2.00000000E+00  0.00000000E+00
  9.00000000E+02 -3.33066907E-14  0.00000000E+00
  9.10000000E+02  1.00000000E+02  0.00000000E+00
  9.10000000E+02  9.80000000E+01  0.00000000E+00
  9.10000000E+02  9.60000000E+01  0.00000000E+00
  9.10000000E+02  9.40000000E+01  0.00000000E+00
  9.10000000E+02  9.20000000E+01  0.00000000E+00
  9.10000000E+02  9.00000000E+01  0.00000000E+00
  9.10000000E+02  8.80000000E+01  0.00000000E+00
  9.10000000E+02  8.60000000E+01  0.00000000E+00
  9.10000000E+02  8.40000000E+01  0.00000000E+00
  9.10000000E+02  8.20000000E+01  0.00000000E+00
  9.10000000E+02  8.00000000E+01  0.00000000E+00
  9.10000000E+02  7.80000000E+01  0.00000000E+00
  9.10000000E+02  7.60000000E+01  0.00000000E+00
  9.10000000E+02  7.40000000E+01  0.00000000E+00
  9.10000000E+02  7.20000000E+01  0.00000000E+00
  9.10000000E+02  7.00000000E+01  0.00000000E+00
  9.10000000E+02  6.80000000E+01  0.00000000E+00
  9.10000000E+02  6.60000000E+01  0.00000000E+00
  9.10000000E+02  6.40000000E+01  0.00000000E+00
  9.10000000E+02  6.20000000E+01  0.00000000E+00
  9.10000000E+02  6.00000000E+01  0.00000000E+00
  9.10000000E+02  5.80000000E+01  0.00000000E+00
  9.10000000E+02  5.60000000E+01  0.00000000E+00
  9.10000000E+02  5.40000000E+01  0.00000000E+00
  9.10000000E+02  5.20000000E+01  0.00000000E+00
  9.10000000E+02  5.00000000E+01  0.00000000E+00
  9.10000000E+02  4.80000000E+01  0.00000000E+00
  9.10000000E+02  4.60000000E+01  0.00000000E+00
  9.10000000E+02  4.40000000E+01  0.00000000E+00
  9.10000000E+02  4.20000000E+01  0.00000000E+00
  9.10000000E+02  4.00000000E+01  0.00000000E+00
  9.10000000E+02  3.80000000E+01  0.00000000E+00
  9.10000000E+02  3.60000000E+01  0.00000000E+00
  9.10000000E+02  3.40000000E+01  0.00000000E+00
  9.10000000E+02  3.20000000E+01  0.00000000E+00
  9.10000000E+02  3.00000000E+01  0.00000000E+00
  9.10000000E+02  2.80000000E+01  0.00000000E+00
  9.10000000E+02  2.60000000E+01  0.00000000E+00
  9.10000000E+02  2.40000000E+01  0.00000000E+00
  9.10000000E+02  2.20000000E+01  0.00000000E+00
  9.10000000E+02  2.00000000E+01  0.00000000E+00
  9.10000000E+02  1.80000000E+01  0.00000000E+00
  9.10000000E+02  1.60000000E+01  0.00000000E+00
  9.10000000E+02  1.40000000E+01  0.00000000E+00
  9.10000000E+02  1.20000000E+01  0.00000000E+00
  9.10000000E+02  1.00000000E+01  0.00000000E+00
  9.10000000E+02  8.00000000E+00  0.00000000E+00
  9.10000000E+02  6.00000000E+00  0.00000000E+00
  9.10000000E+02  4.00000000E+00  0.00000000E+00
  9.10000000E+02  2.00000000E+00  0.00000000E+00
  9.10000000E+02 -3.33066907E-14  0.00000000E+00
  9.20000000E+02  1.00000000E+02  0.00000000E+00
  9.20000000E+02  9.80000000E+01  0.00000000E+00
  9.20000000E+02  9.60000000E+01  0.00000000E+00
  9.20000000E+02  9.40000000E+01  0.00000000E+00
  9.20000000E+02  9.20000000E+01  0.00000000E+00
  9.20000000E+02  9.00000000E+01  0.00000000E+00
  9.20000000E+02  8.80000000E+01  0.00000000E+00
  9.20000000E+02  8.60000000E+01  0.00000000E+00
  9.20000000E+02  8.40000000E+01  0.00000000E+00
  9.20000000E+02  8.20000000E+01  0.00000000E+00
  9.20000000E+02  8.00000000E+01  0.00000000E+00
  9.20000000E+02  7.80000000E+01  0.00000000E+00
  9.20000000E+02  7.60000000E+01  0.00000000E+00
  9.20000000E+02  7.40000000E+01  0.00000000E+00
  9.20000000E+02  7.20000000E+01  0.00000000E+00
  9.20000000E+02  7.00000000E+01  0.00000000E+00
  9.20000000E+02  6.80000000E+01  0.00000000E+00
  9.20000000E+02  6.60000000E+01  0.00000000E+00
  9.20000000E+02  6.40000000E+01  0.00000000E+00
  9.20000000E+02  6.20000000E+01  0.00000000E+00
  9.20000000E+02  6.00000000E+01  0.00000000E+00
  9.20000000E+02  5.80000000E+01  0.00000000E+00
  9.20000000E+02  5.60000000E+01  0.00000000E+00
  9.20000000E+02  5.40000000E+01  0.00000000E+00
  9.20000000E+02  5.20000000E+01  0.00000000E+00
  9.20000000E+02  5.00000000E+01  0.00000000E+00
  9.20000000E+02  4.80000000E+01  0.00000000E+00
  9.20000000E+02  4.60000000E+01  0.00000000E+00
  9.20000000E+02  4.40000000E+01  0.00000000E+00
  9.20000000E+02  4.20000000E+01  0.00000000E+00
  9.20000000E+02  4.00000000E+01  0.00000000E+00
  9.20000000E+02  3.80000000E+01  0.00000000E+00
  9.20000000E+02  3.60000000E+01  0.00000000E+00
  9.20000000E+02  3.40000000E+01  0.00000000E+00
  9.20000000E+02  3.20000000E+01  0.00000000E+00
  9.20000000E+02  3.00000000E+01  0.00000000E+00
  9.20000000E+02  2.80000000E+01  0.00000000E+00
  9.20000000E+02  2.60000000E+01  0.00000000E+00
  9.20000000E+02  2.40000000E+01  0.00000000E+00
  9.20000000E+02  2.20000000E+01  0.00000000E+00
  9.20000000E+02  2.00000000E+01  0.00000000E+00
  9.20000000E+02  1.80000000E+01  0.00000000E+00
  9.20000000E+02  1.60000000E+01  0.00000000E+00
  9.20000000E+02  1.40000000E+01  0.00000000E+00
  9.20000000E+02  1.20000000E+01  0.00000000E+00
  9.20000000E+02  1.00000000E+01  0.00000000E+00
  9.20000000E+02  8.00000000E+00  0.00000000E+00
  9.20000000E+02  6.00000000E+00  0.00000000E+00
  9.20000000E+02  4.00000000E+00  0.00000000E+00
  9.20000000E+02  2.00000000E+00  0.00000000E+00
  9.20000000E+02 -3.33066907E-14  0.00000000E+00
  9.30000000E+02  1.00000000E+02  0.00000000E+00
  9.30000000E+02  9.80000000E+01  0.00000000E+00
  9.30000000E+02  9.60000000E+01  0.00000000E+00
  9.30000000E+02  9.40000000E+01  0.00000000E+00
  9.30000000E+02  9.20000000E+01  0.00000000E+00
  9.30000000E+02  9.00000000E+01  0.00000000E+00
  9.30000000E+02  8.80000000E+01  0.00000000E+00
  9.30000000E+02  8.60000000E+01  0.00000000E+00
  9.30000000E+02  8.40000000E+01  0.00000000E+00
  9.30000000E+02  8.20000000E+01  0.00000000E+00
  9.30000000E+02  8.00000000E+01  0.00000000E+00
  9.30000000E+02  7.80000000E+01  0.00000000E+00
  9.30000000E+02  7.60000000E+01  0.00000000E+00
  9.30000000E+02  7.40000000E+01  0.00000000E+00
  9.30000000E+02  7.20000000E+01  0.00000000E+00
  9.30000000E+02  7.00000000E+01  0.00000000E+00
  9.30000000E+02  6.80000000E+01  0.00000000E+00
  9.30000000E+02  6.60000000E+01  0.00000000E+00
  9.30000000E+02  6.40000000E+01  0.00000000E+00
  9.30000000E+02  6.20000000E+01  0.00000000E+00
  9.30000000E+02  6.00000000E+01  0.00000000E+00
  9.30000000E+02  5.80000000E+01  0.00000000E+00
  9.30000000E+02  5.60000000E+01  0.00000000E+00
  9.30000000E+02  5.40000000E+01  0.00000000E+00
  9.30000000E+02  5.20000000E+01  0.00000000E+00
  9.30000000E+02  5.00000000E+01  0.00000000E+00
  9.30000000E+02  4.80000000E+01  0.00000000E+00
  9.30000000E+02  4.60000000E+01  0.00000000E+00
  9.30000000E+02  4.40000000E+01  0.00000000E+00
  9.30000000E+02  4.20000000E+01  0.00000000E+00
  9.30000000E+02  4.00000000E+01  0.00000000E+00
  9.30000000E+02  3.80000000E+01  0.00000000E+00
  9.30000000E+02  3.60000000E+01  0.00000000E+00
  9.30000000E+02  3.40000000E+01  0.00000000E+00
  9.30000000E+02  3.20000000E+01  0.00000000E+00
  9.30000000E+02  3.00000000E+01  0.00000000E+00
  9.30000000E+02  2.80000000E+01  0.00000000E+00
  9.30000000E+02  2.60000000E+01  0.00000000E+00
  9.30000000E+02  2.40000000E+01  0.00000000E+00
  9.30000000E+02  2.20000000E+01  0.00000000E+00
  9.30000000E+02  2.00000000E+01  0.00000000E+00
  9.30000000E+02  1.80000000E+01  0.00000000E+00
  9.30000000E+02  1.60000000E+01  0.00000000E+00
  9.30000000E+02  1.40000000E+01  0.00000000E+00
  9.30000000E+02  1.20000000E+01  0.00000000E+00
  9.30000000E+02  1.00000000E+01  0.00000000E+00
  9.30000000E+02  8.00000000E+00  0.00000000E+00
  9.30000000E+02  6.00000000E+00  0.00000000E+00
  9.30000000E+02  4.00000000E+00  0.00000000E+00
  9.30000000E+02  2.00000000E+00  0.00000000E+00
  9.30000000E+02 -3.33066907E-14  0.00000000E+00
  9.40000000E+02  1.00000000E+02  0.00000000E+00
  9.40000000E+02  9.80000000E+01  0.00000000E+00
  9.40000000E+02  9.60000000E+01  0.00000000E+00
  9.40000000E+02  9.40000000E+01  0.00000000E+00
  9.40000000E+02  9.20000000E+01  0.00000000E+00
  9.40000000E+02  9.00000000E+01  0.00000000E+00
  9.40000000E+02  8.80000000E+01  0.00000000E+00
  9.40000000E+02  8.60000000E+01  0.00000000E+00
  9.40000000E+02  8.40000000E+01  0.00000000E+00
  9.40000000E+02  8.20000000E+01  0.00000000E+00
  9.40000000E+02  8.00000000E+01  0.00000000E+00
  9.40000000E+02  7.80000000E+01  0.00000000E+00
  9.40000000E+02  7.60000000E+01  0.00000000E+00
  9.40000000E+02  7.40000000E+01  0.00000000E+00
  9.40000000E+02  7.20000000E+01  0.00000000E+00
  9.40000000E+02  7.00000000E+01  0.00000000E+00
  9.40000000E+02  6.80000000E+01  0.00000000E+00
  9.40000000E+02  6.60000000E+01  0.00000000E+00
  9.40000000E+02  6.40000000E+01  0.00000000E+00
  9.40000000E+02  6.20000000E+01  0.00000000E+00
  9.40000000E+02  6.00000000E+01  0.00000000E+00
  9.40000000E+02  5.80000000E+01  0.00000000E+00
  9.40000000E+02  5.60000000E+01  0.00000000E+00
  9.40000000E+02  5.40000000E+01  0.00000000E+00
  9.40000000E+02  5.20000000E+01  0.00000000E+00
  9.40000000E+02  5.00000000E+01  0.00000000E+00
  9.40000000E+02  4.80000000E+01  0.00000000E+00
  9.40000000E+02  4.60000000E+01  0.00000000E+00
  9.40000000E+02  4.40000000E+01  0.00000000E+00
  9.40000000E+02  4.20000000E+01  0.00000000E+00
  9.40000000E+02  4.00000000E+01  0.00000000E+00
  9.40000000E+02  3.80000000E+01  0.00000000E+00
  9.40000000E+02  3.60000000E+01  0.00000000E+00
  9.40000000E+02  3.40000000E+01  0.00000000E+00
  9.40000000E+02  3.20000000E+01  0.00000000E+00
  9.40000000E+02  3.00000000E+01  0.00000000E+00
  9.40000000E+02  2.80000000E+01  0.00000000E+00
  9.40000000E+02  2.60000000E+01  0.00000000E+00
  9.40000000E+02  2.40000000E+01  0.00000000E+00
  9.40000000E+02  2.20000000E+01  0.00000000E+00
  9.40000000E+02  2.00000000E+01  0.00000000E+00
  9.40000000E+02  1.80000000E+01  0.00000000E+00
  9.40000000E+02  1.60000000E+01  0.00000000E+00
  9.40000000E+02  1.40000000E+01  0.00000000E+00
  9.40000000E+02  1.20000000E+01  0.00000000E+00
  9.40000000E+02  1.00000000E+01  0.00000000E+00
  9.40000000E+02  8.00000000E+00  0.00000000E+00
  9.40000000E+02  6.00000000E+00  0.00000000E+00
  9.40000000E+02  4.00000000E+00  0.00000000E+00
  9.40000000E+02  2.00000000E+00  0.00000000E+00
  9.40000000E+02 -3.33066907E-14  0.00000000E+00
  9.50000000E+02  1.00000000E+02  0.00000000E+00
  9.50000000E+02  9.80000000E+01  0.00000000E+00
  9.50000000E+02  9.60000000E+01  0.00000000E+00
  9.50000000E+02  9.40000000E+01  0.00000000E+00
  9.50000000E+02  9.20000000E+01  0.00000000E+00
  9.50000000E+02  9.00000000E+01  0.00000000E+00
  9.50000000E+02  8.80000000E+01  0.00000000E+00
  9.50000000E+02  8.60000000E+01  0.00000000E+00
  9.50000000E+02  8.40000000E+01  0.00000000E+00
  9.50000000E+02  8.20000000E+01  0.00000000E+00
  9.50000000E+02  8.00000000E+01  0.00000000E+00
  9.50000000E+02  7.80000000E+01  0.00000000E+00
  9.50000000E+02  7.60000000E+01  0.00000000E+00
  9.50000000E+02  7.40000000E+01  0.00000000E+00
  9.50000000E+02  7.20000000E+01  0.00000000E+00
  9.50000000E+02  7.00000000E+01  0.00000000E+00
  9.50000000E+02  6.80000000E+01  0.00000000E+00
  9.50000000E+02  6.60000000E+01  0.00000000E+00
  9.50000000E+02  6.40000000E+01  0.00000000E+00
  9.50000000E+02  6.20000000E+01  0.00000000E+00
  9.50000000E+02  6.00000000E+01  0.00000000E+00
  9.50000000E+02  5.80000000E+01  0.00000000E+00
  9.50000000E+02  5.60000000E+01  0.00000000E+00
  9.50000000E+02  5.40000000E+01  0.00000000E+00
  9.50000000E+02  5.20000000E+01  0.00000000E+00
  9.50000000E+02  5.00000000E+01  0.00000000E+00
  9.50000000E+02  4.80000000E+01  0.00000000E+00
  9.50000000E+02  4.60000000E+01  0.00000000E+00
  9.50000000E+02  4.40000000E+01  0.00000000E+00
  9.50000000E+02  4.20000000E+01  0.00000000E+00
  9.50000000E+02  4.00000000E+01  0.00000000E+00
  9.50000000E+02  3.80000000E+01  0.00000000E+00
  9.50000000E+02  3.60000000E+01  0.00000000E+00
  9.50000000E+02  3.40000000E+01  0.00000000E+00
  9.50000000E+02  3.20000000E+01  0.00000000E+00
  9.50000000E+02  3.00000000E+01  0.00000000E+00
  9.50000000E+02  2.80000000E+01  0.00000000E+00
  9.50000000E+02  2.60000000E+01  0.00000000E+00
  9.50000000E+02  2.40000000E+01  0.00000000E+00
  9.50000000E+02  2.20000000E+01  0.00000000E+00
  9.50000000E+02  2.00000000E+01  0.00000000E+00
  9.50000000E+02  1.80000000E+01  0.00000000E+00
  9.50000000E+02  1.60000000E+01  0.00000000E+00
  9.50000000E+02  1.40000000E+01  0.00000000E+00
  9.50000000E+02  1.20000000E+01  0.00000000E+00
  9.50000000E+02  1.00000000E+01  0.00000000E+00
  9.50000000E+02  8.00000000E+00  0.00000000E+00
  9.50000000E+02  6.00000000E+00  0.00000000E+00
  9.50000000E+02  4.00000000E+00  0.00000000E+00
  9.50000000E+02  2.00000000E+00  0.00000000E+00
  9.50000000E+02 -3.33066907E-14  0.00000000E+00
  9.60000000E+02  1.00000000E+02  0.00000000E+00
  9.60000000E+02  9.80000000E+01  0.00000000E+00
  9.60000000E+02  9.60000000E+01  0.00000000E+00
  9.60000000E+02  9.40000000E+01  0.00000000E+00
  9.60000000E+02  9.20000000E+01  0.00000000E+00
  9.60000000E+02  9.00000000E+01  0.00000000E+00
  9.60000000E+02  8.80000000E+01  0.00000000E+00
  9.60000000E+02  8.60000000E+01  0.00000000E+00
  9.60000000E+02  8.40000000E+01  0.00000000E+00
  9.60000000E+02  8.20000000E+01  0.00000000E+00
  9.60000000E+02  8.00000000E+01  0.00000000E+00
  9.60000000E+02  7.80000000E+01  0.00000000E+00
  9.60000000E+02  7.60000000E+01  0.00000000E+00
  9.60000000E+02  7.40000000E+01  0.00000000E+00
  9.60000000E+02  7.20000000E+01  0.00000000E+00
  9.60000000E+02  7.00000000E+01  0.00000000E+00
  9.60000000E+02  6.80000000E+01  0.00000000E+00
  9.60000000E+02  6.60000000E+01  0.00000000E+00
  9.60000000E+02  6.40000000E+01  0.00000000E+00
  9.60000000E+02  6.20000000E+01  0.00000000E+00
  9.60000000E+02  6.00000000E+01  0.00000000E+00
  9.60000000E+02  5.80000000E+01  0.00000000E+00
  9.60000000E+02  5.60000000E+01  0.00000000E+00
  9.60000000E+02  5.40000000E+01  0.00000000E+00
  9.60000000E+02  5.20000000E+01  0.00000000E+00
  9.60000000E+02  5.00000000E+01  0.00000000E+00
  9.60000000E+02  4.80000000E+01  0.00000000E+00
  9.60000000E+02  4.60000000E+01  0.00000000E+00
  9.60000000E+02  4.40000000E+01  0.00000000E+00
  9.60000000E+02  4.20000000E+01  0.00000000E+00
  9.60000000E+02  4.00000000E+01  0.00000000E+00
  9.60000000E+02  3.80000000E+01  0.00000000E+00
  9.60000000E+02  3.60000000E+01  0.00000000E+00
  9.60000000E+02  3.40000000E+01  0.00000000E+00
  9.60000000E+02  3.20000000E+01  0.00000000E+00
  9.60000000E+02  3.00000000E+01  0.00000000E+00
  9.60000000E+02  2.80000000E+01  0.00000000E+00
  9.60000000E+02  2.60000000E+01  0.00000000E+00
  9.60000000E+02  2.40000000E+01  0.00000000E+00
  9.60000000E+02  2.20000000E+01  0.00000000E+00
  9.60000000E+02  2.00000000E+01  0.00000000E+00
  9.60000000E+02  1.80000000E+01  0.00000000E+00
  9.60000000E+02  1.60000000E+01  0.00000000E+00
  9.60000000E+02  1.40000000E+01  0.00000000E+00
  9.60000000E+02  1.20000000E+01  0.00000000E+00
  9.60000000E+02  1.00000000E+01  0.00000000E+00
  9.60000000E+02  8.00000000E+00  0.00000000E+00
  9.60000000E+02  6.00000000E+00  0.00000000E+00
  9.60000000E+02  4.00000000E+00  0.00000000E+00
  9.60000000E+02  2.00000000E+00  0.00000000E+00
  9.60000000E+02 -3.33066907E-14  0.00000000E+00
  9.70000000E+02  1.00000000E+02  0.00000000E+00
  9.70000000E+02  9.80000000E+01  0.00000000E+00
  9.70000000E+02  9.60000000E+01  0.00000000E+00
  9.70000000E+02  9.40000000E+01  0.00000000E+00
  9.70000000E+02  9.20000000E+01  0.00000000E+00
  9.70000000E+02  9.00000000E+01  0.00000000E+00
  9.70000000E+02  8.80000000E+01  0.00000000E+00
  9.70000000E+02  8.60000000E+01  0.00000000E+00
  9.70000000E+02  8.40000000E+01  0.00000000E+00
  9.70000000E+02  8.20000000E+01  0.00000000E+00
  9.70000000E+02  8.00000000E+01  0.00000000E+00
  9.70000000E+02  7.80000000E+01  0.00000000E+00
  9.70000000E+02  7.60000000E+01  0.00000000E+00
  9.70000000E+02  7.40000000E+01  0.00000000E+00
  9.70000000E+02  7.20000000E+01  0.00000000E+00
  9.70000000E+02  7.00000000E+01  0.00000000E+00
  9.70000000E+02  6.80000000E+01  0.00000000E+00
  9.70000000E+02  6.60000000E+01  0.00000000E+00
  9.70000000E+02  6.40000000E+01  0.00000000E+00
  9.70000000E+02  6.20000000E+01  0.00000000E+00
  9.70000000E+02  6.00000000E+01  0.00000000E+00
  9.70000000E+02  5.80000000E+01  0.00000000E+00
  9.70000000E+02  5.60000000E+01  0.00000000E+00
  9.70000000E+02  5.40000000E+01  0.00000000E+00
  9.70000000E+02  5.20000000E+01  0.00000000E+00
  9.70000000E+02  5.00000000E+01  0.00000000E+00
  9.70000000E+02  4.80000000E+01  0.00000000E+00
  9.70000000E+02  4.60000000E+01  0.00000000E+00
  9.70000000E+02  4.40000000E+01  0.00000000E+00
  9.70000000E+02  4.20000000E+01  0.00000000E+00
  9.70000000E+02  4.00000000E+01  0.00000000E+00
  9.70000000E+02  3.80000000E+01  0.00000000E+00
  9.70000000E+02  3.60000000E+01  0.00000000E+00
  9.70000000E+02  3.40000000E+01  0.00000000E+00
  9.70000000E+02  3.20000000E+01  0.00000000E+00
  9.70000000E+02  3.00000000E+01  0.00000000E+00
  9.70000000E+02  2.80000000E+01  0.00000000E+00
  9.70000000E+02  2.60000000E+01  0.00000000E+00
  9.70000000E+02  2.40000000E+01  0.00000000E+00
  9.70000000E+02  2.20000000E+01  0.00000000E+00
  9.70000000E+02  2.00000000E+01  0.00000000E+00
  9.70000000E+02  1.80000000E+01  0.00000000E+00
  9.70000000E+02  1.60000000E+01  0.00000000E+00
  9.70000000E+02  1.40000000E+01  0.00000000E+00
  9.70000000E+02  1.20000000E+01  0.00000000E+00
  9.70000000E+02  1.00000000E+01  0.00000000E+00
  9.70000000E+02  8.00000000E+00  0.00000000E+00
  9.70000000E+02  6.00000000E+00  0.00000000E+00
  9.70000000E+02  4.00000000E+00  0.00000000E+00
  9.70000000E+02  2.00000000E+00  0.00000000E+00
  9.70000000E+02 -3.33066907E-14  0.00000000E+00
  9.80000000E+02  1.00000000E+02  0.00000000E+00
  9.80000000E+02  9.80000000E+01  0.00000000E+00
  9.80000000E+02  9.60000000E+01  0.00000000E+00
  9.80000000E+02  9.40000000E+01  0.00000000E+00
  9.80000000E+02  9.20000000E+01  0.00000000E+00
  9.80000000E+02  9.00000000E+01  0.00000000E+00
  9.80000000E+02  8.80000000E+01  0.00000000E+00
  9.80000000E+02  8.60000000E+01  0.00000000E+00
  9.80000000E+02  8.40000000E+01  0.00000000E+00
  9.80000000E+02  8.20000000E+01  0.00000000E+00
  9.80000000E+02  8.00000000E+01  0.00000000E+00
  9.80000000E+02  7.80000000E+01  0.00000000E+00
  9.80000000E+02  7.60000000E+01  0.00000000E+00
  9.80000000E+02  7.40000000E+01  0.00000000E+00
  9.80000000E+02  7.20000000E+01  0.00000000E+00
  9.80000000E+02  7.00000000E+01  0.00000000E+00
  9.80000000E+02  6.80000000E+01  0.00000000E+00
  9.80000000E+02  6.60000000E+01  0.00000000E+00
  9.80000000E+02  6.40000000E+01  0.00000000E+00
  9.80000000E+02  6.20000000E+01  0.00000000E+00
  9.80000000E+02  6.00000000E+01  0.00000000E+00
  9.80000000E+02  5.80000000E+01  0.00000000E+00
  9.80000000E+02  5.60000000E+01  0.00000000E+00
  9.80000000E+02  5.40000000E+01  0.00000000E+00
  9.80000000E+02  5.20000000E+01  0.00000000E+00
  9.80000000E+02  5.00000000E+01  0.00000000E+00
  9.80000000E+02  4.80000000E+01  0.00000000E+00
  9.80000000E+02  4.60000000E+01  0.00000000E+00
  9.80000000E+02  4.40000000E+01  0.00000000E+00
  9.80000000E+02  4.20000000E+01  0.00000000E+00
  9.80000000E+02  4.00000000E+01  0.00000000E+00
  9.80000000E+02  3.80000000E+01  0.00000000E+00
  9.80000000E+02  3.60000000E+01  0.00000000E+00
  9.80000000E+02  3.40000000E+01  0.00000000E+00
  9.80000000E+02  3.20000000E+01  0.00000000E+00
  9.80000000E+02  3.00000000E+01  0.00000000E+00
  9.80000000E+02  2.80000000E+01  0.00000000E+00
  9.80000000E+02  2.60000000E+01  0.00000000E+00
  9.80000000E+02  2.40000000E+01  0.00000000E+00
  9.80000000E+02  2.20000000E+01  0.00000000E+00
  9.80000000E+02  2.00000000E+01  0.00000000E+00
  9.80000000E+02  1.80000000E+01  0.00000000E+00
  9.80000000E+02  1.60000000E+01  0.00000000E+00
  9.80000000E+02  1.40000000E+01  0.00000000E+00
  9.80000000E+02  1.20000000E+01  0.00000000E+00
  9.80000000E+02  1.00000000E+01  0.00000000E+00
  9.80000000E+02  8.00000000E+00  0.00000000E+00
  9.80000000E+02  6.00000000E+00  0.00000000E+00
  9.80000000E+02  4.00000000E+00  0.00000000E+00
  9.80000000E+02  2.00000000E+00  0.00000000E+00
  9.80000000E+02 -3.33066907E-14  0.00000000E+00
  9.90000000E+02  1.00000000E+02  0.00000000E+00
  9.90000000E+02  9.80000000E+01  0.00000000E+00
  9.90000000E+02  9.60000000E+01  0.00000000E+00
  9.90000000E+02  9.40000000E+01  0.00000000E+00
  9.90000000E+02  9.20000000E+01  0.00000000E+00
  9.90000000E+02  9.00000000E+01  0.00000000E+00
  9.90000000E+02  8.80000000E+01  0.00000000E+00
  9.90000000E+02  8.60000000E+01  0.00000000E+00
  9.90000000E+02  8.40000000E+01  0.00000000E+00
  9.90000000E+02  8.20000000E+01  0.00000000E+00
  9.90000000E+02  8.00000000E+01  0.00000000E+00
  9.90000000E+02  7.80000000E+01  0.00000000E+00
  9.90000000E+02  7.60000000E+01  0.00000000E+00
  9.90000000E+02  7.40000000E+01  0.00000000E+00
  9.90000000E+02  7.20000000E+01  0.00000000E+00
  9.90000000E+02  7.00000000E+01  0.00000000E+00
  9.90000000E+02  6.80000000E+01  0.00000000E+00
  9.90000000E+02  6.60000000E+01  0.00000000E+00
  9.90000000E+02  6.40000000E+01  0.00000000E+00
  9.90000000E+02  6.20000000E+01  0.00000000E+00
  9.90000000E+02  6.00000000E+01  0.00000000E+00
  9.90000000E+02  5.80000000E+01  0.00000000E+00
  9.90000000E+02  5.60000000E+01  0.00000000E+00
  9.90000000E+02  5.40000000E+01  0.00000000E+00
  9.90000000E+02  5.20000000E+01  0.00000000E+00
  9.90000000E+02  5.00000000E+01  0.00000000E+00
  9.90000000E+02  4.80000000E+01  0.00000000E+00
  9.90000000E+02  4.60000000E+01  0.00000000E+00
  9.90000000E+02  4.40000000E+01  0.00000000E+00
  9.90000000E+02  4.20000000E+01  0.00000000E+00
  9.90000000E+02  4.00000000E+01  0.00000000E+00
  9.90000000E+02  3.80000000E+01  0.00000000E+00
  9.90000000E+02  3.60000000E+01  0.00000000E+00
  9.90000000E+02  3.40000000E+01  0.00000000E+00
  9.90000000E+02  3.20000000E+01  0.00000000E+00
  9.90000000E+02  3.00000000E+01  0.00000000E+00
  9.90000000E+02  2.80000000E+01  0.00000000E+00
  9.90000000E+02  2.60000000E+01  0.00000000E+00
  9.90000000E+02  2.40000000E+01  0.00000000E+00
  9.90000000E+02  2.20000000E+01  0.00000000E+00
  9.90000000E+02  2.00000000E+01  0.00000000E+00
  9.90000000E+02  1.80000000E+01  0.00000000E+00
  9.90000000E+02  1.60000000E+01  0.00000000E+00
  9.90000000E+02  1.40000000E+01  0.00000000E+00
  9.90000000E+02  1.20000000E+01  0.00000000E+00
  9.90000000E+02  1.00000000E+01  0.00000000E+00
  9.90000000E+02  8.00000000E+00  0.00000000E+00
  9.90000000E+02  6.00000000E+00  0.00000000E+00
  9.90000000E+02  4.00000000E+00  0.00000000E+00
  9.90000000E+02  2.00000000E+00  0.00000000E+00
  9.90000000E+02 -3.33066907E-14  0.00000000E+00
  1.00000000E+03  1.00000000E+02  0.00000000E+00
  1.00000000E+03  9.80000000E+01  0.00000000E+00
  1.00000000E+03  9.60000000E+01  0.00000000E+00
  1.00000000E+03  9.40000000E+01  0.00000000E+00
  1.00000000E+03  9.20000000E+01  0.00000000E+00
  1.00000000E+03  9.00000000E+01  0.00000000E+00
  1.00000000E+03  8.80000000E+01  0.00000000E+00
  1.00000000E+03  8.60000000E+01  0.00000000E+00
  1.00000000E+03  8.40000000E+01  0.00000000E+00
  1.00000000E+03  8.20000000E+01  0.00000000E+00
  1.00000000E+03  8.00000000E+01  0.00000000E+00
  1.00000000E+03  7.80000000E+01  0.00000000E+00
  1.00000000E+03  7.60000000E+01  0.00000000E+00
  1.00000000E+03  7.40000000E+01  0.00000000E+00
  1.00000000E+03  7.20000000E+01  0.00000000E+00
  1.00000000E+03  7.00000000E+01  0.00000000E+00
  1.00000000E+03  6.80000000E+01  0.00000000E+00
  1.00000000E+03  6.60000000E+01  0.00000000E+00
  1.00000000E+03  6.40000000E+01  0.00000000E+00
  1.00000000E+03  6.20000000E+01  0.00000000E+00
  1.00000000E+03  6.00000000E+01  0.00000000E+00
  1.00000000E+03  5.80000000E+01  0.00000000E+00
  1.00000000E+03  5.60000000E+01  0.00000000E+00
  1.00000000E+03  5.40000000E+01  0.00000000E+00
  1.00000000E+03  5.20000000E+01  0.00000000E+00
  1.00000000E+03  5.00000000E+01  0.00000000E+00
  1.00000000E+03  4.80000000E+01  0.00000000E+00
  1.00000000E+03  4.60000000E+01  0.00000000E+00
  1.00000000E+03  4.40000000E+01  0.00000000E+00
  1.00000000E+03  4.20000000E+01  0.00000000E+00
  1.00000000E+03  4.00000000E+01  0.00000000E+00
  1.00000000E+03  3.80000000E+01  0.00000000E+00
  1.00000000E+03  3.60000000E+01  0.00000000E+00
  1.00000000E+03  3.40000000E+01  0.00000000E+00
  1.00000000E+03  3.20000000E+01  0.00000000E+00
  1.00000000E+03  3.00000000E+01  0.00000000E+00
  1.00000000E+03  2.80000000E+01  0.00000000E+00
  1.00000000E+03  2.60000000E+01  0.00000000E+00
  1.00000000E+03  2.40000000E+01  0.00000000E+00
  1.00000000E+03  2.20000000E+01  0.00000000E+00
  1.00000000E+03  2.00000000E+01  0.00000000E+00
  1.00000000E+03  1.80000000E+01  0.00000000E+00
  1.00000000E+03  1.60000000E+01  0.00000000E+00
  1.00000000E+03  1.40000000E+01  0.00000000E+00
  1.00000000E+03  1.20000000E+01  0.00000000E+00
  1.00000000E+03  1.00000000E+01  0.00000000E+00
  1.00000000E+03  8.00000000E+00  0.00000000E+00
  1.00000000E+03  6.00000000E+00  0.00000000E+00
  1.00000000E+03  4.00000000E+00  0.00000000E+00
  1.00000000E+03  2.00000000E+00  0.00000000E+00
  1.00000000E+03 -3.33066907E-14  0.00000000E+00
CELLS      5000     25000
         4           0           1          52          51
         4           1           2          53          52
         4           2           3          54          53
         4           3           4          55          54
         4           4           5          56          55
         4           5           6          57          56
         4           6           7          58          57
         4           7           8          59          58
         4           8           9          60          59
         4           9          10          61          60
         4          10          11          62          61
         4          11          12          63          62
         4          12          13          64          63
         4          13          14          65          64
         4          14          15          66          65
         4          15          16          67          66
         4          16          17          68          67
         4          17          18          69          68
         4          18          19          70          69
         4          19          20          71          70
         4          20          21          72          71
         4          21          22          73          72
         4          22          23          74          73
         4          23          24          75          74
         4          24          25          76          75
         4          25          26          77          76
         4          26          27          78          77
         4          27          28          79          78
         4          28          29          80          79
         4          29          30          81          80
         4          30          31          82          81
         4          31          32          83          82
         4          32          33          84          83
         4          33          34          85          84
         4          34          35          86          85
         4          35          36          87          86
         4          36          37          88          87
         4          37          38          89          88
         4          38          39          90          89
         4          39          40          91          90
         4          40          41          92          91
         4          41          42          93          92
         4          42          43          94          93
         4          43          44          95          94
         4          44          45          96          95
         4          45          46          97          96
         4          46          47          98          97
         4          47          48          99          98
         4          48          49         100          99
         4          49          50         101         100
         4          51          52         103         102
         4          52          53         104         103
         4          53          54         105         104
         4          54          55         106         105
         4          55          56         107         106
         4          56          57         108         107
         4          57          58         109         108
         4          58          59         110         109
         4          59          60         111         110
         4          60          61         112         111
         4          61          62         113         112
         4          62          63         114         113
         4          63          64         115         114
         4          64          65         116         115
         4          65          66         117         116
         4          66          67         118         117
         4          67          68         119         118
         4          68          69         120         119
         4          69          70         121         120
         4          70          71         122         121
         4          71          72         123         122
         4          72          73         124         123
         4          73          74         125         124
         4          74          75         126         125
         4          75          76         127         126
         4          76          77         128         127
         4          77          78         129         128
         4          78          79         130         129
         4          79          80         131         130
         4          80          81         132         131
         4          81          82         133         132
         4          82          83         134         133
         4          83          84         135         134
         4          84          85         136         135
         4          85          86         137         136
         4          86          87         138         137
         4          87          88         139         138
         4          88          89         140         139
         4          89          90         141         140
         4          90          91         142         141
         4          91          92         143         142
         4          92          93         144         143
         4          93          94         145         144
         4          94          95         146         145
         4          95          96         147         146
         4          96          97         148         147
         4          97          98         149         148
         4          98          99         150         149
         4          99         100         151         150
         4         100         101         152         151
         4         102         103         154         153
         4         103         104         155         154
         4         104         105         156         155
         4         105         106         157         156
         4         106         107         158         157
         4         107         108         159         158
         4         108         109         160         159
         4         109         110         161         160
         4         110         111         162         161
         4         111         112         163         162
         4         112         113         164         163
         4         113         114         165         164
         4         114         115         166         165
         4         115         116         167         166
         4         116         117         168         167
         4         117         118         169         168
         4         118         119         170         169
         4         119         120         171         170
         4         120         121         172         171
         4         121         122         173         172
         4         122         123         174         173
         4         123         124         175         174
         4         124         125         176         175
         4         125         126         177         176
         4         126         127         178         177
         4         127         128         179         178
         4         128         129         180         179
         4         129         130         181         180
         4         130         131         182         181
         4         131         132         183         182
         4         132         133         184         183
         4         133         134         185         184
         4         134         135         186         185
         4         135         136         187         186
         4         136         137         188         187
         4         137         138         189         188
         4         138         139         190         189
         4         139         140         191         190
         4         140         141         192         191
         4         141         142         193         192
         4         142         143         194         193
         4         143         144         195         194
         4         144         145         196         195
         4         145         146         197         196
         4         146         147         198         197
         4         147         148         199         198
         4         148         149         200         199
         4         149         150         201         200
         4         150         151         202         201
         4         151         152         203         202
         4         153         154         205         204
         4         154         155         206         205
         4         155         156         207         206
         4         156         157         208         207
         4         157         158         209         208
         4         158         159         210         209
         4         159         160         211         210
         4         160         161         212         211
         4         161         162         213         212
         4         162         163         214         213
         4         163         164         215         214
         4         164         165         216         215
         4         165         166         217         216
         4         166         167         218         217
         4         167         168         219         218
         4         168         169         220         219
         4         169         170         221         220
         4         170         171         222         221
         4         171         172         223         222
         4         172         173         224         223
         4         173         174         225         224
         4         174         175         226         225
         4         175         176         227         226
         4         176         177         228         227
         4         177         178         229         228
         4         178         179         230         229
         4         179         180         231         230
         4         180         181         232         231
         4         181         182         233         232
         4         182         183         234         233
         4         183         184         235         234
         4         184         185         236         235
         4         185         186         237         236
         4         186         187         238         237
         4         187         188         239         238
         4         188         189         240         239
         4         189         190         241         240
         4         190         191         242         241
         4         191         192         243         242
         4         192         193         244         243
         4         193         194         245         244
         4         194         195         246         245
         4         195         196         247         246
         4         196         197         248         247
         4         197         198         249         248
         4         198         199         250         249
         4         199         200         251         250
         4         200         201         252         251
         4         201         202         253         252
         4         202         203         254         253
         4         204         205         256         255
         4         205         206         257         256
         4         206         207         258         257
         4         207         208         259         258
         4         208         209         260         259
         4         209         210         261         260
         4         210         211         262         261
         4         211         212         263         262
         4         212         213         264         263
         4         213         214         265         264
         4         214         215         266         265
         4         215         216         267         266
         4         216         217         268         267
         4         217         218         269         268
         4         218         219         270         269
         4         219         220         271         270
         4         220         221         272         271
         4         221         222         273         272
         4         222         223         274         273
         4         223         224         275         274
         4         224         225         276         275
         4         225         226         277         276
         4         226         227         278         277
         4         227         228         279         278
         4         228         229         280         279
         4         229         230         281         280
         4         230         231         282         281
         4         231         232         283         282
         4         232         233         284         283
         4         233         234         285         284
         4         234         235         286         285
         4         235         236         287         286
         4         236         237         288         287
         4         237         238         289         288
         4         238         239         290         289
         4         239         240         291         290
         4         240         241         292         291
         4         241         242         293         292
         4         242         243         294         293
         4         243         244         295         294
         4         244         245         296         295
         4         245         246         297         296
         4         246         247         298         297
         4         247         248         299         298
         4         248         249         300         299
         4         249         250         301         300
         4         250         251         302         301
         4         251         252         303         302
         4         252         253         304         303
         4         253         254         305         304
         4         255         256         307         306
         4         256         257         308         307
         4         257         258         309         308
         4         258         259         310         309
         4         259         260         311         310
         4         260         261         312         311
         4         261         262         313         312
         4         262         263         314         313
         4         263         264         315         314
         4         264         265         316         315
         4         265         266         317         316
         4         266         267         318         317
         4         267         268         319         318
         4         268         269         320         319
         4         269         270         321         320
         4         270         271         322         321
         4         271         272         323         322
         4         272         273         324         323
         4         273         274         325         324
         4         274         275         326         325
         4         275         276         327         326
         4         276         277         328         327
         4         277         278         329         328
         4         278         279         330         329
         4         279         280         331         330
         4         280         281         332         331
         4         281         282         333         332
         4         282         283         334         333
         4         283         284         335         334
         4         284         285         336         335
         4         285         286         337         336
         4         286         287         338         337
         4         287         288         339         338
         4         288         289         340         339
         4         289         290         341         340
         4         290         291         342         341
         4         291         292         343         342
         4         292         293         344         343
         4         293         294         345         344
         4         294         295         346         345
         4         295         296         347         346
         4         296         297         348         347
         4         297         298         349         348
         4         298         299         350         349
         4         299         300         351         350
         4         300         301         352         351
         4         301         302         353         352
         4         302         303         354         353
         4         303         304         355         354
         4         304         305         356         355
         4         306         307         358         357
         4         307         308         359         358
         4         308         309         360         359
         4         309         310         361         360
         4         310         311         362         361
         4         311         312         363         362
         4         312         313         364         363
         4         313         314         365         364
         4         314         315         366         365
         4         315         316         367         366
         4         316         317         368         367
         4         317         318         369         368
         4         318         319         370         369
         4         319         320         371         370
         4         320         321         372         371
         4         321         322         373         372
         4         322         323         374         373
         4         323         324         375         374
         4         324         325         376         375
         4         325         326         377         376
         4         326         327         378         377
         4         327         328         379         378
         4         328         329         380         379
         4         329         330         381         380
         4         330         331         382         381
         4         331         332         383         382
         4         332         333         384         383
         4         333         334         385         384
         4         334         335         386         385
         4         335         336         387         386
         4         336         337         388         387
         4         337         338         389         388
         4         338         339         390         389
         4         339         340         391         390
         4         340         341         392         391
         4         341         342         393         392
         4         342         343         394         393
         4         343         344         395         394
         4         344         345         396         395
         4         345         346         397         396
         4         346         347         398         397
         4         347         348         399         398
         4         348         349         400         399
         4         349         350         401         400
         4         350         351         402         401
         4         351         352         403         402
         4         352         353         404         403
         4         353         354         405         404
         4         354         355         406         405
         4         355         356         407         406
         4         357         358         409         408
         4         358         359         410         409
         4         359         360         411         410
         4         360         361         412         411
         4         361         362         413         412
         4         362         363         414         413
         4         363         364         415         414
         4         364         365         416         415
         4         365         366         417         416
         4         366         367         418         417
         4         367         368         419         418
         4         368         369         420         419
         4         369         370         421         420
         4         370         371         422         421
         4         371         372         423         422
         4         372         373         424         423
         4         373         374         425         424
         4         374         375         426         425
         4         375         376         427         426
         4         376         377         428         427
         4         377         378         429         428
         4         378         379         430         429
         4         379         380         431         430
         4         380         381         432         431
         4         381         382         433         432
         4         382         383         434         433
         4         383         384         435         434
         4         384         385         436         435
         4         385         386         437         436
         4         386         387         438         437
         4         387         388         439         438
         4         388         389         440         439
         4         389         390         441         440
         4         390         391         442         441
         4         391         392         443         442
         4         392         393         444         443
         4         393         394         445         444
         4         394         395         446         445
         4         395         396         447         446
         4         396         397         448         447
         4         397         398         449         448
         4         398         399         450         449
         4         399         400         451         450
         4         400         401         452         451
         4         401         402         453         452
         4         402         403         454         453
         4         403         404         455         454
         4         404         405         456         455
         4         405         406         457         456
         4         406         407         458         457
         4         408         409         460         459
         4         409         410         461         460
         4         410         411         462         461
         4         411         412         463         462
         4         412         413         464         463
         4         413         414         465         464
         4         414         415         466         465
         4         415         416         467         466
         4         416         417         468         467
         4         417         418         469         468
         4         418         419         470         469
         4         419         420         471         470
         4         420         421         472         471
         4         421         422         473         472
         4         422         423         474         473
         4         423         424         475         474
         4         424         425         476         475
         4         425         426         477         476
         4         426         427         478         477
         4         427         428         479         478
         4         428         429         480         479
         4         429         430         481         480
         4         430         431         482         481
         4         431         432         483         482
         4         432         433         484         483
         4         433         434         485         484
         4         434         435         486         485
         4         435         436         487         486
         4         436         437         488         487
         4         437         438         489         488
         4         438         439         490         489
         4         439         440         491         490
         4         440         441         492         491
         4         441         442         493         492
         4         442         443         494         493
         4         443         444         495         494
         4         444         445         496         495
         4         445         446         497         496
         4         446         447         498         497
         4         447         448         499         498
         4         448         449         500         499
         4         449         450         501         500
         4         450         451         502         501
         4         451         452         503         502
         4         452         453         504         503
         4         453         454         505         504
         4         454         455         506         505
         4         455         456         507         506
         4         456         457         508         507
         4         457         458         509         508
         4         459         460         511         510
         4         460         461         512         511
         4         461         462         513         512
         4         462         463         514         513
         4         463         464         515         514
         4         464         465         516         515
         4         465         466         517         516
         4         466         467         518         517
         4         467         468         519         518
         4         468         469         520         519
         4         469         470         521         520
         4         470         471         522         521
         4         471         472         523         522
         4         472         473         524         523
         4         473         474         525         524
         4         474         475         526         525
         4         475         476         527         526
         4         476         477         528         527
         4         477         478         529         528
         4         478         479         530         529
         4         479         480         531         530
         4         480         481         532         531
         4         481         482         533         532
         4         482         483         534         533
         4         483         484         535         534
         4         484         485         536         535
         4         485         486         537         536
         4         486         487         538         537
         4         487         488         539         538
         4         488         489         540         539
         4         489         490         541         540
         4         490         491         542         541
         4         491         492         543         542
         4         492         493         544         543
         4         493         494         545         544
         4         494         495         546         545
         4         495         496         547         546
         4         496         497         548         547
         4         497         498         549         548
         4         498         499         550         549
         4         499         500         551         550
         4         500         501         552         551
         4         501         502         553         552
         4         502         503         554         553
         4         503         504         555         554
         4         504         505         556         555
         4         505         506         557         556
         4         506         507         558         557
         4         507         508         559         558
         4         508         509         560         559
         4         510         511         562         561
         4         511         512         563         562
         4         512         513         564         563
         4         513         514         565         564
         4         514         515         566         565
         4         515         516         567         566
         4         516         517         568         567
         4         517         518         569         568
         4         518         519         570         569
         4         519         520         571         570
         4         520         521         572         571
         4         521         522         573         572
         4         522         523         574         573
         4         523         524         575         574
         4         524         525         576         575
         4         525         526         577         576
         4         526         527         578         577
         4         527         528         579         578
         4         528         529         580         579
         4         529         530         581         580
         4         530         531         582         581
         4         531         532         583         582
         4         532         533         584         583
         4         533         534         585         584
         4         534         535         586         585
         4         535         536         587         586
         4         536         537         588         587
         4         537         538         589         588
         4         538         539         590         589
         4         539         540         591         590
         4         540         541         592         591
         4         541         542         593         592
         4         542         543         594         593
         4         543         544         595         594
         4         544         545         596         595
         4         545         546         597         596
         4         546         547         598         597
         4         547         548         599         598
         4         548         549         600         599
         4         549         550         601         600
         4         550         551         602         601
         4         551         552         603         602
         4         552         553         604         603
         4         553         554         605         604
         4         554         555         606         605
         4         555         556         607         606
         4         556         557         608         607
         4         557         558         609         608
         4         558         559         610         609
         4         559         560         611         610
         4         561         562         613         612
         4         562         563         614         613
         4         563         564         615         614
         4         564         565         616         615
         4         565         566         617         616
         4         566         567         618         617
         4         567         568         619         618
         4         568         569         620         619
         4         569         570         621         620
         4         570         571         622         621
         4         571         572         623         622
         4         572         573         624         623
         4         573         574         625         624
         4         574         575         626         625
         4         575         576         627         626
         4         576         577         628         627
         4         577         578         629         628
         4         578         579         630         629
         4         579         580         631         630
         4         580         581         632         631
         4         581         582         633         632
         4         582         583         634         633
         4         583         584         635         634
         4         584         585         636         635
         4         585         586         637         636
         4         586         587         638         637
         4         587         588         639         638
         4         588         589         640         639
         4         589         590         641         640
         4         590         591         642         641
         4         591         592         643         642
         4         592         593         644         643
         4         593         594         645         644
         4         594         595         646         645
         4         595         596         647         646
         4         596         597         648         647
         4         597         598         649         648
         4         598         599         650         649
         4         599         600         651         650
         4         600         601         652         651
         4         601         602         653         652
         4         602         603         654         653
         4         603         604         655         654
         4         604         605         656         655
         4         605         606         657         656
         4         606         607         658         657
         4         607         608         659         658
         4         608         609         660         659
         4         609         610         661         660
         4         610         611         662         661
         4         612         613         664         663
         4         613         614         665         664
         4         614         615         666         665
         4         615         616         667         666
         4         616         617         668         667
         4         617         618         669         668
         4         618         619         670         669
         4         619         620         671         670
         4         620         621         672         671
         4         621         622         673         672
         4         622         623         674         673
         4         623         624         675         674
         4         624         625         676         675
         4         625         626         677         676
         4         626         627         678         677
         4         627         628         679         678
         4         628         629         680         679
         4         629         630         681         680
         4         630         631         682         681
         4         631         632         683         682
         4         632         633         684         683
         4         633         634         685         684
         4         634         635         686         685
         4         635         636         687         686
         4         636         637         688         687
         4         637         638         689         688
         4         638         639         690         689
         4         639         640         691         690
         4         640         641         692         691
         4         641         642         693         692
         4         642         643         694         693
         4         643         644         695         694
         4         644         645         696         695
         4         645         646         697         696
         4         646         647         698         697
         4         647         648         699         698
         4         648         649         700         699
         4         649         650         701         700
         4         650         651         702         701
         4         651         652         703         702
         4         652         653         704         703
         4         653         654         705         704
         4         654         655         706         705
         4         655         656         707         706
         4         656         657         708         707
         4         657         658         709         708
         4         658         659         710         709
         4         659         660         711         710
         4         660         661         712         711
         4         661         662         713         712
         4         663         664         715         714
         4         664         665         716         715
         4         665         666         717         716
         4         666         667         718         717
         4         667         668         719         718
         4         668         669         720         719
         4         669         670         721         720
         4         670         671         722         721
         4         671         672         723         722
         4         672         673         724         723
         4         673         674         725         724
         4         674         675         726         725
         4         675         676         727         726
         4         676         677         728         727
         4         677         678         729         728
         4         678         679         730         729
         4         679         680         731         730
         4         680         681         732         731
         4         681         682         733         732
         4         682         683         734         733
         4         683         684         735         734
         4         684         685         736         735
         4         685         686         737         736
         4         686         687         738         737
         4         687         688         739         738
         4         688         689         740         739
         4         689         690         741         740
         4         690         691         742         741
         4         691         692         743         742
         4         692         693         744         743
         4         693         694         745         744
         4         694         695         746         745
         4         695         696         747         746
         4         696         697         748         747
         4         697         698         749         748
         4         698         699         750         749
         4         699         700         751         750
         4         700         701         752         751
         4         701         702         753         752
         4         702         703         754         753
         4         703         704         755         754
         4         704         705         756         755
         4         705         706         757         756
         4         706         707         758         757
         4         707         708         759         758
         4         708         709         760         759
         4         709         710         761         760
         4         710         711         762         761
         4         711         712         763         762
         4         712         713         764         763
         4         714         715         766         765
         4         715         716         767         766
         4         716         717         768         767
         4         717         718         769         768
         4         718         719         770         769
         4         719         720         771         770
         4         720         721         772         771
         4         721         722         773         772
         4         722         723         774         773
         4         723         724         775         774
         4         724         725         776         775
         4         725         726         777         776
         4         726         727         778         777
         4         727         728         779         778
         4         728         729         780         779
         4         729         730         781         780
         4         730         731         782         781
         4         731         732         783         782
         4         732         733         784         783
         4         733         734         785         784
         4         734         735         786         785
         4         735         736         787         786
         4         736         737         788         787
         4         737         738         789         788
         4         738         739         790         789
         4         739         740         791         790
         4         740         741         792         791
         4         741         742         793         792
         4         742         743         794         793
         4         743         744         795         794
         4         744         745         796         795
         4         745         746         797         796
         4         746         747         798         797
         4         747         748         799         798
         4         748         749         800         799
         4         749         750         801         800
         4         750         751         802         801
         4         751         752         803         802
         4         752         753         804         803
         4         753         754         805         804
         4         754         755         806         805
         4         755         756         807         806
         4         756         757         808         807
         4         757         758         809         808
         4         758         759         810         809
         4         759         760         811         810
         4         760         761         812         811
         4         761         762         813         812
         4         762         763         814         813
         4         763         764         815         814
         4         765         766         817         816
         4         766         767         818         817
         4         767         768         819         818
         4         768         769         820         819
         4         769         770         821         820
         4         770         771         822         821
         4         771         772         823         822
         4         772         773         824         823
         4         773         774         825         824
         4         774         775         826         825
         4         775         776         827         826
         4         776         777         828         827
         4         777         778         829         828
         4         778         779         830         829
         4         779         780         831         830
         4         780         781         832         831
         4         781         782         833         832
         4         782         783         834         833
         4         783         784         835         834
         4         784         785         836         835
         4         785         786         837         836
         4         786         787         838         837
         4         787         788         839         838
         4         788         789         840         839
         4         789         790         841         840
         4         790         791         842         841
         4         791         792         843         842
         4         792         793         844         843
         4         793         794         845         844
         4         794         795         846         845
         4         795         796         847         846
         4         796         797         848         847
         4         797         798         849         848
         4         798         799         850         849
         4         799         800         851         850
         4         800         801         852         851
         4         801         802         853         852
         4         802         803         854         853
         4         803         804         855         854
         4         804         805         856         855
         4         805         806         857         856
         4         806         807         858         857
         4         807         808         859         858
         4         808         809         860         859
         4         809         810         861         860
         4         810         811         862         861
         4         811         812         863         862
         4         812         813         864         863
         4         813         814         865         864
         4         814         815         866         865
         4         816         817         868         867
         4         817         818         869         868
         4         818         819         870         869
         4         819         820         871         870
         4         820         821         872         871
         4         821         822         873         872
         4         822         823         874         873
         4         823         824         875         874
         4         824         825         876         875
         4         825         826         877         876
         4         826         827         878         877
         4         827         828         879         878
         4         828         829         880         879
         4         829         830         881         880
         4         830         831         882         881
         4         831         832         883         882
         4         832         833         884         883
         4         833         834         885         884
         4         834         835         886         885
         4         835         836         887         886
         4         836         837         888         887
         4         837         838         889         888
         4         838         839         890         889
         4         839         840         891         890
         4         840         841         892         891
         4         841         842         893         892
         4         842         843         894         893
         4         843         844         895         894
         4         844         845         896         895
         4         845         846         897         896
         4         846         847         898         897
         4         847         848         899         898
         4         848         849         900         899
         4         849         850         901         900
         4         850         851         902         901
         4         851         852         903         902
         4         852         853         904         903
         4         853         854         905         904
         4         854         855         906         905
         4         855         856         907         906
         4         856         857         908         907
         4         857         858         909         908
         4         858         859         910         909
         4         859         860         911         910
         4         860         861         912         911
         4         861         862         913         912
         4         862         863         914         913
         4         863         864         915         914
         4         864         865         916         915
         4         865         866         917         916
         4         867         868         919         918
         4         868         869         920         919
         4         869         870         921         920
         4         870         871         922         921
         4         871         872         923         922
         4         872         873         924         923
         4         873         874         925         924
         4         874         875         926         925
         4         875         876         927         926
         4         876         877         928         927
         4         877         878         929         928
         4         878         879         930         929
         4         879         880         931         930
         4         880         881         932         931
         4         881         882         933         932
         4         882         883         934         933
         4         883         884         935         934
         4         884         885         936         935
         4         885         886         937         936
         4         886         887         938         937
         4         887         888         939         938
         4         888         889         940         939
         4         889         890         941         940
         4         890         891         942         941
         4         891         892         943         942
         4         892         893         944         943
         4         893         894         945         944
         4         894         895         946         945
         4         895         896         947         946
         4         896         897         948         947
         4         897         898         949         948
         4         898         899         950         949
         4         899         900         951         950
         4         900         901         952         951
         4         901         902         953         952
         4         902         903         954         953
         4         903         904         955         954
         4         904         905         956         955
         4         905         906         957         956
         4         906         907         958         957
         4         907         908         959         958
         4         908         909         960         959
         4         909         910         961         960
         4         910         911         962         961
         4         911         912         963         962
         4         912         913         964         963
         4         913         914         965         964
         4         914         915         966         965
         4         915         916         967         966
         4         916         917         968         967
         4         918         919         970         969
         4         919         920         971         970
         4         920         921         972         971
         4         921         922         973         972
         4         922         923         974         973
         4         923         924         975         974
         4         924         925         976         975
         4         925         926         977         976
         4         926         927         978         977
         4         927         928         979         978
         4         928         929         980         979
         4         929         930         981         980
         4         930         931         982         981
         4         931         932         983         982
         4         932         933         984         983
         4         933         934         985         984
         4         934         935         986         985
         4         935         936         987         986
         4         936         937         988         987
         4         937         938         989         988
         4         938         939         990         989
         4         939         940         991         990
         4         940         941         992         991
         4         941         942         993         992
         4         942         943         994         993
         4         943         944         995         994
         4         944         945         996         995
         4         945         946         997         996
         4         946         947         998         997
         4         947         948         999         998
         4         948         949        1000         999
         4         949         950        1001        1000
         4         950         951        1002        1001
         4         951         952        1003        1002
         4         952         953        1004        1003
         4         953         954        1005        1004
         4         954         955        1006        1005
         4         955         956        1007        1006
         4         956         957        1008        1007
         4         957         958        1009        1008
         4         958         959        1010        1009
         4         959         960        1011        1010
         4         960         961        1012        1011
         4         961         962        1013        1012
         4         962         963        1014        1013
         4         963         964        1015        1014
         4         964         965        1016        1015
         4         965         966        1017        1016
         4         966         967        1018        1017
         4         967         968        1019        1018
         4         969         970        1021        1020
         4         970         971        1022        1021
         4         971         972        1023        1022
         4         972         973        1024        1023
         4         973         974        1025        1024
         4         974         975        1026        1025
         4         975         976        1027        1026
         4         976         977        1028        1027
         4         977         978        1029        1028
         4         978         979        1030        1029
         4         979         980        1031        1030
         4         980         981        1032        1031
         4         981         982        1033        1032
         4         982         983        1034        1033
         4         983         984        1035        1034
         4         984         985        1036        1035
         4         985         986        1037        1036
         4         986         987        1038        1037
         4         987         988        1039        1038
         4         988         989        1040        1039
         4         989         990        1041        1040
         4         990         991        1042        1041
         4         991         992        1043        1042
         4         992         993        1044        1043
         4         993         994        1045        1044
         4         994         995        1046        1045
         4         995         996        1047        1046
         4         996         997        1048        1047
         4         997         998        1049        1048
         4         998         999        1050        1049
         4         999        1000        1051        1050
         4        1000        1001        1052        1051
         4        1001        1002        1053        1052
         4        1002        1003        1054        1053
         4        1003        1004        1055        1054
         4        1004        1005        1056        1055
         4        1005        1006        1057        1056
         4        1006        1007        1058        1057
         4        1007        1008        1059        1058
         4        1008        1009        1060        1059
         4        1009        1010        1061        1060
         4        1010        1011        1062        1061
         4        1011        1012        1063        1062
         4        1012        1013        1064        1063
         4        1013        1014        1065        1064
         4        1014        1015        1066        1065
         4        1015        1016        1067        1066
         4        1016        1017        1068        1067
         4        1017        1018        1069        1068
         4        1018        1019        1070        1069
         4        1020        1021        1072        1071
         4        1021        1022        1073        1072
         4        1022        1023        1074        1073
         4        1023        1024        1075        1074
         4        1024        1025        1076        1075
         4        1025        1026        1077        1076
         4        1026        1027        1078        1077
         4        1027        1028        1079        1078
         4        1028        1029        1080        1079
         4        1029        1030        1081        1080
         4        1030        1031        1082        1081
         4        1031        1032        1083        1082
         4        1032        1033        1084        1083
         4        1033        1034        1085        1084
         4        1034        1035        1086        1085
         4        1035        1036        1087        1086
         4        1036        1037        1088        1087
         4        1037        1038        1089        1088
         4        1038        1039        1090        1089
         4        1039        1040        1091        1090
         4        1040        1041        1092        1091
         4        1041        1042        1093        1092
         4        1042        1043        1094        1093
         4        1043        1044        1095        1094
         4        1044        1045        1096        1095
         4        1045        1046        1097        1096
         4        1046        1047        1098        1097
         4        1047        1048        1099        1098
         4        1048        1049        1100        1099
         4        1049        1050        1101        1100
         4        1050        1051        1102        1101
         4        1051        1052        1103        1102
         4        1052        1053        1104        1103
         4        1053        1054        1105        1104
         4        1054        1055        1106        1105
         4        1055        1056        1107        1106
         4        1056        1057        1108        1107
         4        1057        1058        1109        1108
         4        1058        1059        1110        1109
         4        1059        1060        1111        1110
         4        1060        1061        1112        1111
         4        1061        1062        1113        1112
         4        1062        1063        1114        1113
         4        1063        1064        1115        1114
         4        1064        1065        1116        1115
         4        1065        1066        1117        1116
         4        1066        1067        1118        1117
         4        1067        1068        1119        1118
         4        1068        1069        1120        1119
         4        1069        1070        1121        1120
         4        1071        1072        1123        1122
         4        1072        1073        1124        1123
         4        1073        1074        1125        1124
         4        1074        1075        1126        1125
         4        1075        1076        1127        1126
         4        1076        1077        1128        1127
         4        1077        1078        1129        1128
         4        1078        1079        1130        1129
         4        1079        1080        1131        1130
         4        1080        1081        1132        1131
         4        1081        1082        1133        1132
         4        1082        1083        1134        1133
         4        1083        1084        1135        1134
         4        1084        1085        1136        1135
         4        1085        1086        1137        1136
         4        1086        1087        1138        1137
         4        1087        1088        1139        1138
         4        1088        1089        1140        1139
         4        1089        1090        1141        1140
         4        1090        1091        1142        1141
         4        1091        1092        1143        1142
         4        1092        1093        1144        1143
         4        1093        1094        1145        1144
         4        1094        1095        1146        1145
         4        1095        1096        1147        1146
         4        1096        1097        1148        1147
         4        1097        1098        1149        1148
         4        1098        1099        1150        1149
         4        1099        1100        1151        1150
         4        1100        1101        1152        1151
         4        1101        1102        1153        1152
         4        1102        1103        1154        1153
         4        1103        1104        1155        1154
         4        1104        1105        1156        1155
         4        1105        1106        1157        1156
         4        1106        1107        1158        1157
         4        1107        1108        1159        1158
         4        1108        1109        1160        1159
         4        1109        1110        1161        1160
         4        1110        1111        1162        1161
         4        1111        1112        1163        1162
         4        1112        1113        1164        1163
         4        1113        1114        1165        1164
         4        1114        1115        1166        1165
         4        1115        1116        1167        1166
         4        1116        1117        1168        1167
         4        1117        1118        1169        1168
         4        1118        1119        1170        1169
         4        1119        1120        1171        1170
         4        1120        1121        1172        1171
         4        1122        1123        1174        1173
         4        1123        1124        1175        1174
         4        1124        1125        1176        1175
         4        1125        1126        1177        1176
         4        1126        1127        1178        1177
         4        1127        1128        1179        1178
         4        1128        1129        1180        1179
         4        1129        1130        1181        1180
         4        1130        1131        1182        1181
         4        1131        1132        1183        1182
         4        1132        1133        1184        1183
         4        1133        1134        1185        1184
         4        1134        1135        1186        1185
         4        1135        1136        1187        1186
         4        1136        1137        1188        1187
         4        1137        1138        1189        1188
         4        1138        1139        1190        1189
         4        1139        1140        1191        1190
         4        1140        1141        1192        1191
         4        1141        1142        1193        1192
         4        1142        1143        1194        1193
         4        1143        1144        1195        1194
         4        1144        1145        1196        1195
         4        1145        1146        1197        1196
         4        1146        1147        1198        1197
         4        1147        1148        1199        1198
         4        1148        1149        1200        1199
         4        1149        1150        1201        1200
         4        1150        1151        1202        1201
         4        1151        1152        1203        1202
         4        1152        1153        1204        1203
         4        1153        1154        1205        1204
         4        1154        1155        1206        1205
         4        1155        1156        1207        1206
         4        1156        1157        1208        1207
         4        1157        1158        1209        1208
         4        1158        1159        1210        1209
         4        1159        1160        1211        1210
         4        1160        1161        1212        1211
         4        1161        1162        1213        1212
         4        1162        1163        1214        1213
         4        1163        1164        1215        1214
         4        1164        1165        1216        1215
         4        1165        1166        1217        1216
         4        1166        1167        1218        1217
         4        1167        1168        1219        1218
         4        1168        1169        1220        1219
         4        1169        1170        1221        1220
         4        1170        1171        1222        1221
         4        1171        1172        1223        1222
         4        1173        1174        1225        1224
         4        1174        1175        1226        1225
         4        1175        1176        1227        1226
         4        1176        1177        1228        1227
         4        1177        1178        1229        1228
         4        1178        1179        1230        1229
         4        1179        1180        1231        1230
         4        1180        1181        1232        1231
         4        1181        1182        1233        1232
         4        1182        1183        1234        1233
         4        1183        1184        1235        1234
         4        1184        1185        1236        1235
         4        1185        1186        1237        1236
         4        1186        1187        1238        1237
         4        1187        1188        1239        1238
         4        1188        1189        1240        1239
         4        1189        1190        1241        1240
         4        1190        1191        1242        1241
         4        1191        1192        1243        1242
         4        1192        1193        1244        1243
         4        1193        1194        1245        1244
         4        1194        1195        1246        1245
         4        1195        1196        1247        1246
         4        1196        1197        1248        1247
         4        1197        1198        1249        1248
         4        1198        1199        1250        1249
         4        1199        1200        1251        1250
         4        1200        1201        1252        1251
         4        1201        1202        1253        1252
         4        1202        1203        1254        1253
         4        1203        1204        1255        1254
         4        1204        1205        1256        1255
         4        1205        1206        1257        1256
         4        1206        1207        1258        1257
         4        1207        1208        1259        1258
         4        1208        1209        1260        1259
         4        1209        1210        1261        1260
         4        1210        1211        1262        1261
         4        1211        1212        1263        1262
         4        1212        1213        1264        1263
         4        1213        1214        1265        1264
         4        1214        1215        1266        1265
         4        1215        1216        1267        1266
         4        1216        1217        1268        1267
         4        1217        1218        1269        1268
         4        1218        1219        1270        1269
         4        1219        1220        1271        1270
         4        1220        1221        1272        1271
         4        1221        1222        1273        1272
         4        1222        1223        1274        1273
         4        1224        1225        1276        1275
         4        1225        1226        1277        1276
         4        1226        1227        1278        1277
         4        1227        1228        1279        1278
         4        1228        1229        1280        1279
         4        1229        1230        1281        1280
         4        1230        1231        1282        1281
         4        1231        1232        1283        1282
         4        1232        1233        1284        1283
         4        1233        1234        1285        1284
         4        1234        1235        1286        1285
         4        1235        1236        1287        1286
         4        1236        1237        1288        1287
         4        1237        1238        1289        1288
         4        1238        1239        1290        1289
         4        1239        1240        1291        1290
         4        1240        1241        1292        1291
         4        1241        1242        1293        1292
         4        1242        1243        1294        1293
         4        1243        1244        1295        1294
         4        1244        1245        1296        1295
         4        1245        1246        1297        1296
         4        1246        1247        1298        1297
         4        1247        1248        1299        1298
         4        1248        1249        1300        1299
         4        1249        1250        1301        1300
         4        1250        1251        1302        1301
         4        1251        1252        1303        1302
         4        1252        1253        1304        1303
         4        1253        1254        1305        1304
         4        1254        1255        1306        1305
         4        1255        1256        1307        1306
         4        1256        1257        1308        1307
         4        1257        1258        1309        1308
         4        1258        1259        1310        1309
         4        1259        1260        1311        1310
         4        1260        1261        1312        1311
         4        1261        1262        1313        1312
         4        1262        1263        1314        1313
         4        1263        1264        1315        1314
         4        1264        1265        1316        1315
         4        1265        1266        1317        1316
         4        1266        1267        1318        1317
         4        1267        1268        1319        1318
         4        1268        1269        1320        1319
         4        1269        1270        1321        1320
         4        1270        1271        1322        1321
         4        1271        1272        1323        1322
         4        1272        1273        1324        1323
         4        1273        1274        1325        1324
         4        1275        1276        1327        1326
         4        1276        1277        1328        1327
         4        1277        1278        1329        1328
         4        1278        1279        1330        1329
         4        1279        1280        1331        1330
         4        1280        1281        1332        1331
         4        1281        1282        1333        1332
         4        1282        1283        1334        1333
         4        1283        1284        1335        1334
         4        1284        1285        1336        1335
         4        1285        1286        1337        1336
         4        1286        1287        1338        1337
         4        1287        1288        1339        1338
         4        1288        1289        1340        1339
         4        1289        1290        1341        1340
         4        1290        1291        1342        1341
         4        1291        1292        1343        1342
         4        1292        1293        1344        1343
         4        1293        1294        1345        1344
         4        1294        1295        1346        1345
         4        1295        1296        1347        1346
         4        1296        1297        1348        1347
         4        1297        1298        1349        1348
         4        1298        1299        1350        1349
         4        1299        1300        1351        1350
         4        1300        1301        1352        1351
         4        1301        1302        1353        1352
         4        1302        1303        1354        1353
         4        1303        1304        1355        1354
         4        1304        1305        1356        1355
         4        1305        1306        1357        1356
         4        1306        1307        1358        1357
         4        1307        1308        1359        1358
         4        1308        1309        1360        1359
         4        1309        1310        1361        1360
         4        1310        1311        1362        1361
         4        1311        1312        1363        1362
         4        1312        1313        1364        1363
         4        1313        1314        1365        1364
         4        1314        1315        1366        1365
         4        1315        1316        1367        1366
         4        1316        1317        1368        1367
         4        1317        1318        1369        1368
         4        1318        1319        1370        1369
         4        1319        1320        1371        1370
         4        1320        1321        1372        1371
         4        1321        1322        1373        1372
         4        1322        1323        1374        1373
         4        1323        1324        1375        1374
         4        1324        1325        1376        1375
         4        1326        1327        1378        1377
         4        1327        1328        1379        1378
         4        1328        1329        1380        1379
         4        1329        1330        1381        1380
         4        1330        1331        1382        1381
         4        1331        1332        1383        1382
         4        1332        1333        1384        1383
         4        1333        1334        1385        1384
         4        1334        1335        1386        1385
         4        1335        1336        1387        1386
         4        1336        1337        1388        1387
         4        1337        1338        1389        1388
         4        1338        1339        1390        1389
         4        1339        1340        1391        1390
         4        1340        1341        1392        1391
         4        1341        1342        1393        1392
         4        1342        1343        1394        1393
         4        1343        1344        1395        1394
         4        1344        1345        1396        1395
         4        1345        1346        1397        1396
         4        1346        1347        1398        1397
         4        1347        1348        1399        1398
         4        1348        1349        1400        1399
         4        1349        1350        1401        1400
         4        1350        1351        1402        1401
         4        1351        1352        1403        1402
         4        1352        1353        1404        1403
         4        1353        1354        1405        1404
         4        1354        1355        1406        1405
         4        1355        1356        1407        1406
         4        1356        1357        1408        1407
         4        1357        1358        1409        1408
         4        1358        1359        1410        1409
         4        1359        1360        1411        1410
         4        1360        1361        1412        1411
         4        1361        1362        1413        1412
         4        1362        1363        1414        1413
         4        1363        1364        1415        1414
         4        1364        1365        1416        1415
         4        1365        1366        1417        1416
         4        1366        1367        1418        1417
         4        1367        1368        1419        1418
         4        1368        1369        1420        1419
         4        1369        1370        1421        1420
         4        1370        1371        1422        1421
         4        1371        1372        1423        1422
         4        1372        1373        1424        1423
         4        1373        1374        1425        1424
         4        1374        1375        1426        1425
         4        1375        1376        1427        1426
         4        1377        1378        1429        1428
         4        1378        1379        1430        1429
         4        1379        1380        1431        1430
         4        1380        1381        1432        1431
         4        1381        1382        1433        1432
         4        1382        1383        1434        1433
         4        1383        1384        1435        1434
         4        1384        1385        1436        1435
         4        1385        1386        1437        1436
         4        1386        1387        1438        1437
         4        1387        1388        1439        1438
         4        1388        1389        1440        1439
         4        1389        1390        1441        1440
         4        1390        1391        1442        1441
         4        1391        1392        1443        1442
         4        1392        1393        1444        1443
         4        1393        1394        1445        1444
         4        1394        1395        1446        1445
         4        1395        1396        1447        1446
         4        1396        1397        1448        1447
         4        1397        1398        1449        1448
         4        1398        1399        1450        1449
         4        1399        1400        1451        1450
         4        1400        1401        1452        1451
         4        1401        1402        1453        1452
         4        1402        1403        1454        1453
         4        1403        1404        1455        1454
         4        1404        1405        1456        1455
         4        1405        1406        1457        1456
         4        1406        1407        1458        1457
         4        1407        1408        1459        1458
         4        1408        1409        1460        1459
         4        1409        1410        1461        1460
         4        1410        1411        1462        1461
         4        1411        1412        1463        1462
         4        1412        1413        1464        1463
         4        1413        1414        1465        1464
         4        1414        1415        1466        1465
         4        1415        1416        1467        1466
         4        1416        1417        1468        1467
         4        1417        1418        1469        1468
         4        1418        1419        1470        1469
         4        1419        1420        1471        1470
         4        1420        1421        1472        1471
         4        1421        1422        1473        1472
         4        1422        1423        1474        1473
         4        1423        1424        1475        1474
         4        1424        1425        1476        1475
         4        1425        1426        1477        1476
         4        1426        1427        1478        1477
         4        1428        1429        1480        1479
         4        1429        1430        1481        1480
         4        1430        1431        1482        1481
         4        1431        1432        1483        1482
         4        1432        1433        1484        1483
         4        1433        1434        1485        1484
         4        1434        1435        1486        1485
         4        1435        1436        1487        1486
         4        1436        1437        1488        1487
         4        1437        1438        1489        1488
         4        1438        1439        1490        1489
         4        1439        1440        1491        1490
         4        1440        1441        1492        1491
         4        1441        1442        1493        1492
         4        1442        1443        1494        1493
         4        1443        1444        1495        1494
         4        1444        1445        1496        1495
         4        1445        1446        1497        1496
         4        1446        1447        1498        1497
         4        1447        1448        1499        1498
         4        1448        1449        1500        1499
         4        1449        1450        1501        1500
         4        1450        1451        1502        1501
         4        1451        1452        1503        1502
         4        1452        1453        1504        1503
         4        1453        1454        1505        1504
         4        1454        1455        1506        1505
         4        1455        1456        1507        1506
         4        1456        1457        1508        1507
         4        1457        1458        1509        1508
         4        1458        1459        1510        1509
         4        1459        1460        1511        1510
         4        1460        1461        1512        1511
         4        1461        1462        1513        1512
         4        1462        1463        1514        1513
         4        1463        1464        1515        1514
         4        1464        1465        1516        1515
         4        1465        1466        1517        1516
         4        1466        1467        1518        1517
         4        1467        1468        1519        1518
         4        1468        1469        1520        1519
         4        1469        1470        1521        1520
         4        1470        1471        1522        1521
         4        1471        1472        1523        1522
         4        1472        1473        1524        1523
         4        1473        1474        1525        1524
         4        1474        1475        1526        1525
         4        1475        1476        1527        1526
         4        1476        1477        1528        1527
         4        1477        1478        1529        1528
         4        1479        1480        1531        1530
         4        1480        1481        1532        1531
         4        1481        1482        1533        1532
         4        1482        1483        1534        1533
         4        1483        1484        1535        1534
         4        1484        1485        1536        1535
         4        1485        1486        1537        1536
         4        1486        1487        1538        1537
         4        1487        1488        1539        1538
         4        1488        1489        1540        1539
         4        1489        1490        1541        1540
         4        1490        1491        1542        1541
         4        1491        1492        1543        1542
         4        1492        1493        1544        1543
         4        1493        1494        1545        1544
         4        1494        1495        1546        1545
         4        1495        1496        1547        1546
         4        1496        1497        1548        1547
         4        1497        1498        1549        1548
         4        1498        1499        1550        1549
         4        1499        1500        1551        1550
         4        1500        1501        1552        1551
         4        1501        1502        1553        1552
         4        1502        1503        1554        1553
         4        1503        1504        1555        1554
         4        1504        1505        1556        1555
         4        1505        1506        1557        1556
         4        1506        1507        1558        1557
         4        1507        1508        1559        1558
         4        1508        1509        1560        1559
         4        1509        1510        1561        1560
         4        1510        1511        1562        1561
         4        1511        1512        1563        1562
         4        1512        1513        1564        1563
         4        1513        1514        1565        1564
         4        1514        1515        1566        1565
         4        1515        1516        1567        1566
         4        1516        1517        1568        1567
         4        1517        1518        1569        1568
         4        1518        1519        1570        1569
         4        1519        1520        1571        1570
         4        1520        1521        1572        1571
         4        1521        1522        1573        1572
         4        1522        1523        1574        1573
         4        1523        1524        1575        1574
         4        1524        1525        1576        1575
         4        1525        1526        1577        1576
         4        1526        1527        1578        1577
         4        1527        1528        1579        1578
         4        1528        1529        1580        1579
         4        1530        1531        1582        1581
         4        1531        1532        1583        1582
         4        1532        1533        1584        1583
         4        1533        1534        1585        1584
         4        1534        1535        1586        1585
         4        1535        1536        1587        1586
         4        1536        1537        1588        1587
         4        1537        1538        1589        1588
         4        1538        1539        1590        1589
         4        1539        1540        1591        1590
         4        1540        1541        1592        1591
         4        1541        1542        1593        1592
         4        1542        1543        1594        1593
         4        1543        1544        1595        1594
         4        1544        1545        1596        1595
         4        1545        1546        1597        1596
         4        1546        1547        1598        1597
         4        1547        1548        1599        1598
         4        1548        1549        1600        1599
         4        1549        1550        1601        1600
         4        1550        1551        1602        1601
         4        1551        1552        1603        1602
         4        1552        1553        1604        1603
         4        1553        1554        1605        1604
         4        1554        1555        1606        1605
         4        1555        1556        1607        1606
         4        1556        1557        1608        1607
         4        1557        1558        1609        1608
         4        1558        1559        1610        1609
         4        1559        1560        1611        1610
         4        1560        1561        1612        1611
         4        1561        1562        1613        1612
         4        1562        1563        1614        1613
         4        1563        1564        1615        1614
         4        1564        1565        1616        1615
         4        1565        1566        1617        1616
         4        1566        1567        1618        1617
         4        1567        1568        1619        1618
         4        1568        1569        1620        1619
         4        1569        1570        1621        1620
         4        1570        1571        1622        1621
         4        1571        1572        1623        1622
         4        1572        1573        1624        1623
         4        1573        1574        1625        1624
         4        1574        1575        1626        1625
         4        1575        1576        1627        1626
         4        1576        1577        1628        1627
         4        1577        1578        1629        1628
         4        1578        1579        1630        1629
         4        1579        1580        1631        1630
         4        1581        1582        1633        1632
         4        1582        1583        1634        1633
         4        1583        1584        1635        1634
         4        1584        1585        1636        1635
         4        1585        1586        1637        1636
         4        1586        1587        1638        1637
         4        1587        1588        1639        1638
         4        1588        1589        1640        1639
         4        1589        1590        1641        1640
         4        1590        1591        1642        1641
         4        1591        1592        1643        1642
         4        1592        1593        1644        1643
         4        1593        1594        1645        1644
         4        1594        1595        1646        1645
         4        1595        1596        1647        1646
         4        1596        1597        1648        1647
         4        1597        1598        1649        1648
         4        1598        1599        1650        1649
         4        1599        1600        1651        1650
         4        1600        1601        1652        1651
         4        1601        1602        1653        1652
         4        1602        1603        1654        1653
         4        1603        1604        1655        1654
         4        1604        1605        1656        1655
         4        1605        1606        1657        1656
         4        1606        1607        1658        1657
         4        1607        1608        1659        1658
         4        1608        1609        1660        1659
         4        1609        1610        1661        1660
         4        1610        1611        1662        1661
         4        1611        1612        1663        1662
         4        1612        1613        1664        1663
         4        1613        1614        1665        1664
         4        1614        1615        1666        1665
         4        1615        1616        1667        1666
         4        1616        1617        1668        1667
         4        1617        1618        1669        1668
         4        1618        1619        1670        1669
         4        1619        1620        1671        1670
         4        1620        1621        1672        1671
         4        1621        1622        1673        1672
         4        1622        1623        1674        1673
         4        1623        1624        1675        1674
         4        1624        1625        1676        1675
         4        1625        1626        1677        1676
         4        1626        1627        1678        1677
         4        1627        1628        1679        1678
         4        1628        1629        1680        1679
         4        1629        1630        1681        1680
         4        1630        1631        1682        1681
         4        1632        1633        1684        1683
         4        1633        1634        1685        1684
         4        1634        1635        1686        1685
         4        1635        1636        1687        1686
         4        1636        1637        1688        1687
         4        1637        1638        1689        1688
         4        1638        1639        1690        1689
         4        1639        1640        1691        1690
         4        1640        1641        1692        1691
         4        1641        1642        1693        1692
         4        1642        1643        1694        1693
         4        1643        1644        1695        1694
         4        1644        1645        1696        1695
         4        1645        1646        1697        1696
         4        1646        1647        1698        1697
         4        1647        1648        1699        1698
         4        1648        1649        1700        1699
         4        1649        1650        1701        1700
         4        1650        1651        1702        1701
         4        1651        1652        1703        1702
         4        1652        1653        1704        1703
         4        1653        1654        1705        1704
         4        1654        1655        1706        1705
         4        1655        1656        1707        1706
         4        1656        1657        1708        1707
         4        1657        1658        1709        1708
         4        1658        1659        1710        1709
         4        1659        1660        1711        1710
         4        1660        1661        1712        1711
         4        1661        1662        1713        1712
         4        1662        1663        1714        1713
         4        1663        1664        1715        1714
         4        1664        1665        1716        1715
         4        1665        1666        1717        1716
         4        1666        1667        1718        1717
         4        1667        1668        1719        1718
         4        1668        1669        1720        1719
         4        1669        1670        1721        1720
         4        1670        1671        1722        1721
         4        1671        1672        1723        1722
         4        1672        1673        1724        1723
         4        1673        1674        1725        1724
         4        1674        1675        1726        1725
         4        1675        1676        1727        1726
         4        1676        1677        1728        1727
         4        1677        1678        1729        1728
         4        1678        1679        1730        1729
         4        1679        1680        1731        1730
         4        1680        1681        1732        1731
         4        1681        1682        1733        1732
         4        1683        1684        1735        1734
         4        1684        1685        1736        1735
         4        1685        1686        1737        1736
         4        1686        1687        1738        1737
         4        1687        1688        1739        1738
         4        1688        1689        1740        1739
         4        1689        1690        1741        1740
         4        1690        1691        1742        1741
         4        1691        1692        1743        1742
         4        1692        1693        1744        1743
         4        1693        1694        1745        1744
         4        1694        1695        1746        1745
         4        1695        1696        1747        1746
         4        1696        1697        1748        1747
         4        1697        1698        1749        1748
         4        1698        1699        1750        1749
         4        1699        1700        1751        1750
         4        1700        1701        1752        1751
         4        1701        1702        1753        1752
         4        1702        1703        1754        1753
         4        1703        1704        1755        1754
         4        1704        1705        1756        1755
         4        1705        1706        1757        1756
         4        1706        1707        1758        1757
         4        1707        1708        1759        1758
         4        1708        1709        1760        1759
         4        1709        1710        1761        1760
         4        1710        1711        1762        1761
         4        1711        1712        1763        1762
         4        1712        1713        1764        1763
         4        1713        1714        1765        1764
         4        1714        1715        1766        1765
         4        1715        1716        1767        1766
         4        1716        1717        1768        1767
         4        1717        1718        1769        1768
         4        1718        1719        1770        1769
         4        1719        1720        1771        1770
         4        1720        1721        1772        1771
         4        1721        1722        1773        1772
         4        1722        1723        1774        1773
         4        1723        1724        1775        1774
         4        1724        1725        1776        1775
         4        1725        1726        1777        1776
         4        1726        1727        1778        1777
         4        1727        1728        1779        1778
         4        1728        1729        1780        1779
         4        1729        1730        1781        1780
         4        1730        1731        1782        1781
         4        1731        1732        1783        1782
         4        1732        1733        1784        1783
         4        1734        1735        1786        1785
         4        1735        1736        1787        1786
         4        1736        1737        1788        1787
         4        1737        1738        1789        1788
         4        1738        1739        1790        1789
         4        1739        1740        1791        1790
         4        1740        1741        1792        1791
         4        1741        1742        1793        1792
         4        1742        1743        1794        1793
         4        1743        1744        1795        1794
         4        1744        1745        1796        1795
         4        1745        1746        1797        1796
         4        1746        1747        1798        1797
         4        1747        1748        1799        1798
         4        1748        1749        1800        1799
         4        1749        1750        1801        1800
         4        1750        1751        1802        1801
         4        1751        1752        1803        1802
         4        1752        1753        1804        1803
         4        1753        1754        1805        1804
         4        1754        1755        1806        1805
         4        1755        1756        1807        1806
         4        1756        1757        1808        1807
         4        1757        1758        1809        1808
         4        1758        1759        1810        1809
         4        1759        1760        1811        1810
         4        1760        1761        1812        1811
         4        1761        1762        1813        1812
         4        1762        1763        1814        1813
         4        1763        1764        1815        1814
         4        1764        1765        1816        1815
         4        1765        1766        1817        1816
         4        1766        1767        1818        1817
         4        1767        1768        1819        1818
         4        1768        1769        1820        1819
         4        1769        1770        1821        1820
         4        1770        1771        1822        1821
         4        1771        1772        1823        1822
         4        1772        1773        1824        1823
         4        1773        1774        1825        1824
         4        1774        1775        1826        1825
         4        1775        1776        1827        1826
         4        1776        1777        1828        1827
         4        1777        1778        1829        1828
         4        1778        1779        1830        1829
         4        1779        1780        1831        1830
         4        1780        1781        1832        1831
         4        1781        1782        1833        1832
         4        1782        1783        1834        1833
         4        1783        1784        1835        1834
         4        1785        1786        1837        1836
         4        1786        1787        1838        1837
         4        1787        1788        1839        1838
         4        1788        1789        1840        1839
         4        1789        1790        1841        1840
         4        1790        1791        1842        1841
         4        1791        1792        1843        1842
         4        1792        1793        1844        1843
         4        1793        1794        1845        1844
         4        1794        1795        1846        1845
         4        1795        1796        1847        1846
         4        1796        1797        1848        1847
         4        1797        1798        1849        1848
         4        1798        1799        1850        1849
         4        1799        1800        1851        1850
         4        1800        1801        1852        1851
         4        1801        1802        1853        1852
         4        1802        1803        1854        1853
         4        1803        1804        1855        1854
         4        1804        1805        1856        1855
         4        1805        1806        1857        1856
         4        1806        1807        1858        1857
         4        1807        1808        1859        1858
         4        1808        1809        1860        1859
         4        1809        1810        1861        1860
         4        1810        1811        1862        1861
         4        1811        1812        1863        1862
         4        1812        1813        1864        1863
         4        1813        1814        1865        1864
         4        1814        1815        1866        1865
         4        1815        1816        1867        1866
         4        1816        1817        1868        1867
         4        1817        1818        1869        1868
         4        1818        1819        1870        1869
         4        1819        1820        1871        1870
         4        1820        1821        1872        1871
         4        1821        1822        1873        1872
         4        1822        1823        1874        1873
         4        1823        1824        1875        1874
         4        1824        1825        1876        1875
         4        1825        1826        1877        1876
         4        1826        1827        1878        1877
         4        1827        1828        1879        1878
         4        1828        1829        1880        1879
         4        1829        1830        1881        1880
         4        1830        1831        1882        1881
         4        1831        1832        1883        1882
         4        1832        1833        1884        1883
         4        1833        1834        1885        1884
         4        1834        1835        1886        1885
         4        1836        1837        1888        1887
         4        1837        1838        1889        1888
         4        1838        1839        1890        1889
         4        1839        1840        1891        1890
         4        1840        1841        1892        1891
         4        1841        1842        1893        1892
         4        1842        1843        1894        1893
         4        1843        1844        1895        1894
         4        1844        1845        1896        1895
         4        1845        1846        1897        1896
         4        1846        1847        1898        1897
         4        1847        1848        1899        1898
         4        1848        1849        1900        1899
         4        1849        1850        1901        1900
         4        1850        1851        1902        1901
         4        1851        1852        1903        1902
         4        1852        1853        1904        1903
         4        1853        1854        1905        1904
         4        1854        1855        1906        1905
         4        1855        1856        1907        1906
         4        1856        1857        1908        1907
         4        1857        1858        1909        1908
         4        1858        1859        1910        1909
         4        1859        1860        1911        1910
         4        1860        1861        1912        1911
         4        1861        1862        1913        1912
         4        1862        1863        1914        1913
         4        1863        1864        1915        1914
         4        1864        1865        1916        1915
         4        1865        1866        1917        1916
         4        1866        1867        1918        1917
         4        1867        1868        1919        1918
         4        1868        1869        1920        1919
         4        1869        1870        1921        1920
         4        1870        1871        1922        1921
         4        1871        1872        1923        1922
         4        1872        1873        1924        1923
         4        1873        1874        1925        1924
         4        1874        1875        1926        1925
         4        1875        1876        1927        1926
         4        1876        1877        1928        1927
         4        1877        1878        1929        1928
         4        1878        1879        1930        1929
         4        1879        1880        1931        1930
         4        1880        1881        1932        1931
         4        1881        1882        1933        1932
         4        1882        1883        1934        1933
         4        1883        1884        1935        1934
         4        1884        1885        1936        1935
         4        1885        1886        1937        1936
         4        1887        1888        1939        1938
         4        1888        1889        1940        1939
         4        1889        1890        1941        1940
         4        1890        1891        1942        1941
         4        1891        1892        1943        1942
         4        1892        1893        1944        1943
         4        1893        1894        1945        1944
         4        1894        1895        1946        1945
         4        1895        1896        1947        1946
         4        1896        1897        1948        1947
         4        1897        1898        1949        1948
         4        1898        1899        1950        1949
         4        1899        1900        1951        1950
         4        1900        1901        1952        1951
         4        1901        1902        1953        1952
         4        1902        1903        1954        1953
         4        1903        1904        1955        1954
         4        1904        1905        1956        1955
         4        1905        1906        1957        1956
         4        1906        1907        1958        1957
         4        1907        1908        1959        1958
         4        1908        1909        1960        1959
         4        1909        1910        1961        1960
         4        1910        1911        1962        1961
         4        1911        1912        1963        1962
         4        1912        1913        1964        1963
         4        1913        1914        1965        1964
         4        1914        1915        1966        1965
         4        1915        1916        1967        1966
         4        1916        1917        1968        1967
         4        1917        1918        1969        1968
         4        1918        1919        1970        1969
         4        1919        1920        1971        1970
         4        1920        1921        1972        1971
         4        1921        1922        1973        1972
         4        1922        1923        1974        1973
         4        1923        1924        1975        1974
         4        1924        1925        1976        1975
         4        1925        1926        1977        1976
         4        1926        1927        1978        1977
         4        1927        1928        1979        1978
         4        1928        1929        1980        1979
         4        1929        1930        1981        1980
         4        1930        1931        1982        1981
         4        1931        1932        1983        1982
         4        1932        1933        1984        1983
         4        1933        1934        1985        1984
         4        1934        1935        1986        1985
         4        1935        1936        1987        1986
         4        1936        1937        1988        1987
         4        1938        1939        1990        1989
         4        1939        1940        1991        1990
         4        1940        1941        1992        1991
         4        1941        1942        1993        1992
         4        1942        1943        1994        1993
         4        1943        1944        1995        1994
         4        1944        1945        1996        1995
         4        1945        1946        1997        1996
         4        1946        1947        1998        1997
         4        1947        1948        1999        1998
         4        1948        1949        2000        1999
         4        1949        1950        2001        2000
         4        1950        1951        2002        2001
         4        1951        1952        2003        2002
         4        1952        1953        2004        2003
         4        1953        1954        2005        2004
         4        1954        1955        2006        2005
         4        1955        1956        2007        2006
         4        1956        1957        2008        2007
         4        1957        1958        2009        2008
         4        1958        1959        2010        2009
         4        1959        1960        2011        2010
         4        1960        1961        2012        2011
         4        1961        1962        2013        2012
         4        1962        1963        2014        2013
         4        1963        1964        2015        2014
         4        1964        1965        2016        2015
         4        1965        1966        2017        2016
         4        1966        1967        2018        2017
         4        1967        1968        2019        2018
         4        1968        1969        2020        2019
         4        1969        1970        2021        2020
         4        1970        1971        2022        2021
         4        1971        1972        2023        2022
         4        1972        1973        2024        2023
         4        1973        1974        2025        2024
         4        1974        1975        2026        2025
         4        1975        1976        2027        2026
         4        1976        1977        2028        2027
         4        1977        1978        2029        2028
         4        1978        1979        2030        2029
         4        1979        1980        2031        2030
         4        1980        1981        2032        2031
         4        1981        1982        2033        2032
         4        1982        1983        2034        2033
         4        1983        1984        2035        2034
         4        1984        1985        2036        2035
         4        1985        1986        2037        2036
         4        1986        1987        2038        2037
         4        1987        1988        2039        2038
         4        1989        1990        2041        2040
         4        1990        1991        2042        2041
         4        1991        1992        2043        2042
         4        1992        1993        2044        2043
         4        1993        1994        2045        2044
         4        1994        1995        2046        2045
         4        1995        1996        2047        2046
         4        1996        1997        2048        2047
         4        1997        1998        2049        2048
         4        1998        1999        2050        2049
         4        1999        2000        2051        2050
         4        2000        2001        2052        2051
         4        2001        2002        2053        2052
         4        2002        2003        2054        2053
         4        2003        2004        2055        2054
         4        2004        2005        2056        2055
         4        2005        2006        2057        2056
         4        2006        2007        2058        2057
         4        2007        2008        2059        2058
         4        2008        2009        2060        2059
         4        2009        2010        2061        2060
         4        2010        2011        2062        2061
         4        2011        2012        2063        2062
         4        2012        2013        2064        2063
         4        2013        2014        2065        2064
         4        2014        2015        2066        2065
         4        2015        2016        2067        2066
         4        2016        2017        2068        2067
         4        2017        2018        2069        2068
         4        2018        2019        2070        2069
         4        2019        2020        2071        2070
         4        2020        2021        2072        2071
         4        2021        2022        2073        2072
         4        2022        2023        2074        2073
         4        2023        2024        2075        2074
         4        2024        2025        2076        2075
         4        2025        2026        2077        2076
         4        2026        2027        2078        2077
         4        2027        2028        2079        2078
         4        2028        2029        2080        2079
         4        2029        2030        2081        2080
         4        2030        2031        2082        2081
         4        2031        2032        2083        2082
         4        2032        2033        2084        2083
         4        2033        2034        2085        2084
         4        2034        2035        2086        2085
         4        2035        2036        2087        2086
         4        2036        2037        2088        2087
         4        2037        2038        2089        2088
         4        2038        2039        2090        2089
         4        2040        2041        2092        2091
         4        2041        2042        2093        2092
         4        2042        2043        2094        2093
         4        2043        2044        2095        2094
         4        2044        2045        2096        2095
         4        2045        2046        2097        2096
         4        2046        2047        2098        2097
         4        2047        2048        2099        2098
         4        2048        2049        2100        2099
         4        2049        2050        2101        2100
         4        2050        2051        2102        2101
         4        2051        2052        2103        2102
         4        2052        2053        2104        2103
         4        2053        2054        2105        2104
         4        2054        2055        2106        2105
         4        2055        2056        2107        2106
         4        2056        2057        2108        2107
         4        2057        2058        2109        2108
         4        2058        2059        2110        2109
         4        2059        2060        2111        2110
         4        2060        2061        2112        2111
         4        2061        2062        2113        2112
         4        2062        2063        2114        2113
         4        2063        2064        2115        2114
         4        2064        2065        2116        2115
         4        2065        2066        2117        2116
         4        2066        2067        2118        2117
         4        2067        2068        2119        2118
         4        2068        2069        2120        2119
         4        2069        2070        2121        2120
         4        2070        2071        2122        2121
         4        2071        2072        2123        2122
         4        2072        2073        2124        2123
         4        2073        2074        2125        2124
         4        2074        2075        2126        2125
         4        2075        2076        2127        2126
         4        2076        2077        2128        2127
         4        2077        2078        2129        2128
         4        2078        2079        2130        2129
         4        2079        2080        2131        2130
         4        2080        2081        2132        2131
         4        2081        2082        2133        2132
         4        2082        2083        2134        2133
         4        2083        2084        2135        2134
         4        2084        2085        2136        2135
         4        2085        2086        2137        2136
         4        2086        2087        2138        2137
         4        2087        2088        2139        2138
         4        2088        2089        2140        2139
         4        2089        2090        2141        2140
         4        2091        2092        2143        2142
         4        2092        2093        2144        2143
         4        2093        2094        2145        2144
         4        2094        2095        2146        2145
         4        2095        2096        2147        2146
         4        2096        2097        2148        2147
         4        2097        2098        2149        2148
         4        2098        2099        2150        2149
         4        2099        2100        2151        2150
         4        2100        2101        2152        2151
         4        2101        2102        2153        2152
         4        2102        2103        2154        2153
         4        2103        2104        2155        2154
         4        2104        2105        2156        2155
         4        2105        2106        2157        2156
         4        2106        2107        2158        2157
         4        2107        2108        2159        2158
         4        2108        2109        2160        2159
         4        2109        2110        2161        2160
         4        2110        2111        2162        2161
         4        2111        2112        2163        2162
         4        2112        2113        2164        2163
         4        2113        2114        2165        2164
         4        2114        2115        2166        2165
         4        2115        2116        2167        2166
         4        2116        2117        2168        2167
         4        2117        2118        2169        2168
         4        2118        2119        2170        2169
         4        2119        2120        2171        2170
         4        2120        2121        2172        2171
         4        2121        2122        2173        2172
         4        2122        2123        2174        2173
         4        2123        2124        2175        2174
         4        2124        2125        2176        2175
         4        2125        2126        2177        2176
         4        2126        2127        2178        2177
         4        2127        2128        2179        2178
         4        2128        2129        2180        2179
         4        2129        2130        2181        2180
         4        2130        2131        2182        2181
         4        2131        2132        2183        2182
         4        2132        2133        2184        2183
         4        2133        2134        2185        2184
         4        2134        2135        2186        2185
         4        2135        2136        2187        2186
         4        2136        2137        2188        2187
         4        2137        2138        2189        2188
         4        2138        2139        2190        2189
         4        2139        2140        2191        2190
         4        2140        2141        2192        2191
         4        2142        2143        2194        2193
         4        2143        2144        2195        2194
         4        2144        2145        2196        2195
         4        2145        2146        2197        2196
         4        2146        2147        2198        2197
         4        2147        2148        2199        2198
         4        2148        2149        2200        2199
         4        2149        2150        2201        2200
         4        2150        2151        2202        2201
         4        2151        2152        2203        2202
         4        2152        2153        2204        2203
         4        2153        2154        2205        2204
         4        2154        2155        2206        2205
         4        2155        2156        2207        2206
         4        2156        2157        2208        2207
         4        2157        2158        2209        2208
         4        2158        2159        2210        2209
         4        2159        2160        2211        2210
         4        2160        2161        2212        2211
         4        2161        2162        2213        2212
         4        2162        2163        2214        2213
         4        2163        2164        2215        2214
         4        2164        2165        2216        2215
         4        2165        2166        2217        2216
         4        2166        2167        2218        2217
         4        2167        2168        2219        2218
         4        2168        2169        2220        2219
         4        2169        2170        2221        2220
         4        2170        2171        2222        2221
         4        2171        2172        2223        2222
         4        2172        2173        2224        2223
         4        2173        2174        2225        2224
         4        2174        2175        2226        2225
         4        2175        2176        2227        2226
         4        2176        2177        2228        2227
         4        2177        2178        2229        2228
         4        2178        2179        2230        2229
         4        2179        2180        2231        2230
         4        2180        2181        2232        2231
         4        2181        2182        2233        2232
         4        2182        2183        2234        2233
         4        2183        2184        2235        2234
         4        2184        2185        2236        2235
         4        2185        2186        2237        2236
         4        2186        2187        2238        2237
         4        2187        2188        2239        2238
         4        2188        2189        2240        2239
         4        2189        2190        2241        2240
         4        2190        2191        2242        2241
         4        2191        2192        2243        2242
         4        2193        2194        2245        2244
         4        2194        2195        2246        2245
         4        2195        2196        2247        2246
         4        2196        2197        2248        2247
         4        2197        2198        2249        2248
         4        2198        2199        2250        2249
         4        2199        2200        2251        2250
         4        2200        2201        2252        2251
         4        2201        2202        2253        2252
         4        2202        2203        2254        2253
         4        2203        2204        2255        2254
         4        2204        2205        2256        2255
         4        2205        2206        2257        2256
         4        2206        2207        2258        2257
         4        2207        2208        2259        2258
         4        2208        2209        2260        2259
         4        2209        2210        2261        2260
         4        2210        2211        2262        2261
         4        2211        2212        2263        2262
         4        2212        2213        2264        2263
         4        2213        2214        2265        2264
         4        2214        2215        2266        2265
         4        2215        2216        2267        2266
         4        2216        2217        2268        2267
         4        2217        2218        2269        2268
         4        2218        2219        2270        2269
         4        2219        2220        2271        2270
         4        2220        2221        2272        2271
         4        2221        2222        2273        2272
         4        2222        2223        2274        2273
         4        2223        2224        2275        2274
         4        2224        2225        2276        2275
         4        2225        2226        2277        2276
         4        2226        2227        2278        2277
         4        2227        2228        2279        2278
         4        2228        2229        2280        2279
         4        2229        2230        2281        2280
         4        2230        2231        2282        2281
         4        2231        2232        2283        2282
         4        2232        2233        2284        2283
         4        2233        2234        2285        2284
         4        2234        2235        2286        2285
         4        2235        2236        2287        2286
         4        2236        2237        2288        2287
         4        2237        2238        2289        2288
         4        2238        2239        2290        2289
         4        2239        2240        2291        2290
         4        2240        2241        2292        2291
         4        2241        2242        2293        2292
         4        2242        2243        2294        2293
         4        2244        2245        2296        2295
         4        2245        2246        2297        2296
         4        2246        2247        2298        2297
         4        2247        2248        2299        2298
         4        2248        2249        2300        2299
         4        2249        2250        2301        2300
         4        2250        2251        2302        2301
         4        2251        2252        2303        2302
         4        2252        2253        2304        2303
         4        2253        2254        2305        2304
         4        2254        2255        2306        2305
         4        2255        2256        2307        2306
         4        2256        2257        2308        2307
         4        2257        2258        2309        2308
         4        2258        2259        2310        2309
         4        2259        2260        2311        2310
         4        2260        2261        2312        2311
         4        2261        2262        2313        2312
         4        2262        2263        2314        2313
         4        2263        2264        2315        2314
         4        2264        2265        2316        2315
         4        2265        2266        2317        2316
         4        2266        2267        2318        2317
         4        2267        2268        2319        2318
         4        2268        2269        2320        2319
         4        2269        2270        2321        2320
         4        2270        2271        2322        2321
         4        2271        2272        2323        2322
         4        2272        2273        2324        2323
         4        2273        2274        2325        2324
         4        2274        2275        2326        2325
         4        2275        2276        2327        2326
         4        2276        2277        2328        2327
         4        2277        2278        2329        2328
         4        2278        2279        2330        2329
         4        2279        2280        2331        2330
         4        2280        2281        2332        2331
         4        2281        2282        2333        2332
         4        2282        2283        2334        2333
         4        2283        2284        2335        2334
         4        2284        2285        2336        2335
         4        2285        2286        2337        2336
         4        2286        2287        2338        2337
         4        2287        2288        2339        2338
         4        2288        2289        2340        2339
         4        2289        2290        2341        2340
         4        2290        2291        2342        2341
         4        2291        2292        2343        2342
         4        2292        2293        2344        2343
         4        2293        2294        2345        2344
         4        2295        2296        2347        2346
         4        2296        2297        2348        2347
         4        2297        2298        2349        2348
         4        2298        2299        2350        2349
         4        2299        2300        2351        2350
         4        2300        2301        2352        2351
         4        2301        2302        2353        2352
         4        2302        2303        2354        2353
         4        2303        2304        2355        2354
         4        2304        2305        2356        2355
         4        2305        2306        2357        2356
         4        2306        2307        2358        2357
         4        2307        2308        2359        2358
         4        2308        2309        2360        2359
         4        2309        2310        2361        2360
         4        2310        2311        2362        2361
         4        2311        2312        2363        2362
         4        2312        2313        2364        2363
         4        2313        2314        2365        2364
         4        2314        2315        2366        2365
         4        2315        2316        2367        2366
         4        2316        2317        2368        2367
         4        2317        2318        2369        2368
         4        2318        2319        2370        2369
         4        2319        2320        2371        2370
         4        2320        2321        2372        2371
         4        2321        2322        2373        2372
         4        2322        2323        2374        2373
         4        2323        2324        2375        2374
         4        2324        2325        2376        2375
         4        2325        2326        2377        2376
         4        2326        2327        2378        2377
         4        2327        2328        2379        2378
         4        2328        2329        2380        2379
         4        2329        2330        2381        2380
         4        2330        2331        2382        2381
         4        2331        2332        2383        2382
         4        2332        2333        2384        2383
         4        2333        2334        2385        2384
         4        2334        2335        2386        2385
         4        2335        2336        2387        2386
         4        2336        2337        2388        2387
         4        2337        2338        2389        2388
         4        2338        2339        2390        2389
         4        2339        2340        2391        2390
         4        2340        2341        2392        2391
         4        2341        2342        2393        2392
         4        2342        2343        2394        2393
         4        2343        2344        2395        2394
         4        2344        2345        2396        2395
         4        2346        2347        2398        2397
         4        2347        2348        2399        2398
         4        2348        2349        2400        2399
         4        2349        2350        2401        2400
         4        2350        2351        2402        2401
         4        2351        2352        2403        2402
         4        2352        2353        2404        2403
         4        2353        2354        2405        2404
         4        2354        2355        2406        2405
         4        2355        2356        2407        2406
         4        2356        2357        2408        2407
         4        2357        2358        2409        2408
         4        2358        2359        2410        2409
         4        2359        2360        2411        2410
         4        2360        2361        2412        2411
         4        2361        2362        2413        2412
         4        2362        2363        2414        2413
         4        2363        2364        2415        2414
         4        2364        2365        2416        2415
         4        2365        2366        2417        2416
         4        2366        2367        2418        2417
         4        2367        2368        2419        2418
         4        2368        2369        2420        2419
         4        2369        2370        2421        2420
         4        2370        2371        2422        2421
         4        2371        2372        2423        2422
         4        2372        2373        2424        2423
         4        2373        2374        2425        2424
         4        2374        2375        2426        2425
         4        2375        2376        2427        2426
         4        2376        2377        2428        2427
         4        2377        2378        2429        2428
         4        2378        2379        2430        2429
         4        2379        2380        2431        2430
         4        2380        2381        2432        2431
         4        2381        2382        2433        2432
         4        2382        2383        2434        2433
         4        2383        2384        2435        2434
         4        2384        2385        2436        2435
         4        2385        2386        2437        2436
         4        2386        2387        2438        2437
         4        2387        2388        2439        2438
         4        2388        2389        2440        2439
         4        2389        2390        2441        2440
         4        2390        2391        2442        2441
         4        2391        2392        2443        2442
         4        2392        2393        2444        2443
         4        2393        2394        2445        2444
         4        2394        2395        2446        2445
         4        2395        2396        2447        2446
         4        2397        2398        2449        2448
         4        2398        2399        2450        2449
         4        2399        2400        2451        2450
         4        2400        2401        2452        2451
         4        2401        2402        2453        2452
         4        2402        2403        2454        2453
         4        2403        2404        2455        2454
         4        2404        2405        2456        2455
         4        2405        2406        2457        2456
         4        2406        2407        2458        2457
         4        2407        2408        2459        2458
         4        2408        2409        2460        2459
         4        2409        2410        2461        2460
         4        2410        2411        2462        2461
         4        2411        2412        2463        2462
         4        2412        2413        2464        2463
         4        2413        2414        2465        2464
         4        2414        2415        2466        2465
         4        2415        2416        2467        2466
         4        2416        2417        2468        2467
         4        2417        2418        2469        2468
         4        2418        2419        2470        2469
         4        2419        2420        2471        2470
         4        2420        2421        2472        2471
         4        2421        2422        2473        2472
         4        2422        2423        2474        2473
         4        2423        2424        2475        2474
         4        2424        2425        2476        2475
         4        2425        2426        2477        2476
         4        2426        2427        2478        2477
         4        2427        2428        2479        2478
         4        2428        2429        2480        2479
         4        2429        2430        2481        2480
         4        2430        2431        2482        2481
         4        2431        2432        2483        2482
         4        2432        2433        2484        2483
         4        2433        2434        2485        2484
         4        2434        2435        2486        2485
         4        2435        2436        2487        2486
         4        2436        2437        2488        2487
         4        2437        2438        2489        2488
         4        2438        2439        2490        2489
         4        2439        2440        2491        2490
         4        2440        2441        2492        2491
         4        2441        2442        2493        2492
         4        2442        2443        2494        2493
         4        2443        2444        2495        2494
         4        2444        2445        2496        2495
         4        2445        2446        2497        2496
         4        2446        2447        2498        2497
         4        2448        2449        2500        2499
         4        2449        2450        2501        2500
         4        2450        2451        2502        2501
         4        2451        2452        2503        2502
         4        2452        2453        2504        2503
         4        2453        2454        2505        2504
         4        2454        2455        2506        2505
         4        2455        2456        2507        2506
         4        2456        2457        2508        2507
         4        2457        2458        2509        2508
         4        2458        2459        2510        2509
         4        2459        2460        2511        2510
         4        2460        2461        2512        2511
         4        2461        2462        2513        2512
         4        2462        2463        2514        2513
         4        2463        2464        2515        2514
         4        2464        2465        2516        2515
         4        2465        2466        2517        2516
         4        2466        2467        2518        2517
         4        2467        2468        2519        2518
         4        2468        2469        2520        2519
         4        2469        2470        2521        2520
         4        2470        2471        2522        2521
         4        2471        2472        2523        2522
         4        2472        2473        2524        2523
         4        2473        2474        2525        2524
         4        2474        2475        2526        2525
         4        2475        2476        2527        2526
         4        2476        2477        2528        2527
         4        2477        2478        2529        2528
         4        2478        2479        2530        2529
         4        2479        2480        2531        2530
         4        2480        2481        2532        2531
         4        2481        2482        2533        2532
         4        2482        2483        2534        2533
         4        2483        2484        2535        2534
         4        2484        2485        2536        2535
         4        2485        2486        2537        2536
         4        2486        2487        2538        2537
         4        2487        2488        2539        2538
         4        2488        2489        2540        2539
         4        2489        2490        2541        2540
         4        2490        2491        2542        2541
         4        2491        2492        2543        2542
         4        2492        2493        2544        2543
         4        2493        2494        2545        2544
         4        2494        2495        2546        2545
         4        2495        2496        2547        2546
         4        2496        2497        2548        2547
         4        2497        2498        2549        2548
         4        2499        2500        2551        2550
         4        2500        2501        2552        2551
         4        2501        2502        2553        2552
         4        2502        2503        2554        2553
         4        2503        2504        2555        2554
         4        2504        2505        2556        2555
         4        2505        2506        2557        2556
         4        2506        2507        2558        2557
         4        2507        2508        2559        2558
         4        2508        2509        2560        2559
         4        2509        2510        2561        2560
         4        2510        2511        2562        2561
         4        2511        2512        2563        2562
         4        2512        2513        2564        2563
         4        2513        2514        2565        2564
         4        2514        2515        2566        2565
         4        2515        2516        2567        2566
         4        2516        2517        2568        2567
         4        2517        2518        2569        2568
         4        2518        2519        2570        2569
         4        2519        2520        2571        2570
         4        2520        2521        2572        2571
         4        2521        2522        2573        2572
         4        2522        2523        2574        2573
         4        2523        2524        2575        2574
         4        2524        2525        2576        2575
         4        2525        2526        2577        2576
         4        2526        2527        2578        2577
         4        2527        2528        2579        2578
         4        2528        2529        2580        2579
         4        2529        2530        2581        2580
         4        2530        2531        2582        2581
         4        2531        2532        2583        2582
         4        2532        2533        2584        2583
         4        2533        2534        2585        2584
         4        2534        2535        2586        2585
         4        2535        2536        2587        2586
         4        2536        2537        2588        2587
         4        2537        2538        2589        2588
         4        2538        2539        2590        2589
         4        2539        2540        2591        2590
         4        2540        2541        2592        2591
         4        2541        2542        2593        2592
         4        2542        2543        2594        2593
         4        2543        2544        2595        2594
         4        2544        2545        2596        2595
         4        2545        2546        2597        2596
         4        2546        2547        2598        2597
         4        2547        2548        2599        2598
         4        2548        2549        2600        2599
         4        2550        2551        2602        2601
         4        2551        2552        2603        2602
         4        2552        2553        2604        2603
         4        2553        2554        2605        2604
         4        2554        2555        2606        2605
         4        2555        2556        2607        2606
         4        2556        2557        2608        2607
         4        2557        2558        2609        2608
         4        2558        2559        2610        2609
         4        2559        2560        2611        2610
         4        2560        2561        2612        2611
         4        2561        2562        2613        2612
         4        2562        2563        2614        2613
         4        2563        2564        2615        2614
         4        2564        2565        2616        2615
         4        2565        2566        2617        2616
         4        2566        2567        2618        2617
         4        2567        2568        2619        2618
         4        2568        2569        2620        2619
         4        2569        2570        2621        2620
         4        2570        2571        2622        2621
         4        2571        2572        2623        2622
         4        2572        2573        2624        2623
         4        2573        2574        2625        2624
         4        2574        2575        2626        2625
         4        2575        2576        2627        2626
         4        2576        2577        2628        2627
         4        2577        2578        2629        2628
         4        2578        2579        2630        2629
         4        2579        2580        2631        2630
         4        2580        2581        2632        2631
         4        2581        2582        2633        2632
         4        2582        2583        2634        2633
         4        2583        2584        2635        2634
         4        2584        2585        2636        2635
         4        2585        2586        2637        2636
         4        2586        2587        2638        2637
         4        2587        2588        2639        2638
         4        2588        2589        2640        2639
         4        2589        2590        2641        2640
         4        2590        2591        2642        2641
         4        2591        2592        2643        2642
         4        2592        2593        2644        2643
         4        2593        2594        2645        2644
         4        2594        2595        2646        2645
         4        2595        2596        2647        2646
         4        2596        2597        2648        2647
         4        2597        2598        2649        2648
         4        2598        2599        2650        2649
         4        2599        2600        2651        2650
         4        2601        2602        2653        2652
         4        2602        2603        2654        2653
         4        2603        2604        2655        2654
         4        2604        2605        2656        2655
         4        2605        2606        2657        2656
         4        2606        2607        2658        2657
         4        2607        2608        2659        2658
         4        2608        2609        2660        2659
         4        2609        2610        2661        2660
         4        2610        2611        2662        2661
         4        2611        2612        2663        2662
         4        2612        2613        2664        2663
         4        2613        2614        2665        2664
         4        2614        2615        2666        2665
         4        2615        2616        2667        2666
         4        2616        2617        2668        2667
         4        2617        2618        2669        2668
         4        2618        2619        2670        2669
         4        2619        2620        2671        2670
         4        2620        2621        2672        2671
         4        2621        2622        2673        2672
         4        2622        2623        2674        2673
         4        2623        2624        2675        2674
         4        2624        2625        2676        2675
         4        2625        2626        2677        2676
         4        2626        2627        2678        2677
         4        2627        2628        2679        2678
         4        2628        2629        2680        2679
         4        2629        2630        2681        2680
         4        2630        2631        2682        2681
         4        2631        2632        2683        2682
         4        2632        2633        2684        2683
         4        2633        2634        2685        2684
         4        2634        2635        2686        2685
         4        2635        2636        2687        2686
         4        2636        2637        2688        2687
         4        2637        2638        2689        2688
         4        2638        2639        2690        2689
         4        2639        2640        2691        2690
         4        2640        2641        2692        2691
         4        2641        2642        2693        2692
         4        2642        2643        2694        2693
         4        2643        2644        2695        2694
         4        2644        2645        2696        2695
         4        2645        2646        2697        2696
         4        2646        2647        2698        2697
         4        2647        2648        2699        2698
         4        2648        2649        2700        2699
         4        2649        2650        2701        2700
         4        2650        2651        2702        2701
         4        2652        2653        2704        2703
         4        2653        2654        2705        2704
         4        2654        2655        2706        2705
         4        2655        2656        2707        2706
         4        2656        2657        2708        2707
         4        2657        2658        2709        2708
         4        2658        2659        2710        2709
         4        2659        2660        2711        2710
         4        2660        2661        2712        2711
         4        2661        2662        2713        2712
         4        2662        2663        2714        2713
         4        2663        2664        2715        2714
         4        2664        2665        2716        2715
         4        2665        2666        2717        2716
         4        2666        2667        2718        2717
         4        2667        2668        2719        2718
         4        2668        2669        2720        2719
         4        2669        2670        2721        2720
         4        2670        2671        2722        2721
         4        2671        2672        2723        2722
         4        2672        2673        2724        2723
         4        2673        2674        2725        2724
         4        2674        2675        2726        2725
         4        2675        2676        2727        2726
         4        2676        2677        2728        2727
         4        2677        2678        2729        2728
         4        2678        2679        2730        2729
         4        2679        2680        2731        2730
         4        2680        2681        2732        2731
         4        2681        2682        2733        2732
         4        2682        2683        2734        2733
         4        2683        2684        2735        2734
         4        2684        2685        2736        2735
         4        2685        2686        2737        2736
         4        2686        2687        2738        2737
         4        2687        2688        2739        2738
         4        2688        2689        2740        2739
         4        2689        2690        2741        2740
         4        2690        2691        2742        2741
         4        2691        2692        2743        2742
         4        2692        2693        2744        2743
         4        2693        2694        2745        2744
         4        2694        2695        2746        2745
         4        2695        2696        2747        2746
         4        2696        2697        2748        2747
         4        2697        2698        2749        2748
         4        2698        2699        2750        2749
         4        2699        2700        2751        2750
         4        2700        2701        2752        2751
         4        2701        2702        2753        2752
         4        2703        2704        2755        2754
         4        2704        2705        2756        2755
         4        2705        2706        2757        2756
         4        2706        2707        2758        2757
         4        2707        2708        2759        2758
         4        2708        2709        2760        2759
         4        2709        2710        2761        2760
         4        2710        2711        2762        2761
         4        2711        2712        2763        2762
         4        2712        2713        2764        2763
         4        2713        2714        2765        2764
         4        2714        2715        2766        2765
         4        2715        2716        2767        2766
         4        2716        2717        2768        2767
         4        2717        2718        2769        2768
         4        2718        2719        2770        2769
         4        2719        2720        2771        2770
         4        2720        2721        2772        2771
         4        2721        2722        2773        2772
         4        2722        2723        2774        2773
         4        2723        2724        2775        2774
         4        2724        2725        2776        2775
         4        2725        2726        2777        2776
         4        2726        2727        2778        2777
         4        2727        2728        2779        2778
         4        2728        2729        2780        2779
         4        2729        2730        2781        2780
         4        2730        2731        2782        2781
         4        2731        2732        2783        2782
         4        2732        2733        2784        2783
         4        2733        2734        2785        2784
         4        2734        2735        2786        2785
         4        2735        2736        2787        2786
         4        2736        2737        2788        2787
         4        2737        2738        2789        2788
         4        2738        2739        2790        2789
         4        2739        2740        2791        2790
         4        2740        2741        2792        2791
         4        2741        2742        2793        2792
         4        2742        2743        2794        2793
         4        2743        2744        2795        2794
         4        2744        2745        2796        2795
         4        2745        2746        2797        2796
         4        2746        2747        2798        2797
         4        2747        2748        2799        2798
         4        2748        2749        2800        2799
         4        2749        2750        2801        2800
         4        2750        2751        2802        2801
         4        2751        2752        2803        2802
         4        2752        2753        2804        2803
         4        2754        2755        2806        2805
         4        2755        2756        2807        2806
         4        2756        2757        2808        2807
         4        2757        2758        2809        2808
         4        2758        2759        2810        2809
         4        2759        2760        2811        2810
         4        2760        2761        2812        2811
         4        2761        2762        2813        2812
         4        2762        2763        2814        2813
         4        2763        2764        2815        2814
         4        2764        2765        2816        2815
         4        2765        2766        2817        2816
         4        2766        2767        2818        2817
         4        2767        2768        2819        2818
         4        2768        2769        2820        2819
         4        2769        2770        2821        2820
         4        2770        2771        2822        2821
         4        2771        2772        2823        2822
         4        2772        2773        2824        2823
         4        2773        2774        2825        2824
         4        2774        2775        2826        2825
         4        2775        2776        2827        2826
         4        2776        2777        2828        2827
         4        2777        2778        2829        2828
         4        2778        2779        2830        2829
         4        2779        2780        2831        2830
         4        2780        2781        2832        2831
         4        2781        2782        2833        2832
         4        2782        2783        2834        2833
         4        2783        2784        2835        2834
         4        2784        2785        2836        2835
         4        2785        2786        2837        2836
         4        2786        2787        2838        2837
         4        2787        2788        2839        2838
         4        2788        2789        2840        2839
         4        2789        2790        2841        2840
         4        2790        2791        2842        2841
         4        2791        2792        2843        2842
         4        2792        2793        2844        2843
         4        2793        2794        2845        2844
         4        2794        2795        2846        2845
         4        2795        2796        2847        2846
         4        2796        2797        2848        2847
         4        2797        2798        2849        2848
         4        2798        2799        2850        2849
         4        2799        2800        2851        2850
         4        2800        2801        2852        2851
         4        2801        2802        2853        2852
         4        2802        2803        2854        2853
         4        2803        2804        2855        2854
         4        2805        2806        2857        2856
         4        2806        2807        2858        2857
         4        2807        2808        2859        2858
         4        2808        2809        2860        2859
         4        2809        2810        2861        2860
         4        2810        2811        2862        2861
         4        2811        2812        2863        2862
         4        2812        2813        2864        2863
         4        2813        2814        2865        2864
         4        2814        2815        2866        2865
         4        2815        2816        2867        2866
         4        2816        2817        2868        2867
         4        2817        2818        2869        2868
         4        2818        2819        2870        2869
         4        2819        2820        2871        2870
         4        2820        2821        2872        2871
         4        2821        2822        2873        2872
         4        2822        2823        2874        2873
         4        2823        2824        2875        2874
         4        2824        2825        2876        2875
         4        2825        2826        2877        2876
         4        2826        2827        2878        2877
         4        2827        2828        2879        2878
         4        2828        2829        2880        2879
         4        2829        2830        2881        2880
         4        2830        2831        2882        2881
         4        2831        2832        2883        2882
         4        2832        2833        2884        2883
         4        2833        2834        2885        2884
         4        2834        2835        2886        2885
         4        2835        2836        2887        2886
         4        2836        2837        2888        2887
         4        2837        2838        2889        2888
         4        2838        2839        2890        2889
         4        2839        2840        2891        2890
         4        2840        2841        2892        2891
         4        2841        2842        2893        2892
         4        2842        2843        2894        2893
         4        2843        2844        2895        2894
         4        2844        2845        2896        2895
         4        2845        2846        2897        2896
         4        2846        2847        2898        2897
         4        2847        2848        2899        2898
         4        2848        2849        2900        2899
         4        2849        2850        2901        2900
         4        2850        2851        2902        2901
         4        2851        2852        2903        2902
         4        2852        2853        2904        2903
         4        2853        2854        2905        2904
         4        2854        2855        2906        2905
         4        2856        2857        2908        2907
         4        2857        2858        2909        2908
         4        2858        2859        2910        2909
         4        2859        2860        2911        2910
         4        2860        2861        2912        2911
         4        2861        2862        2913        2912
         4        2862        2863        2914        2913
         4        2863        2864        2915        2914
         4        2864        2865        2916        2915
         4        2865        2866        2917        2916
         4        2866        2867        2918        2917
         4        2867        2868        2919        2918
         4        2868        2869        2920        2919
         4        2869        2870        2921        2920
         4        2870        2871        2922        2921
         4        2871        2872        2923        2922
         4        2872        2873        2924        2923
         4        2873        2874        2925        2924
         4        2874        2875        2926        2925
         4        2875        2876        2927        2926
         4        2876        2877        2928        2927
         4        2877        2878        2929        2928
         4        2878        2879        2930        2929
         4        2879        2880        2931        2930
         4        2880        2881        2932        2931
         4        2881        2882        2933        2932
         4        2882        2883        2934        2933
         4        2883        2884        2935        2934
         4        2884        2885        2936        2935
         4        2885        2886        2937        2936
         4        2886        2887        2938        2937
         4        2887        2888        2939        2938
         4        2888        2889        2940        2939
         4        2889        2890        2941        2940
         4        2890        2891        2942        2941
         4        2891        2892        2943        2942
         4        2892        2893        2944        2943
         4        2893        2894        2945        2944
         4        2894        2895        2946        2945
         4        2895        2896        2947        2946
         4        2896        2897        2948        2947
         4        2897        2898        2949        2948
         4        2898        2899        2950        2949
         4        2899        2900        2951        2950
         4        2900        2901        2952        2951
         4        2901        2902        2953        2952
         4        2902        2903        2954        2953
         4        2903        2904        2955        2954
         4        2904        2905        2956        2955
         4        2905        2906        2957        2956
         4        2907        2908        2959        2958
         4        2908        2909        2960        2959
         4        2909        2910        2961        2960
         4        2910        2911        2962        2961
         4        2911        2912        2963        2962
         4        2912        2913        2964        2963
         4        2913        2914        2965        2964
         4        2914        2915        2966        2965
         4        2915        2916        2967        2966
         4        2916        2917        2968        2967
         4        2917        2918        2969        2968
         4        2918        2919        2970        2969
         4        2919        2920        2971        2970
         4        2920        2921        2972        2971
         4        2921        2922        2973        2972
         4        2922        2923        2974        2973
         4        2923        2924        2975        2974
         4        2924        2925        2976        2975
         4        2925        2926        2977        2976
         4        2926        2927        2978        2977
         4        2927        2928        2979        2978
         4        2928        2929        2980        2979
         4        2929        2930        2981        2980
         4        2930        2931        2982        2981
         4        2931        2932        2983        2982
         4        2932        2933        2984        2983
         4        2933        2934        2985        2984
         4        2934        2935        2986        2985
         4        2935        2936        2987        2986
         4        2936        2937        2988        2987
         4        2937        2938        2989        2988
         4        2938        2939        2990        2989
         4        2939        2940        2991        2990
         4        2940        2941        2992        2991
         4        2941        2942        2993        2992
         4        2942        2943        2994        2993
         4        2943        2944        2995        2994
         4        2944        2945        2996        2995
         4        2945        2946        2997        2996
         4        2946        2947        2998        2997
         4        2947        2948        2999        2998
         4        2948        2949        3000        2999
         4        2949        2950        3001        3000
         4        2950        2951        3002        3001
         4        2951        2952        3003        3002
         4        2952        2953        3004        3003
         4        2953        2954        3005        3004
         4        2954        2955        3006        3005
         4        2955        2956        3007        3006
         4        2956        2957        3008        3007
         4        2958        2959        3010        3009
         4        2959        2960        3011        3010
         4        2960        2961        3012        3011
         4        2961        2962        3013        3012
         4        2962        2963        3014        3013
         4        2963        2964        3015        3014
         4        2964        2965        3016        3015
         4        2965        2966        3017        3016
         4        2966        2967        3018        3017
         4        2967        2968        3019        3018
         4        2968        2969        3020        3019
         4        2969        2970        3021        3020
         4        2970        2971        3022        3021
         4        2971        2972        3023        3022
         4        2972        2973        3024        3023
         4        2973        2974        3025        3024
         4        2974        2975        3026        3025
         4        2975        2976        3027        3026
         4        2976        2977        3028        3027
         4        2977        2978        3029        3028
         4        2978        2979        3030        3029
         4        2979        2980        3031        3030
         4        2980        2981        3032        3031
         4        2981        2982        3033        3032
         4        2982        2983        3034        3033
         4        2983        2984        3035        3034
         4        2984        2985        3036        3035
         4        2985        2986        3037        3036
         4        2986        2987        3038        3037
         4        2987        2988        3039        3038
         4        2988        2989        3040        3039
         4        2989        2990        3041        3040
         4        2990        2991        3042        3041
         4        2991        2992        3043        3042
         4        2992        2993        3044        3043
         4        2993        2994        3045        3044
         4        2994        2995        3046        3045
         4        2995        2996        3047        3046
         4        2996        2997        3048        3047
         4        2997        2998        3049        3048
         4        2998        2999        3050        3049
         4        2999        3000        3051        3050
         4        3000        3001        3052        3051
         4        3001        3002        3053        3052
         4        3002        3003        3054        3053
         4        3003        3004        3055        3054
         4        3004        3005        3056        3055
         4        3005        3006        3057        3056
         4        3006        3007        3058        3057
         4        3007        3008        3059        3058
         4        3009        3010        3061        3060
         4        3010        3011        3062        3061
         4        3011        3012        3063        3062
         4        3012        3013        3064        3063
         4        3013        3014        3065        3064
         4        3014        3015        3066        3065
         4        3015        3016        3067        3066
         4        3016        3017        3068        3067
         4        3017        3018        3069        3068
         4        3018        3019        3070        3069
         4        3019        3020        3071        3070
         4        3020        3021        3072        3071
         4        3021        3022        3073        3072
         4        3022        3023        3074        3073
         4        3023        3024        3075        3074
         4        3024        3025        3076        3075
         4        3025        3026        3077        3076
         4        3026        3027        3078        3077
         4        3027        3028        3079        3078
         4        3028        3029        3080        3079
         4        3029        3030        3081        3080
         4        3030        3031        3082        3081
         4        3031        3032        3083        3082
         4        3032        3033        3084        3083
         4        3033        3034        3085        3084
         4        3034        3035        3086        3085
         4        3035        3036        3087        3086
         4        3036        3037        3088        3087
         4        3037        3038        3089        3088
         4        3038        3039        3090        3089
         4        3039        3040        3091        3090
         4        3040        3041        3092        3091
         4        3041        3042        3093        3092
         4        3042        3043        3094        3093
         4        3043        3044        3095        3094
         4        3044        3045        3096        3095
         4        3045        3046        3097        3096
         4        3046        3047        3098        3097
         4        3047        3048        3099        3098
         4        3048        3049        3100        3099
         4        3049        3050        3101        3100
         4        3050        3051        3102        3101
         4        3051        3052        3103        3102
         4        3052        3053        3104        3103
         4        3053        3054        3105        3104
         4        3054        3055        3106        3105
         4        3055        3056        3107        3106
         4        3056        3057        3108        3107
         4        3057        3058        3109        3108
         4        3058        3059        3110        3109
         4        3060        3061        3112        3111
         4        3061        3062        3113        3112
         4        3062        3063        3114        3113
         4        3063        3064        3115        3114
         4        3064        3065        3116        3115
         4        3065        3066        3117        3116
         4        3066        3067        3118        3117
         4        3067        3068        3119        3118
         4        3068        3069        3120        3119
         4        3069        3070        3121        3120
         4        3070        3071        3122        3121
         4        3071        3072        3123        3122
         4        3072        3073        3124        3123
         4        3073        3074        3125        3124
         4        3074        3075        3126        3125
         4        3075        3076        3127        3126
         4        3076        3077        3128        3127
         4        3077        3078        3129        3128
         4        3078        3079        3130        3129
         4        3079        3080        3131        3130
         4        3080        3081        3132        3131
         4        3081        3082        3133        3132
         4        3082        3083        3134        3133
         4        3083        3084        3135        3134
         4        3084        3085        3136        3135
         4        3085        3086        3137        3136
         4        3086        3087        3138        3137
         4        3087        3088        3139        3138
         4        3088        3089        3140        3139
         4        3089        3090        3141        3140
         4        3090        3091        3142        3141
         4        3091        3092        3143        3142
         4        3092        3093        3144        3143
         4        3093        3094        3145        3144
         4        3094        3095        3146        3145
         4        3095        3096        3147        3146
         4        3096        3097        3148        3147
         4        3097        3098        3149        3148
         4        3098        3099        3150        3149
         4        3099        3100        3151        3150
         4        3100        3101        3152        3151
         4        3101        3102        3153        3152
         4        3102        3103        3154        3153
         4        3103        3104        3155        3154
         4        3104        3105        3156        3155
         4        3105        3106        3157        3156
         4        3106        3107        3158        3157
         4        3107        3108        3159        3158
         4        3108        3109        3160        3159
         4        3109        3110        3161        3160
         4        3111        3112        3163        3162
         4        3112        3113        3164        3163
         4        3113        3114        3165        3164
         4        3114        3115        3166        3165
         4        3115        3116        3167        3166
         4        3116        3117        3168        3167
         4        3117        3118        3169        3168
         4        3118        3119        3170        3169
         4        3119        3120        3171        3170
         4        3120        3121        3172        3171
         4        3121        3122        3173        3172
         4        3122        3123        3174        3173
         4        3123        3124        3175        3174
         4        3124        3125        3176        3175
         4        3125        3126        3177        3176
         4        3126        3127        3178        3177
         4        3127        3128        3179        3178
         4        3128        3129        3180        3179
         4        3129        3130        3181        3180
         4        3130        3131        3182        3181
         4        3131        3132        3183        3182
         4        3132        3133        3184        3183
         4        3133        3134        3185        3184
         4        3134        3135        3186        3185
         4        3135        3136        3187        3186
         4        3136        3137        3188        3187
         4        3137        3138        3189        3188
         4        3138        3139        3190        3189
         4        3139        3140        3191        3190
         4        3140        3141        3192        3191
         4        3141        3142        3193        3192
         4        3142        3143        3194        3193
         4        3143        3144        3195        3194
         4        3144        3145        3196        3195
         4        3145        3146        3197        3196
         4        3146        3147        3198        3197
         4        3147        3148        3199        3198
         4        3148        3149        3200        3199
         4        3149        3150        3201        3200
         4        3150        3151        3202        3201
         4        3151        3152        3203        3202
         4        3152        3153        3204        3203
         4        3153        3154        3205        3204
         4        3154        3155        3206        3205
         4        3155        3156        3207        3206
         4        3156        3157        3208        3207
         4        3157        3158        3209        3208
         4        3158        3159        3210        3209
         4        3159        3160        3211        3210
         4        3160        3161        3212        3211
         4        3162        3163        3214        3213
         4        3163        3164        3215        3214
         4        3164        3165        3216        3215
         4        3165        3166        3217        3216
         4        3166        3167        3218        3217
         4        3167        3168        3219        3218
         4        3168        3169        3220        3219
         4        3169        3170        3221        3220
         4        3170        3171        3222        3221
         4        3171        3172        3223        3222
         4        3172        3173        3224        3223
         4        3173        3174        3225        3224
         4        3174        3175        3226        3225
         4        3175        3176        3227        3226
         4        3176        3177        3228        3227
         4        3177        3178        3229        3228
         4        3178        3179        3230        3229
         4        3179        3180        3231        3230
         4        3180        3181        3232        3231
         4        3181        3182        3233        3232
         4        3182        3183        3234        3233
         4        3183        3184        3235        3234
         4        3184        3185        3236        3235
         4        3185        3186        3237        3236
         4        3186        3187        3238        3237
         4        3187        3188        3239        3238
         4        3188        3189        3240        3239
         4        3189        3190        3241        3240
         4        3190        3191        3242        3241
         4        3191        3192        3243        3242
         4        3192        3193        3244        3243
         4        3193        3194        3245        3244
         4        3194        3195        3246        3245
         4        3195        3196        3247        3246
         4        3196        3197        3248        3247
         4        3197        3198        3249        3248
         4        3198        3199        3250        3249
         4        3199        3200        3251        3250
         4        3200        3201        3252        3251
         4        3201        3202        3253        3252
         4        3202        3203        3254        3253
         4        3203        3204        3255        3254
         4        3204        3205        3256        3255
         4        3205        3206        3257        3256
         4        3206        3207        3258        3257
         4        3207        3208        3259        3258
         4        3208        3209        3260        3259
         4        3209        3210        3261        3260
         4        3210        3211        3262        3261
         4        3211        3212        3263        3262
         4        3213        3214        3265        3264
         4        3214        3215        3266        3265
         4        3215        3216        3267        3266
         4        3216        3217        3268        3267
         4        3217        3218        3269        3268
         4        3218        3219        3270        3269
         4        3219        3220        3271        3270
         4        3220        3221        3272        3271
         4        3221        3222        3273        3272
         4        3222        3223        3274        3273
         4        3223        3224        3275        3274
         4        3224        3225        3276        3275
         4        3225        3226        3277        3276
         4        3226        3227        3278        3277
         4        3227        3228        3279        3278
         4        3228        3229        3280        3279
         4        3229        3230        3281        3280
         4        3230        3231        3282        3281
         4        3231        3232        3283        3282
         4        3232        3233        3284        3283
         4        3233        3234        3285        3284
         4        3234        3235        3286        3285
         4        3235        3236        3287        3286
         4        3236        3237        3288        3287
         4        3237        3238        3289        3288
         4        3238        3239        3290        3289
         4        3239        3240        3291        3290
         4        3240        3241        3292        3291
         4        3241        3242        3293        3292
         4        3242        3243        3294        3293
         4        3243        3244        3295        3294
         4        3244        3245        3296        3295
         4        3245        3246        3297        3296
         4        3246        3247        3298        3297
         4        3247        3248        3299        3298
         4        3248        3249        3300        3299
         4        3249        3250        3301        3300
         4        3250        3251        3302        3301
         4        3251        3252        3303        3302
         4        3252        3253        3304        3303
         4        3253        3254        3305        3304
         4        3254        3255        3306        3305
         4        3255        3256        3307        3306
         4        3256        3257        3308        3307
         4        3257        3258        3309        3308
         4        3258        3259        3310        3309
         4        3259        3260        3311        3310
         4        3260        3261        3312        3311
         4        3261        3262        3313        3312
         4        3262        3263        3314        3313
         4        3264        3265        3316        3315
         4        3265        3266        3317        3316
         4        3266        3267        3318        3317
         4        3267        3268        3319        3318
         4        3268        3269        3320        3319
         4        3269        3270        3321        3320
         4        3270        3271        3322        3321
         4        3271        3272        3323        3322
         4        3272        3273        3324        3323
         4        3273        3274        3325        3324
         4        3274        3275        3326        3325
         4        3275        3276        3327        3326
         4        3276        3277        3328        3327
         4        3277        3278        3329        3328
         4        3278        3279        3330        3329
         4        3279        3280        3331        3330
         4        3280        3281        3332        3331
         4        3281        3282        3333        3332
         4        3282        3283        3334        3333
         4        3283        3284        3335        3334
         4        3284        3285        3336        3335
         4        3285        3286        3337        3336
         4        3286        3287        3338        3337
         4        3287        3288        3339        3338
         4        3288        3289        3340        3339
         4        3289        3290        3341        3340
         4        3290        3291        3342        3341
         4        3291        3292        3343        3342
         4        3292        3293        3344        3343
         4        3293        3294        3345        3344
         4        3294        3295        3346        3345
         4        3295        3296        3347        3346
         4        3296        3297        3348        3347
         4        3297        3298        3349        3348
         4        3298        3299        3350        3349
         4        3299        3300        3351        3350
         4        3300        3301        3352        3351
         4        3301        3302        3353        3352
         4        3302        3303        3354        3353
         4        3303        3304        3355        3354
         4        3304        3305        3356        3355
         4        3305        3306        3357        3356
         4        3306        3307        3358        3357
         4        3307        3308        3359        3358
         4        3308        3309        3360        3359
         4        3309        3310        3361        3360
         4        3310        3311        3362        3361
         4        3311        3312        3363        3362
         4        3312        3313        3364        3363
         4        3313        3314        3365        3364
         4        3315        3316        3367        3366
         4        3316        3317        3368        3367
         4        3317        3318        3369        3368
         4        3318        3319        3370        3369
         4        3319        3320        3371        3370
         4        3320        3321        3372        3371
         4        3321        3322        3373        3372
         4        3322        3323        3374        3373
         4        3323        3324        3375        3374
         4        3324        3325        3376        3375
         4        3325        3326        3377        3376
         4        3326        3327        3378        3377
         4        3327        3328        3379        3378
         4        3328        3329        3380        3379
         4        3329        3330        3381        3380
         4        3330        3331        3382        3381
         4        3331        3332        3383        3382
         4        3332        3333        3384        3383
         4        3333        3334        3385        3384
         4        3334        3335        3386        3385
         4        3335        3336        3387        3386
         4        3336        3337        3388        3387
         4        3337        3338        3389        3388
         4        3338        3339        3390        3389
         4        3339        3340        3391        3390
         4        3340        3341        3392        3391
         4        3341        3342        3393        3392
         4        3342        3343        3394        3393
         4        3343        3344        3395        3394
         4        3344        3345        3396        3395
         4        3345        3346        3397        3396
         4        3346        3347        3398        3397
         4        3347        3348        3399        3398
         4        3348        3349        3400        3399
         4        3349        3350        3401        3400
         4        3350        3351        3402        3401
         4        3351        3352        3403        3402
         4        3352        3353        3404        3403
         4        3353        3354        3405        3404
         4        3354        3355        3406        3405
         4        3355        3356        3407        3406
         4        3356        3357        3408        3407
         4        3357        3358        3409        3408
         4        3358        3359        3410        3409
         4        3359        3360        3411        3410
         4        3360        3361        3412        3411
         4        3361        3362        3413        3412
         4        3362        3363        3414        3413
         4        3363        3364        3415        3414
         4        3364        3365        3416        3415
         4        3366        3367        3418        3417
         4        3367        3368        3419        3418
         4        3368        3369        3420        3419
         4        3369        3370        3421        3420
         4        3370        3371        3422        3421
         4        3371        3372        3423        3422
         4        3372        3373        3424        3423
         4        3373        3374        3425        3424
         4        3374        3375        3426        3425
         4        3375        3376        3427        3426
         4        3376        3377        3428        3427
         4        3377        3378        3429        3428
         4        3378        3379        3430        3429
         4        3379        3380        3431        3430
         4        3380        3381        3432        3431
         4        3381        3382        3433        3432
         4        3382        3383        3434        3433
         4        3383        3384        3435        3434
         4        3384        3385        3436        3435
         4        3385        3386        3437        3436
         4        3386        3387        3438        3437
         4        3387        3388        3439        3438
         4        3388        3389        3440        3439
         4        3389        3390        3441        3440
         4        3390        3391        3442        3441
         4        3391        3392        3443        3442
         4        3392        3393        3444        3443
         4        3393        3394        3445        3444
         4        3394        3395        3446        3445
         4        3395        3396        3447        3446
         4        3396        3397        3448        3447
         4        3397        3398        3449        3448
         4        3398        3399        3450        3449
         4        3399        3400        3451        3450
         4        3400        3401        3452        3451
         4        3401        3402        3453        3452
         4        3402        3403        3454        3453
         4        3403        3404        3455        3454
         4        3404        3405        3456        3455
         4        3405        3406        3457        3456
         4        3406        3407        3458        3457
         4        3407        3408        3459        3458
         4        3408        3409        3460        3459
         4        3409        3410        3461        3460
         4        3410        3411        3462        3461
         4        3411        3412        3463        3462
         4        3412        3413        3464        3463
         4        3413        3414        3465        3464
         4        3414        3415        3466        3465
         4        3415        3416        3467        3466
         4        3417        3418        3469        3468
         4        3418        3419        3470        3469
         4        3419        3420        3471        3470
         4        3420        3421        3472        3471
         4        3421        3422        3473        3472
         4        3422        3423        3474        3473
         4        3423        3424        3475        3474
         4        3424        3425        3476        3475
         4        3425        3426        3477        3476
         4        3426        3427        3478        3477
         4        3427        3428        3479        3478
         4        3428        3429        3480        3479
         4        3429        3430        3481        3480
         4        3430        3431        3482        3481
         4        3431        3432        3483        3482
         4        3432        3433        3484        3483
         4        3433        3434        3485        3484
         4        3434        3435        3486        3485
         4        3435        3436        3487        3486
         4        3436        3437        3488        3487
         4        3437        3438        3489        3488
         4        3438        3439        3490        3489
         4        3439        3440        3491        3490
         4        3440        3441        3492        3491
         4        3441        3442        3493        3492
         4        3442        3443        3494        3493
         4        3443        3444        3495        3494
         4        3444        3445        3496        3495
         4        3445        3446        3497        3496
         4        3446        3447        3498        3497
         4        3447        3448        3499        3498
         4        3448        3449        3500        3499
         4        3449        3450        3501        3500
         4        3450        3451        3502        3501
         4        3451        3452        3503        3502
         4        3452        3453        3504        3503
         4        3453        3454        3505        3504
         4        3454        3455        3506        3505
         4        3455        3456        3507        3506
         4        3456        3457        3508        3507
         4        3457        3458        3509        3508
         4        3458        3459        3510        3509
         4        3459        3460        3511        3510
         4        3460        3461        3512        3511
         4        3461        3462        3513        3512
         4        3462        3463        3514        3513
         4        3463        3464        3515        3514
         4        3464        3465        3516        3515
         4        3465        3466        3517        3516
         4        3466        3467        3518        3517
         4        3468        3469        3520        3519
         4        3469        3470        3521        3520
         4        3470        3471        3522        3521
         4        3471        3472        3523        3522
         4        3472        3473        3524        3523
         4        3473        3474        3525        3524
         4        3474        3475        3526        3525
         4        3475        3476        3527        3526
         4        3476        3477        3528        3527
         4        3477        3478        3529        3528
         4        3478        3479        3530        3529
         4        3479        3480        3531        3530
         4        3480        3481        3532        3531
         4        3481        3482        3533        3532
         4        3482        3483        3534        3533
         4        3483        3484        3535        3534
         4        3484        3485        3536        3535
         4        3485        3486        3537        3536
         4        3486        3487        3538        3537
         4        3487        3488        3539        3538
         4        3488        3489        3540        3539
         4        3489        3490        3541        3540
         4        3490        3491        3542        3541
         4        3491        3492        3543        3542
         4        3492        3493        3544        3543
         4        3493        3494        3545        3544
         4        3494        3495        3546        3545
         4        3495        3496        3547        3546
         4        3496        3497        3548        3547
         4        3497        3498        3549        3548
         4        3498        3499        3550        3549
         4        3499        3500        3551        3550
         4        3500        3501        3552        3551
         4        3501        3502        3553        3552
         4        3502        3503        3554        3553
         4        3503        3504        3555        3554
         4        3504        3505        3556        3555
         4        3505        3506        3557        3556
         4        3506        3507        3558        3557
         4        3507        3508        3559        3558
         4        3508        3509        3560        3559
         4        3509        3510        3561        3560
         4        3510        3511        3562        3561
         4        3511        3512        3563        3562
         4        3512        3513        3564        3563
         4        3513        3514        3565        3564
         4        3514        3515        3566        3565
         4        3515        3516        3567        3566
         4        3516        3517        3568        3567
         4        3517        3518        3569        3568
         4        3519        3520        3571        3570
         4        3520        3521        3572        3571
         4        3521        3522        3573        3572
         4        3522        3523        3574        3573
         4        3523        3524        3575        3574
         4        3524        3525        3576        3575
         4        3525        3526        3577        3576
         4        3526        3527        3578        3577
         4        3527        3528        3579        3578
         4        3528        3529        3580        3579
         4        3529        3530        3581        3580
         4        3530        3531        3582        3581
         4        3531        3532        3583        3582
         4        3532        3533        3584        3583
         4        3533        3534        3585        3584
         4        3534        3535        3586        3585
         4        3535        3536        3587        3586
         4        3536        3537        3588        3587
         4        3537        3538        3589        3588
         4        3538        3539        3590        3589
         4        3539        3540        3591        3590
         4        3540        3541        3592        3591
         4        3541        3542        3593        3592
         4        3542        3543        3594        3593
         4        3543        3544        3595        3594
         4        3544        3545        3596        3595
         4        3545        3546        3597        3596
         4        3546        3547        3598        3597
         4        3547        3548        3599        3598
         4        3548        3549        3600        3599
         4        3549        3550        3601        3600
         4        3550        3551        3602        3601
         4        3551        3552        3603        3602
         4        3552        3553        3604        3603
         4        3553        3554        3605        3604
         4        3554        3555        3606        3605
         4        3555        3556        3607        3606
         4        3556        3557        3608        3607
         4        3557        3558        3609        3608
         4        3558        3559        3610        3609
         4        3559        3560        3611        3610
         4        3560        3561        3612        3611
         4        3561        3562        3613        3612
         4        3562        3563        3614        3613
         4        3563        3564        3615        3614
         4        3564        3565        3616        3615
         4        3565        3566        3617        3616
         4        3566        3567        3618        3617
         4        3567        3568        3619        3618
         4        3568        3569        3620        3619
         4        3570        3571        3622        3621
         4        3571        3572        3623        3622
         4        3572        3573        3624        3623
         4        3573        3574        3625        3624
         4        3574        3575        3626        3625
         4        3575        3576        3627        3626
         4        3576        3577        3628        3627
         4        3577        3578        3629        3628
         4        3578        3579        3630        3629
         4        3579        3580        3631        3630
         4        3580        3581        3632        3631
         4        3581        3582        3633        3632
         4        3582        3583        3634        3633
         4        3583        3584        3635        3634
         4        3584        3585        3636        3635
         4        3585        3586        3637        3636
         4        3586        3587        3638        3637
         4        3587        3588        3639        3638
         4        3588        3589        3640        3639
         4        3589        3590        3641        3640
         4        3590        3591        3642        3641
         4        3591        3592        3643        3642
         4        3592        3593        3644        3643
         4        3593        3594        3645        3644
         4        3594        3595        3646        3645
         4        3595        3596        3647        3646
         4        3596        3597        3648        3647
         4        3597        3598        3649        3648
         4        3598        3599        3650        3649
         4        3599        3600        3651        3650
         4        3600        3601        3652        3651
         4        3601        3602        3653        3652
         4        3602        3603        3654        3653
         4        3603        3604        3655        3654
         4        3604        3605        3656        3655
         4        3605        3606        3657        3656
         4        3606        3607        3658        3657
         4        3607        3608        3659        3658
         4        3608        3609        3660        3659
         4        3609        3610        3661        3660
         4        3610        3611        3662        3661
         4        3611        3612        3663        3662
         4        3612        3613        3664        3663
         4        3613        3614        3665        3664
         4        3614        3615        3666        3665
         4        3615        3616        3667        3666
         4        3616        3617        3668        3667
         4        3617        3618        3669        3668
         4        3618        3619        3670        3669
         4        3619        3620        3671        3670
         4        3621        3622        3673        3672
         4        3622        3623        3674        3673
         4        3623        3624        3675        3674
         4        3624        3625        3676        3675
         4        3625        3626        3677        3676
         4        3626        3627        3678        3677
         4        3627        3628        3679        3678
         4        3628        3629        3680        3679
         4        3629        3630        3681        3680
         4        3630        3631        3682        3681
         4        3631        3632        3683        3682
         4        3632        3633        3684        3683
         4        3633        3634        3685        3684
         4        3634        3635        3686        3685
         4        3635        3636        3687        3686
         4        3636        3637        3688        3687
         4        3637        3638        3689        3688
         4        3638        3639        3690        3689
         4        3639        3640        3691        3690
         4        3640        3641        3692        3691
         4        3641        3642        3693        3692
         4        3642        3643        3694        3693
         4        3643        3644        3695        3694
         4        3644        3645        3696        3695
         4        3645        3646        3697        3696
         4        3646        3647        3698        3697
         4        3647        3648        3699        3698
         4        3648        3649        3700        3699
         4        3649        3650        3701        3700
         4        3650        3651        3702        3701
         4        3651        3652        3703        3702
         4        3652        3653        3704        3703
         4        3653        3654        3705        3704
         4        3654        3655        3706        3705
         4        3655        3656        3707        3706
         4        3656        3657        3708        3707
         4        3657        3658        3709        3708
         4        3658        3659        3710        3709
         4        3659        3660        3711        3710
         4        3660        3661        3712        3711
         4        3661        3662        3713        3712
         4        3662        3663        3714        3713
         4        3663        3664        3715        3714
         4        3664        3665        3716        3715
         4        3665        3666        3717        3716
         4        3666        3667        3718        3717
         4        3667        3668        3719        3718
         4        3668        3669        3720        3719
         4        3669        3670        3721        3720
         4        3670        3671        3722        3721
         4        3672        3673        3724        3723
         4        3673        3674        3725        3724
         4        3674        3675        3726        3725
         4        3675        3676        3727        3726
         4        3676        3677        3728        3727
         4        3677        3678        3729        3728
         4        3678        3679        3730        3729
         4        3679        3680        3731        3730
         4        3680        3681        3732        3731
         4        3681        3682        3733        3732
         4        3682        3683        3734        3733
         4        3683        3684        3735        3734
         4        3684        3685        3736        3735
         4        3685        3686        3737        3736
         4        3686        3687        3738        3737
         4        3687        3688        3739        3738
         4        3688        3689        3740        3739
         4        3689        3690        3741        3740
         4        3690        3691        3742        3741
         4        3691        3692        3743        3742
         4        3692        3693        3744        3743
         4        3693        3694        3745        3744
         4        3694        3695        3746        3745
         4        3695        3696        3747        3746
         4        3696        3697        3748        3747
         4        3697        3698        3749        3748
         4        3698        3699        3750        3749
         4        3699        3700        3751        3750
         4        3700        3701        3752        3751
         4        3701        3702        3753        3752
         4        3702        3703        3754        3753
         4        3703        3704        3755        3754
         4        3704        3705        3756        3755
         4        3705        3706        3757        3756
         4        3706        3707        3758        3757
         4        3707        3708        3759        3758
         4        3708        3709        3760        3759
         4        3709        3710        3761        3760
         4        3710        3711        3762        3761
         4        3711        3712        3763        3762
         4        3712        3713        3764        3763
         4        3713        3714        3765        3764
         4        3714        3715        3766        3765
         4        3715        3716        3767        3766
         4        3716        3717        3768        3767
         4        3717        3718        3769        3768
         4        3718        3719        3770        3769
         4        3719        3720        3771        3770
         4        3720        3721        3772        3771
         4        3721        3722        3773        3772
         4        3723        3724        3775        3774
         4        3724        3725        3776        3775
         4        3725        3726        3777        3776
         4        3726        3727        3778        3777
         4        3727        3728        3779        3778
         4        3728        3729        3780        3779
         4        3729        3730        3781        3780
         4        3730        3731        3782        3781
         4        3731        3732        3783        3782
         4        3732        3733        3784        3783
         4        3733        3734        3785        3784
         4        3734        3735        3786        3785
         4        3735        3736        3787        3786
         4        3736        3737        3788        3787
         4        3737        3738        3789        3788
         4        3738        3739        3790        3789
         4        3739        3740        3791        3790
         4        3740        3741        3792        3791
         4        3741        3742        3793        3792
         4        3742        3743        3794        3793
         4        3743        3744        3795        3794
         4        3744        3745        3796        3795
         4        3745        3746        3797        3796
         4        3746        3747        3798        3797
         4        3747        3748        3799        3798
         4        3748        3749        3800        3799
         4        3749        3750        3801        3800
         4        3750        3751        3802        3801
         4        3751        3752        3803        3802
         4        3752        3753        3804        3803
         4        3753        3754        3805        3804
         4        3754        3755        3806        3805
         4        3755        3756        3807        3806
         4        3756        3757        3808        3807
         4        3757        3758        3809        3808
         4        3758        3759        3810        3809
         4        3759        3760        3811        3810
         4        3760        3761        3812        3811
         4        3761        3762        3813        3812
         4        3762        3763        3814        3813
         4        3763        3764        3815        3814
         4        3764        3765        3816        3815
         4        3765        3766        3817        3816
         4        3766        3767        3818        3817
         4        3767        3768        3819        3818
         4        3768        3769        3820        3819
         4        3769        3770        3821        3820
         4        3770        3771        3822        3821
         4        3771        3772        3823        3822
         4        3772        3773        3824        3823
         4        3774        3775        3826        3825
         4        3775        3776        3827        3826
         4        3776        3777        3828        3827
         4        3777        3778        3829        3828
         4        3778        3779        3830        3829
         4        3779        3780        3831        3830
         4        3780        3781        3832        3831
         4        3781        3782        3833        3832
         4        3782        3783        3834        3833
         4        3783        3784        3835        3834
         4        3784        3785        3836        3835
         4        3785        3786        3837        3836
         4        3786        3787        3838        3837
         4        3787        3788        3839        3838
         4        3788        3789        3840        3839
         4        3789        3790        3841        3840
         4        3790        3791        3842        3841
         4        3791        3792        3843        3842
         4        3792        3793        3844        3843
         4        3793        3794        3845        3844
         4        3794        3795        3846        3845
         4        3795        3796        3847        3846
         4        3796        3797        3848        3847
         4        3797        3798        3849        3848
         4        3798        3799        3850        3849
         4        3799        3800        3851        3850
         4        3800        3801        3852        3851
         4        3801        3802        3853        3852
         4        3802        3803        3854        3853
         4        3803        3804        3855        3854
         4        3804        3805        3856        3855
         4        3805        3806        3857        3856
         4        3806        3807        3858        3857
         4        3807        3808        3859        3858
         4        3808        3809        3860        3859
         4        3809        3810        3861        3860
         4        3810        3811        3862        3861
         4        3811        3812        3863        3862
         4        3812        3813        3864        3863
         4        3813        3814        3865        3864
         4        3814        3815        3866        3865
         4        3815        3816        3867        3866
         4        3816        3817        3868        3867
         4        3817        3818        3869        3868
         4        3818        3819        3870        3869
         4        3819        3820        3871        3870
         4        3820        3821        3872        3871
         4        3821        3822        3873        3872
         4        3822        3823        3874        3873
         4        3823        3824        3875        3874
         4        3825        3826        3877        3876
         4        3826        3827        3878        3877
         4        3827        3828        3879        3878
         4        3828        3829        3880        3879
         4        3829        3830        3881        3880
         4        3830        3831        3882        3881
         4        3831        3832        3883        3882
         4        3832        3833        3884        3883
         4        3833        3834        3885        3884
         4        3834        3835        3886        3885
         4        3835        3836        3887        3886
         4        3836        3837        3888        3887
         4        3837        3838        3889        3888
         4        3838        3839        3890        3889
         4        3839        3840        3891        3890
         4        3840        3841        3892        3891
         4        3841        3842        3893        3892
         4        3842        3843        3894        3893
         4        3843        3844        3895        3894
         4        3844        3845        3896        3895
         4        3845        3846        3897        3896
         4        3846        3847        3898        3897
         4        3847        3848        3899        3898
         4        3848        3849        3900        3899
         4        3849        3850        3901        3900
         4        3850        3851        3902        3901
         4        3851        3852        3903        3902
         4        3852        3853        3904        3903
         4        3853        3854        3905        3904
         4        3854        3855        3906        3905
         4        3855        3856        3907        3906
         4        3856        3857        3908        3907
         4        3857        3858        3909        3908
         4        3858        3859        3910        3909
         4        3859        3860        3911        3910
         4        3860        3861        3912        3911
         4        3861        3862        3913        3912
         4        3862        3863        3914        3913
         4        3863        3864        3915        3914
         4        3864        3865        3916        3915
         4        3865        3866        3917        3916
         4        3866        3867        3918        3917
         4        3867        3868        3919        3918
         4        3868        3869        3920        3919
         4        3869        3870        3921        3920
         4        3870        3871        3922        3921
         4        3871        3872        3923        3922
         4        3872        3873        3924        3923
         4        3873        3874        3925        3924
         4        3874        3875        3926        3925
         4        3876        3877        3928        3927
         4        3877        3878        3929        3928
         4        3878        3879        3930        3929
         4        3879        3880        3931        3930
         4        3880        3881        3932        3931
         4        3881        3882        3933        3932
         4        3882        3883        3934        3933
         4        3883        3884        3935        3934
         4        3884        3885        3936        3935
         4        3885        3886        3937        3936
         4        3886        3887        3938        3937
         4        3887        3888        3939        3938
         4        3888        3889        3940        3939
         4        3889        3890        3941        3940
         4        3890        3891        3942        3941
         4        3891        3892        3943        3942
         4        3892        3893        3944        3943
         4        3893        3894        3945        3944
         4        3894        3895        3946        3945
         4        3895        3896        3947        3946
         4        3896        3897        3948        3947
         4        3897        3898        3949        3948
         4        3898        3899        3950        3949
         4        3899        3900        3951        3950
         4        3900        3901        3952        3951
         4        3901        3902        3953        3952
         4        3902        3903        3954        3953
         4        3903        3904        3955        3954
         4        3904        3905        3956        3955
         4        3905        3906        3957        3956
         4        3906        3907        3958        3957
         4        3907        3908        3959        3958
         4        3908        3909        3960        3959
         4        3909        3910        3961        3960
         4        3910        3911        3962        3961
         4        3911        3912        3963        3962
         4        3912        3913        3964        3963
         4        3913        3914        3965        3964
         4        3914        3915        3966        3965
         4        3915        3916        3967        3966
         4        3916        3917        3968        3967
         4        3917        3918        3969        3968
         4        3918        3919        3970        3969
         4        3919        3920        3971        3970
         4        3920        3921        3972        3971
         4        3921        3922        3973        3972
         4        3922        3923        3974        3973
         4        3923        3924        3975        3974
         4        3924        3925        3976        3975
         4        3925        3926        3977        3976
         4        3927        3928        3979        3978
         4        3928        3929        3980        3979
         4        3929        3930        3981        3980
         4        3930        3931        3982        3981
         4        3931        3932        3983        3982
         4        3932        3933        3984        3983
         4        3933        3934        3985        3984
         4        3934        3935        3986        3985
         4        3935        3936        3987        3986
         4        3936        3937        3988        3987
         4        3937        3938        3989        3988
         4        3938        3939        3990        3989
         4        3939        3940        3991        3990
         4        3940        3941        3992        3991
         4        3941        3942        3993        3992
         4        3942        3943        3994        3993
         4        3943        3944        3995        3994
         4        3944        3945        3996        3995
         4        3945        3946        3997        3996
         4        3946        3947        3998        3997
         4        3947        3948        3999        3998
         4        3948        3949        4000        3999
         4        3949        3950        4001        4000
         4        3950        3951        4002        4001
         4        3951        3952        4003        4002
         4        3952        3953        4004        4003
         4        3953        3954        4005        4004
         4        3954        3955        4006        4005
         4        3955        3956        4007        4006
         4        3956        3957        4008        4007
         4        3957        3958        4009        4008
         4        3958        3959        4010        4009
         4        3959        3960        4011        4010
         4        3960        3961        4012        4011
         4        3961        3962        4013        4012
         4        3962        3963        4014        4013
         4        3963        3964        4015        4014
         4        3964        3965        4016        4015
         4        3965        3966        4017        4016
         4        3966        3967        4018        4017
         4        3967        3968        4019        4018
         4        3968        3969        4020        4019
         4        3969        3970        4021        4020
         4        3970        3971        4022        4021
         4        3971        3972        4023        4022
         4        3972        3973        4024        4023
         4        3973        3974        4025        4024
         4        3974        3975        4026        4025
         4        3975        3976        4027        4026
         4        3976        3977        4028        4027
         4        3978        3979        4030        4029
         4        3979        3980        4031        4030
         4        3980        3981        4032        4031
         4        3981        3982        4033        4032
         4        3982        3983        4034        4033
         4        3983        3984        4035        4034
         4        3984        3985        4036        4035
         4        3985        3986        4037        4036
         4        3986        3987        4038        4037
         4        3987        3988        4039        4038
         4        3988        3989        4040        4039
         4        3989        3990        4041        4040
         4        3990        3991        4042        4041
         4        3991        3992        4043        4042
         4        3992        3993        4044        4043
         4        3993        3994        4045        4044
         4        3994        3995        4046        4045
         4        3995        3996        4047        4046
         4        3996        3997        4048        4047
         4        3997        3998        4049        4048
         4        3998        3999        4050        4049
         4        3999        4000        4051        4050
         4        4000        4001        4052        4051
         4        4001        4002        4053        4052
         4        4002        4003        4054        4053
         4        4003        4004        4055        4054
         4        4004        4005        4056        4055
         4        4005        4006        4057        4056
         4        4006        4007        4058        4057
         4        4007        4008        4059        4058
         4        4008        4009        4060        4059
         4        4009        4010        4061        4060
         4        4010        4011        4062        4061
         4        4011        4012        4063        4062
         4        4012        4013        4064        4063
         4        4013        4014        4065        4064
         4        4014        4015        4066        4065
         4        4015        4016        4067        4066
         4        4016        4017        4068        4067
         4        4017        4018        4069        4068
         4        4018        4019        4070        4069
         4        4019        4020        4071        4070
         4        4020        4021        4072        4071
         4        4021        4022        4073        4072
         4        4022        4023        4074        4073
         4        4023        4024        4075        4074
         4        4024        4025        4076        4075
         4        4025        4026        4077        4076
         4        4026        4027        4078        4077
         4        4027        4028        4079        4078
         4        4029        4030        4081        4080
         4        4030        4031        4082        4081
         4        4031        4032        4083        4082
         4        4032        4033        4084        4083
         4        4033        4034        4085        4084
         4        4034        4035        4086        4085
         4        4035        4036        4087        4086
         4        4036        4037        4088        4087
         4        4037        4038        4089        4088
         4        4038        4039        4090        4089
         4        4039        4040        4091        4090
         4        4040        4041        4092        4091
         4        4041        4042        4093        4092
         4        4042        4043        4094        4093
         4        4043        4044        4095        4094
         4        4044        4045        4096        4095
         4        4045        4046        4097        4096
         4        4046        4047        4098        4097
         4        4047        4048        4099        4098
         4        4048        4049        4100        4099
         4        4049        4050        4101        4100
         4        4050        4051        4102        4101
         4        4051        4052        4103        4102
         4        4052        4053        4104        4103
         4        4053        4054        4105        4104
         4        4054        4055        4106        4105
         4        4055        4056        4107        4106
         4        4056        4057        4108        4107
         4        4057        4058        4109        4108
         4        4058        4059        4110        4109
         4        4059        4060        4111        4110
         4        4060        4061        4112        4111
         4        4061        4062        4113        4112
         4        4062        4063        4114        4113
         4        4063        4064        4115        4114
         4        4064        4065        4116        4115
         4        4065        4066        4117        4116
         4        4066        4067        4118        4117
         4        4067        4068        4119        4118
         4        4068        4069        4120        4119
         4        4069        4070        4121        4120
         4        4070        4071        4122        4121
         4        4071        4072        4123        4122
         4        4072        4073        4124        4123
         4        4073        4074        4125        4124
         4        4074        4075        4126        4125
         4        4075        4076        4127        4126
         4        4076        4077        4128        4127
         4        4077        4078        4129        4128
         4        4078        4079        4130        4129
         4        4080        4081        4132        4131
         4        4081        4082        4133        4132
         4        4082        4083        4134        4133
         4        4083        4084        4135        4134
         4        4084        4085        4136        4135
         4        4085        4086        4137        4136
         4        4086        4087        4138        4137
         4        4087        4088        4139        4138
         4        4088        4089        4140        4139
         4        4089        4090        4141        4140
         4        4090        4091        4142        4141
         4        4091        4092        4143        4142
         4        4092        4093        4144        4143
         4        4093        4094        4145        4144
         4        4094        4095        4146        4145
         4        4095        4096        4147        4146
         4        4096        4097        4148        4147
         4        4097        4098        4149        4148
         4        4098        4099        4150        4149
         4        4099        4100        4151        4150
         4        4100        4101        4152        4151
         4        4101        4102        4153        4152
         4        4102        4103        4154        4153
         4        4103        4104        4155        4154
         4        4104        4105        4156        4155
         4        4105        4106        4157        4156
         4        4106        4107        4158        4157
         4        4107        4108        4159        4158
         4        4108        4109        4160        4159
         4        4109        4110        4161        4160
         4        4110        4111        4162        4161
         4        4111        4112        4163        4162
         4        4112        4113        4164        4163
         4        4113        4114        4165        4164
         4        4114        4115        4166        4165
         4        4115        4116        4167        4166
         4        4116        4117        4168        4167
         4        4117        4118        4169        4168
         4        4118        4119        4170        4169
         4        4119        4120        4171        4170
         4        4120        4121        4172        4171
         4        4121        4122        4173        4172
         4        4122        4123        4174        4173
         4        4123        4124        4175        4174
         4        4124        4125        4176        4175
         4        4125        4126        4177        4176
         4        4126        4127        4178        4177
         4        4127        4128        4179        4178
         4        4128        4129        4180        4179
         4        4129        4130        4181        4180
         4        4131        4132        4183        4182
         4        4132        4133        4184        4183
         4        4133        4134        4185        4184
         4        4134        4135        4186        4185
         4        4135        4136        4187        4186
         4        4136        4137        4188        4187
         4        4137        4138        4189        4188
         4        4138        4139        4190        4189
         4        4139        4140        4191        4190
         4        4140        4141        4192        4191
         4        4141        4142        4193        4192
         4        4142        4143        4194        4193
         4        4143        4144        4195        4194
         4        4144        4145        4196        4195
         4        4145        4146        4197        4196
         4        4146        4147        4198        4197
         4        4147        4148        4199        4198
         4        4148        4149        4200        4199
         4        4149        4150        4201        4200
         4        4150        4151        4202        4201
         4        4151        4152        4203        4202
         4        4152        4153        4204        4203
         4        4153        4154        4205        4204
         4        4154        4155        4206        4205
         4        4155        4156        4207        4206
         4        4156        4157        4208        4207
         4        4157        4158        4209        4208
         4        4158        4159        4210        4209
         4        4159        4160        4211        4210
         4        4160        4161        4212        4211
         4        4161        4162        4213        4212
         4        4162        4163        4214        4213
         4        4163        4164        4215        4214
         4        4164        4165        4216        4215
         4        4165        4166        4217        4216
         4        4166        4167        4218        4217
         4        4167        4168        4219        4218
         4        4168        4169        4220        4219
         4        4169        4170        4221        4220
         4        4170        4171        4222        4221
         4        4171        4172        4223        4222
         4        4172        4173        4224        4223
         4        4173        4174        4225        4224
         4        4174        4175        4226        4225
         4        4175        4176        4227        4226
         4        4176        4177        4228        4227
         4        4177        4178        4229        4228
         4        4178        4179        4230        4229
         4        4179        4180        4231        4230
         4        4180        4181        4232        4231
         4        4182        4183        4234        4233
         4        4183        4184        4235        4234
         4        4184        4185        4236        4235
         4        4185        4186        4237        4236
         4        4186        4187        4238        4237
         4        4187        4188        4239        4238
         4        4188        4189        4240        4239
         4        4189        4190        4241        4240
         4        4190        4191        4242        4241
         4        4191        4192        4243        4242
         4        4192        4193        4244        4243
         4        4193        4194        4245        4244
         4        4194        4195        4246        4245
         4        4195        4196        4247        4246
         4        4196        4197        4248        4247
         4        4197        4198        4249        4248
         4        4198        4199        4250        4249
         4        4199        4200        4251        4250
         4        4200        4201        4252        4251
         4        4201        4202        4253        4252
         4        4202        4203        4254        4253
         4        4203        4204        4255        4254
         4        4204        4205        4256        4255
         4        4205        4206        4257        4256
         4        4206        4207        4258        4257
         4        4207        4208        4259        4258
         4        4208        4209        4260        4259
         4        4209        4210        4261        4260
         4        4210        4211        4262        4261
         4        4211        4212        4263        4262
         4        4212        4213        4264        4263
         4        4213        4214        4265        4264
         4        4214        4215        4266        4265
         4        4215        4216        4267        4266
         4        4216        4217        4268        4267
         4        4217        4218        4269        4268
         4        4218        4219        4270        4269
         4        4219        4220        4271        4270
         4        4220        4221        4272        4271
         4        4221        4222        4273        4272
         4        4222        4223        4274        4273
         4        4223        4224        4275        4274
         4        4224        4225        4276        4275
         4        4225        4226        4277        4276
         4        4226        4227        4278        4277
         4        4227        4228        4279        4278
         4        4228        4229        4280        4279
         4        4229        4230        4281        4280
         4        4230        4231        4282        4281
         4        4231        4232        4283        4282
         4        4233        4234        4285        4284
         4        4234        4235        4286        4285
         4        4235        4236        4287        4286
         4        4236        4237        4288        4287
         4        4237        4238        4289        4288
         4        4238        4239        4290        4289
         4        4239        4240        4291        4290
         4        4240        4241        4292        4291
         4        4241        4242        4293        4292
         4        4242        4243        4294        4293
         4        4243        4244        4295        4294
         4        4244        4245        4296        4295
         4        4245        4246        4297        4296
         4        4246        4247        4298        4297
         4        4247        4248        4299        4298
         4        4248        4249        4300        4299
         4        4249        4250        4301        4300
         4        4250        4251        4302        4301
         4        4251        4252        4303        4302
         4        4252        4253        4304        4303
         4        4253        4254        4305        4304
         4        4254        4255        4306        4305
         4        4255        4256        4307        4306
         4        4256        4257        4308        4307
         4        4257        4258        4309        4308
         4        4258        4259        4310        4309
         4        4259        4260        4311        4310
         4        4260        4261        4312        4311
         4        4261        4262        4313        4312
         4        4262        4263        4314        4313
         4        4263        4264        4315        4314
         4        4264        4265        4316        4315
         4        4265        4266        4317        4316
         4        4266        4267        4318        4317
         4        4267        4268        4319        4318
         4        4268        4269        4320        4319
         4        4269        4270        4321        4320
         4        4270        4271        4322        4321
         4        4271        4272        4323        4322
         4        4272        4273        4324        4323
         4        4273        4274        4325        4324
         4        4274        4275        4326        4325
         4        4275        4276        4327        4326
         4        4276        4277        4328        4327
         4        4277        4278        4329        4328
         4        4278        4279        4330        4329
         4        4279        4280        4331        4330
         4        4280        4281        4332        4331
         4        4281        4282        4333        4332
         4        4282        4283        4334        4333
         4        4284        4285        4336        4335
         4        4285        4286        4337        4336
         4        4286        4287        4338        4337
         4        4287        4288        4339        4338
         4        4288        4289        4340        4339
         4        4289        4290        4341        4340
         4        4290        4291        4342        4341
         4        4291        4292        4343        4342
         4        4292        4293        4344        4343
         4        4293        4294        4345        4344
         4        4294        4295        4346        4345
         4        4295        4296        4347        4346
         4        4296        4297        4348        4347
         4        4297        4298        4349        4348
         4        4298        4299        4350        4349
         4        4299        4300        4351        4350
         4        4300        4301        4352        4351
         4        4301        4302        4353        4352
         4        4302        4303        4354        4353
         4        4303        4304        4355        4354
         4        4304        4305        4356        4355
         4        4305        4306        4357        4356
         4        4306        4307        4358        4357
         4        4307        4308        4359        4358
         4        4308        4309        4360        4359
         4        4309        4310        4361        4360
         4        4310        4311        4362        4361
         4        4311        4312        4363        4362
         4        4312        4313        4364        4363
         4        4313        4314        4365        4364
         4        4314        4315        4366        4365
         4        4315        4316        4367        4366
         4        4316        4317        4368        4367
         4        4317        4318        4369        4368
         4        4318        4319        4370        4369
         4        4319        4320        4371        4370
         4        4320        4321        4372        4371
         4        4321        4322        4373        4372
         4        4322        4323        4374        4373
         4        4323        4324        4375        4374
         4        4324        4325        4376        4375
         4        4325        4326        4377        4376
         4        4326        4327        4378        4377
         4        4327        4328        4379        4378
         4        4328        4329        4380        4379
         4        4329        4330        4381        4380
         4        4330        4331        4382        4381
         4        4331        4332        4383        4382
         4        4332        4333        4384        4383
         4        4333        4334        4385        4384
         4        4335        4336        4387        4386
         4        4336        4337        4388        4387
         4        4337        4338        4389        4388
         4        4338        4339        4390        4389
         4        4339        4340        4391        4390
         4        4340        4341        4392        4391
         4        4341        4342        4393        4392
         4        4342        4343        4394        4393
         4        4343        4344        4395        4394
         4        4344        4345        4396        4395
         4        4345        4346        4397        4396
         4        4346        4347        4398        4397
         4        4347        4348        4399        4398
         4        4348        4349        4400        4399
         4        4349        4350        4401        4400
         4        4350        4351        4402        4401
         4        4351        4352        4403        4402
         4        4352        4353        4404        4403
         4        4353        4354        4405        4404
         4        4354        4355        4406        4405
         4        4355        4356        4407        4406
         4        4356        4357        4408        4407
         4        4357        4358        4409        4408
         4        4358        4359        4410        4409
         4        4359        4360        4411        4410
         4        4360        4361        4412        4411
         4        4361        4362        4413        4412
         4        4362        4363        4414        4413
         4        4363        4364        4415        4414
         4        4364        4365        4416        4415
         4        4365        4366        4417        4416
         4        4366        4367        4418        4417
         4        4367        4368        4419        4418
         4        4368        4369        4420        4419
         4        4369        4370        4421        4420
         4        4370        4371        4422        4421
         4        4371        4372        4423        4422
         4        4372        4373        4424        4423
         4        4373        4374        4425        4424
         4        4374        4375        4426        4425
         4        4375        4376        4427        4426
         4        4376        4377        4428        4427
         4        4377        4378        4429        4428
         4        4378        4379        4430        4429
         4        4379        4380        4431        4430
         4        4380        4381        4432        4431
         4        4381        4382        4433        4432
         4        4382        4383        4434        4433
         4        4383        4384        4435        4434
         4        4384        4385        4436        4435
         4        4386        4387        4438        4437
         4        4387        4388        4439        4438
         4        4388        4389        4440        4439
         4        4389        4390        4441        4440
         4        4390        4391        4442        4441
         4        4391        4392        4443        4442
         4        4392        4393        4444        4443
         4        4393        4394        4445        4444
         4        4394        4395        4446        4445
         4        4395        4396        4447        4446
         4        4396        4397        4448        4447
         4        4397        4398        4449        4448
         4        4398        4399        4450        4449
         4        4399        4400        4451        4450
         4        4400        4401        4452        4451
         4        4401        4402        4453        4452
         4        4402        4403        4454        4453
         4        4403        4404        4455        4454
         4        4404        4405        4456        4455
         4        4405        4406        4457        4456
         4        4406        4407        4458        4457
         4        4407        4408        4459        4458
         4        4408        4409        4460        4459
         4        4409        4410        4461        4460
         4        4410        4411        4462        4461
         4        4411        4412        4463        4462
         4        4412        4413        4464        4463
         4        4413        4414        4465        4464
         4        4414        4415        4466        4465
         4        4415        4416        4467        4466
         4        4416        4417        4468        4467
         4        4417        4418        4469        4468
         4        4418        4419        4470        4469
         4        4419        4420        4471        4470
         4        4420        4421        4472        4471
         4        4421        4422        4473        4472
         4        4422        4423        4474        4473
         4        4423        4424        4475        4474
         4        4424        4425        4476        4475
         4        4425        4426        4477        4476
         4        4426        4427        4478        4477
         4        4427        4428        4479        4478
         4        4428        4429        4480        4479
         4        4429        4430        4481        4480
         4        4430        4431        4482        4481
         4        4431        4432        4483        4482
         4        4432        4433        4484        4483
         4        4433        4434        4485        4484
         4        4434        4435        4486        4485
         4        4435        4436        4487        4486
         4        4437        4438        4489        4488
         4        4438        4439        4490        4489
         4        4439        4440        4491        4490
         4        4440        4441        4492        4491
         4        4441        4442        4493        4492
         4        4442        4443        4494        4493
         4        4443        4444        4495        4494
         4        4444        4445        4496        4495
         4        4445        4446        4497        4496
         4        4446        4447        4498        4497
         4        4447        4448        4499        4498
         4        4448        4449        4500        4499
         4        4449        4450        4501        4500
         4        4450        4451        4502        4501
         4        4451        4452        4503        4502
         4        4452        4453        4504        4503
         4        4453        4454        4505        4504
         4        4454        4455        4506        4505
         4        4455        4456        4507        4506
         4        4456        4457        4508        4507
         4        4457        4458        4509        4508
         4        4458        4459        4510        4509
         4        4459        4460        4511        4510
         4        4460        4461        4512        4511
         4        4461        4462        4513        4512
         4        4462        4463        4514        4513
         4        4463        4464        4515        4514
         4        4464        4465        4516        4515
         4        4465        4466        4517        4516
         4        4466        4467        4518        4517
         4        4467        4468        4519        4518
         4        4468        4469        4520        4519
         4        4469        4470        4521        4520
         4        4470        4471        4522        4521
         4        4471        4472        4523        4522
         4        4472        4473        4524        4523
         4        4473        4474        4525        4524
         4        4474        4475        4526        4525
         4        4475        4476        4527        4526
         4        4476        4477        4528        4527
         4        4477        4478        4529        4528
         4        4478        4479        4530        4529
         4        4479        4480        4531        4530
         4        4480        4481        4532        4531
         4        4481        4482        4533        4532
         4        4482        4483        4534        4533
         4        4483        4484        4535        4534
         4        4484        4485        4536        4535
         4        4485        4486        4537        4536
         4        4486        4487        4538        4537
         4        4488        4489        4540        4539
         4        4489        4490        4541        4540
         4        4490        4491        4542        4541
         4        4491        4492        4543        4542
         4        4492        4493        4544        4543
         4        4493        4494        4545        4544
         4        4494        4495        4546        4545
         4        4495        4496        4547        4546
         4        4496        4497        4548        4547
         4        4497        4498        4549        4548
         4        4498        4499        4550        4549
         4        4499        4500        4551        4550
         4        4500        4501        4552        4551
         4        4501        4502        4553        4552
         4        4502        4503        4554        4553
         4        4503        4504        4555        4554
         4        4504        4505        4556        4555
         4        4505        4506        4557        4556
         4        4506        4507        4558        4557
         4        4507        4508        4559        4558
         4        4508        4509        4560        4559
         4        4509        4510        4561        4560
         4        4510        4511        4562        4561
         4        4511        4512        4563        4562
         4        4512        4513        4564        4563
         4        4513        4514        4565        4564
         4        4514        4515        4566        4565
         4        4515        4516        4567        4566
         4        4516        4517        4568        4567
         4        4517        4518        4569        4568
         4        4518        4519        4570        4569
         4        4519        4520        4571        4570
         4        4520        4521        4572        4571
         4        4521        4522        4573        4572
         4        4522        4523        4574        4573
         4        4523        4524        4575        4574
         4        4524        4525        4576        4575
         4        4525        4526        4577        4576
         4        4526        4527        4578        4577
         4        4527        4528        4579        4578
         4        4528        4529        4580        4579
         4        4529        4530        4581        4580
         4        4530        4531        4582        4581
         4        4531        4532        4583        4582
         4        4532        4533        4584        4583
         4        4533        4534        4585        4584
         4        4534        4535        4586        4585
         4        4535        4536        4587        4586
         4        4536        4537        4588        4587
         4        4537        4538        4589        4588
         4        4539        4540        4591        4590
         4        4540        4541        4592        4591
         4        4541        4542        4593        4592
         4        4542        4543        4594        4593
         4        4543        4544        4595        4594
         4        4544        4545        4596        4595
         4        4545        4546        4597        4596
         4        4546        4547        4598        4597
         4        4547        4548        4599        4598
         4        4548        4549        4600        4599
         4        4549        4550        4601        4600
         4        4550        4551        4602        4601
         4        4551        4552        4603        4602
         4        4552        4553        4604        4603
         4        4553        4554        4605        4604
         4        4554        4555        4606        4605
         4        4555        4556        4607        4606
         4        4556        4557        4608        4607
         4        4557        4558        4609        4608
         4        4558        4559        4610        4609
         4        4559        4560        4611        4610
         4        4560        4561        4612        4611
         4        4561        4562        4613        4612
         4        4562        4563        4614        4613
         4        4563        4564        4615        4614
         4        4564        4565        4616        4615
         4        4565        4566        4617        4616
         4        4566        4567        4618        4617
         4        4567        4568        4619        4618
         4        4568        4569        4620        4619
         4        4569        4570        4621        4620
         4        4570        4571        4622        4621
         4        4571        4572        4623        4622
         4        4572        4573        4624        4623
         4        4573        4574        4625        4624
         4        4574        4575        4626        4625
         4        4575        4576        4627        4626
         4        4576        4577        4628        4627
         4        4577        4578        4629        4628
         4        4578        4579        4630        4629
         4        4579        4580        4631        4630
         4        4580        4581        4632        4631
         4        4581        4582        4633        4632
         4        4582        4583        4634        4633
         4        4583        4584        4635        4634
         4        4584        4585        4636        4635
         4        4585        4586        4637        4636
         4        4586        4587        4638        4637
         4        4587        4588        4639        4638
         4        4588        4589        4640        4639
         4        4590        4591        4642        4641
         4        4591        4592        4643        4642
         4        4592        4593        4644        4643
         4        4593        4594        4645        4644
         4        4594        4595        4646        4645
         4        4595        4596        4647        4646
         4        4596        4597        4648        4647
         4        4597        4598        4649        4648
         4        4598        4599        4650        4649
         4        4599        4600        4651        4650
         4        4600        4601        4652        4651
         4        4601        4602        4653        4652
         4        4602        4603        4654        4653
         4        4603        4604        4655        4654
         4        4604        4605        4656        4655
         4        4605        4606        4657        4656
         4        4606        4607        4658        4657
         4        4607        4608        4659        4658
         4        4608        4609        4660        4659
         4        4609        4610        4661        4660
         4        4610        4611        4662        4661
         4        4611        4612        4663        4662
         4        4612        4613        4664        4663
         4        4613        4614        4665        4664
         4        4614        4615        4666        4665
         4        4615        4616        4667        4666
         4        4616        4617        4668        4667
         4        4617        4618        4669        4668
         4        4618        4619        4670        4669
         4        4619        4620        4671        4670
         4        4620        4621        4672        4671
         4        4621        4622        4673        4672
         4        4622        4623        4674        4673
         4        4623        4624        4675        4674
         4        4624        4625        4676        4675
         4        4625        4626        4677        4676
         4        4626        4627        4678        4677
         4        4627        4628        4679        4678
         4        4628        4629        4680        4679
         4        4629        4630        4681        4680
         4        4630        4631        4682        4681
         4        4631        4632        4683        4682
         4        4632        4633        4684        4683
         4        4633        4634        4685        4684
         4        4634        4635        4686        4685
         4        4635        4636        4687        4686
         4        4636        4637        4688        4687
         4        4637        4638        4689        4688
         4        4638        4639        4690        4689
         4        4639        4640        4691        4690
         4        4641        4642        4693        4692
         4        4642        4643        4694        4693
         4        4643        4644        4695        4694
         4        4644        4645        4696        4695
         4        4645        4646        4697        4696
         4        4646        4647        4698        4697
         4        4647        4648        4699        4698
         4        4648        4649        4700        4699
         4        4649        4650        4701        4700
         4        4650        4651        4702        4701
         4        4651        4652        4703        4702
         4        4652        4653        4704        4703
         4        4653        4654        4705        4704
         4        4654        4655        4706        4705
         4        4655        4656        4707        4706
         4        4656        4657        4708        4707
         4        4657        4658        4709        4708
         4        4658        4659        4710        4709
         4        4659        4660        4711        4710
         4        4660        4661        4712        4711
         4        4661        4662        4713        4712
         4        4662        4663        4714        4713
         4        4663        4664        4715        4714
         4        4664        4665        4716        4715
         4        4665        4666        4717        4716
         4        4666        4667        4718        4717
         4        4667        4668        4719        4718
         4        4668        4669        4720        4719
         4        4669        4670        4721        4720
         4        4670        4671        4722        4721
         4        4671        4672        4723        4722
         4        4672        4673        4724        4723
         4        4673        4674        4725        4724
         4        4674        4675        4726        4725
         4        4675        4676        4727        4726
         4        4676        4677        4728        4727
         4        4677        4678        4729        4728
         4        4678        4679        4730        4729
         4        4679        4680        4731        4730
         4        4680        4681        4732        4731
         4        4681        4682        4733        4732
         4        4682        4683        4734        4733
         4        4683        4684        4735        4734
         4        4684        4685        4736        4735
         4        4685        4686        4737        4736
         4        4686        4687        4738        4737
         4        4687        4688        4739        4738
         4        4688        4689        4740        4739
         4        4689        4690        4741        4740
         4        4690        4691        4742        4741
         4        4692        4693        4744        4743
         4        4693        4694        4745        4744
         4        4694        4695        4746        4745
         4        4695        4696        4747        4746
         4        4696        4697        4748        4747
         4        4697        4698        4749        4748
         4        4698        4699        4750        4749
         4        4699        4700        4751        4750
         4        4700        4701        4752        4751
         4        4701        4702        4753        4752
         4        4702        4703        4754        4753
         4        4703        4704        4755        4754
         4        4704        4705        4756        4755
         4        4705        4706        4757        4756
         4        4706        4707        4758        4757
         4        4707        4708        4759        4758
         4        4708        4709        4760        4759
         4        4709        4710        4761        4760
         4        4710        4711        4762        4761
         4        4711        4712        4763        4762
         4        4712        4713        4764        4763
         4        4713        4714        4765        4764
         4        4714        4715        4766        4765
         4        4715        4716        4767        4766
         4        4716        4717        4768        4767
         4        4717        4718        4769        4768
         4        4718        4719        4770        4769
         4        4719        4720        4771        4770
         4        4720        4721        4772        4771
         4        4721        4722        4773        4772
         4        4722        4723        4774        4773
         4        4723        4724        4775        4774
         4        4724        4725        4776        4775
         4        4725        4726        4777        4776
         4        4726        4727        4778        4777
         4        4727        4728        4779        4778
         4        4728        4729        4780        4779
         4        4729        4730        4781        4780
         4        4730        4731        4782        4781
         4        4731        4732        4783        4782
         4        4732        4733        4784        4783
         4        4733        4734        4785        4784
         4        4734        4735        4786        4785
         4        4735        4736        4787        4786
         4        4736        4737        4788        4787
         4        4737        4738        4789        4788
         4        4738        4739        4790        4789
         4        4739        4740        4791        4790
         4        4740        4741        4792        4791
         4        4741        4742        4793        4792
         4        4743        4744        4795        4794
         4        4744        4745        4796        4795
         4        4745        4746        4797        4796
         4        4746        4747        4798        4797
         4        4747        4748        4799        4798
         4        4748        4749        4800        4799
         4        4749        4750        4801        4800
         4        4750        4751        4802        4801
         4        4751        4752        4803        4802
         4        4752        4753        4804        4803
         4        4753        4754        4805        4804
         4        4754        4755        4806        4805
         4        4755        4756        4807        4806
         4        4756        4757        4808        4807
         4        4757        4758        4809        4808
         4        4758        4759        4810        4809
         4        4759        4760        4811        4810
         4        4760        4761        4812        4811
         4        4761        4762        4813        4812
         4        4762        4763        4814        4813
         4        4763        4764        4815        4814
         4        4764        4765        4816        4815
         4        4765        4766        4817        4816
         4        4766        4767        4818        4817
         4        4767        4768        4819        4818
         4        4768        4769        4820        4819
         4        4769        4770        4821        4820
         4        4770        4771        4822        4821
         4        4771        4772        4823        4822
         4        4772        4773        4824        4823
         4        4773        4774        4825        4824
         4        4774        4775        4826        4825
         4        4775        4776        4827        4826
         4        4776        4777        4828        4827
         4        4777        4778        4829        4828
         4        4778        4779        4830        4829
         4        4779        4780        4831        4830
         4        4780        4781        4832        4831
         4        4781        4782        4833        4832
         4        4782        4783        4834        4833
         4        4783        4784        4835        4834
         4        4784        4785        4836        4835
         4        4785        4786        4837        4836
         4        4786        4787        4838        4837
         4        4787        4788        4839        4838
         4        4788        4789        4840        4839
         4        4789        4790        4841        4840
         4        4790        4791        4842        4841
         4        4791        4792        4843        4842
         4        4792        4793        4844        4843
         4        4794        4795        4846        4845
         4        4795        4796        4847        4846
         4        4796        4797        4848        4847
         4        4797        4798        4849        4848
         4        4798        4799        4850        4849
         4        4799        4800        4851        4850
         4        4800        4801        4852        4851
         4        4801        4802        4853        4852
         4        4802        4803        4854        4853
         4        4803        4804        4855        4854
         4        4804        4805        4856        4855
         4        4805        4806        4857        4856
         4        4806        4807        4858        4857
         4        4807        4808        4859        4858
         4        4808        4809        4860        4859
         4        4809        4810        4861        4860
         4        4810        4811        4862        4861
         4        4811        4812        4863        4862
         4        4812        4813        4864        4863
         4        4813        4814        4865        4864
         4        4814        4815        4866        4865
         4        4815        4816        4867        4866
         4        4816        4817        4868        4867
         4        4817        4818        4869        4868
         4        4818        4819        4870        4869
         4        4819        4820        4871        4870
         4        4820        4821        4872        4871
         4        4821        4822        4873        4872
         4        4822        4823        4874        4873
         4        4823        4824        4875        4874
         4        4824        4825        4876        4875
         4        4825        4826        4877        4876
         4        4826        4827        4878        4877
         4        4827        4828        4879        4878
         4        4828        4829        4880        4879
         4        4829        4830        4881        4880
         4        4830        4831        4882        4881
         4        4831        4832        4883        4882
         4        4832        4833        4884        4883
         4        4833        4834        4885        4884
         4        4834        4835        4886        4885
         4        4835        4836        4887        4886
         4        4836        4837        4888        4887
         4        4837        4838        4889        4888
         4        4838        4839        4890        4889
         4        4839        4840        4891        4890
         4        4840        4841        4892        4891
         4        4841        4842        4893        4892
         4        4842        4843        4894        4893
         4        4843        4844        4895        4894
         4        4845        4846        4897        4896
         4        4846        4847        4898        4897
         4        4847        4848        4899        4898
         4        4848        4849        4900        4899
         4        4849        4850        4901        4900
         4        4850        4851        4902        4901
         4        4851        4852        4903        4902
         4        4852        4853        4904        4903
         4        4853        4854        4905        4904
         4        4854        4855        4906        4905
         4        4855        4856        4907        4906
         4        4856        4857        4908        4907
         4        4857        4858        4909        4908
         4        4858        4859        4910        4909
         4        4859        4860        4911        4910
         4        4860        4861        4912        4911
         4        4861        4862        4913        4912
         4        4862        4863        4914        4913
         4        4863        4864        4915        4914
         4        4864        4865        4916        4915
         4        4865        4866        4917        4916
         4        4866        4867        4918        4917
         4        4867        4868        4919        4918
         4        4868        4869        4920        4919
         4        4869        4870        4921        4920
         4        4870        4871        4922        4921
         4        4871        4872        4923        4922
         4        4872        4873        4924        4923
         4        4873        4874        4925        4924
         4        4874        4875        4926        4925
         4        4875        4876        4927        4926
         4        4876        4877        4928        4927
         4        4877        4878        4929        4928
         4        4878        4879        4930        4929
         4        4879        4880        4931        4930
         4        4880        4881        4932        4931
         4        4881        4882        4933        4932
         4        4882        4883        4934        4933
         4        4883        4884        4935        4934
         4        4884        4885        4936        4935
         4        4885        4886        4937        4936
         4        4886        4887        4938        4937
         4        4887        4888        4939        4938
         4        4888        4889        4940        4939
         4        4889        4890        4941        4940
         4        4890        4891        4942        4941
         4        4891        4892        4943        4942
         4        4892        4893        4944        4943
         4        4893        4894        4945        4944
         4        4894        4895        4946        4945
         4        4896        4897        4948        4947
         4        4897        4898        4949        4948
         4        4898        4899        4950        4949
         4        4899        4900        4951        4950
         4        4900        4901        4952        4951
         4        4901        4902        4953        4952
         4        4902        4903        4954        4953
         4        4903        4904        4955        4954
         4        4904        4905        4956        4955
         4        4905        4906        4957        4956
         4        4906        4907        4958        4957
         4        4907        4908        4959        4958
         4        4908        4909        4960        4959
         4        4909        4910        4961        4960
         4        4910        4911        4962        4961
         4        4911        4912        4963        4962
         4        4912        4913        4964        4963
         4        4913        4914        4965        4964
         4        4914        4915        4966        4965
         4        4915        4916        4967        4966
         4        4916        4917        4968        4967
         4        4917        4918        4969        4968
         4        4918        4919        4970        4969
         4        4919        4920        4971        4970
         4        4920        4921        4972        4971
         4        4921        4922        4973        4972
         4        4922        4923        4974        4973
         4        4923        4924        4975        4974
         4        4924        4925        4976        4975
         4        4925        4926        4977        4976
         4        4926        4927        4978        4977
         4        4927        4928        4979        4978
         4        4928        4929        4980        4979
         4        4929        4930        4981        4980
         4        4930        4931        4982        4981
         4        4931        4932        4983        4982
         4        4932        4933        4984        4983
         4        4933        4934        4985        4984
         4        4934        4935        4986        4985
         4        4935        4936        4987        4986
         4        4936        4937        4988        4987
         4        4937        4938        4989        4988
         4        4938        4939        4990        4989
         4        4939        4940        4991        4990
         4        4940        4941        4992        4991
         4        4941        4942        4993        4992
         4        4942        4943        4994        4993
         4        4943        4944        4995        4994
         4        4944        4945        4996        4995
         4        4945        4946        4997        4996
         4        4947        4948        4999        4998
         4        4948        4949        5000        4999
         4        4949        4950        5001        5000
         4        4950        4951        5002        5001
         4        4951        4952        5003        5002
         4        4952        4953        5004        5003
         4        4953        4954        5005        5004
         4        4954        4955        5006        5005
         4        4955        4956        5007        5006
         4        4956        4957        5008        5007
         4        4957        4958        5009        5008
         4        4958        4959        5010        5009
         4        4959        4960        5011        5010
         4        4960        4961        5012        5011
         4        4961        4962        5013        5012
         4        4962        4963        5014        5013
         4        4963        4964        5015        5014
         4        4964        4965        5016        5015
         4        4965        4966        5017        5016
         4        4966        4967        5018        5017
         4        4967        4968        5019        5018
         4        4968        4969        5020        5019
         4        4969        4970        5021        5020
         4        4970        4971        5022        5021
         4        4971        4972        5023        5022
         4        4972        4973        5024        5023
         4        4973        4974        5025        5024
         4        4974        4975        5026        5025
         4        4975        4976        5027        5026
         4        4976        4977        5028        5027
         4        4977        4978        5029        5028
         4        4978        4979        5030        5029
         4        4979        4980        5031        5030
         4        4980        4981        5032        5031
         4        4981        4982        5033        5032
         4        4982        4983        5034        5033
         4        4983        4984        5035        5034
         4        4984        4985        5036        5035
         4        4985        4986        5037        5036
         4        4986        4987        5038        5037
         4        4987        4988        5039        5038
         4        4988        4989        5040        5039
         4        4989        4990        5041        5040
         4        4990        4991        5042        5041
         4        4991        4992        5043        5042
         4        4992        4993        5044        5043
         4        4993        4994        5045        5044
         4        4994        4995        5046        5045
         4        4995        4996        5047        5046
         4        4996        4997        5048        5047
         4        4998        4999        5050        5049
         4        4999        5000        5051        5050
         4        5000        5001        5052        5051
         4        5001        5002        5053        5052
         4        5002        5003        5054        5053
         4        5003        5004        5055        5054
         4        5004        5005        5056        5055
         4        5005        5006        5057        5056
         4        5006        5007        5058        5057
         4        5007        5008        5059        5058
         4        5008        5009        5060        5059
         4        5009        5010        5061        5060
         4        5010        5011        5062        5061
         4        5011        5012        5063        5062
         4        5012        5013        5064        5063
         4        5013        5014        5065        5064
         4        5014        5015        5066        5065
         4        5015        5016        5067        5066
         4        5016        5017        5068        5067
         4        5017        5018        5069        5068
         4        5018        5019        5070        5069
         4        5019        5020        5071        5070
         4        5020        5021        5072        5071
         4        5021        5022        5073        5072
         4        5022        5023        5074        5073
         4        5023        5024        5075        5074
         4        5024        5025        5076        5075
         4        5025        5026        5077        5076
         4        5026        5027        5078        5077
         4        5027        5028        5079        5078
         4        5028        5029        5080        5079
         4        5029        5030        5081        5080
         4        5030        5031        5082        5081
         4        5031        5032        5083        5082
         4        5032        5033        5084        5083
         4        5033        5034        5085        5084
         4        5034        5035        5086        5085
         4        5035        5036        5087        5086
         4        5036        5037        5088        5087
         4        5037        5038        5089        5088
         4        5038        5039        5090        5089
         4        5039        5040        5091        5090
         4        5040        5041        5092        5091
         4        5041        5042        5093        5092
         4        5042        5043        5094        5093
         4        5043        5044        5095        5094
         4        5044        5045        5096        5095
         4        5045        5046        5097        5096
         4        5046        5047        5098        5097
         4        5047        5048        5099        5098
         4        5049        5050        5101        5100
         4        5050        5051        5102        5101
         4        5051        5052        5103        5102
         4        5052        5053        5104        5103
         4        5053        5054        5105        5104
         4        5054        5055        5106        5105
         4        5055        5056        5107        5106
         4        5056        5057        5108        5107
         4        5057        5058        5109        5108
         4        5058        5059        5110        5109
         4        5059        5060        5111        5110
         4        5060        5061        5112        5111
         4        5061        5062        5113        5112
         4        5062        5063        5114        5113
         4        5063        5064        5115        5114
         4        5064        5065        5116        5115
         4        5065        5066        5117        5116
         4        5066        5067        5118        5117
         4        5067        5068        5119        5118
         4        5068        5069        5120        5119
         4        5069        5070        5121        5120
         4        5070        5071        5122        5121
         4        5071        5072        5123        5122
         4        5072        5073        5124        5123
         4        5073        5074        5125        5124
         4        5074        5075        5126        5125
         4        5075        5076        5127        5126
         4        5076        5077        5128        5127
         4        5077        5078        5129        5128
         4        5078        5079        5130        5129
         4        5079        5080        5131        5130
         4        5080        5081        5132        5131
         4        5081        5082        5133        5132
         4        5082        5083        5134        5133
         4        5083        5084        5135        5134
         4        5084        5085        5136        5135
         4        5085        5086        5137        5136
         4        5086        5087        5138        5137
         4        5087        5088        5139        5138
         4        5088        5089        5140        5139
         4        5089        5090        5141        5140
         4        5090        5091        5142        5141
         4        5091        5092        5143        5142
         4        5092        5093        5144        5143
         4        5093        5094        5145        5144
         4        5094        5095        5146        5145
         4        5095        5096        5147        5146
         4        5096        5097        5148        5147
         4        5097        5098        5149        5148
         4        5098        5099        5150        5149
CELL_TYPES       5000
9
9
9
9
9
9
9
9
9
9
9
9
9
9
9
9
9
9
9
9
9
9
9
9
9
9
9
9
9
9
9
9
9
9
9
9
9
9
9
9
9
9
9
9
9
9
9
9
9
9
9
9
9
9
9
9
9
9
9
9
9
9
9
9
9
9
9
9
9
9
9
9
9
9
9
9
9
9
9
9
9
9
9
9
9
9
9
9
9
9
9
9
9
9
9
9
9
9
9
9
9
9
9
9
9
9
9
9
9
9
9
9
9
9
9
9
9
9
9
9
9
9
9
9
9
9
9
9
9
9
9
9
9
9
9
9
9
9
9
9
9
9
9
9
9
9
9
9
9
9
9
9
9
9
9
9
9
9
9
9
9
9
9
9
9
9
9
9
9
9
9
9
9
9
9
9
9
9
9
9
9
9
9
9
9
9
9
9
9
9
9
9
9
9
9
9
9
9
9
9
9
9
9
9
9
9
9
9
9
9
9
9
9
9
9
9
9
9
9
9
9
9
9
9
9
9
9
9
9
9
9
9
9
9
9
9
9
9
9
9
9
9
9
9
9
9
9
9
9
9
9
9
9
9
9
9
9
9
9
9
9
9
9
9
9
9
9
9
9
9
9
9
9
9
9
9
9
9
9
9
9
9
9
9
9
9
9
9
9
9
9
9
9
9
9
9
9
9
9
9
9
9
9
9
9
9
9
9
9
9
9
9
9
9
9
9
9
9
9
9
9
9
9
9
9
9
9
9
9
9
9
9
9
9
9
9
9
9
9
9
9
9
9
9
9
9
9
9
9
9
9
9
9
9
9
9
9
9
9
9
9
9
9
9
9
9
9
9
9
9
9
9
9
9
9
9
9
9
9
9
9
9
9
9
9
9
9
9
9
9
9
9
9
9
9
9
9
9
9
9
9
9
9
9
9
9
9
9
9
9
9
9
9
9
9
9
9
9
9
9
9
9
9
9
9
9
9
9
9
9
9
9
9
9
9
9
9
9
9
9
9
9
9
9
9
9
9
9
9
9
9
9
9
9
9
9
9
9
9
9
9
9
9
9
9
9
9
9
9
9
9
9
9
9
9
9
9
9
9
9
9
9
9
9
9
9
9
9
9
9
9
9
9
9
9
9
9
9
9
9
9
9
9
9
9
9
9
9
9
9
9
9
9
9
9
9
9
9
9
9
9
9
9
9
9
9
9
9
9
9
9
9
9
9
9
9
9
9
9
9
9
9
9
9
9
9
9
9
9
9
9
9
9
9
9
9
9
9
9
9
9
9
9
9
9
9
9
9
9
9
9
9
9
9
9
9
9
9
9
9
9
9
9
9
9
9
9
9
9
9
9
9
9
9
9
9
9
9
9
9
9
9
9
9
9
9
9
9
9
9
9
9
9
9
9
9
9
9
9
9
9
9
9
9
9
9
9
9
9
9
9
9
9
9
9
9
9
9
9
9
9
9
9
9
9
9
9
9
9
9
9
9
9
9
9
9
9
9
9
9
9
9
9
9
9
9
9
9
9
9
9
9
9
9
9
9
9
9
9
9
9
9
9
9
9
9
9
9
9
9
9
9
9
9
9
9
9
9
9
9
9
9
9
9
9
9
9
9
9
9
9
9
9
9
9
9
9
9
9
9
9
9
9
9
9
9
9
9
9
9
9
9
9
9
9
9
9
9
9
9
9
9
9
9
9
9
9
9
9
9
9
9
9
9
9
9
9
9
9
9
9
9
9
9
9
9
9
9
9
9
9
9
9
9
9
9
9
9
9
9
9
9
9
9
9
9
9
9
9
9
9
9
9
9
9
9
9
9
9
9
9
9
9
9
9
9
9
9
9
9
9
9
9
9
9
9
9
9
9
9
9
9
9
9
9
9
9
9
9
9
9
9
9
9
9
9
9
9
9
9
9
9
9
9
9
9
9
9
9
9
9
9
9
9
9
9
9
9
9
9
9
9
9
9
9
9
9
9
9
9
9
9
9
9
9
9
9
9
9
9
9
9
9
9
9
9
9
9
9
9
9
9
9
9
9
9
9
9
9
9
9
9
9
9
9
9
9
9
9
9
9
9
9
9
9
9
9
9
9
9
9
9
9
9
9
9
9
9
9
9
9
9
9
9
9
9
9
9
9
9
9
9
9
9
9
9
9
9
9
9
9
9
9
9
9
9
9
9
9
9
9
9
9
9
9
9
9
9
9
9
9
9
9
9
9
9
9
9
9
9
9
9
9
9
9
9
9
9
9
9
9
9
9
9
9
9
9
9
9
9
9
9
9
9
9
9
9
9
9
9
9
9
9
9
9
9
9
9
9
9
9
9
9
9
9
9
9
9
9
9
9
9
9
9
9
9
9
9
9
9
9
9
9
9
9
9
9
9
9
9
9
9
9
9
9
9
9
9
9
9
9
9
9
9
9
9
9
9
9
9
9
9
9
9
9
9
9
9
9
9
9
9
9
9
9
9
9
9
9
9
9
9
9
9
9
9
9
9
9
9
9
9
9
9
9
9
9
9
9
9
9
9
9
9
9
9
9
9
9
9
9
9
9
9
9
9
9
9
9
9
9
9
9
9
9
9
9
9
9
9
9
9
9
9
9
9
9
9
9
9
9
9
9
9
9
9
9
9
9
9
9
9
9
9
9
9
9
9
9
9
9
9
9
9
9
9
9
9
9
9
9
9
9
9
9
9
9
9
9
9
9
9
9
9
9
9
9
9
9
9
9
9
9
9
9
9
9
9
9
9
9
9
9
9
9
9
9
9
9
9
9
9
9
9
9
9
9
9
9
9
9
9
9
9
9
9
9
9
9
9
9
9
9
9
9
9
9
9
9
9
9
9
9
9
9
9
9
9
9
9
9
9
9
9
9
9
9
9
9
9
9
9
9
9
9
9
9
9
9
9
9
9
9
9
9
9
9
9
9
9
9
9
9
9
9
9
9
9
9
9
9
9
9
9
9
9
9
9
9
9
9
9
9
9
9
9
9
9
9
9
9
9
9
9
9
9
9
9
9
9
9
9
9
9
9
9
9
9
9
9
9
9
9
9
9
9
9
9
9
9
9
9
9
9
9
9
9
9
9
9
9
9
9
9
9
9
9
9
9
9
9
9
9
9
9
9
9
9
9
9
9
9
9
9
9
9
9
9
9
9
9
9
9
9
9
9
9
9
9
9
9
9
9
9
9
9
9
9
9
9
9
9
9
9
9
9
9
9
9
9
9
9
9
9
9
9
9
9
9
9
9
9
9
9
9
9
9
9
9
9
9
9
9
9
9
9
9
9
9
9
9
9
9
9
9
9
9
9
9
9
9
9
9
9
9
9
9
9
9
9
9
9
9
9
9
9
9
9
9
9
9
9
9
9
9
9
9
9
9
9
9
9
9
9
9
9
9
9
9
9
9
9
9
9
9
9
9
9
9
9
9
9
9
9
9
9
9
9
9
9
9
9
9
9
9
9
9
9
9
9
9
9
9
9
9
9
9
9
9
9
9
9
9
9
9
9
9
9
9
9
9
9
9
9
9
9
9
9
9
9
9
9
9
9
9
9
9
9
9
9
9
9
9
9
9
9
9
9
9
9
9
9
9
9
9
9
9
9
9
9
9
9
9
9
9
9
9
9
9
9
9
9
9
9
9
9
9
9
9
9
9
9
9
9
9
9
9
9
9
9
9
9
9
9
9
9
9
9
9
9
9
9
9
9
9
9
9
9
9
9
9
9
9
9
9
9
9
9
9
9
9
9
9
9
9
9
9
9
9
9
9
9
9
9
9
9
9
9
9
9
9
9
9
9
9
9
9
9
9
9
9
9
9
9
9
9
9
9
9
9
9
9
9
9
9
9
9
9
9
9
9
9
9
9
9
9
9
9
9
9
9
9
9
9
9
9
9
9
9
9
9
9
9
9
9
9
9
9
9
9
9
9
9
9
9
9
9
9
9
9
9
9
9
9
9
9
9
9
9
9
9
9
9
9
9
9
9
9
9
9
9
9
9
9
9
9
9
9
9
9
9
9
9
9
9
9
9
9
9
9
9
9
9
9
9
9
9
9
9
9
9
9
9
9
9
9
9
9
9
9
9
9
9
9
9
9
9
9
9
9
9
9
9
9
9
9
9
9
9
9
9
9
9
9
9
9
9
9
9
9
9
9
9
9
9
9
9
9
9
9
9
9
9
9
9
9
9
9
9
9
9
9
9
9
9
9
9
9
9
9
9
9
9
9
9
9
9
9
9
9
9
9
9
9
9
9
9
9
9
9
9
9
9
9
9
9
9
9
9
9
9
9
9
9
9
9
9
9
9
9
9
9
9
9
9
9
9
9
9
9
9
9
9
9
9
9
9
9
9
9
9
9
9
9
9
9
9
9
9
9
9
9
9
9
9
9
9
9
9
9
9
9
9
9
9
9
9
9
9
9
9
9
9
9
9
9
9
9
9
9
9
9
9
9
9
9
9
9
9
9
9
9
9
9
9
9
9
9
9
9
9
9
9
9
9
9
9
9
9
9
9
9
9
9
9
9
9
9
9
9
9
9
9
9
9
9
9
9
9
9
9
9
9
9
9
9
9
9
9
9
9
9
9
9
9
9
9
9
9
9
9
9
9
9
9
9
9
9
9
9
9
9
9
9
9
9
9
9
9
9
9
9
9
9
9
9
9
9
9
9
9
9
9
9
9
9
9
9
9
9
9
9
9
9
9
9
9
9
9
9
9
9
9
9
9
9
9
9
9
9
9
9
9
9
9
9
9
9
9
9
9
9
9
9
9
9
9
9
9
9
9
9
9
9
9
9
9
9
9
9
9
9
9
9
9
9
9
9
9
9
9
9
9
9
9
9
9
9
9
9
9
9
9
9
9
9
9
9
9
9
9
9
9
9
9
9
9
9
9
9
9
9
9
9
9
9
9
9
9
9
9
9
9
9
9
9
9
9
9
9
9
9
9
9
9
9
9
9
9
9
9
9
9
9
9
9
9
9
9
9
9
9
9
9
9
9
9
9
9
9
9
9
9
9
9
9
9
9
9
9
9
9
9
9
9
9
9
9
9
9
9
9
9
9
9
9
9
9
9
9
9
9
9
9
9
9
9
9
9
9
9
9
9
9
9
9
9
9
9
9
9
9
9
9
9
9
9
9
9
9
9
9
9
9
9
9
9
9
9
9
9
9
9
9
9
9
9
9
9
9
9
9
9
9
9
9
9
9
9
9
9
9
9
9
9
9
9
9
9
9
9
9
9
9
9
9
9
9
9
9
9
9
9
9
9
9
9
9
9
9
9
9
9
9
9
9
9
9
9
9
9
9
9
9
9
9
9
9
9
9
9
9
9
9
9
9
9
9
9
9
9
9
9
9
9
9
9
9
9
9
9
9
9
9
9
9
9
9
9
9
9
9
9
9
9
9
9
9
9
9
9
9
9
9
9
9
9
9
9
9
9
9
9
9
9
9
9
9
9
9
9
9
9
9
9
9
9
9
9
9
9
9
9
9
9
9
9
9
9
9
9
9
9
9
9
9
9
9
9
9
9
9
9
9
9
9
9
9
9
9
9
9
9
9
9
9
9
9
9
9
9
9
9
9
9
9
9
9
9
9
9
9
9
9
9
9
9
9
9
9
9
9
9
9
9
9
9
9
9
9
9
9
9
9
9
9
9
9
9
9
9
9
9
9
9
9
9
9
9
9
9
9
9
9
9
9
9
9
9
9
9
9
9
9
9
9
9
9
9
9
9
9
9
9
9
9
9
9
9
9
9
9
9
9
9
9
9
9
9
9
9
9
9
9
9
9
9
9
9
9
9
9
9
9
9
9
9
9
9
9
9
9
9
9
9
9
9
9
9
9
9
9
9
9
9
9
9
9
9
9
9
9
9
9
9
9
9
9
9
9
9
9
9
9
9
9
9
9
9
9
9
9
9
9
9
9
9
9
9
9
9
9
9
9
9
9
9
9
9
9
9
9
9
9
9
9
9
9
9
9
9
9
9
9
9
9
9
9
9
9
9
9
9
9
9
9
9
9
9
9
9
9
9
9
9
9
9
9
9
9
9
9
9
9
9
9
9
9
9
9
9
9
9
9
9
9
9
9
9
9
9
9
9
9
9
9
9
9
9
9
9
9
9
9
9
9
9
9
9
9
9
9
9
9
9
9
9
9
9
9
9
9
9
9
9
9
9
9
9
9
9
9
9
9
9
9
9
9
9
9
9
9
9
9
9
9
9
9
9
9
9
9
9
9
9
9
9
9
9
9
9
9
9
9
9
9
9
9
9
9
9
9
9
9
9
9
9
9
9
9
9
9
9
9
9
9
9
9
9
9
9
9
9
9
9
9
9
9
9
9
9
9
9
9
9
9
9
9
9
9
9
9
9
9
9
9
9
9
9
9
9
9
9
9
9
9
9
9
9
9
9
9
9
9
9
9
9
9
9
9
9
9
9
9
9
9
9
9
9
9
9
9
9
9
9
9
9
9
9
9
9
9
9
9
9
9
9
9
9
9
9
9
9
9
9
9
9
9
9
9
9
9
9
9
9
9
9
9
9
9
9
9
9
9
9
9
9
9
9
9
9
9
9
9
9
9
9
9
9
9
9
9
9
9
9
9
9
9
9
9
9
9
9
9
9
9
9
9
9
9
9
9
9
9
9
9
9
9
9
9
9
9
9
9
9
9
9
9
9
9
9
9
9
9
9
9
9
9
9
9
9
9
9
9
9
9
9
9
9
9
9
9
9
9
9
9
9
9
9
9
9
9
9
9
9
9
9
9
9
9
9
9
9
9
9
9
9
9
9
9
9
9
9
9
9
9
9
9
9
9
9
9
9
9
9
9
9
9
9
9
9
9
9
9
9
9
9
9
9
9
9
9
9
9
9
9
9
9
9
9
9
9
9
9
9
9
9
9
9
9
9
9
9
9
9
9
9
9
9
9
9
9
9
9
9
9
9
9
9
9
9
9
9
9
9
9
9
9
9
9
9
9
9
9
9
9
9
9
9
9
9
9
9
9
9
9
9
9
9
9
9
9
9
9
9
9
9
9
9
9
9
9
9
9
9
9
9
9
9
9
9
9
9
9
9
9
9
9
9
9
9
9
9
9
9
9
9
9
9
9
9
9
9
9
9
9
9
9
9
9
9
9
9
9
9
9
9
9
9
9
9
9
9
9
9
9
9
9
9
9
9
9
9
9
9
9
9
9
9
9
9
9
9
9
9
9
9
9
9
9
9
9
9
9
9
9
9
9
9
9
9
9
9
9
9
9
9
9
9
9
9
9
9
9
9
9
9
9
9
9
9
9
9
9
9
9
9
9
9
9
9
9
9
9
9
9
9
9
9
9
9
9
9
9
9
9
9
9
9
9
9
9
9
9
9
9
9
9
9
9
9
9
9
9
9
9
9
9
9
9
9
9
9
9
9
9
9
9
9
9
9
9
9
9
9
9
9
9
9
9
9
9
9
9
9
9
9
9
9
9
9
9
9
9
9
9
9
9
9
9
9
9
9
9
9
9
9
9
9
9
9
9
9
9
9
9
9
9
9
9
9
9
9
9
9
9
9
9
9
9
9
9
9
9
9
9
9
9
9
9
9
9
9
9
9
9
9
9
9
9
9
9
9
9
9
9
9
9
9
9
9
9
9
9
9
9
9
9
9
9
9
9
9
9
9
9
9
9
9
9
9
9
9
9
9
9
9
9
9
9
9
9
9
9
9
9
9
9
9
9
9
9
9
9
9
9
9
9
9
9
9
9
9
9
9
9
9
9
9
9
9
9
9
9
9
9
9
9
9
9
9
9
9
9
9
9
9
9
9
9
9
9
9
9
9
9
9
9
9
9
9
9
9
9
9
9
9
9
9
9
9
9
9
9
9
9
9
9
9
9
9
9
9
9
9
9
9
9
9
9
9
9
9
9
9
9
9
9
9
9
9
9
9
9
9
9
9
9
9
9
9
9
9
9
9
9
9
9
9
9
9
9
9
9
9
9
9
9
9
9
9
9
9
9
9
9
9
9
9
9
9
9
9
9
9
9
9
9
9
9
9
9
9
9
9
9
9
9
9
9
9
9
9
9
9
9
9
9
9
9
9
9
9
9
9
9
9
9
9
9
9
9
9
9
9
9
9
9
9
9
9
9
9
9
9
9
9
9
9
9
9
9
9
9
9
9
9
9
9
9
9
9
9
9
9
9
9
9
9
9
9
9
9
9
9
9
9
9
9
9
9
9
9
9
9
9
9
9
9
9
9
9
9
9
9
9
9
9
9
9
9
9
9
9
9
9
9
9
9
9
9
9
9
9
9
9
9
9
9
9
9
9
9
9
9
9
9
9
9
9
9
9
9
9
9
9
9
9
9
9
9
9
9
9
9
9
9
9
9
9
9
9
9
9
9
9
9
9
9
9
9
9
9
9
9
9
9
9
9
9
9
9
9
9
9
9
9
9
9
9
9
9
9
9
9
9
9
9
9
9
9
9
9
9
9
9
9
9
9
9
9
9
9
9
9
9
9
9
9
9
9
9
9
9
9
9
9
9
9
9
9
9
9
9
9
9
9
9
9
9
9
9
9
9
9
9
9
9
9
9
9
9
9
9
9
9
9
9
9
9
9
9
9
9
9
9
9
9
9
9
9
9
9
9
9
9
9
9
9
9
9
9
9
9
9
9
9
9
9
9
9
9
9
9
9
9
9
9
9
9
9
9
9
9
9
9
9
9
9
9
9
9
9
9
9
9
9
9
9
9
9
9
9
9
9
9
9
9
9
9
9
9
9
9
9
9
9
9
9
9
9
9
9
9
9
9
9
9
9
9
9
9
9
9
9
9
9
9
9
9
9
9
9
9
9
9
9
9
9
9
9
9
9
9
9
9
9
9
9
9
9
9
9
9
9
9
9
9
9
9
9
9
9
9
9
9
9
9
9
9
9
9
9
9
9
9
9
9
9
9
9
9
9
9
9
9
9
9
9
9
9
9
9
9
9
9
9
9
9
9
9
9
9
9
9
9
9
9
9
9
9
9
9
9
9
9
9
9
9
9
9
9
9
9
9
9
9
9
9
9
9
9
9
9
9
9
9
9
9
9
9
9
9
9
9
9
9
9
9
9
9
9
9
9
9
9
9
9
9
9
9
9
9
9
9
9
9
9
9
9
9
9
9
9
9
9
9
9
9
9
9
9
9
9
9
9
9
9
9
9
9
9
9
9
9
9
9
9
9
9
9
9
9
9
9
9
9
9
9
9
9
9
9
9
9
9
9
9
9
9
9
9
9
9
9
9
9
9
9
9
9
9
9
9
9
9
9
9
9
9
9
9
9
9
9
9
9
9
9
9
9
9
9
9
9
9
9
9
9
9
9
9
9
9
9
9
9
9
9
9
9
9
9
9
9
9
9
9
9
9
9
9
9
9
9
9
9
9
9
9
9
9
9
9
9
9
9
9
9
9
9
9
9
9
9
9
9
9
9
9
9
9
9
9
9
9
9
9
9
9
9
9
9
9
9
9
9
9
9
9
9
9
9
9
9
9
9
9
9
9
9
9
9
9
9
9
9
9
9
9
9
9
9
9
9
9
9
9
9
9
9
9
9
9
9
9
9
9
9
9
9
9
9
9
9
9
9
9
9
9
9
9
9
9
9
9
9
9
9
9
9
9
9
9
9
9
9
9
9
9
9
9
9
9
9
9
9
9
9
9
9
9
9
9
9
9
9
9
9
9
9
9
9
9
9
9
9
9
9
9
9
9
9
9
9
9
9
9
9
9
9
9
9
9
9
9
9
9
9
9
9
9
9
9
9
9
9
9
9
9
9
9
9
9
9
9
9
9
9
9
9
9
9
9
9
9
9
9
9
9
9
9
9
9
9
9
9
9
9
9
9
9
9
9
9
9
9
9
9
9
9
9
9
9
9
9
9
9
9
9
9
9
9
9
9
9
9
9
9
9
9
9
9
9
9
9
9
9
9
9
9
9
9
9
9
9
9
9
9
9
9
9
9
9
9
9
9
9
9
9
9
9
9
9
9
9
9
9
9
9
9
9
9
9
9
9
9
9
9
9
9
9
9
9
9
9
9
9
9
9
9
9
9
9
9
9
9
9
9
9
9
9
9
9
9
9
9
9
9
9
9
9
9
9
9
9
9
9
9
9
9
9
9
9
9
9
9
9
9
9
9
9
9
9
9
9
9
9
9
9
9
9
9
9
9
9
9
9
9
9
9
9
9
9
9
9
9
9
9
9
9
9
9
9
9
9
9
9
9
9
9
9
9
9
9
9
9
9
9
9
9
9
9
9
9
9
9
9
9
9
9
9
9
9
9
9
9
9
9
9
9
9
9
9
9
9
9
9
9
9
9
9
9
9
9
9
9
9
9
9
9
9
9
9
9
9
9
9
9
9
9
9
9
9
9
9
9
9
9
9
9
9
9
9
9
9
9
9
9
9
9
9
9
9
9
9
9
9
9
9
9
9
9
9
9
9
9
9
9
9
9
9
9
9
9
9
9
9
9
9
9
9
9
9
9
9
9
9
9
9
9
9
9
9
9
9
9
9
9
9
9
9
9
9
9
9
9
9
9
9
9
9
9
9
9
9
9
9
9
9
9
9
9
9
9
9
9
9
9
9
9
9
9
9
9
9
9
9
9
9
9
9
9
9
9
9
9
9
9
9
9
9
9
9
9
9
9
9
9
9
9
9
9
9
9
9
9
9
9
9
9
9
9
9
9
9
9
9
9
9
9
9
9
9
9
9
9
9
9
9
9
9
9
9
9
9
9
9
9
9
9
9
9
9
9
9
9
9
9
9
9
9
9
9
9
9
9
9
9
9
9
9
9
9
9
9
9
9
9
9
9
9
9
9
9
9
9
9
9
9
9
9
9
9
9
9
9
9
9
9
9
9
9
9
9
9
9
9
9
9
9
9
9
9
9
9
9
9
9
9
9
9
9
9
9
9
9
9
9
9
9
9
9
9
9
9
9
9
9
9
9
9
9
9
9
9
9
9
9
9
9
9
9
9
9
9
9
9
9
9
9
9
9
9
9
9
9
9
9
9
9
9
9
9
9
9
9
9
9
9
9
9
9
9
9
9
9
9
9
9
9
9
9
9
9
9
9
9
9
9
9
9
9
9
9
9
9
9
9
9
9
9
9
9
9
9
9
9
9
9
9
9
9
9
9
9
9
9
9
9
9
9
9
9
9
9
9
9
9
9
9
9
9
9
9
9
9
9
9
9
9
9
9
9
9
9
9
9
9
9
9
9
9
9
9
9
9
9
9
9
9
9
9
9
9
9
9
9
9
9
9
9
9
9
9
9
9
9
9
9
POINT_DATA      5151
SCALARS p double 
LOOKUP_TABLE default
   70000000.0000000     
   70000000.0000000     
   70000000.0000000     
   70000000.0000000     
   70000000.0000000     
   70000000.0000000     
   70000000.0000000     
   70000000.0000000     
   70000000.0000000     
   70000000.0000000     
   70000000.0000000     
   70000000.0000000     
   70000000.0000000     
   70000000.0000000     
   70000000.0000000     
   70000000.0000000     
   70000000.0000000     
   70000000.0000000     
   70000000.0000000     
   70000000.0000000     
   70000000.0000000     
   70000000.0000000     
   70000000.0000000     
   70000000.0000000     
   70000000.0000000     
   70000000.0000000     
   70000000.0000000     
   70000000.0000000     
   70000000.0000000     
   70000000.0000000     
   70000000.0000000     
   70000000.0000000     
   70000000.0000000     
   70000000.0000000     
   70000000.0000000     
   70000000.0000000     
   70000000.0000000     
   70000000.0000000     
   70000000.0000000     
   70000000.0000000     
   70000000.0000000     
   70000000.0000000     
   70000000.0000000     
   70000000.0000000     
   70000000.0000000     
   70000000.0000000     
   70000000.0000000     
   70000000.0000000     
   70000000.0000000     
   70000000.0000000     
   70000000.0000000     
   60787138.7994138     
   60798866.2463917     
   60832054.5830554     
   60883369.1567824     
   60946613.1506538     
   61014961.0964268     
   61084640.4397008     
   61154206.7748604     
   61223147.3126916     
   61291039.1389813     
   61357564.1474028     
   61422501.3885782     
   61485711.2992343     
   61547118.5644821     
   61606696.5352516     
   61664454.2283836     
   61720426.0321022     
   61774663.8437812     
   61827231.2291316     
   61878199.1794926     
   61927643.0868034     
   61975640.6178405     
   62022270.2324964     
   62067610.1471069     
   62111737.5901405     
   62154728.2335129     
   62196655.7091169     
   62237591.1380149     
   62277602.6102754     
   62316754.5576774     
   62355106.9602630     
   62392714.3216274     
   62429624.3374343     
   62465876.1674916     
   62501498.2046350     
   62536505.2149987     
   62570894.7064607     
   62604642.3694030     
   62637696.4338293     
   62669970.8117576     
   62701336.9642537     
   62731614.5820983     
   62760561.4521732     
   62787863.3850420     
   62813125.9403808     
   62835871.1207354     
   62855544.5393990     
   62871542.2903867     
   62883272.5234823     
   62890275.3197680     
   62892436.2691663     
   54666578.1622257     
   54680688.4397733     
   54715405.3303879     
   54762903.9257222     
   54818681.0788959     
   54880327.8740394     
   54946008.6926834     
   55014146.8519993     
   55083503.4495244     
   55153243.3262854     
   55222808.3517700     
   55291830.1105443     
   55360069.3696776     
   55427374.1099957     
   55493650.5684853     
   55558843.4419862     
   55622922.5362019     
   55685873.9235417     
   55747694.2224793     
   55808387.0049845     
   55867960.6243012     
   55926426.9636922     
   55983800.7586413     
   56040099.2550358     
   56095342.0446084     
   56149550.9741512     
   56202750.0624352     
   56254965.3826184     
   56306224.8812502     
   56356558.1099421     
   56405995.8437987     
   56454569.5526212     
   56502310.6770714     
   56549249.6423430     
   56595414.5160217     
   56640829.1838955     
   56685510.8762095     
   56729466.8251511     
   56772689.7686834     
   56815151.9299367     
   56856796.9835787     
   56897529.3489428     
   56937199.8825554     
   56975586.6015757     
   57012368.3078333     
   57047087.6281485     
   57079097.5435484     
   57107481.0482217     
   57130925.5511701     
   57147519.1875179     
   57154410.5278996     
   51726225.2083639     
   51729731.7925776     
   51739301.7524884     
   51753746.8321657     
   51771869.3623753     
   51792643.1403663     
   51815450.5013870     
   51839994.2309370     
   51866135.4602020     
   51893782.5619826     
   51922867.0048337     
   51953327.9357146     
   51985102.3183869     
   52018119.0294375     
   52052295.8881126     
   52087538.8329622     
   52123742.5972907     
   52160792.3515430     
   52198565.8905033     
   52236936.0456298     
   52275773.0940801     
   52314947.0133266     
   52354329.4929078     
   52393795.6634107     
   52433225.5386485     
   52472505.1919522     
   52511527.7032627     
   52550193.9218141     
   52588413.0908120     
   52626103.3763492     
   52663192.3331627     
   52699617.3244662     
   52735325.8912359     
   52770276.0366244     
   52804436.3516117     
   52837785.8558183     
   52870313.3589955     
   52902016.0595135     
   52932896.9806819     
   52962960.6976961     
   52992206.6211903     
   53020618.8736550     
   53048151.5251080     
   53074707.6644934     
   53100110.5329318     
   53124064.8790048     
   53146107.1383474     
   53165544.6825341     
   53181388.6738620     
   53192294.9955196     
   53196549.4489495     
   50832330.5117814     
   50827601.7861282     
   50815498.0188045     
   50798397.4474137     
   50778164.8920762     
   50756268.5734419     
   50733823.6699364     
   50711688.5568715     
   50690544.0894182     
   50670935.7175503     
   50653285.9679463     
   50637905.3425416     
   50625003.6252831     
   50614701.6877383     
   50607043.4107104     
   50602007.3131755     
   50599517.5694041     
   50599454.1971418     
   50601662.2877001     
   50605960.2191285     
   50612146.8483140     
   50620007.7195019     
   50629320.3575814     
   50639858.7362727     
   50651397.0255762     
   50663712.7306754     
   50676589.3369598     
   50689818.5737055     
   50703202.4027453     
   50716554.8284169     
   50729703.6111354     
   50742491.9487528     
   50754780.1668101     
   50766447.4300443     
   50777393.4521365     
   50787540.1378640     
   50796833.0411487     
   50805242.4645399     
   50812763.9627760     
   50819417.9505842     
   50825248.0628367     
   50830317.8905841     
   50834705.7456948     
   50838497.2273978     
   50841775.6227502     
   50844610.6135543     
   50847046.3846601     
   50849090.8810195     
   50850708.0671642     
   50851812.9400437     
   50852260.3898927     
   50766635.5989470     
   50759239.6141751     
   50739347.6401957     
   50709794.5434850     
   50673001.2805827     
   50631019.6594298     
   50585588.1462853     
   50538161.1978531     
   50489937.4274301     
   50441891.1249715     
   50394803.5006726     
   50349288.0330312     
   50305811.6774066     
   50264713.3789805     
   50226220.7534678     
   50190465.3656754     
   50157496.7835708     
   50127295.4630124     
   50099784.4737716     
   50074840.0744828     
   50052301.1603846     
   50031977.6305074     
   50013657.7436465     
   49997114.5518026     
   49982111.5144918     
   49968407.4071415     
   49955760.6419393     
   49943933.1203883     
   49932693.7338758     
   49921821.6221443     
   49911109.2898957     
   49900365.6690153     
   49889419.1981476     
   49878120.9726970     
   49866347.9970057     
   49854006.5470046     
   49841035.6270695     
   49827410.4808371     
   49813146.0949333     
   49798300.6204427     
   49782978.6337347     
   49767334.1701588     
   49751573.4936703     
   49735957.6105579     
   49720804.5851489     
   49706491.7454303     
   49693457.8411575     
   49682205.1162008     
   49673301.1872788     
   49667381.1737326     
   49665153.8258973     
   50894574.8040648     
   50887541.8440083     
   50868066.7810875     
   50838267.4070657     
   50800095.2444427     
   50755321.4165852     
   50705527.0525311     
   50652107.0467317     
   50596276.7097086     
   50539079.6142661     
   50481397.3532670     
   50423961.5736395     
   50367366.9746575     
   50312084.4741900     
   50258474.1282605     
   50206797.5909316     
   50157229.9935554     
   50109871.1638903     
   50064756.1290100     
   50021864.8654268     
   49981131.2798019     
   49942451.4242270     
   49905690.9701711     
   49870691.9835343     
   49837279.0588972     
   49805264.8834782     
   49774455.3102974     
   49744654.0256429     
   49715666.8983000     
   49687306.0973673     
   49659394.0621037     
   49631767.4013677     
   49604280.7920698     
   49576810.9359183     
   49549260.6218662     
   49521562.9283848     
   49493685.5853691     
   49465635.5004900     
   49437463.4395149     
   49409268.8346886     
   49381204.6796220     
   49353482.4528001     
   49326376.9941109     
   49300231.2395674     
   49275460.7009665     
   49252557.5681597     
   49232094.3318367     
   49214726.9064888     
   49201197.3929321     
   49192336.7123902     
   49189066.5128826     
   51003504.8418947     
   50997606.7818056     
   50980982.7918601     
   50955079.7725888     
   50921287.3128217     
   50880919.0777913     
   50835199.3388683     
   50785251.5965406     
   50732091.9649878     
   50676626.6578667     
   50619652.3864570     
   50561858.9335521     
   50503833.5956939     
   50446067.0586743     
   50388960.2582938     
   50332831.8367908     
   50277925.8844719     
   50224419.7307391     
   50172431.6111372     
   50122028.0871637     
   50073231.1356161     
   50026024.8565016     
   49980361.7747601     
   49936168.7324120     
   49893352.3850160     
   49851804.3299928     
   49811405.9048202     
   49772032.7006149     
   49733558.8414376     
   49695861.0820165     
   49658822.7766763     
   49622337.7702574     
   49586314.2578592     
   49550678.6544467     
   49515379.5077984     
   49480391.4789814     
   49445719.4035224     
   49411402.4336703     
   49377518.2476200     
   49344187.2953242     
   49311577.0328356     
   49279906.0785957     
   49249448.2069846     
   49220536.0787610     
   49193564.5973656     
   49168993.7763691     
   49147351.0047754     
   49129232.5926662     
   49115304.4499837     
   49106301.7094188     
   49103027.3326644     
   51053749.7675104     
   51048945.7454964     
   51035265.2130243     
   51013715.9000360     
   50985288.4501472     
   50950941.0710134     
   50911586.4750717     
   50868082.0719222     
   50821222.4529400     
   50771734.1898347     
   50720272.9302831     
   50667422.5108931     
   50613695.7134477     
   50559536.3528162     
   50505322.4148807     
   50451369.9842698     
   50397937.7279876     
   50345231.7333606     
   50293410.5338428     
   50242590.1907259     
   50192849.3304875     
   50144234.0653243     
   50096762.7480816     
   50050430.5324483     
   50005213.7252957     
   49961073.9307791     
   49917961.9956815     
   49875821.7727979     
   49834593.7242299     
   49794218.3895146     
   49754639.7447513     
   49715808.4784638     
   49677685.2079565     
   49640243.6564766     
   49603473.8066451     
   49567385.0394111     
   49532009.2602830     
   49497404.0058800     
   49463655.5140812     
   49430881.7304753     
   49399235.2128021     
   49368905.8841235     
   49340123.5751464     
   49313160.2869944     
   49288332.0981966     
   49266000.6341033     
   49246574.0145865     
   49230507.2014731     
   49218301.6925500     
   49210504.5653019     
   49207706.8830674     
   51054043.1648284     
   51050133.9360003     
   51038940.3127240     
   51021202.5432785     
   50997653.6929303     
   50969009.2297592     
   50935958.0113291     
   50899154.6306363     
   50859213.4804823     
   50816704.4391324     
   50772150.0246128     
   50726023.8910741     
   50678750.5161397     
   50630705.8955171     
   50582219.0597873     
   50533574.2401734     
   50485013.5267358     
   50436739.8810682     
   50388920.3851252     
   50341689.6274639     
   50295153.1471453     
   50249390.8731360     
   50204460.5128194     
   50160400.8569084     
   50117234.9795998     
   50074973.3222547     
   50033616.6563832     
   49993158.9274167     
   49953589.9848351     
   49914898.2068685     
   49877073.0293506     
   49840107.3885103     
   49804000.0866659     
   49768758.0880364     
   49734398.7493099     
   49700951.9863055     
   49668462.3741427     
   49636991.1739200     
   49606618.2741414     
   49577444.0301993     
   49549590.9803172     
   49523205.4116916     
   49498458.7464154     
   49475548.7134142     
   49454700.2705518     
   49436166.2409016     
   49420227.6296201     
   49407193.5925752     
   49397401.0310509     
   49391213.7801025     
   49389021.3563142     
   51019915.8002423     
   51016732.4111558     
   51007590.3786265     
   50993055.4437462     
   50973688.3814586     
   50950037.7926604     
   50922633.7572787     
   50891982.5567249     
   50858562.4431297     
   50822820.4787587     
   50785170.4050115     
   50745991.4432727     
   50705627.9135289     
   50664389.5533859     
   50622552.4189730     
   50580360.2534695     
   50538026.2178645     
   50495734.8901258     
   50453644.4516134     
   50411888.9922756     
   50370580.8782971     
   50329813.1370481     
   50289661.8241986     
   50250188.3466031     
   50211441.7219953     
   50173460.7626840     
   50136276.1753806     
   50099912.5731085     
   50064390.3979510     
   50029727.7553025     
   49995942.1614207     
   49963052.2065301     
   49931079.1356264     
   49900048.3485641     
   49869990.8200931     
   49840944.4393258     
   49812955.2667908     
   49786078.7058357     
   49760380.5838080     
   49735938.1372480     
   49712840.8943833     
   49691191.4475925     
   49671106.1082881     
   49652715.4368694     
   49636164.6409744     
   49621613.8359717     
   49609238.1620385     
   49599227.7518092     
   49591787.5420596     
   49587136.9256886     
   49585509.2455548     
   50964150.1732105     
   50961570.5702162     
   50954149.2159847     
   50942325.6390406     
   50926535.1508265     
   50907203.7624997     
   50884743.7184497     
   50859549.7370246     
   50831996.0294729     
   50802434.0835056     
   50771191.1674217     
   50738569.4925354     
   50704845.9549816     
   50670272.3705713     
   50635076.1168557     
   50599461.1011470     
   50563608.9802001     
   50527680.5656089     
   50491817.3579042     
   50456143.1612479     
   50420765.7390497     
   50385778.4785111     
   50351262.0388874     
   50317285.9640910     
   50283910.2451582     
   50251186.8221149     
   50219161.0179774     
   50187872.9001017     
   50157358.5659413     
   50127651.3515943     
   50098782.9623916     
   50070784.5253236     
   50043687.5633837     
   50017524.8920386     
   49992331.4380889     
   49968144.9812495     
   49945006.8189354     
   49922962.3550590     
   49902061.6141838     
   49882359.6831862     
   49863917.0836648     
   49846800.0796710     
   49831080.9268360     
   49816838.0704671     
   49804156.3014233     
   49793126.8792207     
   49783847.6314902     
   49776423.0372164     
   49770964.2974406     
   49767589.3895127     
   49766423.0882247     
   50896071.6041726     
   50894003.1973128     
   50888044.1710419     
   50878535.1925517     
   50865813.6249970     
   50850209.8370688     
   50832043.9653370     
   50811623.2110215     
   50789239.6961897     
   50765168.8780047     
   50739668.4900281     
   50712977.9599606     
   50685318.2439927     
   50656892.0141057     
   50627884.1348661     
   50598462.3696597     
   50568778.2617263     
   50538968.1417781     
   50509154.2207389     
   50479445.7327508     
   50449940.0997761     
   50420724.0946796     
   50391874.9845365     
   50363461.6400462     
   50335545.6003547     
   50308182.0853744     
   50281420.9498837     
   50255307.5753966     
   50229883.6970785     
   50205188.1639503     
   50181257.6313400     
   50158127.1851004     
   50135830.8975838     
   50114402.3158318     
   50093874.8829669     
   50074282.2944280     
   50055658.7915363     
   50038039.3959545     
   50021460.0899379     
   50005957.9488812     
   49991571.2344983     
   49978339.4589636     
   49966303.4323405     
   49955505.3074166     
   49945988.6373449     
   49937798.4618481     
   49930981.4366584     
   49925586.0177273     
   49921662.7059856     
   49919264.3502028     
   49918446.4958689     
   50822360.5911931     
   50820725.5637664     
   50816008.5975805     
   50808470.1326909     
   50798368.3757062     
   50785956.5961423     
   50771480.7570037     
   50755177.5338186     
   50737272.7466379     
   50717980.1997469     
   50697500.9050339     
   50676022.6522941     
   50653719.8819937     
   50630753.8130588     
   50607272.7786866     
   50583412.7258115     
   50559297.8378786     
   50535041.2453350     
   50510745.7932591     
   50486504.8404441     
   50462403.0688197     
   50438517.2861902     
   50414917.2088274     
   50391666.2134793     
   50368822.0508476     
   50346437.5146094     
   50324561.0616638     
   50303237.3805309     
   50282507.9058088     
   50262411.2773533     
   50242983.7434650     
   50224259.5079169     
   50206271.0211903     
   50189049.2168725     
   50172623.6948606     
   50157022.8538634     
   50142273.9767343     
   50128403.2734372     
   50115435.8879474     
   50103395.8771177     
   50092306.1714315     
   50082188.5295439     
   50073063.5004119     
   50064950.4084243     
   50057867.3779466     
   50051831.4137114     
   50046858.5520442     
   50042964.0945351     
   50040162.9300078     
   50038469.9420976     
   50037900.4881519     
   50747755.8624320     
   50746484.1505784     
   50742809.7144785     
   50736927.6647235     
   50729031.9104707     
   50719313.1825763     
   50707957.2978790     
   50695143.7043807     
   50681044.3228303     
   50665822.6819820     
   50649633.3303443     
   50632621.4977210     
   50614922.9745669     
   50596664.1749798     
   50577962.3493124     
   50558925.9142118     
   50539654.8707473     
   50520241.2846863     
   50500769.8065677     
   50481318.2127473     
   50461957.9518871     
   50442754.6843269     
   50423768.8043680     
   50405055.9377025     
   50386667.4080525     
   50368650.6685745     
   50351049.6947852     
   50333905.3367120     
   50317255.6287388     
   50301136.0562320     
   50285579.7785758     
   50270617.8087403     
   50256279.1500278     
   50242590.8912147     
   50229578.2619848     
   50217264.6513644     
   50205671.5928497     
   50194818.7210773     
   50184723.7062372     
   50175402.1739344     
   50166867.6198274     
   50159131.3300219     
   50152202.3197364     
   50146087.3039959     
   50140790.7147902     
   50136314.7789353     
   50132659.6694164     
   50129823.7398644     
   50127803.8466323     
   50126595.7555302     
   50126194.6210088     
   50675513.9956903     
   50674541.2758153     
   50671725.7246198     
   50667210.0142975     
   50661136.4627287     
   50653645.6054323     
   50644874.9362491     
   50634957.8442938     
   50624022.7588237     
   50612192.5001944     
   50599583.8253076     
   50586307.1493163     
   50572466.4214509     
   50558159.1311755     
   50543476.4208904     
   50528503.2825583     
   50513318.8175281     
   50497996.5411393     
   50482604.7161520     
   50467206.7014931     
   50451861.3051056     
   50436623.1317792     
   50421542.9186719     
   50406667.8528071     
   50392041.8661557     
   50377705.9049967     
   50363698.1711463     
   50350054.3333618     
   50336807.7078216     
   50323989.4070830     
   50311628.4573653     
   50299751.8844301     
   50288384.7687805     
   50277550.2713864     
   50267269.6317187     
   50257562.1405428     
   50248445.0907150     
   50239933.7101445     
   50232041.0821287     
   50224778.0594206     
   50218153.1796000     
   50212172.5905299     
   50206839.9957690     
   50202156.6306521     
   50198121.2801264     
   50194730.3491226     
   50191977.9949501     
   50189856.3286517     
   50188355.6881772     
   50187464.9804962     
   50187172.0824462     
   50607730.1014776     
   50606998.0162772     
   50604874.5148750     
   50601461.1429975     
   50596859.7021677     
   50591171.2364931     
   50584495.1331433     
   50576928.3554175     
   50568564.8165515     
   50559494.8936386     
   50549805.0743440     
   50539577.7245395     
   50528890.9622743     
   50517818.6222472     
   50506430.2948275     
   50494791.4243322     
   50482963.4524629     
   50471003.9942797     
   50458967.0357064     
   50446903.1431754     
   50434859.6775625     
   50422881.0059724     
   50411008.7061948     
   50399281.7597368     
   50387736.7302675     
   50376407.9250849     
   50365327.5378629     
   50354525.7714664     
   50344030.9400752     
   50333869.5502394     
   50324066.3608416     
   50314644.4222719     
   50305625.0954711     
   50297028.0518644     
   50288871.2556345     
   50281170.9302599     
   50273941.5118043     
   50267195.5920677     
   50260943.8554173     
   50255195.0138654     
   50249955.7457470     
   50245230.6440993     
   50241022.1815014     
   50237330.6985916     
   50234154.4236109     
   50231489.5299759     
   50229330.2378775     
   50227668.9640543     
   50226496.5210381     
   50225802.3632437     
   50225574.8724007     
   50545594.8304807     
   50545051.7778356     
   50543472.6471832     
   50540927.6190865     
   50537487.5108658     
   50533223.0734243     
   50528204.3614125     
   50522500.1892355     
   50516177.6786521     
   50509301.8980504     
   50501935.5891746     
   50494138.9740772     
   50485969.6332149     
   50477482.4446943     
   50468729.5744874     
   50459760.5077646     
   50450622.1121836     
   50441358.7248561     
   50432012.2557187     
   50422622.3010439     
   50413226.2618182     
   50403859.4626233     
   50394555.2674878     
   50385345.1898989     
   50376258.9947964     
   50367324.7909035     
   50358569.1122032     
   50350016.9877507     
   50341691.9993365     
   50333616.3267966     
   50325810.7810193     
   50318294.8249366     
   50311086.5830222     
   50304202.8400614     
   50297659.0302213     
   50291469.2177336     
   50285646.0708180     
   50280200.8308191     
   50275143.2788961     
   50270481.7029862     
   50266222.8681362     
   50262371.9936366     
   50258932.7406553     
   50255907.2142013     
   50253295.9831946     
   50251098.1220805     
   50249311.2767423     
   50247931.7563294     
   50246954.6509739     
   50246373.9731905     
   50246182.8181002     
   50489616.8199231     
   50489218.5287248     
   50488056.9363604     
   50486179.0459125     
   50483632.6873192     
   50480466.0411015     
   50476727.2070747     
   50472463.8260079     
   50467722.7581549     
   50462549.8191664     
   50456989.5712386     
   50451085.1654584     
   50444878.2300947     
   50438408.7989342     
   50431715.2735581     
   50424834.4135771     
   50417801.3491981     
   50410649.6109851     
   50403411.1722571     
   50396116.5001644     
   50388794.6120838     
   50381473.1345363     
   50374178.3623526     
   50366935.3162766     
   50359767.7976098     
   50352698.4388543     
   50345748.7496192     
   50338939.1573172     
   50332289.0424013     
   50325816.7680813     
   50319539.7046271     
   50313474.2485108     
   50307635.8367694     
   50302038.9570916     
   50296697.1542418     
   50291623.0335387     
   50286828.2622035     
   50282323.5694783     
   50278118.7464892     
   50274222.6468800     
   50270643.1892700     
   50267387.3625726     
   50264461.2351514     
   50261869.9686617     
   50259617.8372259     
   50257708.2523018     
   50256143.7932205     
   50254926.2428902     
   50254056.6275931     
   50253535.2591571     
   50253361.7771010     
   50439815.9976506     
   50439525.6440179     
   50438675.9722913     
   50437297.4599146     
   50435421.4582183     
   50433079.8776301     
   50430304.8989386     
   50427128.7154303     
   50423583.3084940     
   50419700.2573629     
   50415510.5821380     
   50411044.6181045     
   50406331.9185999     
   50401401.1832482     
   50396280.2081908     
   50390995.8549496     
   50385574.0347149     
   50380039.7050902     
   50374416.8766344     
   50368728.6268748     
   50362997.1198026     
   50357243.6291967     
   50351488.5644356     
   50345751.4977423     
   50340051.1920695     
   50334405.6290621     
   50328832.0367303     
   50323346.9166428     
   50317966.0705875     
   50312704.6267678     
   50307577.0656918     
   50302597.2459771     
   50297778.4303317     
   50293133.3119863     
   50288674.0418293     
   50284412.2564485     
   50280359.1071916     
   50276525.2902308     
   50272921.0774442     
   50269556.3477129     
   50266440.6179704     
   50263583.0730488     
   50260992.5930431     
   50258677.7765875     
   50256646.9581399     
   50254908.2171327     
   50253469.3767408     
   50252337.9900927     
   50251521.3120770     
   50251026.2555234     
   50250859.3314642     
   50395886.0239671     
   50395673.9023217     
   50395050.8419498     
   50394036.0227188     
   50392649.4482284     
   50390911.7419739     
   50388843.9577372     
   50386467.4069446     
   50383803.5046279     
   50380873.6346404     
   50377699.0339755     
   50374300.6954046     
   50370699.2872134     
   50366915.0885260     
   50362967.9385618     
   50358877.1981289     
   50354661.7217023     
   50350339.8385399     
   50345929.3414361     
   50341447.4818835     
   50336910.9705982     
   50332335.9825504     
   50327738.1658271     
   50323132.6538229     
   50318534.0804206     
   50313956.5979619     
   50309413.8979387     
   50304919.2344384     
   50300485.4504608     
   50296125.0072830     
   50291850.0170799     
   50287672.2790057     
   50283603.3189075     
   50279654.4327615     
   50275836.7338012     
   50272161.2031234     
   50268638.7433298     
   50265280.2344550     
   50262096.5910752     
   50259098.8190652     
   50256298.0699961     
   50253705.6906544     
   50251333.2646518     
   50249192.6426209     
   50247295.9571267     
   50245655.6182461     
   50244284.2858838     
   50243194.8154110     
   50242400.1742488     
   50241913.3286371     
   50241747.1019999     
   50357324.4807423     
   50357167.3467922     
   50356704.0485261     
   50355946.4387715     
   50354907.0853955     
   50353599.1403773     
   50352036.2164190     
   50350232.2725294     
   50348201.5095467     
   50345958.2761276     
   50343516.9853443     
   50340892.0417159     
   50338097.7782622     
   50335148.4029989     
   50332057.9541913     
   50328840.2636386     
   50325508.9272641     
   50322077.2823215     
   50318558.3905993     
   50314965.0270871     
   50311309.6736695     
   50307604.5175189     
   50303861.4539647     
   50300092.0937244     
   50296307.7744790     
   50292519.5768693     
   50288738.3450609     
   50284974.7120936     
   50281239.1302672     
   50277541.9068313     
   50273893.2452355     
   50270303.2921396     
   50266782.1902933     
   50263340.1372446     
   50259987.4496329     
   50256734.6325476     
   50253592.4530881     
   50250572.0168364     
   50247684.8454485     
   50244942.9529984     
   50242358.9180730     
   50239945.9479561     
   50237717.9305895     
   50235689.4694293     
   50233875.8959133     
   50232293.2541271     
   50230958.2525515     
   50229888.1786241     
   50229100.7734079     
   50228614.0660062     
   50228446.1704418     
   50323531.8364963     
   50323412.0589754     
   50323057.7324060     
   50322476.2892288     
   50321675.7394931     
   50320664.5850790     
   50319451.7382951     
   50318046.4455408     
   50316458.2165507     
   50314696.7595645     
   50312771.9225996     
   50310693.6408608     
   50308471.8902061     
   50306116.6465005     
   50303637.8506394     
   50301045.3789912     
   50298349.0190145     
   50295558.4498240     
   50292683.2275173     
   50289732.7751304     
   50286716.3771494     
   50283643.1785763     
   50280522.1886170     
   50277362.2891295     
   50274172.2480403     
   50270960.7379909     
   50267736.3605301     
   50264507.6761963     
   50261283.2408472     
   50258071.6485804     
   50254881.5815402     
   50251721.8668167     
   50248601.5405071     
   50245529.9188121     
   50242516.6757771     
   50239571.9269472     
   50236706.3177829     
   50233931.1151701     
   50231258.2997617     
   50228700.6562099     
   50226271.8576115     
   50223986.5397300     
   50221860.3598201     
   50219910.0342553     
   50218153.3487357     
   50216609.1347754     
   50215297.2065853     
   50214238.2535595     
   50213453.6854886     
   50212965.4304640     
   50212795.6891314     
   50293882.4020736     
   50293787.0423462     
   50293504.3414780     
   50293039.3523825     
   50292397.5607316     
   50291584.8248094     
   50290607.3188581     
   50289471.4802440     
   50288183.9606761     
   50286751.5816185     
   50285181.2939583     
   50283480.1419226     
   50281655.2311921     
   50279713.7011278     
   50277662.7010164     
   50275509.3702489     
   50273260.8223633     
   50270924.1329207     
   50268506.3312234     
   50266014.3959380     
   50263455.2547399     
   50260835.7881575     
   50258162.8378514     
   50255443.2196240     
   50252683.7415040     
   50249891.2272988     
   50247072.5460359     
   50244234.6477329     
   50241384.6059287     
   50238529.6673747     
   50235677.3092150     
   50232835.3038697     
   50230011.7916742     
   50227215.3610919     
   50224455.1360220     
   50221740.8693404     
   50219083.0413358     
   50216492.9611467     
   50213982.8686403     
   50211566.0334457     
   50209256.8470522     
   50207070.9030706     
   50205025.0599743     
   50203137.4799821     
   50201427.6373204     
   50199916.2890622     
   50198625.4022427     
   50197578.0321939     
   50196798.1491742     
   50196310.4135118     
   50196139.9035346     
   50267771.7665818     
   50267691.6747182     
   50267454.1239698     
   50267063.1491965     
   50266523.0798358     
   50265838.4922816     
   50265014.1662255     
   50264055.0451714     
   50262966.2011895     
   50261752.8038609     
   50260420.0932805     
   50258973.3569385     
   50257417.9102805     
   50255759.0807545     
   50254002.1951774     
   50252152.5702968     
   50250215.5064771     
   50248196.2844985     
   50246100.1655220     
   50243932.3943438     
   50241698.2061271     
   50239402.8368666     
   50237051.5379056     
   50234649.5948800     
   50232202.3515155     
   50229715.2387444     
   50227193.8096304     
   50224643.7806032     
   50222071.0794807     
   50219481.9007189     
   50216882.7682411     
   50214280.6060725     
   50211682.8168227     
   50209097.3678115     
   50206532.8843118     
   50203998.7489773     
   50201505.2060284     
   50199063.4681777     
   50196685.8235945     
   50194385.7394478     
   50192177.9577419     
   50190078.5783279     
   50188105.1231766     
   50186276.5753411     
   50184613.3856237     
   50183137.4399483     
   50181871.9809958     
   50180841.4789787     
   50180071.4486781     
   50179588.2131428     
   50179418.6186741     
   50244645.5982102     
   50244574.5832554     
   50244364.2099869     
   50244018.3424586     
   50243541.0161714     
   50242936.3947051     
   50242208.7314702     
   50241362.3368217     
   50240401.5505182     
   50239330.7193097     
   50238154.1793084     
   50236876.2427291     
   50235501.1885740     
   50234033.2568602     
   50232476.6460503     
   50230835.5134146     
   50229113.9781491     
   50227316.1271602     
   50225446.0235229     
   50223507.7177131     
   50221505.2617989     
   50219442.7268600     
   50217324.2239756     
   50215153.9291894     
   50212936.1129101     
   50210675.1742495     
   50208375.6808240     
   50206042.4145488     
   50203680.4239343     
   50201295.0833438     
   50198892.1595797     
   50196477.8860337     
   50194059.0444425     
   50191643.0540399     
   50189238.0675639     
   50186853.0731656     
   50184498.0007686     
   50182183.8308282     
   50179922.7027569     
   50177728.0195215     
   50175614.5440969     
   50173598.4826315     
   50171697.5483983     
   50169930.9999551     
   50168319.6465476     
   50166885.8137932     
   50165653.2632631     
   50164647.0609258     
   50163893.3916806     
   50163419.3205065     
   50163252.5049874     
   50224014.4644900     
   50223948.5706849     
   50223753.8364122     
   50223434.4274971     
   50222994.5772810     
   50222438.5427502     
   50221770.5671759     
   50220994.8496205     
   50220115.5212629     
   50219136.6281943     
   50218062.1201308     
   50216895.8443954     
   50215641.5444923     
   50214302.8626381     
   50212883.3456925     
   50211386.4540325     
   50209815.5730399     
   50208174.0269895     
   50206465.0952545     
   50204692.0308587     
   50202858.0815195     
   50200966.5134192     
   50199020.6380353     
   50197023.8424308     
   50194979.6234704     
   50192891.6264691     
   50190763.6888097     
   50188599.8890691     
   50186404.6021713     
   50184182.5610336     
   50181938.9250818     
   50179679.3558717     
   50177410.0998672     
   50175138.0781680     
   50172870.9826575     
   50170617.3776312     
   50168386.8054758     
   50166189.8943831     
   50164038.4654158     
   50161945.6354960     
   50159925.9120930     
   50157995.2745823     
   50156171.2364891     
   50154472.8822106     
   50152920.8714418     
   50151537.4045457     
   50150346.1426981     
   50149372.0779558     
   50148641.3506267     
   50148181.0145440     
   50148018.7549761     
   50205458.7398085     
   50205395.6410154     
   50205209.7076705     
   50204905.6185435     
   50204488.0363852     
   50203961.5612452     
   50203330.6916441     
   50202599.7940955     
   50201773.0809368     
   50200854.5960156     
   50199848.2075084     
   50198757.6070075     
   50197586.3139701     
   50196337.6846681     
   50195014.9248686     
   50193621.1056016     
   50192159.1815227     
   50190632.0115231     
   50189042.3813941     
   50187393.0284930     
   50185686.6684849     
   50183926.0243541     
   50182113.8579775     
   50180253.0046387     
   50178346.4109292     
   50176397.1765330     
   50174408.6004213     
   50172384.2319917     
   50170327.9276630     
   50168243.9133915     
   50166136.8534798     
   50164011.9259193     
   50161874.9043221     
   50159732.2462492     
   50157591.1874298     
   50155459.8409705     
   50153347.3001798     
   50151263.7430731     
   50149220.5359807     
   50147230.3329697     
   50145307.1670307     
   50143466.5282155     
   50141725.4231891     
   50140102.4100791     
   50138617.6021543     
   50137292.6338980     
   50136150.5836100     
   50135215.8479479     
   50134513.9659572     
   50134071.3932272     
   50133915.2307650     
   50188626.9331939     
   50188565.4444159     
   50188384.7736216     
   50188090.1509122     
   50187686.7264908     
   50187179.5204903     
   50186573.3817809     
   50185872.9563967     
   50185082.6655615     
   50184206.6927924     
   50183248.9792221     
   50182213.2261035     
   50181102.9034005     
   50179921.2634100     
   50178671.3584632     
   50177356.0618961     
   50175978.0916498     
   50174540.0360275     
   50173044.3813114     
   50171493.5410972     
   50169889.8873544     
   50168235.7833465     
   50166533.6186607     
   50164785.8466879     
   50162995.0249705     
   50161163.8588897     
   50159295.2491968     
   50157392.3439042     
   50155458.5950338     
   50153497.8206731     
   50151514.2727044     
   50149512.7104449     
   50147498.4802597     
   50145477.6009730     
   50143456.8546048     
   50141443.8815863     
   50139447.2791558     
   50137476.7011118     
   50135542.9564876     
   50133658.1040452     
   50131835.5387702     
   50130090.0658294     
   50128437.9567775     
   50126896.9822566     
   50125486.4151081     
   50124226.9978554     
   50123140.8690605     
   50122251.4442635     
   50121583.2492407     
   50121161.7062224     
   50121012.8774395     
   50173230.0243440     
   50173169.7209647     
   50172992.9804284     
   50172705.5166381     
   50172312.9174923     
   50171820.5915462     
   50171233.7244856     
   50170557.2461738     
   50169795.8082837     
   50168953.7719512     
   50168035.2044989     
   50167043.8840658     
   50165983.3109068     
   50164856.7241591     
   50163667.1229822     
   50162417.2911302     
   50161109.8241959     
   50159747.1589519     
   50158331.6043987     
   50156865.3743034     
   50155350.6211680     
   50153789.4717092     
   50152184.0640492     
   50150536.5869178     
   50148849.3212478     
   50147124.6846004     
   50145365.2788984     
   50143573.9419550     
   50141753.8032722     
   50139908.3445417     
   50138041.4651982     
   50136157.5532592     
   50134261.5615169     
   50132359.0889282     
   50130456.4667668     
   50128560.8487535     
   50126680.3039577     
   50124823.9107706     
   50123001.8496837     
   50121225.4919817     
   50119507.4807944     
   50117861.8002811     
   50116303.8281007     
   50114850.3658103     
   50113519.6415446     
   50112331.2793678     
   50111306.2301990     
   50110466.6603449     
   50109835.7955563     
   50109437.7212380     
   50109297.1429045     
   50159033.7192830     
   50158974.6502662     
   50158801.8885961     
   50158521.5071062     
   50158139.4218295     
   50157661.3363736     
   50157092.6966253     
   50156438.6566379     
   50155704.0557473     
   50154893.4063319     
   50154010.8912130     
   50153060.3694522     
   50152045.3892166     
   50150969.2064125     
   50149834.8078951     
   50148644.9382225     
   50147402.1291055     
   50146108.7309010     
   50144766.9456901     
   50143378.8616584     
   50141946.4886662     
   50140471.7950370     
   50138956.7457184     
   50137403.3420770     
   50135813.6636657     
   50134189.9123679     
   50132534.4593596     
   50130849.8953468     
   50129139.0845239     
   50127405.2226614     
   50125651.8996570     
   50123883.1667741     
   50122103.6086374     
   50120318.4198518     
   50118533.4858463     
   50116755.4672268     
   50114991.8865260     
   50113251.2157848     
   50111542.9628775     
   50109877.7539133     
   50108267.4084373     
   50106725.0035360     
   50105264.9223774     
   50103902.8822546     
   50102655.9369313     
   50101542.4481294     
   50100582.0214710     
   50099795.4032346     
   50099204.3360250     
   50098831.3739525     
   50098699.6611145     
   50145849.9653617     
   50145792.4450036     
   50145624.4913295     
   50145352.3876620     
   50144982.2423923     
   50144519.9321955     
   50143971.0557908     
   50143340.8991628     
   50142634.4123155     
   50141856.1969779     
   50141010.5042363     
   50140101.2408136     
   50139131.9826217     
   50138105.9942353     
   50137026.2530413     
   50135895.4769772     
   50134716.1549583     
   50133490.5792902     
   50132220.8795578     
   50130909.0576659     
   50129557.0238714     
   50128166.6337951     
   50126739.7265278     
   50125278.1640500     
   50123783.8722675     
   50122258.8840275     
   50120705.3845227     
   50119125.7595038     
   50117522.6467163     
   50115898.9909434     
   50114258.1029677     
   50112603.7226664     
   50110940.0863101     
   50109271.9979507     
   50107604.9045390     
   50105944.9741209     
   50104299.1760994     
   50102675.3621323     
   50101082.3457550     
   50099529.9782926     
   50098029.2180606     
   50096592.1892944     
   50095232.2267200     
   50093963.9012564     
   50092803.0220985     
   50091766.6104648     
   50090872.8407318     
   50090140.9456352     
   50089591.0838090     
   50089244.1702210     
   50089121.6729797     
   50133528.6080212     
   50133473.0710054     
   50133311.1160675     
   50133049.0872218     
   50132693.1455151     
   50132249.2122515     
   50131722.9227105     
   50131119.5913058     
   50130444.1882798     
   50129701.3273692     
   50128895.2634222     
   50128029.8986913     
   50127108.7964203     
   50126135.2003656     
   50125112.0589887     
   50124042.0532153     
   50122927.6268383     
   50121771.0188362     
   50120574.2970699     
   50119339.3930043     
   50118068.1372626     
   50116762.2959691     
   50115423.6079598     
   50114053.8230440     
   50112654.7415840     
   50111228.2557205     
   50109776.3926118     
   50108301.3600757     
   50106805.5950154     
   50105291.8149817     
   50103763.0731655     
   50102222.8170197     
   50100674.9505828     
   50099123.9004043     
   50097574.6847526     
   50096032.9855157     
   50094505.2218784     
   50092998.6244794     
   50091521.3083121     
   50090082.3421572     
   50088691.8118210     
   50087360.8739440     
   50086101.7966669     
   50084927.9830562     
   50083853.9729748     
   50082895.4191150     
   50082069.0333100     
   50081392.5001128     
   50080884.3560765     
   50080563.8352484     
   50080450.6840391     
   50121949.7226505     
   50121896.6284042     
   50121741.9472026     
   50121491.9461040     
   50121152.7089197     
   50120730.0805322     
   50120229.6214363     
   50119656.5734499     
   50119015.8367083     
   50118311.9574011     
   50117549.1252658     
   50116731.1795896     
   50115861.6223693     
   50114943.6372906     
   50113980.1132834     
   50112973.6715573     
   50111926.6952000     
   50110841.3606056     
   50109719.6701904     
   50108563.4860232     
   50107374.5641625     
   50106154.5896294     
   50104905.2120687     
   50103628.0822505     
   50102324.8896442     
   50100997.4013585     
   50099647.5027797     
   50098277.2402620     
   50096888.8662169     
   50095484.8869275     
   50094068.1133567     
   50092641.7151358     
   50091209.2778044     
   50089774.8632162     
   50088343.0728263     
   50086919.1133314     
   50085508.8638373     
   50084118.9433845     
   50082756.7772645     
   50081430.6601293     
   50080149.8134302     
   50078924.4342635     
   50077765.7322662     
   50076685.9508623     
   50075698.3689568     
   50074817.2792120     
   50074057.9393955     
   50073436.4940812     
   50072969.8652892     
   50072675.6125286     
   50072571.7650990     
   50111016.9001212     
   50110966.6742784     
   50110820.4554574     
   50110584.3154505     
   50110264.1482465     
   50109865.6163814     
   50109394.1070630     
   50108854.6989977     
   50108252.1400419     
   50107590.8351705     
   50106874.8438238     
   50106107.8854400     
   50105293.3518760     
   50104434.3254292     
   50103533.6012611     
   50102593.7131608     
   50101616.9617573     
   50100605.4444643     
   50099561.0866190     
   50098485.6734436     
   50097380.8826104     
   50096248.3173233     
   50095089.5399463     
   50093906.1063056     
   50092699.6008655     
   50091471.6730393     
   50090224.0749349     
   50088958.7008507     
   50087677.6288422     
   50086383.1646507     
   50085077.8882437     
   50083764.7031379     
   50082446.8885735     
   50081128.1544665     
   50079812.6988875     
   50078505.2675948     
   50077211.2148829     
   50075936.5646956     
   50074688.0705981     
   50073473.2728107     
   50072300.5500914     
   50071179.1638385     
   50070119.2913958     
   50069132.0452320     
   50068229.4744874     
   50067424.5454090     
   50066731.0975183     
   50066163.7730664     
   50065737.9185027     
   50065469.4583723     
   50065374.7442070     
   50100651.5874669     
   50100604.5902583     
   50100467.8430978     
   50100247.1263304     
   50099948.0519700     
   50099576.0128440     
   50099136.1409326     
   50098633.2757909     
   50098071.9431808     
   50097456.3434433     
   50096790.3487311     
   50096077.5079797     
   50095321.0583965     
   50094523.9422487     
   50093688.8278158     
   50092818.1334992     
   50091914.0542388     
   50090978.5895509     
   50090013.5726692     
   50089020.7004259     
   50088001.5636513     
   50086957.6779984     
   50085890.5152043     
   50084801.5348932     
   50083692.2170949     
   50082564.0957100     
   50081418.7931871     
   50080258.0566983     
   50079083.7960990     
   50077898.1239379     
   50076703.3977415     
   50075502.2647317     
   50074297.7090402     
   50073093.1013570     
   50071892.2507935     
   50070699.4585372     
   50069519.5726419     
   50068358.0430137     
   50067220.9753366     
   50066115.1823314     
   50065048.2303674     
   50064028.4790754     
   50063065.1112623     
   50062168.1501472     
   50061348.4607810     
   50060617.7325346     
   50059988.4398319     
   50059473.7789329     
   50059087.5796285     
   50058844.1922107     
   50058758.3520077     
   50090788.4691095     
   50090744.9824827     
   50090618.4980063     
   50090414.4304251     
   50090138.0382896     
   50089794.3764796     
   50089388.2572500     
   50088924.2206349     
   50088406.5143322     
   50087839.0826416     
   50087225.5636444     
   50086569.2935849     
   50085873.3173209     
   50085140.4037105     
   50084373.0648809     
   50083573.5784342     
   50082744.0118001     
   50081886.2480880     
   50081002.0129506     
   50080092.9021120     
   50079160.4093449     
   50078205.9548011     
   50077230.9136927     
   50076236.6454133     
   50075224.5232473     
   50074195.9648714     
   50073152.4638844     
   50072095.6226197     
   50071027.1864971     
   50069949.0801524     
   50068863.4455470     
   50067772.6822018     
   50066679.4896136     
   50065586.9118034     
   50064498.3838000     
   50063417.7796887     
   50062349.4616399     
   50061298.3290842     
   50060269.8669178     
   50059270.1913071     
   50058306.0913325     
   50057385.0643763     
   50056515.3428517     
   50055705.9096203     
   50054966.4993012     
   50054307.5826987     
   50053740.3318302     
   50053276.5635991     
   50052928.6610921     
   50052709.4728201     
   50052632.1919326     
   50081371.8040546     
   50081332.0311482     
   50081216.3790400     
   50081029.8428881     
   50080777.2753967     
   50080463.3431410     
   50080092.4906840     
   50079668.9132524     
   50079196.5380918     
   50078679.0141134     
   50078119.7090931     
   50077521.7134744     
   50076887.8497383     
   50076220.6863055     
   50075522.5549997     
   50074795.5712103     
   50074041.6560211     
   50073262.5597120     
   50072459.8861783     
   50071635.1179453     
   50070789.6415742     
   50069924.7733614     
   50069041.7853264     
   50068141.9315556     
   50067226.4750358     
   50066296.7151512     
   50065354.0160556     
   50064399.8361434     
   50063435.7588475     
   50062463.5249782     
   50061485.0667821     
   50060502.5438516     
   50059518.3809393     
   50058535.3076323     
   50057556.3997179     
   50056585.1219120     
   50055625.3714350     
   50054681.5217006     
   50053758.4651285     
   50052861.6538165     
   50051997.1365157     
   50051171.5900539     
   50050392.3430797     
   50049667.3897804     
   50049005.3910949     
   50048415.6609676     
   50047908.1354077     
   50047493.3226230     
   50047182.2333157     
   50046986.2914175     
   50046917.2270508     
   50072352.5978779     
   50072316.6700533     
   50072212.2175912     
   50072043.7794399     
   50071815.7666425     
   50071532.4227472     
   50071197.7912439     
   50070815.6907206     
   50070389.6978512     
   50069923.1378682     
   50069419.0818561     
   50068880.3500103     
   50068309.5199295     
   50067708.9390058     
   50067080.7400368     
   50066426.8592791     
   50065749.0562809     
   50065048.9349526     
   50064327.9654629     
   50063587.5066641     
   50062828.8288577     
   50062053.1368071     
   50061261.5929874     
   50060455.3411281     
   50059635.5301622     
   50058803.3387364     
   50057960.0004625     
   50057106.8301125     
   50056245.2509544     
   50055376.8234197     
   50054503.2752617     
   50053626.5333184     
   50052748.7569328     
   50051872.3729905     
   50051000.1124284     
   50050135.0479278     
   50049280.6323416     
   50048440.7372081     
   50047619.6904874     
   50046822.3124086     
   50046053.9480593     
   50045320.4950899     
   50044628.4246620     
   50043984.7935767     
   50043397.2454055     
   50042873.9984608     
   50042423.8186430     
   50042055.9756328     
   50041780.1816246     
   50041606.5128343     
   50041545.3153412     
   50063686.4748490     
   50063654.4628034     
   50063561.4057923     
   50063411.3641197     
   50063208.2849706     
   50062955.9670778     
   50062658.0316337     
   50062317.9000639     
   50061938.7787623     
   50061523.6504818     
   50061075.2717896     
   50060596.1758331     
   50060088.6795831     
   50059554.8947270     
   50058996.7414313     
   50058415.9642790     
   50057814.1497916     
   50057192.7450526     
   50056553.0770636     
   50055896.3725658     
   50055223.7781565     
   50054536.3806148     
   50053835.2274222     
   50053121.3475261     
   50052395.7724416     
   50051659.5578256     
   50050913.8056813     
   50050159.6873671     
   50049398.4675836     
   50048631.5295051     
   50047860.4011960     
   50047086.7834122     
   50046312.5788333     
   50045539.9226942     
   50044771.2146892     
   50044009.1518998     
   50043256.7623564     
   50042517.4386707     
   50041794.9709873     
   50041093.5782876     
   50040417.9368553     
   50039773.2044849     
   50039165.0388060     
   50038599.6079237     
   50038083.5914772     
   50037624.1702318     
   50037229.0024887     
   50036906.1859768     
   50036664.2045157     
   50036511.8596464     
   50036458.1885756     
   50055332.1171867     
   50055304.0437329     
   50055222.4424639     
   50055090.8836223     
   50054912.8389675     
   50054691.6507834     
   50054430.5063478     
   50054132.4184025     
   50053800.2117104     
   50053436.5154315     
   50053043.7608030     
   50052624.1834632     
   50052179.8296943     
   50051712.5658571     
   50051224.0903396     
   50050715.9474078     
   50050189.5424450     
   50049646.1581537     
   50049086.9713980     
   50048513.0704491     
   50047925.4724852     
   50047325.1412657     
   50046713.0049681     
   50046089.9742240     
   50045456.9604375     
   50044814.8944993     
   50044164.7460331     
   50043507.5433235     
   50042844.3940760     
   50042176.5071527     
   50041505.2154049     
   50040831.9996900     
   50040158.5141144     
   50039486.6124739     
   50038818.3757860     
   50038156.1407006     
   50037502.5284535     
   50036860.4738815     
   50036233.2538520     
   50035624.5142767     
   50035038.2946841     
   50034479.0491330     
   50033951.6620646     
   50033461.4575437     
   50033014.2002567     
   50032616.0866379     
   50032273.7246486     
   50031994.1010485     
   50031784.5355453     
   50031652.6219772     
   50031606.1576762     
   50047250.1492154     
   50047226.0021411     
   50047155.8177756     
   50047042.6729601     
   50046889.5602967     
   50046699.3615158     
   50046474.8255325     
   50046218.5516505     
   50045932.9779834     
   50045620.3748641     
   50045282.8428010     
   50044922.3144140     
   50044540.5597293     
   50044139.1942121     
   50043719.6889533     
   50043283.3824884     
   50042831.4938050     
   50042365.1361772     
   50041885.3315459     
   50041393.0252435     
   50040889.1009327     
   50040374.3956901     
   50039849.7152232     
   50039315.8492497     
   50038773.5871109     
   50038223.7337127     
   50037667.1259103     
   50037104.6494643     
   50036537.2566950     
   50035965.9849575     
   50035391.9760404     
   50034816.4965645     
   50034240.9594149     
   50033666.9461866     
   50033096.2305540     
   50032530.8023828     
   50031972.8923050     
   50031424.9963485     
   50030889.9000740     
   50030370.7015187     
   50029870.8320794     
   50029394.0743035     
   50028944.5754005     
   50028526.8551634     
   50028145.8069132     
   50027806.6900892     
   50027515.1132270     
   50027277.0063398     
   50027098.5821712     
   50026986.2864419     
   50026946.7380457     
   50039402.3597894     
   50039382.1038286     
   50039323.2323908     
   50039228.3310671     
   50039099.9149293     
   50038940.4062362     
   50038752.1160688     
   50038537.2302736     
   50038297.7997689     
   50038035.7350197     
   50037752.8043111     
   50037450.6353463     
   50037130.7196500     
   50036794.4192581     
   50036442.9752060     
   50036077.5173789     
   50035699.0753556     
   50035308.5899391     
   50034906.9251433     
   50034494.8804642     
   50034073.2033265     
   50033642.6016485     
   50033203.7565122     
   50032757.3349653     
   50032304.0030116     
   50031844.4388676     
   50031379.3465831     
   50030909.4701300     
   50030435.6080651     
   50029958.6288696     
   50029479.4870506     
   50028999.2400682     
   50028519.0661178     
   50028040.2827520     
   50027564.3662668     
   50027092.9717080     
   50026627.9532618     
   50026171.3846976     
   50025725.5794099     
   50025293.1094789     
   50024876.8230366     
   50024479.8590815     
   50024105.6587633     
   50023757.9720488     
   50023440.8586234     
   50023158.6818833     
   50022916.0949731     
   50022718.0180487     
   50022569.6063148     
   50022476.2089251     
   50022443.3195215     
   50031751.1737553     
   50031734.7611553     
   50031687.0636146     
   50031610.1809284     
   50031506.1555218     
   50031376.9544466     
   50031224.4545665     
   50031050.4312271     
   50030856.5504513     
   50030644.3644998     
   50030415.3104947     
   50030170.7117245     
   50029911.7812087     
   50029639.6271038     
   50029355.2595581     
   50029059.5986613     
   50028753.4831923     
   50028437.6799182     
   50028112.8932579     
   50027779.7751714     
   50027438.9351874     
   50027090.9505220     
   50026736.3762783     
   50026375.7557474     
   50026009.6308568     
   50025638.5528281     
   50025263.0931230     
   50024883.8547597     
   50024501.4840887     
   50024116.6831060     
   50023730.2223765     
   50023342.9546182     
   50022955.8289704     
   50022569.9059371     
   50022186.3729450     
   50021806.5604009     
   50021431.9580655     
   50021064.2314734     
   50020705.2380425     
   50020357.0424098     
   50020021.9304204     
   50019702.4210896     
   50019401.2757522     
   50019121.5035298     
   50018866.3621962     
   50018639.3535221     
   50018444.2122599     
   50018284.8881016     
   50018165.5202405     
   50018090.4045920     
   50018063.9542737     
   50024259.3005102     
   50024246.6799880     
   50024210.0078072     
   50024150.9049364     
   50024070.9475644     
   50023971.6533304     
   50023854.4700191     
   50023720.7669349     
   50023571.8289824     
   50023408.8533237     
   50023232.9483791     
   50023045.1348759     
   50022846.3486224     
   50022637.4446861     
   50022419.2026740     
   50022192.3328463     
   50021957.4828342     
   50021715.2447755     
   50021466.1627231     
   50021210.7402207     
   50020949.4479807     
   50020682.7316259     
   50020411.0194882     
   50020134.7304805     
   50019854.2820758     
   50019570.0984419     
   50019282.6187911     
   50018992.3060092     
   50018699.6556304     
   50018405.2052191     
   50018109.5442151     
   50017813.3242792     
   50017517.2701630     
   50017222.1910902     
   50016928.9926126     
   50016638.6888492     
   50016352.4149740     
   50016071.4397482     
   50015797.1778294     
   50015531.2015053     
   50015275.2514226     
   50015031.2457933     
   50014801.2874839     
   50014587.6683285     
   50014392.8699648     
   50014219.5604954     
   50014070.5863287     
   50013948.9586863     
   50013857.8344840     
   50013800.4916083     
   50013780.2990220     
   50016889.5036765     
   50016880.6277595     
   50016854.8438727     
   50016813.3012206     
   50016757.1163134     
   50016687.3633770     
   50016605.0665142     
   50016511.1937612     
   50016406.6530438     
   50016292.2899384     
   50016168.8870703     
   50016037.1649380     
   50015897.7839373     
   50015751.3473584     
   50015598.4051456     
   50015439.4582303     
   50015274.9632783     
   50015105.3377210     
   50014930.9649684     
   50014752.1997333     
   50014569.3734184     
   50014382.7995410     
   50014192.7791921     
   50013999.6065398     
   50013803.5744004     
   50013604.9799142     
   50013404.1303642     
   50013201.3491856     
   50012996.9822112     
   50012791.4041978     
   50012585.0256709     
   50012378.3001188     
   50012171.7315482     
   50011965.8824016     
   50011761.3818046     
   50011558.9340898     
   50011359.3274999     
   50011163.4429369     
   50010972.2625705     
   50010786.8780687     
   50010608.4981527     
   50010438.4551237     
   50010278.2099501     
   50010129.3554609     
   50009993.6171604     
   50009872.8511771     
   50009769.0388947     
   50009684.2779001     
   50009620.7690280     
   50009580.7994955     
   50009566.7223927     
   50009604.4499409     
   50009599.2808086     
   50009584.2763379     
   50009560.1200241     
   50009527.4743353     
   50009486.9752531     
   50009439.2278682     
   50009384.8030967     
   50009324.2355054     
   50009258.0221820     
   50009186.6225456     
   50009110.4589731     
   50009029.9181048     
   50008945.3526995     
   50008857.0839158     
   50008765.4039099     
   50008670.5786600     
   50008572.8509399     
   50008472.4433872     
   50008369.5616223     
   50008264.3973933     
   50008157.1317329     
   50008047.9381240     
   50007936.9856820     
   50007824.4423681     
   50007710.4782526     
   50007595.2688542     
   50007478.9985810     
   50007361.8643001     
   50007244.0790642     
   50007125.8760159     
   50007007.5124898     
   50006889.2743221     
   50006771.4803679     
   50006654.4872142     
   50006538.6940588     
   50006424.5477046     
   50006312.5475991     
   50006203.2508162     
   50006097.2768515     
   50005995.3120684     
   50005898.1135995     
   50005806.5124739     
   50005721.4157177     
   50005643.8071524     
   50005574.7466141     
   50005515.3673299     
   50005466.8712299     
   50005430.5220483     
   50005407.6361771     
   50005399.5713748     
   50002366.6069411     
   50002365.1209383     
   50002360.8281267     
   50002353.9505125     
   50002344.7004256     
   50002333.2791603     
   50002319.8759840     
   50002304.6675005     
   50002287.8173413     
   50002269.4761500     
   50002249.7818190     
   50002228.8599351     
   50002206.8243923     
   50002183.7781325     
   50002159.8139788     
   50002135.0155313     
   50002109.4581016     
   50002083.2096639     
   50002056.3318114     
   50002028.8807048     
   50002000.9080091     
   50001972.4618142     
   50001943.5875411     
   50001914.3288362     
   50001884.7284571     
   50001854.8291589     
   50001824.6745856     
   50001794.3101769     
   50001763.7840986     
   50001733.1482041     
   50001702.4590373     
   50001671.7788825     
   50001641.1768688     
   50001610.7301317     
   50001580.5250360     
   50001550.6584557     
   50001521.2391073     
   50001492.3889262     
   50001464.2444679     
   50001436.9583129     
   50001410.7004446     
   50001385.6595587     
   50001362.0442605     
   50001340.0840885     
   50001320.0303035     
   50001302.1563689     
   50001286.7580459     
   50001274.1530260     
   50001264.6800256     
   50001258.6972747     
   50001256.5803425     
   49995138.1697147     
   49995140.3607217     
   49995146.7626017     
   49995157.1376515     
   49995171.2496422     
   49995188.8665505     
   49995209.7629747     
   49995233.7221448     
   49995260.5374827     
   49995290.0137086     
   49995321.9675138     
   49995356.2278402     
   49995392.6358145     
   49995431.0443921     
   49995471.3177605     
   49995513.3305515     
   49995556.9669036     
   49995602.1194107     
   49995648.6879835     
   49995696.5786461     
   49995745.7022814     
   49995795.9733336     
   49995847.3084702     
   49995899.6252048     
   49995952.8404724     
   49996006.8691526     
   49996061.6225309     
   49996117.0066866     
   49996172.9207995     
   49996229.2553651     
   49996285.8903116     
   49996342.6930170     
   49996399.5162258     
   49996456.1958754     
   49996512.5488478     
   49996568.3706725     
   49996623.4332186     
   49996677.4824295     
   49996730.2361643     
   49996781.3822330     
   49996830.5767229     
   49996877.4427356     
   49996921.5696654     
   49996962.5131575     
   49996999.7958927     
   49997032.9093279     
   49997061.3165038     
   49997084.4559830     
   49997101.7469157     
   49997112.5951321     
   49997116.4000490     
   49987881.0027743     
   49987886.8846000     
   49987904.0218651     
   49987931.7160742     
   49987969.2812807     
   49988016.0509239     
   49988071.3836655     
   49988134.6680593     
   49988205.3259930     
   49988282.8149269     
   49988366.6290120     
   49988456.2992115     
   49988551.3925638     
   49988651.5107341     
   49988756.2879931     
   49988865.3887482     
   49988978.5047380     
   49989095.3519782     
   49989215.6675311     
   49989339.2061497     
   49989465.7368327     
   49989595.0393072     
   49989726.9004474     
   49989861.1106233     
   49989997.4599650     
   49990135.7345214     
   49990275.7122878     
   49990417.1590741     
   49990559.8241849     
   49990703.4358843     
   49990847.6966257     
   49990992.2780304     
   49991136.8156148     
   49991280.9032761     
   49991424.0875695     
   49991565.8618288     
   49991705.6602142     
   49991842.8518000     
   49991976.7348536     
   49992106.5314962     
   49992231.3829772     
   49992350.3458363     
   49992462.3892641     
   49992566.3939976     
   49992661.1531048     
   49992745.3749936     
   49992817.6889426     
   49992876.6533591     
   49992920.7668315     
   49992948.4818481     
   49992958.2208030     
   49980556.5905306     
   49980566.1984545     
   49980594.1738882     
   49980639.3533300     
   49980700.5969562     
   49980776.7996034     
   49980866.9000612     
   49980969.8884296     
   49981084.8114643     
   49981210.7759614     
   49981346.9503313     
   49981492.5645631     
   49981646.9088153     
   49981809.3308687     
   49981979.2326705     
   49982156.0661731     
   49982339.3286455     
   49982528.5576016     
   49982723.3254608     
   49982923.2340224     
   49983127.9088113     
   49983336.9933236     
   49983550.1431831     
   49983767.0201966     
   49983987.2862879     
   49984210.5972719     
   49984436.5964295     
   49984664.9078334     
   49984895.1293803     
   49985126.8254830     
   49985359.5193875     
   49985592.6850903     
   49985825.7388478     
   49986058.0302951     
   49986288.8332200     
   49986517.3360729     
   49986742.6323401     
   49986963.7109565     
   49987179.4469934     
   49987388.5929195     
   49987589.7707997     
   49987781.4658644     
   49987962.0219392     
   49988129.6392737     
   49988282.3753297     
   49988418.1490750     
   49988534.7492650     
   49988629.8470619     
   49988701.0131312     
   49988745.7390537     
   49988761.4625132     
   49973125.9927198     
   49973139.3842529     
   49973178.3649145     
   49973241.2987193     
   49973326.5846772     
   49973432.6719884     
   49973558.0728487     
   49973701.3725402     
   49973861.2367103     
   49974036.4159238     
   49974225.7476979     
   49974428.1563093     
   49974642.6506995     
   49974868.3208124     
   49975104.3326792     
   49975349.9225366     
   49975604.3902235     
   49975867.0920589     
   49976137.4333573     
   49976414.8606982     
   49976698.8540261     
   49976988.9186221     
   49977284.5769597     
   49977585.3604319     
   49977890.8009149     
   49978200.4221211     
   49978513.7306805     
   49978830.2068853     
   49979149.2950321     
   49979470.3932984     
   49979792.8431026     
   49980115.9179118     
   49980438.8114858     
   49980760.6255779     
   49981080.3571529     
   49981396.8852326     
   49981708.9575407     
   49982015.1771861     
   49982313.9897078     
   49982603.6708866     
   49982882.3158255     
   49983147.8298897     
   49983397.9221807     
   49983630.1022849     
   49983841.6810712     
   49984029.7762922     
   49984191.3236626     
   49984323.0939102     
   49984421.7160092     
   49984483.7064054     
   49984505.5035242     
   49965549.8038580     
   49965567.0587302     
   49965617.2759163     
   49965698.3362080     
   49965808.1670330     
   49965944.7619582     
   49966106.1970870     
   49966290.6439425     
   49966496.3787235     
   49966721.7880466     
   49966965.3714498     
   49967225.7410332     
   49967501.6186610     
   49967791.8311506     
   49968095.3038615     
   49968411.0530472     
   49968738.1772899     
   49969075.8482740     
   49969423.3011047     
   49969779.8243161     
   49970144.7496709     
   49970517.4418019     
   49970897.2877123     
   49971283.6861170     
   49971676.0365811     
   49972073.7283939     
   49972476.1290986     
   49972882.5725969     
   49973292.3467390     
   49973704.6803208     
   49974118.7294207     
   49974533.5630285     
   49974948.1479526     
   49975361.3330270     
   49975771.8326967     
   49976178.2101196     
   49976578.8600022     
   49976971.9914753     
   49977355.6114175     
   49977727.5087464     
   49978085.2403150     
   49978426.1191688     
   49978747.2060257     
   49979045.3049248     
   49979316.9640365     
   49979558.4826040     
   49979765.9248815     
   49979935.1417150     
   49980061.8000482     
   49980141.4201280     
   49980169.4195328     
   49957788.1166132     
   49957809.3359250     
   49957871.0827301     
   49957970.7407419     
   49958105.7524104     
   49958273.6428564     
   49958472.0399582     
   49958698.6901057     
   49958951.4694835     
   49959228.3910295     
   49959527.6074137     
   49959847.4104992     
   49960186.2278087     
   49960542.6165246     
   49960915.2555272     
   49961302.9359203     
   49961704.5504358     
   49962119.0820349     
   49962545.5919550     
   49962983.2073849     
   49963431.1088882     
   49963888.5176411     
   49964354.6825024     
   49964828.8668940     
   49965310.3354394     
   49965798.3402815     
   49966292.1069850     
   49966790.8199192     
   49967293.6070153     
   49967799.5237993     
   49968307.5366161     
   49968816.5049891     
   49969325.1630922     
   49969832.1003650     
   49970335.7413617     
   49970834.3250033     
   49971325.8834983     
   49971808.2213033     
   49972278.8946227     
   49972735.1920819     
   49973174.1173530     
   49973592.3746562     
   49973986.3581922     
   49974352.1466646     
   49974685.5041051     
   49974981.8881960     
   49975236.4671512     
   49975444.1459547     
   49975599.6023145     
   49975697.3320715     
   49975731.7030112     
   49949800.4883517     
   49949825.7927597     
   49949899.4188632     
   49950018.2366443     
   49950179.1875178     
   49950379.3128387     
   49950615.7778008     
   49950885.8901485     
   49951187.1135461     
   49951517.0757847     
   49951873.5722373     
   49952254.5651207     
   49952658.1791874     
   49953082.6944805     
   49953526.5367527     
   49953988.2660893     
   49954466.5641987     
   49954960.2207524     
   49955468.1190705     
   49955989.2213707     
   49956522.5537237     
   49957067.1907933     
   49957622.2403827     
   49958186.8277620     
   49958760.0797113     
   49959341.1081879     
   49959928.9935030     
   49960522.7668847     
   49961121.3922981     
   49961723.7474076     
   49962328.6035772     
   49962934.6048438     
   49963540.2458337     
   49964143.8486586     
   49964743.5388981     
   49965337.2208688     
   49965922.5524934     
   49966496.9202123     
   49967057.4145283     
   49967600.8069382     
   49968123.5291770     
   49968621.6558711     
   49969090.8918552     
   49969526.5655312     
   49969923.6297134     
   49970276.6713800     
   49970579.9316003     
   49970827.3365917     
   49971012.5403424     
   49971128.9785022     
   49971169.9323092     
   49941545.9078897     
   49941575.4346282     
   49941661.3377479     
   49941799.9545828     
   49941987.7073169     
   49942221.1362309     
   49942496.9275455     
   49942811.9351914     
   49943163.1963304     
   49943547.9408395     
   49943963.5952438     
   49944407.7817509     
   49944878.3131192     
   49945373.1840987     
   49945890.5601494     
   49946428.7640682     
   49946986.2610653     
   49947561.6427379     
   49948153.6102858     
   49948760.9572251     
   49949382.5517639     
   49950017.3189352     
   49950664.2225081     
   49951322.2466497     
   49951990.3772615     
   49952667.5828809     
   49953352.7950166     
   49954044.8877693     
   49954742.6565935     
   49955444.7960564     
   49956149.8764818     
   49956856.3193936     
   49957562.3717302     
   49958266.0788667     
   49958965.2565714     
   49959657.4621274     
   49960339.9649849     
   49961009.7174574     
   49961663.3261505     
   49962297.0250003     
   49962906.6509988     
   49963487.6238848     
   49964034.9312612     
   49964543.1207443     
   49965006.3008317     
   49965418.1521429     
   49965771.9505172     
   49966060.6030850     
   49966276.6978285     
   49966412.5662967     
   49966460.3580507     
   49932982.7554653     
   49933016.6539522     
   49933115.2672475     
   49933274.3796609     
   49933489.8746022     
   49933757.7727468     
   49934074.2639676     
   49934435.7322702     
   49934838.7735314     
   49935280.2062908     
   49935757.0761558     
   49936266.6545739     
   49936806.4328170     
   49937374.1120287     
   49937967.5901468     
   49938584.9464258     
   49939224.4241859     
   49939884.4122986     
   49940563.4258104     
   49941260.0859931     
   49941973.1000166     
   49942701.2403450     
   49943443.3238866     
   49944198.1908619     
   49944964.6833025     
   49945741.6230554     
   49946527.7891400     
   49947321.8942881     
   49948122.5604985     
   49948928.2934433     
   49949737.4555927     
   49950548.2379624     
   49951358.6304494     
   49952166.3907971     
   49952969.0123339     
   49953763.6907521     
   49954547.2903431     
   49955316.3102800     
   49956066.8517362     
   49956794.5868474     
   49957494.7307542     
   49958162.0181911     
   49958790.6863019     
   49959374.4655246     
   49959906.5804829     
   49960379.7627878     
   49960786.2774546     
   49961117.9642229     
   49961366.2943795     
   49961522.4427063     
   49961577.3729325     
   49924068.7428914     
   49924107.1686254     
   49924218.9432261     
   49924399.2772851     
   49924643.4956638     
   49924947.0807606     
   49925305.7086797     
   49925715.2774373     
   49926171.9269825     
   49926672.0513201     
   49927212.3033763     
   49927789.5934661     
   49928401.0823236     
   49929044.1696657     
   49929716.4792119     
   49930415.8409844     
   49931140.2716018     
   49931887.9531450     
   49932657.2110518     
   49933446.4913680     
   49934254.3375756     
   49935079.3671136     
   49935920.2476253     
   49936775.6728890     
   49937644.3383347     
   49938524.9160015     
   49939416.0287628     
   49940316.2236257     
   49941223.9439113     
   49942137.5001327     
   49943055.0394153     
   49943974.5133542     
   49944893.6442647     
   49945809.8898752     
   49946720.4066248     
   49947622.0118671     
   49948511.1454538     
   49949383.8313681     
   49950235.6403036     
   49951061.6543333     
   49951856.4350722     
   49952613.9970006     
   49953327.7878549     
   49953990.6781815     
   49954594.9622535     
   49955132.3725156     
   49955594.1094970     
   49955970.8886574     
   49956253.0048552     
   49956430.4140150     
   49956492.8301634     
   49914760.8124149     
   49914803.9188635     
   49914929.3006761     
   49915131.5752715     
   49915405.4904712     
   49915745.9730460     
   49916148.1692617     
   49916607.4764535     
   49917119.5653862     
   49917680.3937240     
   49918286.2113365     
   49918933.5584098     
   49919619.2574448     
   49920340.4002393     
   49921094.3308901     
   49921878.6257459     
   49922691.0711102     
   49923529.6393487     
   49924392.4639112     
   49925277.8136377     
   49926184.0665952     
   49927109.6835747     
   49928053.1812839     
   49929013.1051879     
   49929988.0018856     
   49930976.3908583     
   49931976.7353928     
   49932987.4124633     
   49934006.6813502     
   49935032.6507911     
   49936063.2444881     
   49937096.1648507     
   49938128.8549265     
   49939158.4585737     
   49940181.7790572     
   49941195.2364103     
   49942194.8240921     
   49943176.0656973     
   49944133.9727277     
   49945063.0047128     
   49945957.0332636     
   49946809.3119358     
   49947612.4540520     
   49948358.4208454     
   49949038.5224031     
   49949643.4338510     
   49950163.2289676     
   49950587.4328834     
   49950905.0946420     
   49951104.8791591     
   49951175.1765208     
   49905014.9616475     
   49905062.8898581     
   49905202.2899064     
   49905427.1698684     
   49905731.6853011     
   49906110.1932230     
   49906557.2971545     
   49907067.8821414     
   49907637.1394934     
   49908260.5816049     
   49908934.0476693     
   49909653.7013744     
   49910416.0217861     
   49911217.7886458     
   49912056.0632387     
   49912928.1658716     
   49913831.6508516     
   49914764.2796947     
   49915723.9931319     
   49916708.8823247     
   49917717.1595625     
   49918747.1285841     
   49919797.1545630     
   49920865.6336988     
   49921950.9622891     
   49923051.5050964     
   49924165.5627900     
   49925291.3382163     
   49926426.9012532     
   49927570.1520147     
   49928718.7822113     
   49929870.2345290     
   49931021.6599735     
   49932169.8732406     
   49933311.3063159     
   49934441.9606851     
   49935557.3587516     
   49936652.4953068     
   49937721.7901832     
   49938759.0435333     
   49939757.3955067     
   49940709.2924289     
   49941606.4618877     
   49942439.8993733     
   49943199.8692488     
   49943875.9227875     
   49944456.9357271     
   49944931.1671994     
   49945286.3409091     
   49945509.7480476     
   49945588.3696438     
   49894785.9477323     
   49894838.8134993     
   49894992.5713462     
   49895240.6097242     
   49895576.4824808     
   49895993.9683847     
   49896487.1207415     
   49897050.3059147     
   49897678.2304571     
   49898365.9572663     
   49899108.9116659     
   49899902.8786172     
   49900743.9924041     
   49901628.7201458     
   49902553.8404206     
   49903516.4181490     
   49904513.7767240     
   49905543.4681908     
   49906603.2421056     
   49907691.0135242     
   49908804.8304207     
   49909942.8406920     
   49911103.2587854     
   49912284.3318860     
   49913484.3055202     
   49914701.3883678     
   49915933.7160334     
   49917179.3135062     
   49918436.0560310     
   49919701.6281314     
   49920973.4805680     
   49922248.7850782     
   49923524.3868388     
   49924796.7547191     
   49926061.9295504     
   49927315.4708393     
   49928552.4025880     
   49929767.1591644     
   49930953.5324838     
   49932104.6221082     
   49933212.7902427     
   49934269.6239703     
   49935265.9074093     
   49936191.6067434     
   49937035.8712210     
   49937787.0531716     
   49938432.7497768     
   49938959.8686657     
   49939354.7183157     
   49939603.1226862     
   49939690.5575344     
   49884026.8064372     
   49884084.6850454     
   49884253.0253951     
   49884524.5951203     
   49884892.3457695     
   49885349.4779179     
   49885889.4953795     
   49886506.2472251     
   49887193.9572872     
   49887947.2416087     
   49888761.1148349     
   49889630.9868725     
   49890552.6512942     
   49891522.2669791     
   49892536.3343972     
   49893591.6678008     
   49894685.3644031     
   49895814.7714259     
   49896977.4517022     
   49898171.1483279     
   49899393.7486849     
   49900643.2480056     
   49901917.7125133     
   49903215.2420653     
   49904533.9321346     
   49905871.8348997     
   49907226.9191631     
   49908597.0287966     
   49909979.8394048     
   49911372.8129204     
   49912773.1498888     
   49914177.7392717     
   49915583.1057075     
   49916985.3542993     
   49918380.1131881     
   49919762.4743812     
   49921126.9335763     
   49922467.3300281     
   49923776.7878591     
   49925047.6606008     
   49926271.4811606     
   49927438.9198216     
   49928539.7532511     
   49929562.8478002     
   49930496.1605301     
   49931326.7613568     
   49932040.8793510     
   49932623.9754981     
   49933060.8430084     
   49933335.7345474     
   49933432.5135571     
   49872688.1011586     
   49872751.0100386     
   49872933.9935254     
   49873229.2101275     
   49873629.0209906     
   49874126.0605372     
   49874713.2952145     
   49875384.0689425     
   49876132.1349226     
   49876951.6743115     
   49877837.3028523     
   49878784.0669136     
   49879787.4305470     
   49880843.2551908     
   49881947.7735538     
   49883097.5590537     
   49884289.4919839     
   49885520.7233683     
   49886788.6372440     
   49888090.8119068     
   49889424.9804642     
   49890788.9908753     
   49892180.7655076     
   49893598.2601255     
   49895039.4221234     
   49896502.1477459     
   49897984.2379849     
   49899483.3528158     
   49900996.9634341     
   49902522.3021727     
   49904056.3098325     
   49905595.5802402     
   49907136.3019619     
   49908674.1972570     
   49910204.4585534     
   49911721.6829701     
   49913219.8057058     
   49914692.0334566     
   49916130.7794135     
   49917527.6018220     
   49918873.1485356     
   49920157.1104507     
   49921368.1871227     
   49922494.0681975     
   49923521.4344674     
   49924435.9823077     
   49925222.4748604     
   49925864.8225195     
   49926346.1939285     
   49926649.1567945     
   49926755.8453903     
   49860716.7932415     
   49860784.6733480     
   49860982.1438888     
   49861300.7831350     
   49861732.3903042     
   49862269.0615363     
   49862903.2530021     
   49863627.8296284     
   49864436.0990818     
   49865321.8315620     
   49866279.2665920     
   49867303.1083768     
   49868388.5114758     
   49869531.0585462     
   49870726.7318158     
   49871971.8797671     
   49873263.1802982     
   49874597.6013893     
   49875972.3600700     
   49877384.8802560     
   49878832.7498219     
   49880313.6770902     
   49881825.4467653     
   49883365.8752056     
   49884932.7648256     
   49886523.8573369     
   49888136.7854853     
   49889769.0229095     
   49891417.8317462     
   49893080.2076299     
   49894752.8217932     
   49896431.9600631     
   49898113.4586758     
   49899792.6370060     
   49901464.2275224     
   49903122.3035529     
   49904760.2057669     
   49906370.4686599     
   49907944.7487588     
   49909473.7567373     
   49910947.1961336     
   49912353.7118611     
   49913680.8521621     
   49914915.0480219     
   49916041.6142561     
   49917044.7764216     
   49917907.7272786     
   49918612.7156240     
   49919141.1688400     
   49919473.8483905     
   49919591.0348113     
   49848054.5995538     
   49848127.2969596     
   49848338.8300163     
   49848680.2474749     
   49849142.8360401     
   49849718.2013194     
   49850398.3349757     
   49851175.6664694     
   49852043.0990156     
   49852994.0303538     
   49854022.3596105     
   49855122.4819398     
   49856289.2728151     
   49857518.0638523     
   49858804.6119390     
   49860145.0632507     
   49861535.9135032     
   49862973.9655342     
   49864456.2850557     
   49865980.1551765     
   49867543.0300733     
   49869142.4879934     
   49870776.1836048     
   49872441.7995665     
   49874136.9970831     
   49875859.3651167     
   49877606.3678774     
   49879375.2901784     
   49881163.1802411     
   49882966.7895652     
   49884782.5095413     
   49886606.3045813     
   49888433.6416859     
   49890259.4165556     
   49892077.8765940     
   49893882.5414490     
   49895666.1220933     
   49897420.4398688     
   49899136.3473889     
   49900803.6537185     
   49902411.0568037     
   49903946.0866720     
   49905395.0634343     
   49906743.0745206     
   49907973.9758006     
   49909070.4211709     
   49910013.9247215     
   49910784.9585981     
   49911363.0880427     
   49911727.1427705     
   49911855.4208732     
   49834635.6777079     
   49834712.9278470     
   49834937.7866450     
   49835300.8504775     
   49835792.9681610     
   49836405.3263015     
   49837129.5200041     
   49837957.6072460     
   49838882.1465236     
   49839896.2184199     
   49840993.4324545     
   49842167.9210071     
   49843414.3223001     
   49844727.7544332     
   49846103.7823433     
   49847538.3793605     
   49849027.8847772     
   49850568.9585803     
   49852158.5342215     
   49853793.7700485     
   49855471.9997808     
   49857190.6822073     
   49858947.3501047     
   49860739.5582242     
   49862564.8300762     
   49864420.6031506     
   49866304.1721509     
   49868212.6297864     
   49870142.8046685     
   49872091.1958889     
   49874053.9039269     
   49876026.5576436     
   49878004.2372765     
   49879981.3935571     
   49881951.7633374     
   49883908.2824415     
   49885842.9968486     
   49887746.9737780     
   49889610.2147660     
   49891421.5734035     
   49893168.6810079     
   49894837.8841117     
   49896414.1982095     
   49897881.2826474     
   49899221.4417814     
   49900415.6574518     
   49901443.6573098     
   49902284.0224284     
   49902914.3358363     
   49903311.3710471     
   49903451.3163909     
   49820383.4566709     
   49820464.8749090     
   49820701.9852295     
   49821085.0391929     
   49821604.5511601     
   49822251.3872246     
   49823016.8387993     
   49823892.6790915     
   49824871.2020759     
   49825945.2446497     
   49827108.1934035     
   49828353.9778898     
   49829677.0524655     
   49831072.3687919     
   49832535.3409467     
   49834061.8048844     
   49835647.9737172     
   49837290.3900036     
   49838985.8759421     
   49840731.4821023     
   49842524.4350742     
   49844362.0841981     
   49846241.8473505     
   49848161.1556018     
   49850117.3964385     
   49852107.8551448     
   49854129.6538779     
   49856179.6879374     
   49858254.5587306     
   49860350.5029747     
   49862463.3177522     
   49864588.2811579     
   49866720.0684493     
   49868852.6638382     
   49870979.2683545     
   49873092.2045731     
   49875182.8194249     
   49877241.3868218     
   49879257.0123979     
   49881217.5433030     
   49883109.4866512     
   49884917.9408964     
   49886626.5450206     
   49888217.4509082     
   49889671.3245460     
   49890967.3816036     
   49892083.4623823     
   49892996.1499133     
   49893680.9330082     
   49894112.4132456     
   49894264.5512851     
   49805206.4152939     
   49805291.4991023     
   49805539.4578428     
   49805940.3387398     
   49806484.4560041     
   49807162.4822696     
   49807965.5241708     
   49808885.1802536     
   49809913.5808301     
   49811043.4104982     
   49812267.9148119     
   49813580.8930473     
   49814976.6792060     
   49816450.1133986     
   49817996.5056149     
   49819611.5936573     
   49821291.4967399     
   49823032.6659530     
   49824831.8325005     
   49826685.9543327     
   49828592.1615406     
   49830547.7006501     
   49832549.8777589     
   49834596.0002953     
   49836683.3170467     
   49838808.9560099     
   49840969.8595474     
   49843162.7163054     
   49845383.8893489     
   49847629.3400182     
   49849894.5470894     
   49852174.4209624     
   49854463.2127831     
   49856754.4186607     
   49859040.6794569     
   49861313.6770213     
   49863564.0282177     
   49865781.1786431     
   49867953.2985688     
   49870067.1843297     
   49872108.1691158     
   49874060.0478572     
   49875905.0215667     
   49877623.6670382     
   49879194.9380936     
   49880596.2044777     
   49881803.3338774     
   49882790.8212219     
   49883531.9672440     
   49883999.1051927     
   49884163.8706411     
   49788992.6100641     
   49789080.7600482     
   49789337.8983999     
   49789754.0411756     
   49790319.4669114     
   49791024.8092296     
   49791861.1333253     
   49792819.9945190     
   49793893.4785007     
   49795074.2240062     
   49796355.4294430     
   49797730.8454387     
   49799194.7554792     
   49800741.9468022     
   49802367.6735629     
   49804067.6140562     
   49805837.8234935     
   49807674.6835241     
   49809574.8493913     
   49811535.1953186     
   49813552.7584646     
   49815624.6815460     
   49817748.1540321     
   49819920.3516444     
   49822138.3737633     
   49824399.1782418     
   49826699.5130645     
   49829035.8442547     
   49831404.2794446     
   49833800.4865688     
   49836219.6072379     
   49838656.1644954     
   49841103.9648657     
   49843555.9948777     
   49846004.3125943     
   49848439.9351078     
   49850852.7234824     
   49853231.2672252     
   49855562.7710615     
   49857832.9475429     
   49860025.9198227     
   49862124.1397317     
   49864108.3270280     
   49865957.4362806     
   49867648.6581657     
   49869157.4618574     
   49870457.6845131     
   49871521.6724062     
   49872320.4758830     
   49872824.0969326     
   49873001.7838401     
   49771602.7751918     
   49771693.3445909     
   49771957.8734319     
   49772386.5477790     
   49772969.7999918     
   49773698.4009489     
   49774563.5362108     
   49775556.8643455     
   49776670.5570637     
   49777897.3219118     
   49779230.4090375     
   49780663.6039854     
   49782191.2086682     
   49783808.0126482     
   49785509.2567129     
   49787290.5904904     
   49789148.0255598     
   49791077.8852061     
   49793076.7516616     
   49795141.4113846     
   49797268.7986650     
   49799455.9376073     
   49801699.8823439     
   49803997.6551619     
   49806346.1820913     
   49808742.2254064     
   49811182.3124226     
   49813662.6599486     
   49816179.0937581     
   49818726.9625088     
   49821301.0456313     
   49823895.4548793     
   49826503.5294515     
   49829117.7248933     
   49831729.4963681     
   49834329.1773516     
   49836905.8553691     
   49839447.2470509     
   49841939.5755344     
   49844367.4540652     
   49846713.7805231     
   49848959.6484743     
   49851084.2811564     
   49853064.9954440     
   49854877.2031924     
   49856494.4572526     
   49857888.5487077     
   49859029.6603064     
   49859886.5784759     
   49860426.9626008     
   49860617.6655440     
   49752861.8750218     
   49752954.2600047     
   49753224.5328200     
   49753663.2673269     
   49754261.2524168     
   49755009.5821881     
   49755899.7304991     
   49756923.6082109     
   49758073.6027956     
   49759342.6010490     
   49760723.9963757     
   49762211.6825376     
   49763800.0359301     
   49765483.8884300     
   49767258.4927094     
   49769119.4816698     
   49771062.8233683     
   49773084.7725016     
   49775181.8192149     
   49777350.6357176     
   49779588.0209253     
   49781890.8431207     
   49784255.9804230     
   49786680.2586941     
   49789160.3863752     
   49791692.8856505     
   49794274.0192729     
   49796899.7123609     
   49799565.4684925     
   49802266.2794826     
   49804996.5283470     
   49807749.8851252     
   49810519.1954824     
   49813296.3623263     
   49816072.2210883     
   49818836.4098209     
   49821577.2358728     
   49824281.5416180     
   49826934.5725243     
   49829519.8517452     
   49832019.0663652     
   49834411.9713759     
   49836676.3183408     
   49838787.8163991     
   49840720.1336437     
   49842444.9467959     
   49843932.0462997     
   49845149.5022448     
   49846063.8937195     
   49846640.6001797     
   49846844.1483026     
   49732549.0961477     
   49732642.8821703     
   49732917.8191716     
   49733365.0821873     
   49733976.0112647     
   49734742.1979943     
   49735655.5572870     
   49736708.3828428     
   49737893.3860265     
   49739203.7188543     
   49740632.9824649     
   49742175.2228379     
   49743824.9156736     
   49745576.9423226     
   49747426.5585054     
   49749369.3573290     
   49751401.2278384     
   49753518.3100484     
   49755716.9471133     
   49757993.6350222     
   49760344.9699568     
   49762767.5932263     
   49765258.1335070     
   49767813.1459510     
   49770429.0476044     
   49773102.0484802     
   49775828.0775732     
   49778602.7030837     
   49781421.0461367     
   49784277.6873532     
   49787166.5657530     
   49790080.8696544     
   49793012.9194973     
   49795954.0428586     
   49798894.4423687     
   49801823.0577799     
   49804727.4240903     
   49807593.5283956     
   49810405.6690135     
   49813146.3213901     
   49815796.0163199     
   49818333.2370334     
   49820734.3426551     
   49822973.5262864     
   49825022.8163857     
   49826852.1300005     
   49828429.3855458     
   49829720.6809838     
   49830690.5402244     
   49831302.2262423     
   49831518.1138773     
   49710386.4435247     
   49710481.6259804     
   49710761.3514819     
   49711217.5710006     
   49711842.3280326     
   49712627.8402756     
   49713566.5678549     
   49714651.2667277     
   49715875.0270281     
   49717231.2969866     
   49718713.8936543     
   49720317.0019972     
   49722035.1640544     
   49723863.2598224     
   49725796.4813846     
   49727830.3015931     
   49729960.4383543     
   49732182.8153070     
   49734493.5194118     
   49736888.7557233     
   49739364.7993833     
   49741917.9446686     
   49744544.4507493     
   49747240.4836649     
   49750002.0539044     
   49752824.9488926     
   49755704.6596290     
   49758636.3007090     
   49761614.5229869     
   49764633.4182088     
   49767686.4150832     
   49770766.1664463     
   49773864.4274632     
   49776971.9251626     
   49780078.2200752     
   49783171.5613174     
   49786238.7371604     
   49789264.9239406     
   49792233.5371006     
   49795126.0891781     
   49797922.0606542     
   49800598.7906672     
   49803131.3956128     
   49805492.7244644     
   49807653.3600925     
   49809581.6757481     
   49811243.9549581     
   49812604.5811166     
   49813626.2998162     
   49814270.5523319     
   49814497.8727566     
   49686026.3737068     
   49686123.6737326     
   49686410.4262260     
   49686879.4425591     
   49687523.5283435     
   49688335.5598909     
   49689308.5489126     
   49690435.6943160     
   49691710.4208978     
   49693126.4054701     
   49694677.5914458     
   49696358.1931890     
   49698162.6915349     
   49700085.8218488     
   49702122.5558673     
   49704268.0783728     
   49706517.7595340     
   49708867.1235074     
   49711311.8136623     
   49713847.5545691     
   49716470.1106854     
   49719175.2414912     
   49721958.6526607     
   49724815.9427289     
   49727742.5445957     
   49730733.6611358     
   49733784.1941334     
   49736888.6657478     
   49740041.1317483     
   49743235.0858365     
   49746463.3545102     
   49749717.9821323     
   49752990.1061542     
   49756269.8228254     
   49759546.0442080     
   49762806.3479215     
   49766036.8217722     
   49769221.9062845     
   49772344.2391346     
   49775384.5065717     
   49778321.3080718     
   49781131.0416269     
   49783787.8181502     
   49786263.4143429     
   49788527.2738484     
   49790546.5664039     
   49792286.3137414     
   49793709.5889152     
   49794777.7923150     
   49795451.0027162     
   49795688.3954606     
   49659039.2837976     
   49659140.5818473     
   49659439.9610345     
   49659931.0133422     
   49660607.1985704     
   49661461.9167361     
   49662488.5706590     
   49663680.6178269     
   49665031.6113727     
   49666535.2305586     
   49668185.3015441     
   49669975.8094281     
   49671900.9026275     
   49673954.8906243     
   49676132.2360043     
   49678427.5415582     
   49680835.5330322     
   49683351.0379205     
   49685968.9604996     
   49688684.2531157     
   49691491.8835624     
   49694386.7982285     
   49697363.8805544     
   49700417.9042174     
   49703543.4803678     
   49706734.9981688     
   49709986.5578481     
   49713291.8954628     
   49716644.2986133     
   49720036.5124211     
   49723460.6352293     
   49726908.0036931     
   49730369.0672259     
   49733833.2521555     
   49737288.8164480     
   49740722.6964838     
   49744120.3481240     
   49747465.5852031     
   49750740.4196007     
   49753924.9081819     
   49756997.0130980     
   49759932.4831556     
   49762704.7650890     
   49765284.9544798     
   49767641.7965802     
   49769741.7471878     
   49771549.1027288     
   49773026.2065578     
   49774133.7349183     
   49774831.0608940     
   49775076.6881426     
   49628902.2015303     
   49629011.1114114     
   49629333.7264269     
   49629864.0737193     
   49630595.8932106     
   49631522.7095491     
   49632637.8961687     
   49633934.7307744     
   49635406.4420788     
   49637046.2480139     
   49638847.3859097     
   49640803.1352890     
   49642906.8339782     
   49645151.8882164     
   49647531.7773690     
   49650040.0537388     
   49652670.3378308     
   49655416.3092819     
   49658271.6935154     
   49661230.2440307     
   49664285.7200989     
   49667431.8595031     
   49670662.3458438     
   49673970.7698242     
   49677350.5838469     
   49680795.0491865     
   49684297.1749648     
   49687849.6481495     
   49691444.7538273     
   49695074.2850845     
   49698729.4419659     
   49702400.7191938     
   49706077.7826215     
   49709749.3347899     
   49713402.9704622     
   49717025.0236431     
   49720600.4083570     
   49724112.4563692     
   49727542.7560739     
   49730870.9979333     
   49734074.8330838     
   49737129.7529742     
   49740008.9990615     
   49742683.5125328     
   49745121.9345588     
   49747290.6674893     
   49749154.0064033     
   49750674.3482431     
   49751812.4821177     
   49752527.9591348     
   49752779.5334118     
   49594990.7104907     
   49595113.3138820     
   49595476.8889746     
   49596075.1530575     
   49596901.3551234     
   49597948.3546490     
   49599208.6939450     
   49600674.6635183     
   49602338.3602099     
   49604191.7381296     
   49606226.6525963     
   49608434.8974104     
   49610808.2358389     
   49613338.4256971     
   49616017.2388789     
   49618836.4756182     
   49621787.9736808     
   49624863.6125851     
   49628055.3128401     
   49631355.0300812     
   49634754.7438668     
   49638246.4407963     
   49641822.0915025     
   49645473.6209836     
   49649192.8716563     
   49652971.5584518     
   49656801.2152361     
   49660673.1318243     
   49664578.2808856     
   49668507.2341082     
   49672450.0671207     
   49676396.2528697     
   49680334.5434329     
   49684252.8406299     
   49688138.0562895     
   49691975.9636502     
   49695751.0421329     
   49699446.3186195     
   49703043.2094129     
   49706521.3682014     
   49709858.5465912     
   49713030.4750158     
   49716010.7730062     
   49718770.8987591     
   49721280.1484956     
   49723505.7160310     
   49725412.8220026     
   49726964.9200413     
   49728123.9835511     
   49728850.8715451     
   49729105.7652818     
   49556577.0034329     
   49556722.7580672     
   49557154.7321023     
   49557865.0178353     
   49558845.0393222     
   49560085.6505405     
   49561577.2274082     
   49563309.7530431     
   49565272.8958686     
   49567456.0803767     
   49569848.5505225     
   49572439.4258579     
   49575217.7505975     
   49578172.5358577     
   49581292.7953263     
   49584567.5745991     
   49587985.9743817     
   49591537.1676901     
   49595210.4111056     
   49598995.0500536     
   49602880.5179783     
   49606856.3291882     
   49610912.0650494     
   49615037.3531137     
   49619221.8386828     
   49623455.1482425     
   49627726.8441517     
   49632026.3699459     
   49636342.9856306     
   49640665.6923910     
   49644983.1462571     
   49649283.5604415     
   49653554.5963223     
   49657783.2434008     
   49661955.6890248     
   49666057.1792571     
   49670071.8729862     
   49673982.6922404     
   49677771.1726556     
   49681417.3191616     
   49684899.4731451     
   49688194.1985625     
   49691276.1956201     
   49694118.2515811     
   49696691.2388213     
   49698964.1702142     
   49700904.3210192     
   49702477.4243898     
   49703647.9441481     
   49704379.4234452     
   49704634.9014571     
   49512837.9710201     
   49513020.7930189     
   49513561.4125146     
   49514448.2021376     
   49515668.6611168     
   49517209.5526000     
   49519057.0329235     
   49521196.7718299     
   49523614.0629444     
   49526293.9241200     
   49529221.1875359     
   49532380.5796512     
   49535756.7912971     
   49539334.5383033     
   49543098.6131283     
   49547033.9279848     
   49551125.5499350     
   49555358.7283825     
   49559718.9153144     
   49564191.7785529     
   49568763.2081730     
   49573419.3161261     
   49578146.4289996     
   49582931.0737273     
   49587759.9559626     
   49592619.9307371     
   49597497.9649511     
   49602381.0912005     
   49607256.3524256     
   49612110.7368953     
   49616931.1031199     
   49621704.0944240     
   49626416.0431286     
   49631052.8645955     
   49635599.9417952     
   49640042.0015818     
   49644362.9845051     
   49648545.9107701     
   49652572.7458587     
   49656424.2703490     
   49660079.9595672     
   49663517.8798380     
   49666714.6091667     
   49669645.1910812     
   49672283.1309144     
   49674600.4438095     
   49676567.7629446     
   49678154.5146213     
   49679329.1637131     
   49680059.5283684     
   49680313.1569179     
   49462878.3475674     
   49463117.8480374     
   49463823.6949309     
   49464977.4201250     
   49466559.4940243     
   49468549.5313884     
   49470926.4835908     
   49473668.8154028     
   49476754.6651153     
   49480161.9874717     
   49483868.6794545     
   49487852.6894222     
   49492092.1104321     
   49496565.2588097     
   49501250.7391540     
   49506127.4970079     
   49511174.8603985     
   49516372.5713703     
   49521700.8085165     
   49527140.2013675     
   49532671.8373331     
   49538277.2617268     
   49543938.4712282     
   49549637.9009788     
   49555358.4053519     
   49561083.2322997     
   49566795.9910692     
   49572480.6129846     
   49578121.3049405     
   49583702.4952313     
   49589208.7713716     
   49594624.8096502     
   49599935.2963092     
   49605124.8404775     
   49610177.8793017     
   49615078.5761438     
   49619810.7132455     
   49624357.5809072     
   49628701.8659883     
   49632825.5434061     
   49636709.7752475     
   49640334.8230876     
   49643679.9800449     
   49646723.5299021     
   49649442.7411392     
   49651813.9037896     
   49653812.4164204     
   49655412.9290304     
   49656589.5450312     
   49657316.0816019     
   49657566.3826607     
   49405775.0308583     
   49406097.8572490     
   49407045.6679239     
   49408588.7291527     
   49410696.1079094     
   49413335.9878414     
   49416475.9606555     
   49420083.2893352     
   49424125.1412226     
   49428568.7904236     
   49433381.7901595     
   49438532.1165747     
   49443988.2861279     
   49449719.4490705     
   49455695.4616956     
   49461886.9400627     
   49468265.2978018     
   49474802.7704127     
   49481472.4282364     
   49488248.1799935     
   49495104.7684954     
   49502017.7598434     
   49508963.5271429     
   49515919.2295000     
   49522862.7868216     
   49529772.8507245     
   49536628.7716713     
   49543410.5622979     
   49550098.8567747     
   49556674.8659649     
   49563120.3281053     
   49569417.4547440     
   49575548.8717376     
   49581497.5552382     
   49587246.7627999     
   49592779.9600158     
   49598080.7434601     
   49603132.7611699     
   49607919.6324501     
   49612424.8694234     
   49616631.8034496     
   49620523.5202885     
   49624082.8086082     
   49627292.1270889     
   49630133.5958293     
   49632589.0178942     
   49634639.9364912     
   49636267.7322461     
   49637453.7631902     
   49638179.5472781     
   49638426.9835531     
   49340649.5631640     
   49341090.7566279     
   49342381.2769407     
   49344474.1031946     
   49347320.9733599     
   49350872.8673354     
   49355080.4464993     
   49359894.4433905     
   49365265.9983914     
   49371146.9430599     
   49377490.0319548     
   49384249.1263972     
   49391379.3346620     
   49398837.1136809     
   49406580.3375546     
   49414568.3380988     
   49422761.9223816     
   49431123.3717988     
   49439616.4267492     
   49448206.2604469     
   49456859.4448808     
   49465543.9114181     
   49474228.9080712     
   49482884.9550098     
   49491483.7995081     
   49499998.3711738     
   49508402.7380075     
   49516672.0635913     
   49524782.5654956     
   49532711.4748266     
   49540436.9967108     
   49547938.2714260     
   49555195.3358405     
   49562189.0848216     
   49568901.2323131     
   49575314.2718749     
   49581411.4366233     
   49587176.6587137     
   49592594.5287699     
   49597650.2559911     
   49602329.6300457     
   49606618.9862823     
   49610505.1762339     
   49613975.5458127     
   49617017.9239546     
   49619620.6246828     
   49621772.4655446     
   49623462.8050182     
   49624681.6006851     
   49625419.4886467     
   49625667.8828262     
   49266776.0939922     
   49267380.3274287     
   49269141.8164792     
   49271988.3510207     
   49275846.5926544     
   49280642.8003548     
   49286303.4828651     
   49292755.9671541     
   49299928.8781308     
   49307752.5297637     
   49316159.2315708     
   49325083.5171459     
   49334462.3030822     
   49344234.9875178     
   49354343.4977454     
   49364732.2960691     
   49375348.3525009     
   49386141.0921021     
   49397062.3238719     
   49408066.1571560     
   49419108.9106312     
   49430149.0180585     
   49441146.9342118     
   49452065.0436795     
   49462867.5746235     
   49473520.5190430     
   49483991.5606373     
   49494250.0109749     
   49504266.7543483     
   49514014.2014189     
   49523466.2515180     
   49532598.2632622     
   49541387.0329632     
   49549810.7801418     
   49557849.1393070     
   49565483.1570191     
   49572695.2931247     
   49579469.4249327     
   49585790.8530006     
   49591646.3071215     
   49597023.9510599     
   49601913.3845844     
   49606305.6414029     
   49610193.1817354     
   49613569.8784673     
   49616430.9961309     
   49618773.1623526     
   49620594.3318875     
   49621893.7439128     
   49622671.8738408     
   49622930.3814973     
   49183731.5442224     
   49184554.0598378     
   49186944.9259797     
   49190796.7212372     
   49196001.2323480     
   49202450.5201148     
   49210037.8680380     
   49218658.5966320     
   49228210.7362552     
   49238595.5595146     
   49249717.9805434     
   49261486.8327610     
   49273815.0393295     
   49286619.6917459     
   49299822.0521753     
   49313347.4945338     
   49327125.3982302     
   49341089.0070753     
   49355175.2643305     
   49369324.6333073     
   49383480.9114290     
   49397591.0442757     
   49411604.9448885     
   49425475.3225090     
   49439157.5239919     
   49452609.3903229     
   49465791.1300046     
   49478665.2105048     
   49491196.2684867     
   49503351.0391261     
   49515098.3044566     
   49526408.8603371     
   49537255.5013024     
   49547613.0222056     
   49557458.2351859     
   49566770.0000847     
   49575529.2659750     
   49583719.1209682     
   49591324.8469237     
   49598333.9751188     
   49604736.3383785     
   49610524.1146391     
   49615691.8564982     
   49620236.5010487     
   49624157.3543032     
   49627456.0448965     
   49630136.4426203     
   49632204.5388321     
   49633668.2879574     
   49634537.4122218     
   49634823.1753113     
   49091592.7840480     
   49092699.8227128     
   49095909.8013209     
   49101067.7902961     
   49108018.6991047     
   49116608.8064043     
   49126687.1108934     
   49138106.4767077     
   49150724.5629213     
   49164404.5396266     
   49179015.6027488     
   49194433.3063254     
   49210539.7348393     
   49227223.5398794     
   49244379.8654366     
   49261910.1850254     
   49279722.0719459     
   49297728.9217073     
   49315849.6431660     
   49334008.3324638     
   49352133.9415145     
   49370159.9506541     
   49388024.0531706     
   49405667.8577961     
   49423036.6138483     
   49440078.9625512     
   49456746.7171002     
   49472994.6732484     
   49488780.4515236     
   49504064.3716246     
   49518809.3590297     
   49532980.8833670     
   49546546.9275939     
   49559477.9864923     
   49571747.0923728     
   49583329.8651783     
   49594204.5833618     
   49604352.2709898     
   49613756.7954876     
   49622404.9693210     
   49630286.6477501     
   49637394.8136608     
   49643725.6394812     
   49649278.5154730     
   49654056.0334328     
   49658063.9152685     
   49661310.8772972     
   49663808.4237012     
   49665570.5666201     
   49666613.4759418     
   49666955.0687950     
   48991182.3977982     
   48992650.9423809     
   48996900.3094051     
   49003713.4499655     
   49012874.1347292     
   49024169.1047479     
   49037389.9588705     
   49052334.7391412     
   49068809.1991128     
   49086627.7594529     
   49105614.1696554     
   49125601.9043220     
   49146434.3280166     
   49167964.6649610     
   49190055.8096632     
   49212580.0126843     
   49235418.4727968     
   49258460.8632400     
   49281604.8160233     
   49304755.3845200     
   49327824.5011162     
   49350730.4435264     
   49373397.3206281     
   49395754.5862977     
   49417736.5877528     
   49439282.1532692     
   49460334.2228185     
   49480839.5240944     
   49500748.2955206     
   49520014.0570929     
   49538593.4292553     
   49556445.9993821     
   49573534.2347911     
   49589823.4404909     
   49605281.7590342     
   49619880.2088594     
   49633592.7563444     
   49646396.4154396     
   49658271.3672057     
   49669201.0898814     
   49679172.4883118     
   49688176.0097716     
   49696205.7315958     
   49703259.4047714     
   49709338.4370626     
   49714447.7996681     
   49718595.8432725     
   49721794.0130751     
   49724056.4583392     
   49725399.5403950     
   49725841.2537488     
   48884361.0907787     
   48886277.8992558     
   48891814.6419715     
   48900675.2797095     
   48912565.9317991     
   48927197.8468405     
   48944290.0006249     
   48963571.2648015     
   48984782.1248219     
   49007675.9537834     
   49032019.8695196     
   49057595.2160468     
   49084197.7182628     
   49111637.3618275     
   49139738.0496770     
   49168337.0837318     
   49197284.5159638     
   49226442.4077972     
   49255684.0313685     
   49284893.0408361     
   49313962.6369490     
   49342794.7436182     
   49371299.2113295     
   49399393.0589331     
   49426999.7625950     
   49454048.5984593     
   49480474.0437839     
   49506215.2398853     
   49531215.5191036     
   49555421.9970695     
   49578785.2307694     
   49601258.9421622     
   49622799.8063448     
   49643367.3024191     
   49662923.6242183     
   49681433.6468544     
   49698864.9436084     
   49715187.8459732     
   49730375.5376806     
   49744404.1713221     
   49757252.9937858     
   49768904.4643104     
   49779344.3466984     
   49788561.7554222     
   49796549.1343870     
   49803302.1474444     
   49808819.4619689     
   49813102.4114981     
   49816154.5311873     
   49817980.9708722     
   49818587.8043186     
   48774364.5472751     
   48776824.8424165     
   48783920.7752737     
   48795258.1672070     
   48810446.6102473     
   48829103.5254636     
   48850857.7070702     
   48875352.2738544     
   48902246.9967430     
   48931220.0109078     
   48961968.9500487     
   48994211.5597013     
   49027685.8571641     
   49062149.9097542     
   49097381.3023420     
   49133176.3610103     
   49169349.1935141     
   49205730.5999709     
   49242166.8996338     
   49278518.7122017     
   49314659.7252436     
   49350475.4731467     
   49385862.1476434     
   49420725.4554371     
   49454979.5346954     
   49488545.9391510     
   49521352.6961482     
   49553333.4430953     
   49584426.6453296     
   49614574.8972678     
   49643724.3077866     
   49671823.9699733     
   49698825.5145911     
   49724682.7457461     
   49749351.3562234     
   49772788.7187221     
   49794953.7476860     
   49815806.8245705     
   49835309.7771862     
   49853425.9012367     
   49870120.0094031     
   49885358.4904562     
   49899109.3581298     
   49911342.2671993     
   49922028.4728393     
   49931140.7094604     
   49938652.9675459     
   49944540.1522445     
   49948777.6162702     
   49951340.5726213     
   49952203.4101469     
   48666193.7670088     
   48669300.7376818     
   48678249.6569899     
   48692526.1544341     
   48711621.2988578     
   48735037.1256980     
   48762291.4759089     
   48792922.0302944     
   48826489.4940189     
   48862579.9408661     
   48900806.3664736     
   48940809.5261377     
   48982258.1477759     
   49024848.6165419     
   49068304.2267767     
   49112374.0915974     
   49156831.7921985     
   49201473.8392468     
   49246118.0085667     
   49290601.6033397     
   49334779.6857400     
   49378523.3125514     
   49421717.8020088     
   49464261.0528900     
   49506061.9317332     
   49547038.7398756     
   49587117.7686990     
   49626231.9489067     
   49664319.5977148     
   49701323.2663895     
   49737188.6894835     
   49771863.8362848     
   49805298.0642911     
   49837441.3738282     
   49868243.7621646     
   49897654.6745114     
   49925622.5480746     
   49952094.4437675     
   49977015.7582566     
   50000330.0067022     
   50021978.6639223     
   50041901.0488679     
   50060034.2344831     
   50076312.9625487     
   50090669.5414492     
   50103033.7045671     
   50113332.4089776     
   50121489.5592238     
   50127425.6499956     
   50131057.3343480     
   50132296.9389798     
   48567104.4584094     
   48570972.0742736     
   48582096.4187026     
   48599815.4209076     
   48623473.8474991     
   48652430.9324933     
   48686067.0633337     
   48723789.3766680     
   48765036.1981821     
   48809280.3328671     
   48856031.2679277     
   48904836.3876845     
   48955281.3209026     
   49006989.5496810     
   49059621.4087270     
   49112872.5973021     
   49166472.3156307     
   49220181.1248833     
   49273788.6163160     
   49327110.9617221     
   49379988.4046710     
   49432282.7404577     
   49483874.8224832     
   49534662.1239952     
   49584556.3767330     
   49633481.3019665     
   49681370.4445789     
   49728165.1170991     
   49773812.4577833     
   49818263.6048501     
   49861471.9876342     
   49903391.7346019     
   49943976.1977354     
   49983176.5926025     
   50020940.7533631     
   50057212.0018901     
   50091928.1299989     
   50125020.4933677     
   50156413.2150156     
   50186022.4951235     
   50213756.0225220     
   50239512.4813794     
   50263181.1446402     
   50284641.5438580     
   50303763.2036143     
   50320405.4282544     
   50334417.1297442     
   50345636.6886746     
   50353891.8468328     
   50358999.6420164     
   50360766.4158214     
   48487312.2790926     
   48492075.5146197     
   48505751.5202109     
   48527489.9974801     
   48556448.7194132     
   48591804.2725007     
   48632761.5169258     
   48678561.5171829     
   48728487.8435347     
   48781871.2557855     
   48838092.8553239     
   48896585.8409171     
   48956836.0336380     
   49018381.3500262     
   49080810.4036735     
   49143760.4074217     
   49206914.5344302     
   49269998.8790117     
   49332779.1392705     
   49395057.1245364     
   49456667.1723307     
   49517472.5427054     
   49577361.8426576     
   49636245.5200905     
   49694052.4555469     
   49750726.6706190     
   49806224.1644520     
   49860509.8839561     
   49913554.8290630     
   49965333.2914459     
   50015820.2233813     
   50064988.7327165     
   50112807.7000493     
   50159239.5150728     
   50204237.9304418     
   50247746.0333212     
   50289694.3368442     
   50329998.9958758     
   50368560.1536146     
   50405260.4275182     
   50439963.5446831     
   50472513.1380219     
   50502731.7152832     
   50530419.8131112     
   50555355.3480652     
   50577293.1761523     
   50595964.8726874     
   50611078.7458654     
   50622320.0993969     
   50629351.7567267     
   50631814.8528759     
   48441078.4333760     
   48446914.8547392     
   48463622.6472920     
   48490091.6888184     
   48525223.0953648     
   48567944.9944664     
   48617226.1540337     
   48672087.2606147     
   48731609.7738639     
   48794942.3918590     
   48861305.2652907     
   48929992.1741112     
   49000370.9238302     
   49071882.2361238     
   49144037.4070623     
   49216414.9920293     
   49288656.7538218     
   49360463.0828904     
   49431588.0688524     
   49501834.3722933     
   49571048.0169509     
   49639113.1956709     
   49705947.1596458     
   49771495.2397231     
   49835726.0310608     
   49898626.7580354     
   49960198.8248928     
   50020453.5489219     
   50079408.0666837     
   50137081.3997860     
   50193490.6646183     
   50248647.4101532     
   50302554.0691851     
   50355200.5110546     
   50406560.6878460     
   50456589.3710866     
   50505218.9819711     
   50552356.5248849     
   50597880.6413081     
   50641638.8087790     
   50683444.7172296     
   50723075.8623291     
   50760271.4021682     
   50794730.3292017     
   50826110.0132169     
   50854025.1722426     
   50878047.3257889     
   50897704.7791038     
   50912483.1840229     
   50921826.7340464     
   50925140.0561812     
   48447988.6777310     
   48455143.5658132     
   48475512.4245404     
   48507585.5929658     
   48549880.5984217     
   48600964.6302247     
   48659473.5351376     
   48724126.9991605     
   48793739.8205355     
   48867229.4654444     
   48943620.2555526     
   49022044.6129998     
   49101741.8206087     
   49182054.7580495     
   49262425.0552341     
   49342387.0678669     
   49421561.0326129     
   49499645.7062470     
   49576410.7389853     
   49651688.9802989     
   49725368.8679968     
   49797387.0093752     
   49867721.0271786     
   49936382.7129321     
   50003411.5055569     
   50068868.2935613     
   50132829.5240077     
   50195381.5903590     
   50256615.4637434     
   50316621.5277473     
   50375484.5752060     
   50433278.9263600     
   50490063.6309673     
   50545877.7223777     
   50600735.4990696     
   50654621.8186586     
   50707487.4008121     
   50759244.1487413     
   50809760.5137631     
   50858856.9434852     
   50906301.4709422     
   50951805.5187666     
   50995020.0083984     
   51035531.8786203     
   51072861.1297856     
   51106458.5194741     
   51135704.0401539     
   51159906.3026846     
   51178302.9133857     
   51190061.8502296     
   51194283.8321936     
   48532000.7561294     
   48540760.3223562     
   48565434.9055929     
   48603860.4582924     
   48653958.6146017     
   48713766.1731539     
   48781457.3915700     
   48855359.3084075     
   48933960.9471929     
   49015917.2188587     
   49100048.3324217     
   49185335.5432900     
   49270914.0572751     
   49356063.8516310     
   49440199.0838455     
   49522856.6522395     
   49603684.3641697     
   49682429.0667584     
   49758925.0059117     
   49833082.6032032     
   49904877.7765560     
   49974341.8783413     
   50041552.2821148     
   50106623.6153403     
   50169699.6088934     
   50230945.5138535     
   50290541.0212255     
   50348673.6100685     
   50405532.2434646     
   50461301.3293703     
   50516154.8642683     
   50570250.6813841     
   50623724.7318310     
   50676685.3362357     
   50729207.3560913     
   50781326.2482519     
   50833031.9826514     
   50884262.8225626     
   50934898.9885604     
   50984756.2517646     
   51033579.5285717     
   51081036.5770373     
   51126711.9225265     
   51170101.1642209     
   51210605.8307232     
   51247528.9594636     
   51280071.5737327     
   51307330.2391843     
   51328295.9284066     
   51341854.4876684     
   51346788.6603388     
   48707275.6708635     
   48717676.7350053     
   48746448.4745843     
   48790413.5449769     
   48846656.5590846     
   48912540.8668001     
   48985714.3567342     
   49064107.5881889     
   49145925.4655659     
   49229633.8431764     
   49313942.5875619     
   49397786.4842604     
   49480305.0984890     
   49560822.4098926     
   49638826.7980018     
   49713951.7698963     
   49785957.6871288     
   49854714.6521537     
   49920186.6434736     
   49982416.9347527     
   50041514.7906737     
   50097643.3980471     
   50151008.9628301     
   50201850.8813578     
   50250432.8767181     
   50297034.9784935     
   50341946.2157755     
   50385457.8891780     
   50427857.2872591     
   50469421.7160790     
   50510412.7173148     
   50551070.3602133     
   50591607.5054447     
   50632203.9543777     
   50673000.4150970     
   50714092.2362391     
   50755522.8809307     
   50797277.1352669     
   50839274.0683646     
   50881359.7838442     
   50923300.0257885     
   50964772.7265529     
   51005360.6103090     
   51044543.9951798     
   51081693.9648029     
   51116066.0943666     
   51146794.8867131     
   51172888.9526193     
   51193226.7312859     
   51206552.4102760     
   51211472.9554637     
   48915734.7284910     
   48926565.0043775     
   48955593.8446226     
   48998596.3359219     
   49051961.6571244     
   49112634.3485171     
   49178058.0059080     
   49246117.7344326     
   49315084.6406576     
   49383565.0305920     
   49450455.3286805     
   49514902.5988897     
   49576270.0320268     
   49634106.6459151     
   49688120.5216243     
   49738155.0390852     
   49784167.7122162     
   49826211.3306021     
   49864417.1869033     
   49898980.2113167     
   49930145.8544797     
   49958198.5659584     
   49983451.7132546     
   50006238.7807511     
   50026905.6823239     
   50045804.0174279     
   50063285.0994071     
   50079694.5871738     
   50095367.5575330     
   50110623.8654429     
   50125763.6535450     
   50141062.8904856     
   50156768.8400107     
   50173095.3895360     
   50190218.1976171     
   50208269.6537254     
   50227333.6794861     
   50247440.4354874     
   50268561.0280825     
   50290602.3309844     
   50313402.0405636     
   50336724.0652771     
   50360254.3048061     
   50383596.8063921     
   50406270.2110665     
   50427704.3574139     
   50447236.9489963     
   50464110.3437530     
   50477468.6294014     
   50486354.3206695     
   50489699.0556641     
   48838694.3806692     
   48845254.7401161     
   48861842.7830341     
   48884850.5617071     
   48911563.7508300     
   48939956.5939746     
   48968510.2910713     
   48996078.4091769     
   49021794.2105311     
   49045008.4534248     
   49065247.2591314     
   49082182.4108353     
   49095609.0549488     
   49105427.7322662     
   49111628.9879690     
   49114279.6394225     
   49113510.2683662     
   49109503.7685012     
   49102484.9056214     
   49092710.8925660     
   49080462.9822570     
   49066039.0618720     
   49049747.2034556     
   49031900.0987167     
   49012810.2824206     
   48992786.0314716     
   48972127.8160988     
   48951125.1755029     
   48930053.8927672     
   48909173.3527122     
   48888723.9818925     
   48868924.6926366     
   48849970.2837853     
   48832028.7907814     
   48815238.8282906     
   48799707.0307542     
   48785505.7706992     
   48772671.4203191     
   48761203.5152214     
   48751065.2722010     
   48742185.9903225     
   48734465.9009160     
   48727783.9876348     
   48722009.1161244     
   48717014.4237523     
   48712694.2577687     
   48708982.0150553     
   48705866.2564560     
   48703402.3090440     
   48701719.7282312     
   48701038.9932680     
   47516145.3922562     
   47509655.7132186     
   47491605.2633018     
   47464285.2483779     
   47429868.4100097     
   47390133.5140597     
   47346428.2742479     
   47299723.9431006     
   47250695.7617110     
   47199801.5743087     
   47147348.4662554     
   47093545.0911178     
   47038540.6027134     
   46982452.2656956     
   46925384.0430079     
   46867438.2913035     
   46808722.3858221     
   46749351.7574574     
   46689450.5061782     
   46629150.4760604     
   46568589.4432832     
   46507908.8783765     
   46447251.5936107     
   46386759.4704804     
   46326571.3753481     
   46266821.3084666     
   46207636.7883987     
   46149137.4467125     
   46091433.7939767     
   46034626.1156300     
   45978803.4642455     
   45924042.7329022     
   45870407.8236109     
   45817948.9667511     
   45766702.3050425     
   45716689.9326770     
   45667920.6821286     
   45620392.0845816     
   45574094.1030482     
   45529015.4594215     
   45485153.6572015     
   45442530.1466018     
   45401212.4839872     
   45361345.7728738     
   45323196.0494373     
   45287208.3740131     
   45254081.7252766     
   45224860.3253449     
   45201034.5766473     
   45184629.8709358     
   45178228.9041276     
   43078954.5265398     
   43054919.4764684     
   42995524.0039147     
   42913295.5576300     
   42816656.1033020     
   42711314.5137107     
   42601147.6521577     
   42488775.4536693     
   42375947.4792323     
   42263809.0378494     
   42153087.4454838     
   42044223.5383835     
   41937464.6918077     
   41832930.3201344     
   41730657.5446364     
   41630632.5550080     
   41532811.7021213     
   41437135.2932479     
   41343536.2766740     
   41251945.4168973     
   41162294.1215402     
   41074515.7508658     
   40988545.9944912     
   40904322.7181890     
   40821785.5516912     
   40740875.3946423     
   40661533.9534385     
   40583703.3798617     
   40507326.0581400     
   40432344.5767097     
   40358701.9220361     
   40286341.9428510     
   40215210.1533427     
   40145254.9731099     
   40076429.5406056     
   40008694.2864476     
   39942020.5152964     
   39876395.3230390     
   39811828.2750624     
   39748360.4008212     
   39686076.2371818     
   39625119.9111223     
   39565716.6538194     
   39508201.8008070     
   39453060.4770848     
   39400983.1994436     
   39352946.2971276     
   39310332.7072523     
   39275120.7570698     
   39250190.2387813     
   39239833.6429565     
   33666723.7016558     
   33650728.4548799     
   33607483.7751714     
   33544298.6629784     
   33467090.9941641     
   33380502.0396584     
   33288076.1025811     
   33192457.1315689     
   33095574.2703943     
   32998803.3312926     
   32903100.3543676     
   32809108.3015572     
   32717240.1419150     
   32627742.2787165     
   32540742.1828444     
   32456283.6599886     
   32374352.6262756     
   32294895.7174662     
   32217833.5649802     
   32143070.1566112     
   32070499.3618990     
   32000009.4345217     
   31931486.0965758     
   31864814.6516950     
   31799881.4560049     
   31736574.9897171     
   31674786.7110083     
   31614411.8324122     
   31555350.1341895     
   31497506.9159839     
   31440794.1852956     
   31385132.1872668     
   31330451.3937299     
   31276695.0892589     
   31223822.7166589     
   31171814.1717207     
   31120675.2634114     
   31070444.5744183     
   31021201.9569972     
   30973078.8616463     
   30926270.5902870     
   30881050.3408601     
   30837784.4849711     
   30796947.7639811     
   30759135.7951816     
   30725070.1256466     
   30695587.5630074     
   30671599.9206607     
   30654001.6395017     
   30643489.8408538     
   30640243.6313560     
   20000000.0000000     
   20000000.0000000     
   20000000.0000000     
   20000000.0000000     
   20000000.0000000     
   20000000.0000000     
   20000000.0000000     
   20000000.0000000     
   20000000.0000000     
   20000000.0000000     
   20000000.0000000     
   20000000.0000000     
   20000000.0000000     
   20000000.0000000     
   20000000.0000000     
   20000000.0000000     
   20000000.0000000     
   20000000.0000000     
   20000000.0000000     
   20000000.0000000     
   20000000.0000000     
   20000000.0000000     
   20000000.0000000     
   20000000.0000000     
   20000000.0000000     
   20000000.0000000     
   20000000.0000000     
   20000000.0000000     
   20000000.0000000     
   20000000.0000000     
   20000000.0000000     
   20000000.0000000     
   20000000.0000000     
   20000000.0000000     
   20000000.0000000     
   20000000.0000000     
   20000000.0000000     
   20000000.0000000     
   20000000.0000000     
   20000000.0000000     
   20000000.0000000     
   20000000.0000000     
   20000000.0000000     
   20000000.0000000     
   20000000.0000000     
   20000000.0000000     
   20000000.0000000     
   20000000.0000000     
   20000000.0000000     
   20000000.0000000     
   20000000.0000000     
VECTORS u double 
    0.00000E+00         0.31035E+01         0.00000E+00
    0.00000E+00         0.29801E+01         0.00000E+00
    0.00000E+00         0.28612E+01         0.00000E+00
    0.00000E+00         0.27486E+01         0.00000E+00
    0.00000E+00         0.26434E+01         0.00000E+00
    0.00000E+00         0.25458E+01         0.00000E+00
    0.00000E+00         0.24538E+01         0.00000E+00
    0.00000E+00         0.23659E+01         0.00000E+00
    0.00000E+00         0.22819E+01         0.00000E+00
    0.00000E+00         0.22016E+01         0.00000E+00
    0.00000E+00         0.21247E+01         0.00000E+00
    0.00000E+00         0.20510E+01         0.00000E+00
    0.00000E+00         0.19803E+01         0.00000E+00
    0.00000E+00         0.19122E+01         0.00000E+00
    0.00000E+00         0.18466E+01         0.00000E+00
    0.00000E+00         0.17832E+01         0.00000E+00
    0.00000E+00         0.17220E+01         0.00000E+00
    0.00000E+00         0.16628E+01         0.00000E+00
    0.00000E+00         0.16054E+01         0.00000E+00
    0.00000E+00         0.15496E+01         0.00000E+00
    0.00000E+00         0.14954E+01         0.00000E+00
    0.00000E+00         0.14426E+01         0.00000E+00
    0.00000E+00         0.13912E+01         0.00000E+00
    0.00000E+00         0.13409E+01         0.00000E+00
    0.00000E+00         0.12918E+01         0.00000E+00
    0.00000E+00         0.12437E+01         0.00000E+00
    0.00000E+00         0.11965E+01         0.00000E+00
    0.00000E+00         0.11502E+01         0.00000E+00
    0.00000E+00         0.11047E+01         0.00000E+00
    0.00000E+00         0.10598E+01         0.00000E+00
    0.00000E+00         0.10155E+01         0.00000E+00
    0.00000E+00         0.97176E+00         0.00000E+00
    0.00000E+00         0.92839E+00         0.00000E+00
    0.00000E+00         0.88534E+00         0.00000E+00
    0.00000E+00         0.84250E+00         0.00000E+00
    0.00000E+00         0.79976E+00         0.00000E+00
    0.00000E+00         0.75700E+00         0.00000E+00
    0.00000E+00         0.71409E+00         0.00000E+00
    0.00000E+00         0.67088E+00         0.00000E+00
    0.00000E+00         0.62719E+00         0.00000E+00
    0.00000E+00         0.58281E+00         0.00000E+00
    0.00000E+00         0.53751E+00         0.00000E+00
    0.00000E+00         0.49099E+00         0.00000E+00
    0.00000E+00         0.44290E+00         0.00000E+00
    0.00000E+00         0.39279E+00         0.00000E+00
    0.00000E+00         0.34010E+00         0.00000E+00
    0.00000E+00         0.28409E+00         0.00000E+00
    0.00000E+00         0.22378E+00         0.00000E+00
    0.00000E+00         0.15779E+00         0.00000E+00
    0.00000E+00         0.84188E-01         0.00000E+00
    0.00000E+00         0.00000E+00         0.00000E+00
    0.92088E+00         0.26192E+01         0.00000E+00
    0.81005E+00         0.25668E+01         0.00000E+00
    0.72522E+00         0.25096E+01         0.00000E+00
    0.65988E+00         0.24495E+01         0.00000E+00
    0.61008E+00         0.23875E+01         0.00000E+00
    0.57286E+00         0.23237E+01         0.00000E+00
    0.54534E+00         0.22589E+01         0.00000E+00
    0.52483E+00         0.21939E+01         0.00000E+00
    0.50934E+00         0.21294E+01         0.00000E+00
    0.49754E+00         0.20656E+01         0.00000E+00
    0.48847E+00         0.20027E+01         0.00000E+00
    0.48148E+00         0.19411E+01         0.00000E+00
    0.47605E+00         0.18807E+01         0.00000E+00
    0.47182E+00         0.18216E+01         0.00000E+00
    0.46851E+00         0.17639E+01         0.00000E+00
    0.46590E+00         0.17074E+01         0.00000E+00
    0.46382E+00         0.16523E+01         0.00000E+00
    0.46213E+00         0.15983E+01         0.00000E+00
    0.46072E+00         0.15456E+01         0.00000E+00
    0.45951E+00         0.14941E+01         0.00000E+00
    0.45840E+00         0.14436E+01         0.00000E+00
    0.45735E+00         0.13941E+01         0.00000E+00
    0.45629E+00         0.13457E+01         0.00000E+00
    0.45518E+00         0.12981E+01         0.00000E+00
    0.45396E+00         0.12513E+01         0.00000E+00
    0.45259E+00         0.12054E+01         0.00000E+00
    0.45102E+00         0.11601E+01         0.00000E+00
    0.44922E+00         0.11155E+01         0.00000E+00
    0.44714E+00         0.10714E+01         0.00000E+00
    0.44473E+00         0.10278E+01         0.00000E+00
    0.44193E+00         0.98471E+00         0.00000E+00
    0.43868E+00         0.94193E+00         0.00000E+00
    0.43492E+00         0.89941E+00         0.00000E+00
    0.43058E+00         0.85708E+00         0.00000E+00
    0.42555E+00         0.81483E+00         0.00000E+00
    0.41974E+00         0.77256E+00         0.00000E+00
    0.41302E+00         0.73016E+00         0.00000E+00
    0.40525E+00         0.68751E+00         0.00000E+00
    0.39624E+00         0.64445E+00         0.00000E+00
    0.38578E+00         0.60084E+00         0.00000E+00
    0.37361E+00         0.55647E+00         0.00000E+00
    0.35939E+00         0.51114E+00         0.00000E+00
    0.34272E+00         0.46459E+00         0.00000E+00
    0.32307E+00         0.41654E+00         0.00000E+00
    0.29976E+00         0.36664E+00         0.00000E+00
    0.27191E+00         0.31447E+00         0.00000E+00
    0.23833E+00         0.25956E+00         0.00000E+00
    0.19736E+00         0.20133E+00         0.00000E+00
    0.14665E+00         0.13914E+00         0.00000E+00
    0.82694E-01         0.72254E-01         0.00000E+00
    0.00000E+00         0.00000E+00         0.00000E+00
    0.12613E+01         0.20281E+01         0.00000E+00
    0.11574E+01         0.20004E+01         0.00000E+00
    0.10678E+01         0.19735E+01         0.00000E+00
    0.99216E+00         0.19461E+01         0.00000E+00
    0.92915E+00         0.19172E+01         0.00000E+00
    0.87706E+00         0.18866E+01         0.00000E+00
    0.83438E+00         0.18543E+01         0.00000E+00
    0.79969E+00         0.18200E+01         0.00000E+00
    0.77163E+00         0.17840E+01         0.00000E+00
    0.74901E+00         0.17465E+01         0.00000E+00
    0.73081E+00         0.17079E+01         0.00000E+00
    0.71617E+00         0.16682E+01         0.00000E+00
    0.70442E+00         0.16278E+01         0.00000E+00
    0.69498E+00         0.15869E+01         0.00000E+00
    0.68739E+00         0.15456E+01         0.00000E+00
    0.68128E+00         0.15041E+01         0.00000E+00
    0.67634E+00         0.14625E+01         0.00000E+00
    0.67229E+00         0.14209E+01         0.00000E+00
    0.66894E+00         0.13793E+01         0.00000E+00
    0.66609E+00         0.13379E+01         0.00000E+00
    0.66359E+00         0.12966E+01         0.00000E+00
    0.66130E+00         0.12555E+01         0.00000E+00
    0.65910E+00         0.12146E+01         0.00000E+00
    0.65689E+00         0.11739E+01         0.00000E+00
    0.65456E+00         0.11334E+01         0.00000E+00
    0.65203E+00         0.10930E+01         0.00000E+00
    0.64920E+00         0.10529E+01         0.00000E+00
    0.64599E+00         0.10129E+01         0.00000E+00
    0.64230E+00         0.97305E+00         0.00000E+00
    0.63804E+00         0.93327E+00         0.00000E+00
    0.63311E+00         0.89353E+00         0.00000E+00
    0.62741E+00         0.85379E+00         0.00000E+00
    0.62080E+00         0.81400E+00         0.00000E+00
    0.61316E+00         0.77409E+00         0.00000E+00
    0.60434E+00         0.73400E+00         0.00000E+00
    0.59415E+00         0.69367E+00         0.00000E+00
    0.58241E+00         0.65300E+00         0.00000E+00
    0.56886E+00         0.61191E+00         0.00000E+00
    0.55325E+00         0.57031E+00         0.00000E+00
    0.53524E+00         0.52810E+00         0.00000E+00
    0.51445E+00         0.48516E+00         0.00000E+00
    0.49044E+00         0.44138E+00         0.00000E+00
    0.46265E+00         0.39664E+00         0.00000E+00
    0.43046E+00         0.35082E+00         0.00000E+00
    0.39308E+00         0.30383E+00         0.00000E+00
    0.34961E+00         0.25558E+00         0.00000E+00
    0.29897E+00         0.20606E+00         0.00000E+00
    0.23992E+00         0.15535E+00         0.00000E+00
    0.17113E+00         0.10368E+00         0.00000E+00
    0.91347E-01         0.51580E-01         0.00000E+00
    0.00000E+00         0.00000E+00         0.00000E+00
    0.13354E+01         0.15229E+01         0.00000E+00
    0.12516E+01         0.15097E+01         0.00000E+00
    0.11764E+01         0.14969E+01         0.00000E+00
    0.11090E+01         0.14839E+01         0.00000E+00
    0.10494E+01         0.14704E+01         0.00000E+00
    0.99694E+00         0.14560E+01         0.00000E+00
    0.95121E+00         0.14404E+01         0.00000E+00
    0.91160E+00         0.14236E+01         0.00000E+00
    0.87751E+00         0.14052E+01         0.00000E+00
    0.84835E+00         0.13855E+01         0.00000E+00
    0.82350E+00         0.13642E+01         0.00000E+00
    0.80241E+00         0.13416E+01         0.00000E+00
    0.78455E+00         0.13177E+01         0.00000E+00
    0.76943E+00         0.12925E+01         0.00000E+00
    0.75664E+00         0.12663E+01         0.00000E+00
    0.74580E+00         0.12390E+01         0.00000E+00
    0.73658E+00         0.12108E+01         0.00000E+00
    0.72867E+00         0.11819E+01         0.00000E+00
    0.72183E+00         0.11522E+01         0.00000E+00
    0.71583E+00         0.11219E+01         0.00000E+00
    0.71046E+00         0.10910E+01         0.00000E+00
    0.70554E+00         0.10596E+01         0.00000E+00
    0.70090E+00         0.10278E+01         0.00000E+00
    0.69640E+00         0.99549E+00         0.00000E+00
    0.69189E+00         0.96283E+00         0.00000E+00
    0.68725E+00         0.92981E+00         0.00000E+00
    0.68234E+00         0.89646E+00         0.00000E+00
    0.67704E+00         0.86277E+00         0.00000E+00
    0.67123E+00         0.82877E+00         0.00000E+00
    0.66478E+00         0.79444E+00         0.00000E+00
    0.65757E+00         0.75979E+00         0.00000E+00
    0.64945E+00         0.72480E+00         0.00000E+00
    0.64027E+00         0.68946E+00         0.00000E+00
    0.62988E+00         0.65377E+00         0.00000E+00
    0.61811E+00         0.61768E+00         0.00000E+00
    0.60476E+00         0.58120E+00         0.00000E+00
    0.58963E+00         0.54429E+00         0.00000E+00
    0.57247E+00         0.50693E+00         0.00000E+00
    0.55302E+00         0.46911E+00         0.00000E+00
    0.53098E+00         0.43082E+00         0.00000E+00
    0.50603E+00         0.39205E+00         0.00000E+00
    0.47780E+00         0.35282E+00         0.00000E+00
    0.44587E+00         0.31316E+00         0.00000E+00
    0.40981E+00         0.27314E+00         0.00000E+00
    0.36913E+00         0.23286E+00         0.00000E+00
    0.32332E+00         0.19248E+00         0.00000E+00
    0.27187E+00         0.15223E+00         0.00000E+00
    0.21429E+00         0.11243E+00         0.00000E+00
    0.15010E+00         0.73474E-01         0.00000E+00
    0.78881E-01         0.35839E-01         0.00000E+00
    0.00000E+00         0.00000E+00         0.00000E+00
    0.12793E+01         0.11504E+01         0.00000E+00
    0.12181E+01         0.11401E+01         0.00000E+00
    0.11601E+01         0.11305E+01         0.00000E+00
    0.11058E+01         0.11215E+01         0.00000E+00
    0.10555E+01         0.11125E+01         0.00000E+00
    0.10092E+01         0.11034E+01         0.00000E+00
    0.96703E+00         0.10940E+01         0.00000E+00
    0.92874E+00         0.10840E+01         0.00000E+00
    0.89423E+00         0.10732E+01         0.00000E+00
    0.86326E+00         0.10617E+01         0.00000E+00
    0.83560E+00         0.10491E+01         0.00000E+00
    0.81096E+00         0.10356E+01         0.00000E+00
    0.78908E+00         0.10211E+01         0.00000E+00
    0.76967E+00         0.10055E+01         0.00000E+00
    0.75244E+00         0.98892E+00         0.00000E+00
    0.73715E+00         0.97128E+00         0.00000E+00
    0.72352E+00         0.95264E+00         0.00000E+00
    0.71132E+00         0.93304E+00         0.00000E+00
    0.70033E+00         0.91252E+00         0.00000E+00
    0.69034E+00         0.89112E+00         0.00000E+00
    0.68116E+00         0.86888E+00         0.00000E+00
    0.67259E+00         0.84583E+00         0.00000E+00
    0.66447E+00         0.82203E+00         0.00000E+00
    0.65664E+00         0.79750E+00         0.00000E+00
    0.64895E+00         0.77229E+00         0.00000E+00
    0.64125E+00         0.74642E+00         0.00000E+00
    0.63340E+00         0.71993E+00         0.00000E+00
    0.62527E+00         0.69284E+00         0.00000E+00
    0.61672E+00         0.66518E+00         0.00000E+00
    0.60761E+00         0.63697E+00         0.00000E+00
    0.59781E+00         0.60824E+00         0.00000E+00
    0.58718E+00         0.57900E+00         0.00000E+00
    0.57558E+00         0.54928E+00         0.00000E+00
    0.56285E+00         0.51910E+00         0.00000E+00
    0.54885E+00         0.48849E+00         0.00000E+00
    0.53340E+00         0.45747E+00         0.00000E+00
    0.51634E+00         0.42607E+00         0.00000E+00
    0.49749E+00         0.39434E+00         0.00000E+00
    0.47666E+00         0.36232E+00         0.00000E+00
    0.45364E+00         0.33007E+00         0.00000E+00
    0.42822E+00         0.29767E+00         0.00000E+00
    0.40021E+00         0.26522E+00         0.00000E+00
    0.36937E+00         0.23282E+00         0.00000E+00
    0.33551E+00         0.20062E+00         0.00000E+00
    0.29841E+00         0.16880E+00         0.00000E+00
    0.25790E+00         0.13755E+00         0.00000E+00
    0.21382E+00         0.10713E+00         0.00000E+00
    0.16605E+00         0.77809E-01         0.00000E+00
    0.11448E+00         0.49921E-01         0.00000E+00
    0.59096E-01         0.23832E-01         0.00000E+00
    0.00000E+00         0.00000E+00         0.00000E+00
    0.11793E+01         0.88465E+00         0.00000E+00
    0.11347E+01         0.87376E+00         0.00000E+00
    0.10911E+01         0.86352E+00         0.00000E+00
    0.10488E+01         0.85387E+00         0.00000E+00
    0.10083E+01         0.84466E+00         0.00000E+00
    0.96968E+00         0.83576E+00         0.00000E+00
    0.93318E+00         0.82702E+00         0.00000E+00
    0.89888E+00         0.81829E+00         0.00000E+00
    0.86683E+00         0.80943E+00         0.00000E+00
    0.83700E+00         0.80032E+00         0.00000E+00
    0.80936E+00         0.79084E+00         0.00000E+00
    0.78380E+00         0.78090E+00         0.00000E+00
    0.76024E+00         0.77042E+00         0.00000E+00
    0.73853E+00         0.75932E+00         0.00000E+00
    0.71854E+00         0.74756E+00         0.00000E+00
    0.70013E+00         0.73509E+00         0.00000E+00
    0.68313E+00         0.72189E+00         0.00000E+00
    0.66739E+00         0.70793E+00         0.00000E+00
    0.65276E+00         0.69322E+00         0.00000E+00
    0.63908E+00         0.67773E+00         0.00000E+00
    0.62620E+00         0.66149E+00         0.00000E+00
    0.61398E+00         0.64449E+00         0.00000E+00
    0.60227E+00         0.62676E+00         0.00000E+00
    0.59092E+00         0.60830E+00         0.00000E+00
    0.57982E+00         0.58915E+00         0.00000E+00
    0.56882E+00         0.56931E+00         0.00000E+00
    0.55781E+00         0.54882E+00         0.00000E+00
    0.54664E+00         0.52770E+00         0.00000E+00
    0.53521E+00         0.50599E+00         0.00000E+00
    0.52340E+00         0.48371E+00         0.00000E+00
    0.51107E+00         0.46090E+00         0.00000E+00
    0.49812E+00         0.43760E+00         0.00000E+00
    0.48443E+00         0.41384E+00         0.00000E+00
    0.46988E+00         0.38967E+00         0.00000E+00
    0.45435E+00         0.36515E+00         0.00000E+00
    0.43773E+00         0.34032E+00         0.00000E+00
    0.41991E+00         0.31525E+00         0.00000E+00
    0.40078E+00         0.29001E+00         0.00000E+00
    0.38021E+00         0.26467E+00         0.00000E+00
    0.35812E+00         0.23934E+00         0.00000E+00
    0.33441E+00         0.21410E+00         0.00000E+00
    0.30899E+00         0.18908E+00         0.00000E+00
    0.28180E+00         0.16440E+00         0.00000E+00
    0.25277E+00         0.14021E+00         0.00000E+00
    0.22188E+00         0.11667E+00         0.00000E+00
    0.18912E+00         0.93954E-01         0.00000E+00
    0.15452E+00         0.72252E-01         0.00000E+00
    0.11816E+00         0.51774E-01         0.00000E+00
    0.80161E-01         0.32748E-01         0.00000E+00
    0.40696E-01         0.15411E-01         0.00000E+00
    0.00000E+00         0.00000E+00         0.00000E+00
    0.10715E+01         0.69142E+00         0.00000E+00
    0.10383E+01         0.67946E+00         0.00000E+00
    0.10050E+01         0.66802E+00         0.00000E+00
    0.97213E+00         0.65709E+00         0.00000E+00
    0.93976E+00         0.64666E+00         0.00000E+00
    0.90815E+00         0.63665E+00         0.00000E+00
    0.87746E+00         0.62701E+00         0.00000E+00
    0.84783E+00         0.61766E+00         0.00000E+00
    0.81936E+00         0.60850E+00         0.00000E+00
    0.79211E+00         0.59944E+00         0.00000E+00
    0.76612E+00         0.59040E+00         0.00000E+00
    0.74140E+00         0.58130E+00         0.00000E+00
    0.71793E+00         0.57204E+00         0.00000E+00
    0.69569E+00         0.56256E+00         0.00000E+00
    0.67462E+00         0.55279E+00         0.00000E+00
    0.65467E+00         0.54268E+00         0.00000E+00
    0.63575E+00         0.53216E+00         0.00000E+00
    0.61778E+00         0.52121E+00         0.00000E+00
    0.60068E+00         0.50978E+00         0.00000E+00
    0.58435E+00         0.49785E+00         0.00000E+00
    0.56869E+00         0.48539E+00         0.00000E+00
    0.55360E+00         0.47240E+00         0.00000E+00
    0.53899E+00         0.45887E+00         0.00000E+00
    0.52475E+00         0.44480E+00         0.00000E+00
    0.51078E+00         0.43018E+00         0.00000E+00
    0.49698E+00         0.41504E+00         0.00000E+00
    0.48326E+00         0.39938E+00         0.00000E+00
    0.46952E+00         0.38323E+00         0.00000E+00
    0.45566E+00         0.36661E+00         0.00000E+00
    0.44160E+00         0.34955E+00         0.00000E+00
    0.42725E+00         0.33208E+00         0.00000E+00
    0.41251E+00         0.31425E+00         0.00000E+00
    0.39732E+00         0.29609E+00         0.00000E+00
    0.38159E+00         0.27765E+00         0.00000E+00
    0.36524E+00         0.25900E+00         0.00000E+00
    0.34822E+00         0.24019E+00         0.00000E+00
    0.33045E+00         0.22128E+00         0.00000E+00
    0.31190E+00         0.20236E+00         0.00000E+00
    0.29250E+00         0.18350E+00         0.00000E+00
    0.27223E+00         0.16479E+00         0.00000E+00
    0.25107E+00         0.14632E+00         0.00000E+00
    0.22902E+00         0.12820E+00         0.00000E+00
    0.20607E+00         0.11053E+00         0.00000E+00
    0.18227E+00         0.93428E-01         0.00000E+00
    0.15767E+00         0.77013E-01         0.00000E+00
    0.13235E+00         0.61408E-01         0.00000E+00
    0.10642E+00         0.46743E-01         0.00000E+00
    0.80022E-01         0.33146E-01         0.00000E+00
    0.53334E-01         0.20743E-01         0.00000E+00
    0.26572E-01         0.96558E-02         0.00000E+00
    0.00000E+00         0.00000E+00         0.00000E+00
    0.96775E+00         0.54678E+00         0.00000E+00
    0.94238E+00         0.53423E+00         0.00000E+00
    0.91665E+00         0.52207E+00         0.00000E+00
    0.89074E+00         0.51033E+00         0.00000E+00
    0.86479E+00         0.49902E+00         0.00000E+00
    0.83897E+00         0.48814E+00         0.00000E+00
    0.81340E+00         0.47766E+00         0.00000E+00
    0.78820E+00         0.46755E+00         0.00000E+00
    0.76346E+00         0.45776E+00         0.00000E+00
    0.73927E+00         0.44824E+00         0.00000E+00
    0.71569E+00         0.43894E+00         0.00000E+00
    0.69276E+00         0.42979E+00         0.00000E+00
    0.67051E+00         0.42073E+00         0.00000E+00
    0.64896E+00         0.41172E+00         0.00000E+00
    0.62811E+00         0.40268E+00         0.00000E+00
    0.60794E+00         0.39357E+00         0.00000E+00
    0.58843E+00         0.38435E+00         0.00000E+00
    0.56956E+00         0.37496E+00         0.00000E+00
    0.55127E+00         0.36537E+00         0.00000E+00
    0.53353E+00         0.35554E+00         0.00000E+00
    0.51628E+00         0.34545E+00         0.00000E+00
    0.49946E+00         0.33508E+00         0.00000E+00
    0.48303E+00         0.32440E+00         0.00000E+00
    0.46691E+00         0.31342E+00         0.00000E+00
    0.45105E+00         0.30211E+00         0.00000E+00
    0.43537E+00         0.29049E+00         0.00000E+00
    0.41983E+00         0.27857E+00         0.00000E+00
    0.40435E+00         0.26634E+00         0.00000E+00
    0.38888E+00         0.25383E+00         0.00000E+00
    0.37336E+00         0.24107E+00         0.00000E+00
    0.35773E+00         0.22807E+00         0.00000E+00
    0.34195E+00         0.21488E+00         0.00000E+00
    0.32596E+00         0.20152E+00         0.00000E+00
    0.30972E+00         0.18804E+00         0.00000E+00
    0.29320E+00         0.17448E+00         0.00000E+00
    0.27636E+00         0.16091E+00         0.00000E+00
    0.25919E+00         0.14737E+00         0.00000E+00
    0.24168E+00         0.13392E+00         0.00000E+00
    0.22381E+00         0.12064E+00         0.00000E+00
    0.20560E+00         0.10758E+00         0.00000E+00
    0.18706E+00         0.94822E-01         0.00000E+00
    0.16824E+00         0.82440E-01         0.00000E+00
    0.14917E+00         0.70509E-01         0.00000E+00
    0.12993E+00         0.59105E-01         0.00000E+00
    0.11060E+00         0.48305E-01         0.00000E+00
    0.91284E-01         0.38183E-01         0.00000E+00
    0.72101E-01         0.28811E-01         0.00000E+00
    0.53200E-01         0.20255E-01         0.00000E+00
    0.34751E-01         0.12571E-01         0.00000E+00
    0.16945E-01         0.58081E-02         0.00000E+00
    0.00000E+00         0.00000E+00         0.00000E+00
    0.87101E+00         0.43661E+00         0.00000E+00
    0.85148E+00         0.42400E+00         0.00000E+00
    0.83137E+00         0.41170E+00         0.00000E+00
    0.81082E+00         0.39975E+00         0.00000E+00
    0.78993E+00         0.38816E+00         0.00000E+00
    0.76881E+00         0.37695E+00         0.00000E+00
    0.74756E+00         0.36612E+00         0.00000E+00
    0.72627E+00         0.35565E+00         0.00000E+00
    0.70502E+00         0.34554E+00         0.00000E+00
    0.68389E+00         0.33576E+00         0.00000E+00
    0.66294E+00         0.32627E+00         0.00000E+00
    0.64222E+00         0.31704E+00         0.00000E+00
    0.62178E+00         0.30804E+00         0.00000E+00
    0.60164E+00         0.29923E+00         0.00000E+00
    0.58184E+00         0.29056E+00         0.00000E+00
    0.56239E+00         0.28201E+00         0.00000E+00
    0.54330E+00         0.27352E+00         0.00000E+00
    0.52456E+00         0.26508E+00         0.00000E+00
    0.50617E+00         0.25664E+00         0.00000E+00
    0.48811E+00         0.24818E+00         0.00000E+00
    0.47037E+00         0.23966E+00         0.00000E+00
    0.45293E+00         0.23108E+00         0.00000E+00
    0.43575E+00         0.22241E+00         0.00000E+00
    0.41881E+00         0.21364E+00         0.00000E+00
    0.40208E+00         0.20476E+00         0.00000E+00
    0.38554E+00         0.19576E+00         0.00000E+00
    0.36913E+00         0.18666E+00         0.00000E+00
    0.35285E+00         0.17744E+00         0.00000E+00
    0.33665E+00         0.16813E+00         0.00000E+00
    0.32050E+00         0.15874E+00         0.00000E+00
    0.30439E+00         0.14927E+00         0.00000E+00
    0.28829E+00         0.13977E+00         0.00000E+00
    0.27217E+00         0.13025E+00         0.00000E+00
    0.25602E+00         0.12074E+00         0.00000E+00
    0.23985E+00         0.11128E+00         0.00000E+00
    0.22363E+00         0.10190E+00         0.00000E+00
    0.20737E+00         0.92651E-01         0.00000E+00
    0.19109E+00         0.83563E-01         0.00000E+00
    0.17481E+00         0.74685E-01         0.00000E+00
    0.15854E+00         0.66063E-01         0.00000E+00
    0.14234E+00         0.57742E-01         0.00000E+00
    0.12624E+00         0.49770E-01         0.00000E+00
    0.11031E+00         0.42191E-01         0.00000E+00
    0.94614E-01         0.35049E-01         0.00000E+00
    0.79241E-01         0.28386E-01         0.00000E+00
    0.64283E-01         0.22237E-01         0.00000E+00
    0.49850E-01         0.16632E-01         0.00000E+00
    0.36064E-01         0.11597E-01         0.00000E+00
    0.23060E-01         0.71452E-02         0.00000E+00
    0.10985E-01         0.32821E-02         0.00000E+00
    0.00000E+00         0.00000E+00         0.00000E+00
    0.78216E+00         0.35237E+00         0.00000E+00
    0.76713E+00         0.34013E+00         0.00000E+00
    0.75140E+00         0.32814E+00         0.00000E+00
    0.73508E+00         0.31644E+00         0.00000E+00
    0.71824E+00         0.30504E+00         0.00000E+00
    0.70097E+00         0.29397E+00         0.00000E+00
    0.68334E+00         0.28324E+00         0.00000E+00
    0.66543E+00         0.27286E+00         0.00000E+00
    0.64731E+00         0.26281E+00         0.00000E+00
    0.62903E+00         0.25311E+00         0.00000E+00
    0.61067E+00         0.24372E+00         0.00000E+00
    0.59226E+00         0.23464E+00         0.00000E+00
    0.57386E+00         0.22585E+00         0.00000E+00
    0.55551E+00         0.21732E+00         0.00000E+00
    0.53724E+00         0.20903E+00         0.00000E+00
    0.51908E+00         0.20096E+00         0.00000E+00
    0.50105E+00         0.19307E+00         0.00000E+00
    0.48317E+00         0.18535E+00         0.00000E+00
    0.46545E+00         0.17778E+00         0.00000E+00
    0.44789E+00         0.17033E+00         0.00000E+00
    0.43051E+00         0.16298E+00         0.00000E+00
    0.41330E+00         0.15572E+00         0.00000E+00
    0.39626E+00         0.14853E+00         0.00000E+00
    0.37938E+00         0.14139E+00         0.00000E+00
    0.36266E+00         0.13431E+00         0.00000E+00
    0.34609E+00         0.12728E+00         0.00000E+00
    0.32966E+00         0.12028E+00         0.00000E+00
    0.31336E+00         0.11333E+00         0.00000E+00
    0.29719E+00         0.10642E+00         0.00000E+00
    0.28114E+00         0.99573E-01         0.00000E+00
    0.26520E+00         0.92785E-01         0.00000E+00
    0.24938E+00         0.86075E-01         0.00000E+00
    0.23366E+00         0.79456E-01         0.00000E+00
    0.21807E+00         0.72948E-01         0.00000E+00
    0.20259E+00         0.66570E-01         0.00000E+00
    0.18726E+00         0.60345E-01         0.00000E+00
    0.17207E+00         0.54295E-01         0.00000E+00
    0.15706E+00         0.48446E-01         0.00000E+00
    0.14226E+00         0.42822E-01         0.00000E+00
    0.12769E+00         0.37448E-01         0.00000E+00
    0.11340E+00         0.32350E-01         0.00000E+00
    0.99437E-01         0.27550E-01         0.00000E+00
    0.85858E-01         0.23070E-01         0.00000E+00
    0.72724E-01         0.18928E-01         0.00000E+00
    0.60104E-01         0.15140E-01         0.00000E+00
    0.48077E-01         0.11716E-01         0.00000E+00
    0.36726E-01         0.86622E-02         0.00000E+00
    0.26142E-01         0.59764E-02         0.00000E+00
    0.16423E-01         0.36505E-02         0.00000E+00
    0.76733E-02         0.16672E-02         0.00000E+00
    0.00000E+00         0.00000E+00         0.00000E+00
    0.70151E+00         0.28832E+00         0.00000E+00
    0.69001E+00         0.27674E+00         0.00000E+00
    0.67776E+00         0.26535E+00         0.00000E+00
    0.66483E+00         0.25420E+00         0.00000E+00
    0.65128E+00         0.24332E+00         0.00000E+00
    0.63718E+00         0.23271E+00         0.00000E+00
    0.62260E+00         0.22241E+00         0.00000E+00
    0.60759E+00         0.21243E+00         0.00000E+00
    0.59222E+00         0.20276E+00         0.00000E+00
    0.57654E+00         0.19342E+00         0.00000E+00
    0.56060E+00         0.18439E+00         0.00000E+00
    0.54445E+00         0.17568E+00         0.00000E+00
    0.52814E+00         0.16728E+00         0.00000E+00
    0.51171E+00         0.15918E+00         0.00000E+00
    0.49519E+00         0.15136E+00         0.00000E+00
    0.47861E+00         0.14381E+00         0.00000E+00
    0.46202E+00         0.13651E+00         0.00000E+00
    0.44543E+00         0.12946E+00         0.00000E+00
    0.42886E+00         0.12263E+00         0.00000E+00
    0.41234E+00         0.11602E+00         0.00000E+00
    0.39589E+00         0.10960E+00         0.00000E+00
    0.37950E+00         0.10337E+00         0.00000E+00
    0.36321E+00         0.97310E-01         0.00000E+00
    0.34701E+00         0.91419E-01         0.00000E+00
    0.33093E+00         0.85685E-01         0.00000E+00
    0.31495E+00         0.80103E-01         0.00000E+00
    0.29910E+00         0.74669E-01         0.00000E+00
    0.28338E+00         0.69380E-01         0.00000E+00
    0.26779E+00         0.64236E-01         0.00000E+00
    0.25235E+00         0.59239E-01         0.00000E+00
    0.23706E+00         0.54392E-01         0.00000E+00
    0.22193E+00         0.49700E-01         0.00000E+00
    0.20698E+00         0.45170E-01         0.00000E+00
    0.19222E+00         0.40811E-01         0.00000E+00
    0.17767E+00         0.36630E-01         0.00000E+00
    0.16335E+00         0.32637E-01         0.00000E+00
    0.14927E+00         0.28844E-01         0.00000E+00
    0.13547E+00         0.25261E-01         0.00000E+00
    0.12197E+00         0.21897E-01         0.00000E+00
    0.10882E+00         0.18762E-01         0.00000E+00
    0.96040E-01         0.15865E-01         0.00000E+00
    0.83680E-01         0.13213E-01         0.00000E+00
    0.71784E-01         0.10810E-01         0.00000E+00
    0.60402E-01         0.86593E-02         0.00000E+00
    0.49587E-01         0.67588E-02         0.00000E+00
    0.39396E-01         0.51040E-02         0.00000E+00
    0.29890E-01         0.36855E-02         0.00000E+00
    0.21131E-01         0.24890E-02         0.00000E+00
    0.13184E-01         0.14945E-02         0.00000E+00
    0.61182E-02         0.67580E-03         0.00000E+00
    0.00000E+00         0.00000E+00         0.00000E+00
    0.62912E+00         0.24009E+00         0.00000E+00
    0.62040E+00         0.22933E+00         0.00000E+00
    0.61091E+00         0.21873E+00         0.00000E+00
    0.60070E+00         0.20833E+00         0.00000E+00
    0.58984E+00         0.19815E+00         0.00000E+00
    0.57836E+00         0.18821E+00         0.00000E+00
    0.56633E+00         0.17854E+00         0.00000E+00
    0.55381E+00         0.16915E+00         0.00000E+00
    0.54084E+00         0.16005E+00         0.00000E+00
    0.52747E+00         0.15126E+00         0.00000E+00
    0.51374E+00         0.14277E+00         0.00000E+00
    0.49971E+00         0.13458E+00         0.00000E+00
    0.48541E+00         0.12670E+00         0.00000E+00
    0.47089E+00         0.11913E+00         0.00000E+00
    0.45617E+00         0.11185E+00         0.00000E+00
    0.44131E+00         0.10487E+00         0.00000E+00
    0.42632E+00         0.98166E-01         0.00000E+00
    0.41124E+00         0.91742E-01         0.00000E+00
    0.39609E+00         0.85586E-01         0.00000E+00
    0.38090E+00         0.79689E-01         0.00000E+00
    0.36570E+00         0.74041E-01         0.00000E+00
    0.35050E+00         0.68636E-01         0.00000E+00
    0.33533E+00         0.63464E-01         0.00000E+00
    0.32020E+00         0.58519E-01         0.00000E+00
    0.30514E+00         0.53793E-01         0.00000E+00
    0.29015E+00         0.49281E-01         0.00000E+00
    0.27526E+00         0.44978E-01         0.00000E+00
    0.26048E+00         0.40881E-01         0.00000E+00
    0.24582E+00         0.36986E-01         0.00000E+00
    0.23131E+00         0.33290E-01         0.00000E+00
    0.21695E+00         0.29794E-01         0.00000E+00
    0.20277E+00         0.26496E-01         0.00000E+00
    0.18879E+00         0.23397E-01         0.00000E+00
    0.17502E+00         0.20497E-01         0.00000E+00
    0.16148E+00         0.17798E-01         0.00000E+00
    0.14819E+00         0.15300E-01         0.00000E+00
    0.13519E+00         0.13004E-01         0.00000E+00
    0.12249E+00         0.10911E-01         0.00000E+00
    0.11013E+00         0.90219E-02         0.00000E+00
    0.98121E-01         0.73348E-02         0.00000E+00
    0.86509E-01         0.58480E-02         0.00000E+00
    0.75323E-01         0.45578E-02         0.00000E+00
    0.64598E-01         0.34587E-02         0.00000E+00
    0.54370E-01         0.25431E-02         0.00000E+00
    0.44677E-01         0.18008E-02         0.00000E+00
    0.35559E-01         0.12185E-02         0.00000E+00
    0.27056E-01         0.77977E-03         0.00000E+00
    0.19208E-01         0.46469E-03         0.00000E+00
    0.12056E-01         0.24925E-03         0.00000E+00
    0.56406E-02         0.10526E-03         0.00000E+00
    0.00000E+00         0.00000E+00         0.00000E+00
    0.56485E+00         0.20414E+00         0.00000E+00
    0.55829E+00         0.19429E+00         0.00000E+00
    0.55096E+00         0.18457E+00         0.00000E+00
    0.54293E+00         0.17500E+00         0.00000E+00
    0.53423E+00         0.16562E+00         0.00000E+00
    0.52491E+00         0.15645E+00         0.00000E+00
    0.51501E+00         0.14752E+00         0.00000E+00
    0.50459E+00         0.13883E+00         0.00000E+00
    0.49369E+00         0.13041E+00         0.00000E+00
    0.48234E+00         0.12226E+00         0.00000E+00
    0.47060E+00         0.11439E+00         0.00000E+00
    0.45850E+00         0.10681E+00         0.00000E+00
    0.44607E+00         0.99524E-01         0.00000E+00
    0.43336E+00         0.92529E-01         0.00000E+00
    0.42041E+00         0.85827E-01         0.00000E+00
    0.40723E+00         0.79417E-01         0.00000E+00
    0.39388E+00         0.73295E-01         0.00000E+00
    0.38037E+00         0.67459E-01         0.00000E+00
    0.36674E+00         0.61904E-01         0.00000E+00
    0.35301E+00         0.56624E-01         0.00000E+00
    0.33922E+00         0.51616E-01         0.00000E+00
    0.32537E+00         0.46872E-01         0.00000E+00
    0.31151E+00         0.42387E-01         0.00000E+00
    0.29764E+00         0.38156E-01         0.00000E+00
    0.28380E+00         0.34173E-01         0.00000E+00
    0.27000E+00         0.30433E-01         0.00000E+00
    0.25627E+00         0.26930E-01         0.00000E+00
    0.24262E+00         0.23659E-01         0.00000E+00
    0.22907E+00         0.20617E-01         0.00000E+00
    0.21565E+00         0.17798E-01         0.00000E+00
    0.20236E+00         0.15199E-01         0.00000E+00
    0.18924E+00         0.12815E-01         0.00000E+00
    0.17630E+00         0.10642E-01         0.00000E+00
    0.16357E+00         0.86768E-02         0.00000E+00
    0.15105E+00         0.69148E-02         0.00000E+00
    0.13878E+00         0.53517E-02         0.00000E+00
    0.12677E+00         0.39827E-02         0.00000E+00
    0.11506E+00         0.28023E-02         0.00000E+00
    0.10365E+00         0.18044E-02         0.00000E+00
    0.92577E-01         0.98199E-03         0.00000E+00
    0.81865E-01         0.32685E-03         0.00000E+00
    0.71537E-01        -0.17049E-03         0.00000E+00
    0.61618E-01        -0.52101E-03         0.00000E+00
    0.52135E-01        -0.73737E-03         0.00000E+00
    0.43111E-01        -0.83412E-03         0.00000E+00
    0.34574E-01        -0.82788E-03         0.00000E+00
    0.26546E-01        -0.73751E-03         0.00000E+00
    0.19053E-01        -0.58432E-03         0.00000E+00
    0.12117E-01        -0.39215E-03         0.00000E+00
    0.57597E-02        -0.18758E-03         0.00000E+00
    0.00000E+00         0.00000E+00         0.00000E+00
    0.50829E+00         0.17754E+00         0.00000E+00
    0.50336E+00         0.16861E+00         0.00000E+00
    0.49771E+00         0.15978E+00         0.00000E+00
    0.49138E+00         0.15109E+00         0.00000E+00
    0.48442E+00         0.14255E+00         0.00000E+00
    0.47685E+00         0.13419E+00         0.00000E+00
    0.46872E+00         0.12602E+00         0.00000E+00
    0.46006E+00         0.11808E+00         0.00000E+00
    0.45092E+00         0.11037E+00         0.00000E+00
    0.44132E+00         0.10290E+00         0.00000E+00
    0.43132E+00         0.95686E-01         0.00000E+00
    0.42093E+00         0.88734E-01         0.00000E+00
    0.41020E+00         0.82051E-01         0.00000E+00
    0.39916E+00         0.75641E-01         0.00000E+00
    0.38784E+00         0.69507E-01         0.00000E+00
    0.37628E+00         0.63650E-01         0.00000E+00
    0.36450E+00         0.58070E-01         0.00000E+00
    0.35253E+00         0.52768E-01         0.00000E+00
    0.34040E+00         0.47740E-01         0.00000E+00
    0.32813E+00         0.42986E-01         0.00000E+00
    0.31577E+00         0.38501E-01         0.00000E+00
    0.30332E+00         0.34281E-01         0.00000E+00
    0.29081E+00         0.30324E-01         0.00000E+00
    0.27827E+00         0.26625E-01         0.00000E+00
    0.26571E+00         0.23178E-01         0.00000E+00
    0.25317E+00         0.19980E-01         0.00000E+00
    0.24066E+00         0.17024E-01         0.00000E+00
    0.22821E+00         0.14306E-01         0.00000E+00
    0.21582E+00         0.11821E-01         0.00000E+00
    0.20353E+00         0.95619E-02         0.00000E+00
    0.19135E+00         0.75239E-02         0.00000E+00
    0.17931E+00         0.57009E-02         0.00000E+00
    0.16741E+00         0.40865E-02         0.00000E+00
    0.15569E+00         0.26742E-02         0.00000E+00
    0.14415E+00         0.14570E-02         0.00000E+00
    0.13283E+00         0.42758E-03         0.00000E+00
    0.12173E+00        -0.42208E-03         0.00000E+00
    0.11087E+00        -0.11006E-02         0.00000E+00
    0.10028E+00        -0.16172E-02         0.00000E+00
    0.89977E-01        -0.19821E-02         0.00000E+00
    0.79971E-01        -0.22064E-02         0.00000E+00
    0.70283E-01        -0.23021E-02         0.00000E+00
    0.60932E-01        -0.22826E-02         0.00000E+00
    0.51933E-01        -0.21621E-02         0.00000E+00
    0.43302E-01        -0.19565E-02         0.00000E+00
    0.35055E-01        -0.16829E-02         0.00000E+00
    0.27205E-01        -0.13599E-02         0.00000E+00
    0.19765E-01        -0.10076E-02         0.00000E+00
    0.12745E-01        -0.64767E-03         0.00000E+00
    0.61547E-02        -0.30349E-03         0.00000E+00
    0.00000E+00         0.00000E+00         0.00000E+00
    0.45884E+00         0.15786E+00         0.00000E+00
    0.45512E+00         0.14983E+00         0.00000E+00
    0.45074E+00         0.14189E+00         0.00000E+00
    0.44574E+00         0.13404E+00         0.00000E+00
    0.44014E+00         0.12633E+00         0.00000E+00
    0.43397E+00         0.11877E+00         0.00000E+00
    0.42728E+00         0.11137E+00         0.00000E+00
    0.42008E+00         0.10416E+00         0.00000E+00
    0.41241E+00         0.97156E-01         0.00000E+00
    0.40431E+00         0.90361E-01         0.00000E+00
    0.39580E+00         0.83791E-01         0.00000E+00
    0.38691E+00         0.77455E-01         0.00000E+00
    0.37768E+00         0.71359E-01         0.00000E+00
    0.36814E+00         0.65510E-01         0.00000E+00
    0.35830E+00         0.59912E-01         0.00000E+00
    0.34821E+00         0.54569E-01         0.00000E+00
    0.33788E+00         0.49482E-01         0.00000E+00
    0.32734E+00         0.44652E-01         0.00000E+00
    0.31663E+00         0.40081E-01         0.00000E+00
    0.30576E+00         0.35766E-01         0.00000E+00
    0.29477E+00         0.31706E-01         0.00000E+00
    0.28366E+00         0.27899E-01         0.00000E+00
    0.27247E+00         0.24343E-01         0.00000E+00
    0.26122E+00         0.21033E-01         0.00000E+00
    0.24993E+00         0.17967E-01         0.00000E+00
    0.23862E+00         0.15139E-01         0.00000E+00
    0.22732E+00         0.12545E-01         0.00000E+00
    0.21603E+00         0.10180E-01         0.00000E+00
    0.20479E+00         0.80378E-02         0.00000E+00
    0.19360E+00         0.61130E-02         0.00000E+00
    0.18249E+00         0.43992E-02         0.00000E+00
    0.17148E+00         0.28895E-02         0.00000E+00
    0.16058E+00         0.15769E-02         0.00000E+00
    0.14981E+00         0.45362E-03         0.00000E+00
    0.13919E+00        -0.48839E-03         0.00000E+00
    0.12873E+00        -0.12578E-02         0.00000E+00
    0.11844E+00        -0.18637E-02         0.00000E+00
    0.10835E+00        -0.23159E-02         0.00000E+00
    0.98466E-01        -0.26249E-02         0.00000E+00
    0.88801E-01        -0.28017E-02         0.00000E+00
    0.79369E-01        -0.28583E-02         0.00000E+00
    0.70182E-01        -0.28072E-02         0.00000E+00
    0.61252E-01        -0.26618E-02         0.00000E+00
    0.52588E-01        -0.24364E-02         0.00000E+00
    0.44201E-01        -0.21461E-02         0.00000E+00
    0.36097E-01        -0.18069E-02         0.00000E+00
    0.28283E-01        -0.14357E-02         0.00000E+00
    0.20765E-01        -0.10503E-02         0.00000E+00
    0.13544E-01        -0.66936E-03         0.00000E+00
    0.66232E-02        -0.31245E-03         0.00000E+00
    0.00000E+00         0.00000E+00         0.00000E+00
    0.41578E+00         0.14319E+00         0.00000E+00
    0.41293E+00         0.13601E+00         0.00000E+00
    0.40950E+00         0.12889E+00         0.00000E+00
    0.40550E+00         0.12185E+00         0.00000E+00
    0.40096E+00         0.11492E+00         0.00000E+00
    0.39590E+00         0.10812E+00         0.00000E+00
    0.39036E+00         0.10145E+00         0.00000E+00
    0.38435E+00         0.94942E-01         0.00000E+00
    0.37791E+00         0.88605E-01         0.00000E+00
    0.37105E+00         0.82450E-01         0.00000E+00
    0.36381E+00         0.76490E-01         0.00000E+00
    0.35621E+00         0.70733E-01         0.00000E+00
    0.34828E+00         0.65188E-01         0.00000E+00
    0.34004E+00         0.59860E-01         0.00000E+00
    0.33151E+00         0.54755E-01         0.00000E+00
    0.32273E+00         0.49877E-01         0.00000E+00
    0.31370E+00         0.45229E-01         0.00000E+00
    0.30447E+00         0.40814E-01         0.00000E+00
    0.29505E+00         0.36632E-01         0.00000E+00
    0.28546E+00         0.32684E-01         0.00000E+00
    0.27572E+00         0.28969E-01         0.00000E+00
    0.26587E+00         0.25486E-01         0.00000E+00
    0.25591E+00         0.22233E-01         0.00000E+00
    0.24586E+00         0.19208E-01         0.00000E+00
    0.23575E+00         0.16407E-01         0.00000E+00
    0.22560E+00         0.13828E-01         0.00000E+00
    0.21543E+00         0.11464E-01         0.00000E+00
    0.20524E+00         0.93133E-02         0.00000E+00
    0.19506E+00         0.73687E-02         0.00000E+00
    0.18491E+00         0.56251E-02         0.00000E+00
    0.17481E+00         0.40763E-02         0.00000E+00
    0.16476E+00         0.27156E-02         0.00000E+00
    0.15478E+00         0.15358E-02         0.00000E+00
    0.14489E+00         0.52928E-03         0.00000E+00
    0.13509E+00        -0.31204E-03         0.00000E+00
    0.12542E+00        -0.99685E-03         0.00000E+00
    0.11586E+00        -0.15343E-02         0.00000E+00
    0.10645E+00        -0.19341E-02         0.00000E+00
    0.97181E-01        -0.22064E-02         0.00000E+00
    0.88071E-01        -0.23620E-02         0.00000E+00
    0.79127E-01        -0.24122E-02         0.00000E+00
    0.70358E-01        -0.23690E-02         0.00000E+00
    0.61770E-01        -0.22447E-02         0.00000E+00
    0.53369E-01        -0.20523E-02         0.00000E+00
    0.45160E-01        -0.18053E-02         0.00000E+00
    0.37145E-01        -0.15179E-02         0.00000E+00
    0.29327E-01        -0.12046E-02         0.00000E+00
    0.21706E-01        -0.88044E-03         0.00000E+00
    0.14281E-01        -0.56094E-03         0.00000E+00
    0.70469E-02        -0.26203E-03         0.00000E+00
    0.00000E+00         0.00000E+00         0.00000E+00
    0.37834E+00         0.13201E+00         0.00000E+00
    0.37610E+00         0.12560E+00         0.00000E+00
    0.37335E+00         0.11925E+00         0.00000E+00
    0.37010E+00         0.11295E+00         0.00000E+00
    0.36637E+00         0.10675E+00         0.00000E+00
    0.36218E+00         0.10064E+00         0.00000E+00
    0.35755E+00         0.94647E-01         0.00000E+00
    0.35250E+00         0.88786E-01         0.00000E+00
    0.34705E+00         0.83069E-01         0.00000E+00
    0.34123E+00         0.77506E-01         0.00000E+00
    0.33505E+00         0.72109E-01         0.00000E+00
    0.32853E+00         0.66886E-01         0.00000E+00
    0.32170E+00         0.61844E-01         0.00000E+00
    0.31458E+00         0.56991E-01         0.00000E+00
    0.30719E+00         0.52331E-01         0.00000E+00
    0.29954E+00         0.47870E-01         0.00000E+00
    0.29167E+00         0.43611E-01         0.00000E+00
    0.28358E+00         0.39556E-01         0.00000E+00
    0.27530E+00         0.35708E-01         0.00000E+00
    0.26686E+00         0.32067E-01         0.00000E+00
    0.25825E+00         0.28634E-01         0.00000E+00
    0.24952E+00         0.25408E-01         0.00000E+00
    0.24066E+00         0.22388E-01         0.00000E+00
    0.23171E+00         0.19572E-01         0.00000E+00
    0.22268E+00         0.16959E-01         0.00000E+00
    0.21358E+00         0.14544E-01         0.00000E+00
    0.20443E+00         0.12325E-01         0.00000E+00
    0.19525E+00         0.10297E-01         0.00000E+00
    0.18605E+00         0.84564E-02         0.00000E+00
    0.17684E+00         0.67970E-02         0.00000E+00
    0.16765E+00         0.53137E-02         0.00000E+00
    0.15847E+00         0.40004E-02         0.00000E+00
    0.14933E+00         0.28505E-02         0.00000E+00
    0.14024E+00         0.18570E-02         0.00000E+00
    0.13120E+00         0.10124E-02         0.00000E+00
    0.12223E+00         0.30876E-03         0.00000E+00
    0.11334E+00        -0.26226E-03         0.00000E+00
    0.10453E+00        -0.70952E-03         0.00000E+00
    0.95816E-01        -0.10423E-02         0.00000E+00
    0.87202E-01        -0.12702E-02         0.00000E+00
    0.78695E-01        -0.14034E-02         0.00000E+00
    0.70299E-01        -0.14524E-02         0.00000E+00
    0.62019E-01        -0.14280E-02         0.00000E+00
    0.53857E-01        -0.13415E-02         0.00000E+00
    0.45815E-01        -0.12044E-02         0.00000E+00
    0.37892E-01        -0.10285E-02         0.00000E+00
    0.30089E-01        -0.82610E-03         0.00000E+00
    0.22403E-01        -0.60943E-03         0.00000E+00
    0.14830E-01        -0.39106E-03         0.00000E+00
    0.73647E-02        -0.18366E-03         0.00000E+00
    0.00000E+00         0.00000E+00         0.00000E+00
    0.34574E+00         0.12318E+00         0.00000E+00
    0.34392E+00         0.11747E+00         0.00000E+00
    0.34166E+00         0.11180E+00         0.00000E+00
    0.33896E+00         0.10618E+00         0.00000E+00
    0.33584E+00         0.10062E+00         0.00000E+00
    0.33231E+00         0.95149E-01         0.00000E+00
    0.32840E+00         0.89769E-01         0.00000E+00
    0.32411E+00         0.84496E-01         0.00000E+00
    0.31946E+00         0.79342E-01         0.00000E+00
    0.31448E+00         0.74317E-01         0.00000E+00
    0.30917E+00         0.69431E-01         0.00000E+00
    0.30356E+00         0.64690E-01         0.00000E+00
    0.29765E+00         0.60104E-01         0.00000E+00
    0.29148E+00         0.55678E-01         0.00000E+00
    0.28505E+00         0.51417E-01         0.00000E+00
    0.27838E+00         0.47327E-01         0.00000E+00
    0.27149E+00         0.43411E-01         0.00000E+00
    0.26440E+00         0.39671E-01         0.00000E+00
    0.25712E+00         0.36111E-01         0.00000E+00
    0.24967E+00         0.32732E-01         0.00000E+00
    0.24206E+00         0.29534E-01         0.00000E+00
    0.23431E+00         0.26517E-01         0.00000E+00
    0.22644E+00         0.23682E-01         0.00000E+00
    0.21845E+00         0.21026E-01         0.00000E+00
    0.21038E+00         0.18549E-01         0.00000E+00
    0.20221E+00         0.16247E-01         0.00000E+00
    0.19399E+00         0.14119E-01         0.00000E+00
    0.18570E+00         0.12161E-01         0.00000E+00
    0.17737E+00         0.10369E-01         0.00000E+00
    0.16901E+00         0.87380E-02         0.00000E+00
    0.16064E+00         0.72645E-02         0.00000E+00
    0.15225E+00         0.59428E-02         0.00000E+00
    0.14386E+00         0.47673E-02         0.00000E+00
    0.13549E+00         0.37319E-02         0.00000E+00
    0.12713E+00         0.28302E-02         0.00000E+00
    0.11880E+00         0.20552E-02         0.00000E+00
    0.11051E+00         0.13999E-02         0.00000E+00
    0.10225E+00         0.85644E-03         0.00000E+00
    0.94045E-01         0.41704E-03         0.00000E+00
    0.85890E-01         0.73401E-04         0.00000E+00
    0.77790E-01        -0.18304E-03         0.00000E+00
    0.69750E-01        -0.36114E-03         0.00000E+00
    0.61769E-01        -0.47000E-03         0.00000E+00
    0.53851E-01        -0.51894E-03         0.00000E+00
    0.45994E-01        -0.51751E-03         0.00000E+00
    0.38198E-01        -0.47539E-03         0.00000E+00
    0.30459E-01        -0.40240E-03         0.00000E+00
    0.22776E-01        -0.30843E-03         0.00000E+00
    0.15142E-01        -0.20343E-03         0.00000E+00
    0.75527E-02        -0.97326E-04         0.00000E+00
    0.00000E+00         0.00000E+00         0.00000E+00
    0.31727E+00         0.11587E+00         0.00000E+00
    0.31572E+00         0.11078E+00         0.00000E+00
    0.31379E+00         0.10572E+00         0.00000E+00
    0.31149E+00         0.10069E+00         0.00000E+00
    0.30882E+00         0.95718E-01         0.00000E+00
    0.30581E+00         0.90808E-01         0.00000E+00
    0.30245E+00         0.85974E-01         0.00000E+00
    0.29876E+00         0.81228E-01         0.00000E+00
    0.29475E+00         0.76578E-01         0.00000E+00
    0.29045E+00         0.72035E-01         0.00000E+00
    0.28585E+00         0.67606E-01         0.00000E+00
    0.28098E+00         0.63299E-01         0.00000E+00
    0.27584E+00         0.59121E-01         0.00000E+00
    0.27046E+00         0.55077E-01         0.00000E+00
    0.26484E+00         0.51173E-01         0.00000E+00
    0.25899E+00         0.47413E-01         0.00000E+00
    0.25294E+00         0.43801E-01         0.00000E+00
    0.24670E+00         0.40340E-01         0.00000E+00
    0.24027E+00         0.37033E-01         0.00000E+00
    0.23368E+00         0.33880E-01         0.00000E+00
    0.22693E+00         0.30884E-01         0.00000E+00
    0.22004E+00         0.28044E-01         0.00000E+00
    0.21302E+00         0.25362E-01         0.00000E+00
    0.20588E+00         0.22836E-01         0.00000E+00
    0.19864E+00         0.20465E-01         0.00000E+00
    0.19130E+00         0.18247E-01         0.00000E+00
    0.18388E+00         0.16182E-01         0.00000E+00
    0.17639E+00         0.14265E-01         0.00000E+00
    0.16883E+00         0.12495E-01         0.00000E+00
    0.16123E+00         0.10867E-01         0.00000E+00
    0.15358E+00         0.93784E-02         0.00000E+00
    0.14589E+00         0.80244E-02         0.00000E+00
    0.13818E+00         0.68005E-02         0.00000E+00
    0.13045E+00         0.57018E-02         0.00000E+00
    0.12271E+00         0.47229E-02         0.00000E+00
    0.11496E+00         0.38582E-02         0.00000E+00
    0.10721E+00         0.31019E-02         0.00000E+00
    0.99472E-01         0.24475E-02         0.00000E+00
    0.91738E-01         0.18887E-02         0.00000E+00
    0.84016E-01         0.14187E-02         0.00000E+00
    0.76309E-01         0.10305E-02         0.00000E+00
    0.68619E-01         0.71678E-03         0.00000E+00
    0.60946E-01         0.47034E-03         0.00000E+00
    0.53290E-01         0.28359E-03         0.00000E+00
    0.45651E-01         0.14890E-03         0.00000E+00
    0.38027E-01         0.58551E-04         0.00000E+00
    0.30415E-01         0.47638E-05         0.00000E+00
    0.22812E-01        -0.20254E-04         0.00000E+00
    0.15212E-01        -0.24271E-04         0.00000E+00
    0.76103E-02        -0.14989E-04         0.00000E+00
    0.00000E+00         0.00000E+00         0.00000E+00
    0.29227E+00         0.10950E+00         0.00000E+00
    0.29090E+00         0.10495E+00         0.00000E+00
    0.28920E+00         0.10042E+00         0.00000E+00
    0.28718E+00         0.95918E-01         0.00000E+00
    0.28485E+00         0.91455E-01         0.00000E+00
    0.28221E+00         0.87044E-01         0.00000E+00
    0.27928E+00         0.82693E-01         0.00000E+00
    0.27606E+00         0.78413E-01         0.00000E+00
    0.27256E+00         0.74211E-01         0.00000E+00
    0.26880E+00         0.70096E-01         0.00000E+00
    0.26478E+00         0.66076E-01         0.00000E+00
    0.26051E+00         0.62155E-01         0.00000E+00
    0.25600E+00         0.58341E-01         0.00000E+00
    0.25127E+00         0.54640E-01         0.00000E+00
    0.24632E+00         0.51054E-01         0.00000E+00
    0.24117E+00         0.47590E-01         0.00000E+00
    0.23583E+00         0.44250E-01         0.00000E+00
    0.23030E+00         0.41038E-01         0.00000E+00
    0.22460E+00         0.37956E-01         0.00000E+00
    0.21873E+00         0.35005E-01         0.00000E+00
    0.21272E+00         0.32188E-01         0.00000E+00
    0.20656E+00         0.29505E-01         0.00000E+00
    0.20028E+00         0.26957E-01         0.00000E+00
    0.19387E+00         0.24544E-01         0.00000E+00
    0.18735E+00         0.22264E-01         0.00000E+00
    0.18073E+00         0.20118E-01         0.00000E+00
    0.17402E+00         0.18103E-01         0.00000E+00
    0.16722E+00         0.16219E-01         0.00000E+00
    0.16034E+00         0.14462E-01         0.00000E+00
    0.15340E+00         0.12831E-01         0.00000E+00
    0.14640E+00         0.11322E-01         0.00000E+00
    0.13934E+00         0.99323E-02         0.00000E+00
    0.13223E+00         0.86583E-02         0.00000E+00
    0.12508E+00         0.74962E-02         0.00000E+00
    0.11790E+00         0.64418E-02         0.00000E+00
    0.11068E+00         0.54906E-02         0.00000E+00
    0.10344E+00         0.46380E-02         0.00000E+00
    0.96174E-01         0.38791E-02         0.00000E+00
    0.88887E-01         0.32087E-02         0.00000E+00
    0.81581E-01         0.26214E-02         0.00000E+00
    0.74259E-01         0.21119E-02         0.00000E+00
    0.66921E-01         0.16744E-02         0.00000E+00
    0.59568E-01         0.13031E-02         0.00000E+00
    0.52200E-01         0.99217E-03         0.00000E+00
    0.44815E-01         0.73560E-03         0.00000E+00
    0.37411E-01         0.52736E-03         0.00000E+00
    0.29987E-01         0.36139E-03         0.00000E+00
    0.22538E-01         0.23165E-03         0.00000E+00
    0.15061E-01         0.13211E-03         0.00000E+00
    0.75498E-02         0.56841E-04         0.00000E+00
    0.00000E+00         0.00000E+00         0.00000E+00
    0.27018E+00         0.10368E+00         0.00000E+00
    0.26891E+00         0.99596E-01         0.00000E+00
    0.26736E+00         0.95528E-01         0.00000E+00
    0.26555E+00         0.91481E-01         0.00000E+00
    0.26346E+00         0.87467E-01         0.00000E+00
    0.26111E+00         0.83492E-01         0.00000E+00
    0.25851E+00         0.79566E-01         0.00000E+00
    0.25566E+00         0.75697E-01         0.00000E+00
    0.25256E+00         0.71891E-01         0.00000E+00
    0.24923E+00         0.68156E-01         0.00000E+00
    0.24568E+00         0.64497E-01         0.00000E+00
    0.24190E+00         0.60921E-01         0.00000E+00
    0.23791E+00         0.57433E-01         0.00000E+00
    0.23371E+00         0.54037E-01         0.00000E+00
    0.22932E+00         0.50738E-01         0.00000E+00
    0.22474E+00         0.47540E-01         0.00000E+00
    0.21999E+00         0.44446E-01         0.00000E+00
    0.21506E+00         0.41459E-01         0.00000E+00
    0.20997E+00         0.38582E-01         0.00000E+00
    0.20472E+00         0.35815E-01         0.00000E+00
    0.19933E+00         0.33162E-01         0.00000E+00
    0.19380E+00         0.30624E-01         0.00000E+00
    0.18815E+00         0.28200E-01         0.00000E+00
    0.18237E+00         0.25891E-01         0.00000E+00
    0.17647E+00         0.23698E-01         0.00000E+00
    0.17047E+00         0.21620E-01         0.00000E+00
    0.16437E+00         0.19656E-01         0.00000E+00
    0.15818E+00         0.17805E-01         0.00000E+00
    0.15190E+00         0.16066E-01         0.00000E+00
    0.14554E+00         0.14436E-01         0.00000E+00
    0.13911E+00         0.12915E-01         0.00000E+00
    0.13261E+00         0.11499E-01         0.00000E+00
    0.12604E+00         0.10186E-01         0.00000E+00
    0.11942E+00         0.89726E-02         0.00000E+00
    0.11274E+00         0.78567E-02         0.00000E+00
    0.10602E+00         0.68345E-02         0.00000E+00
    0.99240E-01         0.59025E-02         0.00000E+00
    0.92420E-01         0.50570E-02         0.00000E+00
    0.85557E-01         0.42941E-02         0.00000E+00
    0.78654E-01         0.36097E-02         0.00000E+00
    0.71711E-01         0.29997E-02         0.00000E+00
    0.64730E-01         0.24596E-02         0.00000E+00
    0.57711E-01         0.19852E-02         0.00000E+00
    0.50653E-01         0.15718E-02         0.00000E+00
    0.43555E-01         0.12149E-02         0.00000E+00
    0.36415E-01         0.90988E-03         0.00000E+00
    0.29232E-01         0.65205E-03         0.00000E+00
    0.22002E-01         0.43676E-03         0.00000E+00
    0.14723E-01         0.25937E-03         0.00000E+00
    0.73906E-02         0.11528E-03         0.00000E+00
    0.00000E+00         0.00000E+00         0.00000E+00
    0.25051E+00         0.98148E-01         0.00000E+00
    0.24930E+00         0.94473E-01         0.00000E+00
    0.24786E+00         0.90806E-01         0.00000E+00
    0.24619E+00         0.87157E-01         0.00000E+00
    0.24429E+00         0.83533E-01         0.00000E+00
    0.24216E+00         0.79941E-01         0.00000E+00
    0.23981E+00         0.76388E-01         0.00000E+00
    0.23725E+00         0.72880E-01         0.00000E+00
    0.23447E+00         0.69423E-01         0.00000E+00
    0.23149E+00         0.66024E-01         0.00000E+00
    0.22830E+00         0.62687E-01         0.00000E+00
    0.22492E+00         0.59418E-01         0.00000E+00
    0.22135E+00         0.56220E-01         0.00000E+00
    0.21760E+00         0.53100E-01         0.00000E+00
    0.21367E+00         0.50059E-01         0.00000E+00
    0.20956E+00         0.47102E-01         0.00000E+00
    0.20529E+00         0.44232E-01         0.00000E+00
    0.20087E+00         0.41452E-01         0.00000E+00
    0.19629E+00         0.38763E-01         0.00000E+00
    0.19157E+00         0.36169E-01         0.00000E+00
    0.18670E+00         0.33670E-01         0.00000E+00
    0.18171E+00         0.31269E-01         0.00000E+00
    0.17659E+00         0.28965E-01         0.00000E+00
    0.17135E+00         0.26760E-01         0.00000E+00
    0.16599E+00         0.24654E-01         0.00000E+00
    0.16053E+00         0.22647E-01         0.00000E+00
    0.15496E+00         0.20739E-01         0.00000E+00
    0.14930E+00         0.18929E-01         0.00000E+00
    0.14354E+00         0.17217E-01         0.00000E+00
    0.13770E+00         0.15601E-01         0.00000E+00
    0.13177E+00         0.14081E-01         0.00000E+00
    0.12577E+00         0.12654E-01         0.00000E+00
    0.11969E+00         0.11319E-01         0.00000E+00
    0.11354E+00         0.10074E-01         0.00000E+00
    0.10733E+00         0.89169E-02         0.00000E+00
    0.10105E+00         0.78452E-02         0.00000E+00
    0.94707E-01         0.68563E-02         0.00000E+00
    0.88308E-01         0.59476E-02         0.00000E+00
    0.81851E-01         0.51163E-02         0.00000E+00
    0.75339E-01         0.43595E-02         0.00000E+00
    0.68771E-01         0.36739E-02         0.00000E+00
    0.62150E-01         0.30565E-02         0.00000E+00
    0.55474E-01         0.25039E-02         0.00000E+00
    0.48744E-01         0.20128E-02         0.00000E+00
    0.41959E-01         0.15796E-02         0.00000E+00
    0.35118E-01         0.12010E-02         0.00000E+00
    0.28219E-01         0.87321E-03         0.00000E+00
    0.21261E-01         0.59282E-03         0.00000E+00
    0.14240E-01         0.35619E-03         0.00000E+00
    0.71541E-02         0.15977E-03         0.00000E+00
    0.00000E+00         0.00000E+00         0.00000E+00
    0.23286E+00         0.92771E-01         0.00000E+00
    0.23170E+00         0.89447E-01         0.00000E+00
    0.23033E+00         0.86131E-01         0.00000E+00
    0.22877E+00         0.82828E-01         0.00000E+00
    0.22700E+00         0.79544E-01         0.00000E+00
    0.22505E+00         0.76287E-01         0.00000E+00
    0.22290E+00         0.73060E-01         0.00000E+00
    0.22056E+00         0.69870E-01         0.00000E+00
    0.21804E+00         0.66722E-01         0.00000E+00
    0.21533E+00         0.63620E-01         0.00000E+00
    0.21245E+00         0.60569E-01         0.00000E+00
    0.20939E+00         0.57574E-01         0.00000E+00
    0.20617E+00         0.54638E-01         0.00000E+00
    0.20277E+00         0.51765E-01         0.00000E+00
    0.19922E+00         0.48959E-01         0.00000E+00
    0.19551E+00         0.46223E-01         0.00000E+00
    0.19165E+00         0.43559E-01         0.00000E+00
    0.18765E+00         0.40970E-01         0.00000E+00
    0.18350E+00         0.38459E-01         0.00000E+00
    0.17921E+00         0.36027E-01         0.00000E+00
    0.17480E+00         0.33676E-01         0.00000E+00
    0.17026E+00         0.31407E-01         0.00000E+00
    0.16559E+00         0.29222E-01         0.00000E+00
    0.16081E+00         0.27122E-01         0.00000E+00
    0.15592E+00         0.25107E-01         0.00000E+00
    0.15092E+00         0.23178E-01         0.00000E+00
    0.14582E+00         0.21334E-01         0.00000E+00
    0.14062E+00         0.19576E-01         0.00000E+00
    0.13532E+00         0.17904E-01         0.00000E+00
    0.12993E+00         0.16316E-01         0.00000E+00
    0.12446E+00         0.14813E-01         0.00000E+00
    0.11890E+00         0.13393E-01         0.00000E+00
    0.11326E+00         0.12056E-01         0.00000E+00
    0.10754E+00         0.10799E-01         0.00000E+00
    0.10175E+00         0.96229E-02         0.00000E+00
    0.95889E-01         0.85245E-02         0.00000E+00
    0.89956E-01         0.75025E-02         0.00000E+00
    0.83954E-01         0.65552E-02         0.00000E+00
    0.77885E-01         0.56806E-02         0.00000E+00
    0.71751E-01         0.48766E-02         0.00000E+00
    0.65552E-01         0.41409E-02         0.00000E+00
    0.59290E-01         0.34714E-02         0.00000E+00
    0.52964E-01         0.28656E-02         0.00000E+00
    0.46574E-01         0.23210E-02         0.00000E+00
    0.40121E-01         0.18350E-02         0.00000E+00
    0.33603E-01         0.14051E-02         0.00000E+00
    0.27019E-01         0.10286E-02         0.00000E+00
    0.20369E-01         0.70256E-03         0.00000E+00
    0.13650E-01         0.42436E-03         0.00000E+00
    0.68612E-02         0.19112E-03         0.00000E+00
    0.00000E+00         0.00000E+00         0.00000E+00
    0.21693E+00         0.87476E-01         0.00000E+00
    0.21579E+00         0.84458E-01         0.00000E+00
    0.21448E+00         0.81446E-01         0.00000E+00
    0.21299E+00         0.78445E-01         0.00000E+00
    0.21134E+00         0.75459E-01         0.00000E+00
    0.20952E+00         0.72495E-01         0.00000E+00
    0.20753E+00         0.69556E-01         0.00000E+00
    0.20538E+00         0.66646E-01         0.00000E+00
    0.20306E+00         0.63771E-01         0.00000E+00
    0.20058E+00         0.60934E-01         0.00000E+00
    0.19794E+00         0.58139E-01         0.00000E+00
    0.19515E+00         0.55390E-01         0.00000E+00
    0.19221E+00         0.52690E-01         0.00000E+00
    0.18911E+00         0.50042E-01         0.00000E+00
    0.18588E+00         0.47450E-01         0.00000E+00
    0.18250E+00         0.44917E-01         0.00000E+00
    0.17898E+00         0.42444E-01         0.00000E+00
    0.17532E+00         0.40034E-01         0.00000E+00
    0.17154E+00         0.37690E-01         0.00000E+00
    0.16763E+00         0.35413E-01         0.00000E+00
    0.16359E+00         0.33205E-01         0.00000E+00
    0.15944E+00         0.31067E-01         0.00000E+00
    0.15517E+00         0.29001E-01         0.00000E+00
    0.15078E+00         0.27008E-01         0.00000E+00
    0.14629E+00         0.25089E-01         0.00000E+00
    0.14170E+00         0.23244E-01         0.00000E+00
    0.13700E+00         0.21474E-01         0.00000E+00
    0.13220E+00         0.19778E-01         0.00000E+00
    0.12731E+00         0.18158E-01         0.00000E+00
    0.12233E+00         0.16614E-01         0.00000E+00
    0.11725E+00         0.15144E-01         0.00000E+00
    0.11209E+00         0.13749E-01         0.00000E+00
    0.10685E+00         0.12427E-01         0.00000E+00
    0.10153E+00         0.11180E-01         0.00000E+00
    0.96128E-01         0.10005E-01         0.00000E+00
    0.90650E-01         0.89017E-02         0.00000E+00
    0.85096E-01         0.78692E-02         0.00000E+00
    0.79470E-01         0.69063E-02         0.00000E+00
    0.73771E-01         0.60117E-02         0.00000E+00
    0.68003E-01         0.51840E-02         0.00000E+00
    0.62164E-01         0.44217E-02         0.00000E+00
    0.56256E-01         0.37232E-02         0.00000E+00
    0.50281E-01         0.30869E-02         0.00000E+00
    0.44237E-01         0.25109E-02         0.00000E+00
    0.38125E-01         0.19933E-02         0.00000E+00
    0.31945E-01         0.15323E-02         0.00000E+00
    0.25696E-01         0.11257E-02         0.00000E+00
    0.19378E-01         0.77144E-03         0.00000E+00
    0.12990E-01         0.46726E-03         0.00000E+00
    0.65310E-02         0.21090E-03         0.00000E+00
    0.00000E+00         0.00000E+00         0.00000E+00
    0.20244E+00         0.82239E-01         0.00000E+00
    0.20132E+00         0.79489E-01         0.00000E+00
    0.20006E+00         0.76743E-01         0.00000E+00
    0.19864E+00         0.74007E-01         0.00000E+00
    0.19708E+00         0.71284E-01         0.00000E+00
    0.19537E+00         0.68578E-01         0.00000E+00
    0.19351E+00         0.65893E-01         0.00000E+00
    0.19151E+00         0.63233E-01         0.00000E+00
    0.18936E+00         0.60600E-01         0.00000E+00
    0.18707E+00         0.58000E-01         0.00000E+00
    0.18463E+00         0.55435E-01         0.00000E+00
    0.18206E+00         0.52907E-01         0.00000E+00
    0.17935E+00         0.50421E-01         0.00000E+00
    0.17651E+00         0.47979E-01         0.00000E+00
    0.17354E+00         0.45584E-01         0.00000E+00
    0.17043E+00         0.43238E-01         0.00000E+00
    0.16720E+00         0.40943E-01         0.00000E+00
    0.16385E+00         0.38702E-01         0.00000E+00
    0.16037E+00         0.36517E-01         0.00000E+00
    0.15678E+00         0.34389E-01         0.00000E+00
    0.15307E+00         0.32320E-01         0.00000E+00
    0.14924E+00         0.30311E-01         0.00000E+00
    0.14531E+00         0.28365E-01         0.00000E+00
    0.14127E+00         0.26481E-01         0.00000E+00
    0.13713E+00         0.24662E-01         0.00000E+00
    0.13288E+00         0.22908E-01         0.00000E+00
    0.12854E+00         0.21219E-01         0.00000E+00
    0.12410E+00         0.19596E-01         0.00000E+00
    0.11957E+00         0.18040E-01         0.00000E+00
    0.11495E+00         0.16551E-01         0.00000E+00
    0.11023E+00         0.15128E-01         0.00000E+00
    0.10544E+00         0.13773E-01         0.00000E+00
    0.10056E+00         0.12485E-01         0.00000E+00
    0.95592E-01         0.11264E-01         0.00000E+00
    0.90549E-01         0.10109E-01         0.00000E+00
    0.85428E-01         0.90203E-02         0.00000E+00
    0.80231E-01         0.79970E-02         0.00000E+00
    0.74958E-01         0.70385E-02         0.00000E+00
    0.69612E-01         0.61442E-02         0.00000E+00
    0.64194E-01         0.53132E-02         0.00000E+00
    0.58704E-01         0.45444E-02         0.00000E+00
    0.53144E-01         0.38369E-02         0.00000E+00
    0.47514E-01         0.31895E-02         0.00000E+00
    0.41815E-01         0.26010E-02         0.00000E+00
    0.36047E-01         0.20699E-02         0.00000E+00
    0.30210E-01         0.15948E-02         0.00000E+00
    0.24305E-01         0.11741E-02         0.00000E+00
    0.18332E-01         0.80609E-03         0.00000E+00
    0.12290E-01         0.48904E-03         0.00000E+00
    0.61798E-02         0.22101E-03         0.00000E+00
    0.00000E+00         0.00000E+00         0.00000E+00
    0.18920E+00         0.77067E-01         0.00000E+00
    0.18810E+00         0.74552E-01         0.00000E+00
    0.18688E+00         0.72042E-01         0.00000E+00
    0.18553E+00         0.69540E-01         0.00000E+00
    0.18404E+00         0.67049E-01         0.00000E+00
    0.18242E+00         0.64572E-01         0.00000E+00
    0.18067E+00         0.62114E-01         0.00000E+00
    0.17880E+00         0.59675E-01         0.00000E+00
    0.17679E+00         0.57261E-01         0.00000E+00
    0.17466E+00         0.54874E-01         0.00000E+00
    0.17240E+00         0.52516E-01         0.00000E+00
    0.17001E+00         0.50190E-01         0.00000E+00
    0.16750E+00         0.47899E-01         0.00000E+00
    0.16487E+00         0.45646E-01         0.00000E+00
    0.16212E+00         0.43432E-01         0.00000E+00
    0.15925E+00         0.41260E-01         0.00000E+00
    0.15627E+00         0.39133E-01         0.00000E+00
    0.15317E+00         0.37051E-01         0.00000E+00
    0.14996E+00         0.35017E-01         0.00000E+00
    0.14663E+00         0.33032E-01         0.00000E+00
    0.14320E+00         0.31099E-01         0.00000E+00
    0.13967E+00         0.29217E-01         0.00000E+00
    0.13603E+00         0.27390E-01         0.00000E+00
    0.13229E+00         0.25618E-01         0.00000E+00
    0.12845E+00         0.23902E-01         0.00000E+00
    0.12452E+00         0.22243E-01         0.00000E+00
    0.12049E+00         0.20642E-01         0.00000E+00
    0.11637E+00         0.19100E-01         0.00000E+00
    0.11215E+00         0.17617E-01         0.00000E+00
    0.10785E+00         0.16194E-01         0.00000E+00
    0.10347E+00         0.14831E-01         0.00000E+00
    0.98997E-01         0.13529E-01         0.00000E+00
    0.94445E-01         0.12287E-01         0.00000E+00
    0.89812E-01         0.11107E-01         0.00000E+00
    0.85100E-01         0.99873E-02         0.00000E+00
    0.80310E-01         0.89287E-02         0.00000E+00
    0.75446E-01         0.79308E-02         0.00000E+00
    0.70506E-01         0.69933E-02         0.00000E+00
    0.65494E-01         0.61159E-02         0.00000E+00
    0.60410E-01         0.52982E-02         0.00000E+00
    0.55255E-01         0.45395E-02         0.00000E+00
    0.50031E-01         0.38393E-02         0.00000E+00
    0.44738E-01         0.31967E-02         0.00000E+00
    0.39377E-01         0.26108E-02         0.00000E+00
    0.33949E-01         0.20808E-02         0.00000E+00
    0.28455E-01         0.16053E-02         0.00000E+00
    0.22894E-01         0.11833E-02         0.00000E+00
    0.17268E-01         0.81336E-03         0.00000E+00
    0.11577E-01         0.49392E-03         0.00000E+00
    0.58207E-02         0.22339E-03         0.00000E+00
    0.00000E+00         0.00000E+00         0.00000E+00
    0.17704E+00         0.71979E-01         0.00000E+00
    0.17598E+00         0.69675E-01         0.00000E+00
    0.17480E+00         0.67374E-01         0.00000E+00
    0.17350E+00         0.65081E-01         0.00000E+00
    0.17208E+00         0.62797E-01         0.00000E+00
    0.17055E+00         0.60526E-01         0.00000E+00
    0.16889E+00         0.58270E-01         0.00000E+00
    0.16713E+00         0.56031E-01         0.00000E+00
    0.16524E+00         0.53814E-01         0.00000E+00
    0.16325E+00         0.51619E-01         0.00000E+00
    0.16113E+00         0.49450E-01         0.00000E+00
    0.15891E+00         0.47308E-01         0.00000E+00
    0.15657E+00         0.45197E-01         0.00000E+00
    0.15412E+00         0.43117E-01         0.00000E+00
    0.15156E+00         0.41072E-01         0.00000E+00
    0.14890E+00         0.39063E-01         0.00000E+00
    0.14612E+00         0.37092E-01         0.00000E+00
    0.14324E+00         0.35161E-01         0.00000E+00
    0.14026E+00         0.33271E-01         0.00000E+00
    0.13718E+00         0.31425E-01         0.00000E+00
    0.13399E+00         0.29623E-01         0.00000E+00
    0.13071E+00         0.27867E-01         0.00000E+00
    0.12733E+00         0.26158E-01         0.00000E+00
    0.12385E+00         0.24497E-01         0.00000E+00
    0.12028E+00         0.22887E-01         0.00000E+00
    0.11662E+00         0.21327E-01         0.00000E+00
    0.11287E+00         0.19818E-01         0.00000E+00
    0.10903E+00         0.18362E-01         0.00000E+00
    0.10511E+00         0.16959E-01         0.00000E+00
    0.10110E+00         0.15610E-01         0.00000E+00
    0.97006E-01         0.14316E-01         0.00000E+00
    0.92833E-01         0.13076E-01         0.00000E+00
    0.88581E-01         0.11892E-01         0.00000E+00
    0.84251E-01         0.10763E-01         0.00000E+00
    0.79845E-01         0.96909E-02         0.00000E+00
    0.75364E-01         0.86746E-02         0.00000E+00
    0.70809E-01         0.77146E-02         0.00000E+00
    0.66183E-01         0.68109E-02         0.00000E+00
    0.61485E-01         0.59634E-02         0.00000E+00
    0.56718E-01         0.51719E-02         0.00000E+00
    0.51883E-01         0.44362E-02         0.00000E+00
    0.46981E-01         0.37558E-02         0.00000E+00
    0.42013E-01         0.31303E-02         0.00000E+00
    0.36979E-01         0.25590E-02         0.00000E+00
    0.31882E-01         0.20413E-02         0.00000E+00
    0.26721E-01         0.15761E-02         0.00000E+00
    0.21499E-01         0.11626E-02         0.00000E+00
    0.16214E-01         0.79966E-03         0.00000E+00
    0.10869E-01         0.48588E-03         0.00000E+00
    0.54642E-02         0.21985E-03         0.00000E+00
    0.00000E+00         0.00000E+00         0.00000E+00
    0.16586E+00         0.67004E-01         0.00000E+00
    0.16482E+00         0.64888E-01         0.00000E+00
    0.16368E+00         0.62776E-01         0.00000E+00
    0.16243E+00         0.60670E-01         0.00000E+00
    0.16108E+00         0.58573E-01         0.00000E+00
    0.15963E+00         0.56487E-01         0.00000E+00
    0.15806E+00         0.54414E-01         0.00000E+00
    0.15639E+00         0.52357E-01         0.00000E+00
    0.15462E+00         0.50318E-01         0.00000E+00
    0.15274E+00         0.48299E-01         0.00000E+00
    0.15076E+00         0.46303E-01         0.00000E+00
    0.14867E+00         0.44330E-01         0.00000E+00
    0.14648E+00         0.42384E-01         0.00000E+00
    0.14419E+00         0.40466E-01         0.00000E+00
    0.14180E+00         0.38578E-01         0.00000E+00
    0.13931E+00         0.36721E-01         0.00000E+00
    0.13672E+00         0.34898E-01         0.00000E+00
    0.13404E+00         0.33109E-01         0.00000E+00
    0.13125E+00         0.31357E-01         0.00000E+00
    0.12838E+00         0.29643E-01         0.00000E+00
    0.12541E+00         0.27969E-01         0.00000E+00
    0.12235E+00         0.26335E-01         0.00000E+00
    0.11919E+00         0.24743E-01         0.00000E+00
    0.11595E+00         0.23194E-01         0.00000E+00
    0.11262E+00         0.21689E-01         0.00000E+00
    0.10921E+00         0.20229E-01         0.00000E+00
    0.10571E+00         0.18816E-01         0.00000E+00
    0.10212E+00         0.17450E-01         0.00000E+00
    0.98457E-01         0.16131E-01         0.00000E+00
    0.94712E-01         0.14862E-01         0.00000E+00
    0.90888E-01         0.13641E-01         0.00000E+00
    0.86986E-01         0.12471E-01         0.00000E+00
    0.83010E-01         0.11352E-01         0.00000E+00
    0.78959E-01         0.10283E-01         0.00000E+00
    0.74835E-01         0.92665E-02         0.00000E+00
    0.70639E-01         0.83015E-02         0.00000E+00
    0.66374E-01         0.73886E-02         0.00000E+00
    0.62040E-01         0.65281E-02         0.00000E+00
    0.57638E-01         0.57199E-02         0.00000E+00
    0.53170E-01         0.49642E-02         0.00000E+00
    0.48637E-01         0.42608E-02         0.00000E+00
    0.44041E-01         0.36096E-02         0.00000E+00
    0.39382E-01         0.30102E-02         0.00000E+00
    0.34662E-01         0.24621E-02         0.00000E+00
    0.29882E-01         0.19649E-02         0.00000E+00
    0.25043E-01         0.15179E-02         0.00000E+00
    0.20146E-01         0.11201E-02         0.00000E+00
    0.15192E-01         0.77068E-03         0.00000E+00
    0.10182E-01         0.46841E-03         0.00000E+00
    0.51180E-02         0.21201E-03         0.00000E+00
    0.00000E+00         0.00000E+00         0.00000E+00
    0.15554E+00         0.62167E-01         0.00000E+00
    0.15454E+00         0.60222E-01         0.00000E+00
    0.15344E+00         0.58280E-01         0.00000E+00
    0.15225E+00         0.56345E-01         0.00000E+00
    0.15096E+00         0.54418E-01         0.00000E+00
    0.14957E+00         0.52500E-01         0.00000E+00
    0.14809E+00         0.50595E-01         0.00000E+00
    0.14651E+00         0.48704E-01         0.00000E+00
    0.14483E+00         0.46829E-01         0.00000E+00
    0.14306E+00         0.44971E-01         0.00000E+00
    0.14120E+00         0.43134E-01         0.00000E+00
    0.13923E+00         0.41318E-01         0.00000E+00
    0.13718E+00         0.39525E-01         0.00000E+00
    0.13503E+00         0.37757E-01         0.00000E+00
    0.13279E+00         0.36015E-01         0.00000E+00
    0.13045E+00         0.34301E-01         0.00000E+00
    0.12803E+00         0.32617E-01         0.00000E+00
    0.12551E+00         0.30964E-01         0.00000E+00
    0.12291E+00         0.29344E-01         0.00000E+00
    0.12022E+00         0.27757E-01         0.00000E+00
    0.11744E+00         0.26205E-01         0.00000E+00
    0.11457E+00         0.24690E-01         0.00000E+00
    0.11162E+00         0.23211E-01         0.00000E+00
    0.10859E+00         0.21772E-01         0.00000E+00
    0.10548E+00         0.20372E-01         0.00000E+00
    0.10228E+00         0.19013E-01         0.00000E+00
    0.99006E-01         0.17696E-01         0.00000E+00
    0.95653E-01         0.16421E-01         0.00000E+00
    0.92223E-01         0.15189E-01         0.00000E+00
    0.88718E-01         0.14002E-01         0.00000E+00
    0.85138E-01         0.12860E-01         0.00000E+00
    0.81485E-01         0.11764E-01         0.00000E+00
    0.77761E-01         0.10714E-01         0.00000E+00
    0.73967E-01         0.97105E-02         0.00000E+00
    0.70104E-01         0.87548E-02         0.00000E+00
    0.66173E-01         0.78470E-02         0.00000E+00
    0.62176E-01         0.69874E-02         0.00000E+00
    0.58114E-01         0.61763E-02         0.00000E+00
    0.53989E-01         0.54140E-02         0.00000E+00
    0.49802E-01         0.47005E-02         0.00000E+00
    0.45553E-01         0.40359E-02         0.00000E+00
    0.41245E-01         0.34202E-02         0.00000E+00
    0.36879E-01         0.28530E-02         0.00000E+00
    0.32456E-01         0.23342E-02         0.00000E+00
    0.27976E-01         0.18633E-02         0.00000E+00
    0.23443E-01         0.14396E-02         0.00000E+00
    0.18856E-01         0.10626E-02         0.00000E+00
    0.14216E-01         0.73121E-03         0.00000E+00
    0.95267E-02         0.44449E-03         0.00000E+00
    0.47875E-02         0.20121E-03         0.00000E+00
    0.00000E+00         0.00000E+00         0.00000E+00
    0.14602E+00         0.57491E-01         0.00000E+00
    0.14505E+00         0.55703E-01         0.00000E+00
    0.14400E+00         0.53918E-01         0.00000E+00
    0.14286E+00         0.52139E-01         0.00000E+00
    0.14163E+00         0.50367E-01         0.00000E+00
    0.14031E+00         0.48605E-01         0.00000E+00
    0.13891E+00         0.46853E-01         0.00000E+00
    0.13741E+00         0.45115E-01         0.00000E+00
    0.13583E+00         0.43390E-01         0.00000E+00
    0.13415E+00         0.41682E-01         0.00000E+00
    0.13239E+00         0.39992E-01         0.00000E+00
    0.13054E+00         0.38321E-01         0.00000E+00
    0.12860E+00         0.36671E-01         0.00000E+00
    0.12658E+00         0.35043E-01         0.00000E+00
    0.12447E+00         0.33439E-01         0.00000E+00
    0.12228E+00         0.31860E-01         0.00000E+00
    0.12000E+00         0.30307E-01         0.00000E+00
    0.11764E+00         0.28783E-01         0.00000E+00
    0.11519E+00         0.27287E-01         0.00000E+00
    0.11267E+00         0.25822E-01         0.00000E+00
    0.11006E+00         0.24388E-01         0.00000E+00
    0.10737E+00         0.22987E-01         0.00000E+00
    0.10461E+00         0.21619E-01         0.00000E+00
    0.10176E+00         0.20287E-01         0.00000E+00
    0.98841E-01         0.18990E-01         0.00000E+00
    0.95845E-01         0.17730E-01         0.00000E+00
    0.92774E-01         0.16508E-01         0.00000E+00
    0.89630E-01         0.15324E-01         0.00000E+00
    0.86414E-01         0.14180E-01         0.00000E+00
    0.83127E-01         0.13077E-01         0.00000E+00
    0.79771E-01         0.12014E-01         0.00000E+00
    0.76346E-01         0.10994E-01         0.00000E+00
    0.72854E-01         0.10016E-01         0.00000E+00
    0.69296E-01         0.90806E-02         0.00000E+00
    0.65673E-01         0.81892E-02         0.00000E+00
    0.61987E-01         0.73420E-02         0.00000E+00
    0.58239E-01         0.65393E-02         0.00000E+00
    0.54431E-01         0.57815E-02         0.00000E+00
    0.50563E-01         0.50689E-02         0.00000E+00
    0.46637E-01         0.44017E-02         0.00000E+00
    0.42654E-01         0.37799E-02         0.00000E+00
    0.38616E-01         0.32036E-02         0.00000E+00
    0.34524E-01         0.26727E-02         0.00000E+00
    0.30378E-01         0.21868E-02         0.00000E+00
    0.26182E-01         0.17457E-02         0.00000E+00
    0.21935E-01         0.13489E-02         0.00000E+00
    0.17640E-01         0.99560E-03         0.00000E+00
    0.13298E-01         0.68513E-03         0.00000E+00
    0.89092E-02         0.41649E-03         0.00000E+00
    0.44762E-02         0.18855E-03         0.00000E+00
    0.00000E+00         0.00000E+00         0.00000E+00
    0.13723E+00         0.52995E-01         0.00000E+00
    0.13631E+00         0.51351E-01         0.00000E+00
    0.13530E+00         0.49711E-01         0.00000E+00
    0.13422E+00         0.48076E-01         0.00000E+00
    0.13304E+00         0.46449E-01         0.00000E+00
    0.13179E+00         0.44830E-01         0.00000E+00
    0.13045E+00         0.43221E-01         0.00000E+00
    0.12904E+00         0.41623E-01         0.00000E+00
    0.12753E+00         0.40039E-01         0.00000E+00
    0.12595E+00         0.38470E-01         0.00000E+00
    0.12428E+00         0.36917E-01         0.00000E+00
    0.12254E+00         0.35381E-01         0.00000E+00
    0.12071E+00         0.33864E-01         0.00000E+00
    0.11880E+00         0.32368E-01         0.00000E+00
    0.11681E+00         0.30893E-01         0.00000E+00
    0.11475E+00         0.29441E-01         0.00000E+00
    0.11260E+00         0.28012E-01         0.00000E+00
    0.11038E+00         0.26609E-01         0.00000E+00
    0.10808E+00         0.25232E-01         0.00000E+00
    0.10570E+00         0.23883E-01         0.00000E+00
    0.10325E+00         0.22562E-01         0.00000E+00
    0.10072E+00         0.21271E-01         0.00000E+00
    0.98121E-01         0.20010E-01         0.00000E+00
    0.95449E-01         0.18781E-01         0.00000E+00
    0.92704E-01         0.17584E-01         0.00000E+00
    0.89889E-01         0.16421E-01         0.00000E+00
    0.87004E-01         0.15292E-01         0.00000E+00
    0.84050E-01         0.14199E-01         0.00000E+00
    0.81030E-01         0.13142E-01         0.00000E+00
    0.77943E-01         0.12121E-01         0.00000E+00
    0.74790E-01         0.11138E-01         0.00000E+00
    0.71574E-01         0.10194E-01         0.00000E+00
    0.68295E-01         0.92882E-02         0.00000E+00
    0.64955E-01         0.84222E-02         0.00000E+00
    0.61554E-01         0.75963E-02         0.00000E+00
    0.58094E-01         0.68110E-02         0.00000E+00
    0.54576E-01         0.60669E-02         0.00000E+00
    0.51002E-01         0.53642E-02         0.00000E+00
    0.47373E-01         0.47032E-02         0.00000E+00
    0.43689E-01         0.40842E-02         0.00000E+00
    0.39953E-01         0.35073E-02         0.00000E+00
    0.36166E-01         0.29725E-02         0.00000E+00
    0.32328E-01         0.24798E-02         0.00000E+00
    0.28443E-01         0.20289E-02         0.00000E+00
    0.24510E-01         0.16195E-02         0.00000E+00
    0.20531E-01         0.12513E-02         0.00000E+00
    0.16508E-01         0.92350E-03         0.00000E+00
    0.12442E-01         0.63547E-03         0.00000E+00
    0.83340E-02         0.38629E-03         0.00000E+00
    0.41863E-02         0.17488E-03         0.00000E+00
    0.00000E+00         0.00000E+00         0.00000E+00
    0.12913E+00         0.48690E-01         0.00000E+00
    0.12825E+00         0.47181E-01         0.00000E+00
    0.12729E+00         0.45676E-01         0.00000E+00
    0.12626E+00         0.44175E-01         0.00000E+00
    0.12514E+00         0.42682E-01         0.00000E+00
    0.12395E+00         0.41196E-01         0.00000E+00
    0.12268E+00         0.39720E-01         0.00000E+00
    0.12134E+00         0.38254E-01         0.00000E+00
    0.11991E+00         0.36801E-01         0.00000E+00
    0.11841E+00         0.35361E-01         0.00000E+00
    0.11684E+00         0.33936E-01         0.00000E+00
    0.11518E+00         0.32528E-01         0.00000E+00
    0.11346E+00         0.31136E-01         0.00000E+00
    0.11165E+00         0.29763E-01         0.00000E+00
    0.10978E+00         0.28409E-01         0.00000E+00
    0.10782E+00         0.27077E-01         0.00000E+00
    0.10580E+00         0.25766E-01         0.00000E+00
    0.10370E+00         0.24478E-01         0.00000E+00
    0.10153E+00         0.23214E-01         0.00000E+00
    0.99293E-01         0.21974E-01         0.00000E+00
    0.96982E-01         0.20761E-01         0.00000E+00
    0.94601E-01         0.19575E-01         0.00000E+00
    0.92152E-01         0.18417E-01         0.00000E+00
    0.89634E-01         0.17287E-01         0.00000E+00
    0.87050E-01         0.16187E-01         0.00000E+00
    0.84400E-01         0.15118E-01         0.00000E+00
    0.81685E-01         0.14080E-01         0.00000E+00
    0.78906E-01         0.13074E-01         0.00000E+00
    0.76063E-01         0.12101E-01         0.00000E+00
    0.73159E-01         0.11162E-01         0.00000E+00
    0.70194E-01         0.10258E-01         0.00000E+00
    0.67169E-01         0.93881E-02         0.00000E+00
    0.64086E-01         0.85543E-02         0.00000E+00
    0.60945E-01         0.77568E-02         0.00000E+00
    0.57749E-01         0.69961E-02         0.00000E+00
    0.54497E-01         0.62728E-02         0.00000E+00
    0.51191E-01         0.55872E-02         0.00000E+00
    0.47833E-01         0.49398E-02         0.00000E+00
    0.44423E-01         0.43308E-02         0.00000E+00
    0.40964E-01         0.37605E-02         0.00000E+00
    0.37456E-01         0.32290E-02         0.00000E+00
    0.33900E-01         0.27364E-02         0.00000E+00
    0.30299E-01         0.22825E-02         0.00000E+00
    0.26653E-01         0.18672E-02         0.00000E+00
    0.22964E-01         0.14903E-02         0.00000E+00
    0.19233E-01         0.11512E-02         0.00000E+00
    0.15461E-01         0.84953E-03         0.00000E+00
    0.11651E-01         0.58450E-03         0.00000E+00
    0.78028E-02         0.35527E-03         0.00000E+00
    0.39187E-02         0.16083E-03         0.00000E+00
    0.00000E+00         0.00000E+00         0.00000E+00
    0.12168E+00         0.44582E-01         0.00000E+00
    0.12084E+00         0.43200E-01         0.00000E+00
    0.11993E+00         0.41820E-01         0.00000E+00
    0.11894E+00         0.40446E-01         0.00000E+00
    0.11789E+00         0.39077E-01         0.00000E+00
    0.11675E+00         0.37717E-01         0.00000E+00
    0.11555E+00         0.36365E-01         0.00000E+00
    0.11427E+00         0.35023E-01         0.00000E+00
    0.11292E+00         0.33693E-01         0.00000E+00
    0.11150E+00         0.32374E-01         0.00000E+00
    0.11001E+00         0.31070E-01         0.00000E+00
    0.10844E+00         0.29780E-01         0.00000E+00
    0.10680E+00         0.28507E-01         0.00000E+00
    0.10510E+00         0.27250E-01         0.00000E+00
    0.10332E+00         0.26011E-01         0.00000E+00
    0.10148E+00         0.24791E-01         0.00000E+00
    0.99563E-01         0.23591E-01         0.00000E+00
    0.97581E-01         0.22412E-01         0.00000E+00
    0.95532E-01         0.21255E-01         0.00000E+00
    0.93416E-01         0.20121E-01         0.00000E+00
    0.91234E-01         0.19010E-01         0.00000E+00
    0.88986E-01         0.17924E-01         0.00000E+00
    0.86675E-01         0.16864E-01         0.00000E+00
    0.84300E-01         0.15829E-01         0.00000E+00
    0.81862E-01         0.14822E-01         0.00000E+00
    0.79363E-01         0.13843E-01         0.00000E+00
    0.76803E-01         0.12892E-01         0.00000E+00
    0.74182E-01         0.11971E-01         0.00000E+00
    0.71504E-01         0.11080E-01         0.00000E+00
    0.68767E-01         0.10220E-01         0.00000E+00
    0.65973E-01         0.93911E-02         0.00000E+00
    0.63124E-01         0.85945E-02         0.00000E+00
    0.60220E-01         0.78307E-02         0.00000E+00
    0.57263E-01         0.71000E-02         0.00000E+00
    0.54253E-01         0.64032E-02         0.00000E+00
    0.51192E-01         0.57406E-02         0.00000E+00
    0.48081E-01         0.51126E-02         0.00000E+00
    0.44921E-01         0.45196E-02         0.00000E+00
    0.41714E-01         0.39619E-02         0.00000E+00
    0.38461E-01         0.34396E-02         0.00000E+00
    0.35162E-01         0.29530E-02         0.00000E+00
    0.31820E-01         0.25020E-02         0.00000E+00
    0.28436E-01         0.20866E-02         0.00000E+00
    0.25010E-01         0.17066E-02         0.00000E+00
    0.21545E-01         0.13618E-02         0.00000E+00
    0.18042E-01         0.10518E-02         0.00000E+00
    0.14501E-01         0.77602E-03         0.00000E+00
    0.10926E-01         0.53383E-03         0.00000E+00
    0.73160E-02         0.32443E-03         0.00000E+00
    0.36736E-02         0.14686E-03         0.00000E+00
    0.00000E+00         0.00000E+00         0.00000E+00
    0.11484E+00         0.40672E-01         0.00000E+00
    0.11405E+00         0.39408E-01         0.00000E+00
    0.11318E+00         0.38148E-01         0.00000E+00
    0.11224E+00         0.36892E-01         0.00000E+00
    0.11124E+00         0.35642E-01         0.00000E+00
    0.11016E+00         0.34399E-01         0.00000E+00
    0.10902E+00         0.33164E-01         0.00000E+00
    0.10780E+00         0.31939E-01         0.00000E+00
    0.10652E+00         0.30724E-01         0.00000E+00
    0.10517E+00         0.29520E-01         0.00000E+00
    0.10376E+00         0.28329E-01         0.00000E+00
    0.10227E+00         0.27152E-01         0.00000E+00
    0.10072E+00         0.25989E-01         0.00000E+00
    0.99105E-01         0.24842E-01         0.00000E+00
    0.97422E-01         0.23712E-01         0.00000E+00
    0.95674E-01         0.22599E-01         0.00000E+00
    0.93862E-01         0.21504E-01         0.00000E+00
    0.91985E-01         0.20428E-01         0.00000E+00
    0.90046E-01         0.19372E-01         0.00000E+00
    0.88044E-01         0.18337E-01         0.00000E+00
    0.85980E-01         0.17324E-01         0.00000E+00
    0.83855E-01         0.16334E-01         0.00000E+00
    0.81669E-01         0.15366E-01         0.00000E+00
    0.79424E-01         0.14423E-01         0.00000E+00
    0.77120E-01         0.13504E-01         0.00000E+00
    0.74759E-01         0.12611E-01         0.00000E+00
    0.72340E-01         0.11744E-01         0.00000E+00
    0.69865E-01         0.10904E-01         0.00000E+00
    0.67336E-01         0.10091E-01         0.00000E+00
    0.64752E-01         0.93070E-02         0.00000E+00
    0.62115E-01         0.85514E-02         0.00000E+00
    0.59426E-01         0.78251E-02         0.00000E+00
    0.56687E-01         0.71287E-02         0.00000E+00
    0.53897E-01         0.64627E-02         0.00000E+00
    0.51058E-01         0.58275E-02         0.00000E+00
    0.48172E-01         0.52237E-02         0.00000E+00
    0.45240E-01         0.46514E-02         0.00000E+00
    0.42262E-01         0.41112E-02         0.00000E+00
    0.39240E-01         0.36032E-02         0.00000E+00
    0.36175E-01         0.31276E-02         0.00000E+00
    0.33068E-01         0.26846E-02         0.00000E+00
    0.29921E-01         0.22741E-02         0.00000E+00
    0.26735E-01         0.18961E-02         0.00000E+00
    0.23511E-01         0.15505E-02         0.00000E+00
    0.20251E-01         0.12369E-02         0.00000E+00
    0.16956E-01         0.95512E-03         0.00000E+00
    0.13627E-01         0.70455E-03         0.00000E+00
    0.10265E-01         0.48458E-03         0.00000E+00
    0.68726E-02         0.29445E-03         0.00000E+00
    0.34504E-02         0.13327E-03         0.00000E+00
    0.00000E+00         0.00000E+00         0.00000E+00
    0.10859E+00         0.36955E-01         0.00000E+00
    0.10783E+00         0.35804E-01         0.00000E+00
    0.10701E+00         0.34656E-01         0.00000E+00
    0.10612E+00         0.33512E-01         0.00000E+00
    0.10516E+00         0.32374E-01         0.00000E+00
    0.10414E+00         0.31242E-01         0.00000E+00
    0.10305E+00         0.30118E-01         0.00000E+00
    0.10190E+00         0.29003E-01         0.00000E+00
    0.10068E+00         0.27897E-01         0.00000E+00
    0.99403E-01         0.26802E-01         0.00000E+00
    0.98058E-01         0.25719E-01         0.00000E+00
    0.96649E-01         0.24648E-01         0.00000E+00
    0.95176E-01         0.23590E-01         0.00000E+00
    0.93642E-01         0.22547E-01         0.00000E+00
    0.92045E-01         0.21519E-01         0.00000E+00
    0.90387E-01         0.20507E-01         0.00000E+00
    0.88668E-01         0.19511E-01         0.00000E+00
    0.86888E-01         0.18534E-01         0.00000E+00
    0.85050E-01         0.17574E-01         0.00000E+00
    0.83152E-01         0.16634E-01         0.00000E+00
    0.81196E-01         0.15713E-01         0.00000E+00
    0.79182E-01         0.14813E-01         0.00000E+00
    0.77112E-01         0.13934E-01         0.00000E+00
    0.74985E-01         0.13077E-01         0.00000E+00
    0.72804E-01         0.12243E-01         0.00000E+00
    0.70568E-01         0.11432E-01         0.00000E+00
    0.68279E-01         0.10644E-01         0.00000E+00
    0.65937E-01         0.98817E-02         0.00000E+00
    0.63543E-01         0.91441E-02         0.00000E+00
    0.61099E-01         0.84321E-02         0.00000E+00
    0.58606E-01         0.77463E-02         0.00000E+00
    0.56063E-01         0.70873E-02         0.00000E+00
    0.53473E-01         0.64555E-02         0.00000E+00
    0.50836E-01         0.58513E-02         0.00000E+00
    0.48154E-01         0.52753E-02         0.00000E+00
    0.45427E-01         0.47278E-02         0.00000E+00
    0.42657E-01         0.42090E-02         0.00000E+00
    0.39845E-01         0.37194E-02         0.00000E+00
    0.36991E-01         0.32591E-02         0.00000E+00
    0.34098E-01         0.28283E-02         0.00000E+00
    0.31166E-01         0.24271E-02         0.00000E+00
    0.28197E-01         0.20555E-02         0.00000E+00
    0.25192E-01         0.17134E-02         0.00000E+00
    0.22152E-01         0.14008E-02         0.00000E+00
    0.19078E-01         0.11172E-02         0.00000E+00
    0.15971E-01         0.86250E-03         0.00000E+00
    0.12834E-01         0.63608E-03         0.00000E+00
    0.96668E-02         0.43740E-03         0.00000E+00
    0.64712E-02         0.26574E-03         0.00000E+00
    0.32485E-02         0.12027E-03         0.00000E+00
    0.00000E+00         0.00000E+00         0.00000E+00
    0.10290E+00         0.33425E-01         0.00000E+00
    0.10218E+00         0.32381E-01         0.00000E+00
    0.10140E+00         0.31340E-01         0.00000E+00
    0.10055E+00         0.30302E-01         0.00000E+00
    0.99641E-01         0.29270E-01         0.00000E+00
    0.98669E-01         0.28244E-01         0.00000E+00
    0.97634E-01         0.27225E-01         0.00000E+00
    0.96538E-01         0.26214E-01         0.00000E+00
    0.95380E-01         0.25212E-01         0.00000E+00
    0.94161E-01         0.24219E-01         0.00000E+00
    0.92881E-01         0.23238E-01         0.00000E+00
    0.91541E-01         0.22268E-01         0.00000E+00
    0.90142E-01         0.21310E-01         0.00000E+00
    0.88683E-01         0.20365E-01         0.00000E+00
    0.87165E-01         0.19434E-01         0.00000E+00
    0.85589E-01         0.18518E-01         0.00000E+00
    0.83955E-01         0.17617E-01         0.00000E+00
    0.82265E-01         0.16732E-01         0.00000E+00
    0.80518E-01         0.15864E-01         0.00000E+00
    0.78715E-01         0.15013E-01         0.00000E+00
    0.76857E-01         0.14180E-01         0.00000E+00
    0.74946E-01         0.13366E-01         0.00000E+00
    0.72980E-01         0.12571E-01         0.00000E+00
    0.70962E-01         0.11797E-01         0.00000E+00
    0.68892E-01         0.11042E-01         0.00000E+00
    0.66771E-01         0.10309E-01         0.00000E+00
    0.64599E-01         0.95978E-02         0.00000E+00
    0.62378E-01         0.89087E-02         0.00000E+00
    0.60109E-01         0.82423E-02         0.00000E+00
    0.57792E-01         0.75992E-02         0.00000E+00
    0.55428E-01         0.69800E-02         0.00000E+00
    0.53019E-01         0.63850E-02         0.00000E+00
    0.50565E-01         0.58147E-02         0.00000E+00
    0.48067E-01         0.52695E-02         0.00000E+00
    0.45527E-01         0.47498E-02         0.00000E+00
    0.42944E-01         0.42559E-02         0.00000E+00
    0.40322E-01         0.37882E-02         0.00000E+00
    0.37660E-01         0.33468E-02         0.00000E+00
    0.34960E-01         0.29319E-02         0.00000E+00
    0.32222E-01         0.25438E-02         0.00000E+00
    0.29449E-01         0.21824E-02         0.00000E+00
    0.26641E-01         0.18478E-02         0.00000E+00
    0.23799E-01         0.15399E-02         0.00000E+00
    0.20925E-01         0.12586E-02         0.00000E+00
    0.18019E-01         0.10036E-02         0.00000E+00
    0.15084E-01         0.77462E-03         0.00000E+00
    0.12119E-01         0.57115E-03         0.00000E+00
    0.91277E-02         0.39268E-03         0.00000E+00
    0.61097E-02         0.23853E-03         0.00000E+00
    0.30667E-02         0.10794E-03         0.00000E+00
    0.00000E+00         0.00000E+00         0.00000E+00
    0.97742E-01         0.30070E-01         0.00000E+00
    0.97057E-01         0.29128E-01         0.00000E+00
    0.96312E-01         0.28189E-01         0.00000E+00
    0.95506E-01         0.27253E-01         0.00000E+00
    0.94640E-01         0.26322E-01         0.00000E+00
    0.93715E-01         0.25396E-01         0.00000E+00
    0.92729E-01         0.24477E-01         0.00000E+00
    0.91685E-01         0.23565E-01         0.00000E+00
    0.90582E-01         0.22662E-01         0.00000E+00
    0.89421E-01         0.21767E-01         0.00000E+00
    0.88202E-01         0.20882E-01         0.00000E+00
    0.86925E-01         0.20008E-01         0.00000E+00
    0.85592E-01         0.19145E-01         0.00000E+00
    0.84202E-01         0.18294E-01         0.00000E+00
    0.82756E-01         0.17455E-01         0.00000E+00
    0.81255E-01         0.16630E-01         0.00000E+00
    0.79700E-01         0.15819E-01         0.00000E+00
    0.78090E-01         0.15022E-01         0.00000E+00
    0.76427E-01         0.14241E-01         0.00000E+00
    0.74711E-01         0.13475E-01         0.00000E+00
    0.72943E-01         0.12726E-01         0.00000E+00
    0.71124E-01         0.11993E-01         0.00000E+00
    0.69254E-01         0.11279E-01         0.00000E+00
    0.67334E-01         0.10582E-01         0.00000E+00
    0.65365E-01         0.99036E-02         0.00000E+00
    0.63348E-01         0.92446E-02         0.00000E+00
    0.61283E-01         0.86052E-02         0.00000E+00
    0.59172E-01         0.79860E-02         0.00000E+00
    0.57015E-01         0.73873E-02         0.00000E+00
    0.54813E-01         0.68098E-02         0.00000E+00
    0.52567E-01         0.62537E-02         0.00000E+00
    0.50278E-01         0.57195E-02         0.00000E+00
    0.47947E-01         0.52077E-02         0.00000E+00
    0.45575E-01         0.47184E-02         0.00000E+00
    0.43163E-01         0.42522E-02         0.00000E+00
    0.40711E-01         0.38093E-02         0.00000E+00
    0.38222E-01         0.33899E-02         0.00000E+00
    0.35696E-01         0.29942E-02         0.00000E+00
    0.33134E-01         0.26225E-02         0.00000E+00
    0.30537E-01         0.22748E-02         0.00000E+00
    0.27906E-01         0.19512E-02         0.00000E+00
    0.25243E-01         0.16517E-02         0.00000E+00
    0.22548E-01         0.13761E-02         0.00000E+00
    0.19824E-01         0.11245E-02         0.00000E+00
    0.17070E-01         0.89646E-03         0.00000E+00
    0.14288E-01         0.69175E-03         0.00000E+00
    0.11479E-01         0.50994E-03         0.00000E+00
    0.86446E-02         0.35053E-03         0.00000E+00
    0.57859E-02         0.21290E-03         0.00000E+00
    0.29040E-02         0.96333E-04         0.00000E+00
    0.00000E+00         0.00000E+00         0.00000E+00
    0.93098E-01         0.26879E-01         0.00000E+00
    0.92446E-01         0.26034E-01         0.00000E+00
    0.91735E-01         0.25192E-01         0.00000E+00
    0.90967E-01         0.24353E-01         0.00000E+00
    0.90141E-01         0.23519E-01         0.00000E+00
    0.89258E-01         0.22689E-01         0.00000E+00
    0.88318E-01         0.21866E-01         0.00000E+00
    0.87321E-01         0.21049E-01         0.00000E+00
    0.86268E-01         0.20239E-01         0.00000E+00
    0.85159E-01         0.19438E-01         0.00000E+00
    0.83995E-01         0.18645E-01         0.00000E+00
    0.82777E-01         0.17862E-01         0.00000E+00
    0.81504E-01         0.17090E-01         0.00000E+00
    0.80177E-01         0.16328E-01         0.00000E+00
    0.78797E-01         0.15577E-01         0.00000E+00
    0.77364E-01         0.14839E-01         0.00000E+00
    0.75879E-01         0.14113E-01         0.00000E+00
    0.74343E-01         0.13400E-01         0.00000E+00
    0.72756E-01         0.12701E-01         0.00000E+00
    0.71119E-01         0.12017E-01         0.00000E+00
    0.69432E-01         0.11347E-01         0.00000E+00
    0.67697E-01         0.10692E-01         0.00000E+00
    0.65913E-01         0.10053E-01         0.00000E+00
    0.64082E-01         0.94306E-02         0.00000E+00
    0.62204E-01         0.88248E-02         0.00000E+00
    0.60281E-01         0.82362E-02         0.00000E+00
    0.58313E-01         0.76653E-02         0.00000E+00
    0.56300E-01         0.71124E-02         0.00000E+00
    0.54244E-01         0.65781E-02         0.00000E+00
    0.52146E-01         0.60627E-02         0.00000E+00
    0.50006E-01         0.55666E-02         0.00000E+00
    0.47825E-01         0.50902E-02         0.00000E+00
    0.45605E-01         0.46338E-02         0.00000E+00
    0.43346E-01         0.41976E-02         0.00000E+00
    0.41049E-01         0.37821E-02         0.00000E+00
    0.38715E-01         0.33875E-02         0.00000E+00
    0.36345E-01         0.30139E-02         0.00000E+00
    0.33941E-01         0.26615E-02         0.00000E+00
    0.31503E-01         0.23306E-02         0.00000E+00
    0.29032E-01         0.20212E-02         0.00000E+00
    0.26529E-01         0.17333E-02         0.00000E+00
    0.23996E-01         0.14669E-02         0.00000E+00
    0.21433E-01         0.12219E-02         0.00000E+00
    0.18842E-01         0.99823E-03         0.00000E+00
    0.16223E-01         0.79564E-03         0.00000E+00
    0.13578E-01         0.61382E-03         0.00000E+00
    0.10908E-01         0.45241E-03         0.00000E+00
    0.82144E-02         0.31093E-03         0.00000E+00
    0.54976E-02         0.18882E-03         0.00000E+00
    0.27591E-02         0.85429E-04         0.00000E+00
    0.00000E+00         0.00000E+00         0.00000E+00
    0.88946E-01         0.23838E-01         0.00000E+00
    0.88324E-01         0.23086E-01         0.00000E+00
    0.87645E-01         0.22337E-01         0.00000E+00
    0.86911E-01         0.21591E-01         0.00000E+00
    0.86122E-01         0.20849E-01         0.00000E+00
    0.85277E-01         0.20112E-01         0.00000E+00
    0.84378E-01         0.19380E-01         0.00000E+00
    0.83424E-01         0.18653E-01         0.00000E+00
    0.82417E-01         0.17934E-01         0.00000E+00
    0.81356E-01         0.17222E-01         0.00000E+00
    0.80242E-01         0.16518E-01         0.00000E+00
    0.79075E-01         0.15822E-01         0.00000E+00
    0.77857E-01         0.15136E-01         0.00000E+00
    0.76587E-01         0.14459E-01         0.00000E+00
    0.75266E-01         0.13793E-01         0.00000E+00
    0.73895E-01         0.13137E-01         0.00000E+00
    0.72474E-01         0.12493E-01         0.00000E+00
    0.71004E-01         0.11860E-01         0.00000E+00
    0.69485E-01         0.11240E-01         0.00000E+00
    0.67919E-01         0.10632E-01         0.00000E+00
    0.66305E-01         0.10038E-01         0.00000E+00
    0.64644E-01         0.94576E-02         0.00000E+00
    0.62938E-01         0.88911E-02         0.00000E+00
    0.61187E-01         0.83392E-02         0.00000E+00
    0.59391E-01         0.78023E-02         0.00000E+00
    0.57552E-01         0.72807E-02         0.00000E+00
    0.55670E-01         0.67749E-02         0.00000E+00
    0.53746E-01         0.62853E-02         0.00000E+00
    0.51780E-01         0.58121E-02         0.00000E+00
    0.49775E-01         0.53558E-02         0.00000E+00
    0.47729E-01         0.49167E-02         0.00000E+00
    0.45646E-01         0.44951E-02         0.00000E+00
    0.43524E-01         0.40913E-02         0.00000E+00
    0.41366E-01         0.37055E-02         0.00000E+00
    0.39172E-01         0.33381E-02         0.00000E+00
    0.36943E-01         0.29892E-02         0.00000E+00
    0.34680E-01         0.26590E-02         0.00000E+00
    0.32384E-01         0.23477E-02         0.00000E+00
    0.30056E-01         0.20554E-02         0.00000E+00
    0.27697E-01         0.17821E-02         0.00000E+00
    0.25308E-01         0.15279E-02         0.00000E+00
    0.22890E-01         0.12928E-02         0.00000E+00
    0.20444E-01         0.10767E-02         0.00000E+00
    0.17972E-01         0.87945E-03         0.00000E+00
    0.15473E-01         0.70083E-03         0.00000E+00
    0.12950E-01         0.54058E-03         0.00000E+00
    0.10403E-01         0.39835E-03         0.00000E+00
    0.78338E-02         0.27373E-03         0.00000E+00
    0.52427E-02         0.16621E-03         0.00000E+00
    0.26311E-02         0.75193E-04         0.00000E+00
    0.00000E+00         0.00000E+00         0.00000E+00
    0.85270E-01         0.20931E-01         0.00000E+00
    0.84674E-01         0.20270E-01         0.00000E+00
    0.84024E-01         0.19611E-01         0.00000E+00
    0.83321E-01         0.18954E-01         0.00000E+00
    0.82564E-01         0.18301E-01         0.00000E+00
    0.81754E-01         0.17652E-01         0.00000E+00
    0.80891E-01         0.17007E-01         0.00000E+00
    0.79976E-01         0.16368E-01         0.00000E+00
    0.79009E-01         0.15735E-01         0.00000E+00
    0.77991E-01         0.15109E-01         0.00000E+00
    0.76922E-01         0.14489E-01         0.00000E+00
    0.75802E-01         0.13877E-01         0.00000E+00
    0.74632E-01         0.13274E-01         0.00000E+00
    0.73413E-01         0.12679E-01         0.00000E+00
    0.72145E-01         0.12093E-01         0.00000E+00
    0.70829E-01         0.11517E-01         0.00000E+00
    0.69465E-01         0.10950E-01         0.00000E+00
    0.68054E-01         0.10394E-01         0.00000E+00
    0.66596E-01         0.98496E-02         0.00000E+00
    0.65093E-01         0.93159E-02         0.00000E+00
    0.63544E-01         0.87941E-02         0.00000E+00
    0.61950E-01         0.82843E-02         0.00000E+00
    0.60313E-01         0.77870E-02         0.00000E+00
    0.58632E-01         0.73025E-02         0.00000E+00
    0.56910E-01         0.68313E-02         0.00000E+00
    0.55145E-01         0.63737E-02         0.00000E+00
    0.53339E-01         0.59300E-02         0.00000E+00
    0.51494E-01         0.55006E-02         0.00000E+00
    0.49609E-01         0.50857E-02         0.00000E+00
    0.47685E-01         0.46856E-02         0.00000E+00
    0.45724E-01         0.43008E-02         0.00000E+00
    0.43726E-01         0.39313E-02         0.00000E+00
    0.41692E-01         0.35775E-02         0.00000E+00
    0.39623E-01         0.32397E-02         0.00000E+00
    0.37520E-01         0.29179E-02         0.00000E+00
    0.35383E-01         0.26125E-02         0.00000E+00
    0.33215E-01         0.23235E-02         0.00000E+00
    0.31014E-01         0.20511E-02         0.00000E+00
    0.28784E-01         0.17954E-02         0.00000E+00
    0.26524E-01         0.15564E-02         0.00000E+00
    0.24235E-01         0.13342E-02         0.00000E+00
    0.21919E-01         0.11287E-02         0.00000E+00
    0.19576E-01         0.93983E-03         0.00000E+00
    0.17208E-01         0.76751E-03         0.00000E+00
    0.14815E-01         0.61151E-03         0.00000E+00
    0.12399E-01         0.47161E-03         0.00000E+00
    0.99603E-02         0.34747E-03         0.00000E+00
    0.75000E-02         0.23874E-03         0.00000E+00
    0.50192E-02         0.14494E-03         0.00000E+00
    0.25189E-02         0.65566E-04         0.00000E+00
    0.00000E+00         0.00000E+00         0.00000E+00
    0.82052E-01         0.18145E-01         0.00000E+00
    0.81480E-01         0.17570E-01         0.00000E+00
    0.80855E-01         0.16998E-01         0.00000E+00
    0.80179E-01         0.16427E-01         0.00000E+00
    0.79450E-01         0.15860E-01         0.00000E+00
    0.78671E-01         0.15296E-01         0.00000E+00
    0.77841E-01         0.14736E-01         0.00000E+00
    0.76960E-01         0.14181E-01         0.00000E+00
    0.76029E-01         0.13631E-01         0.00000E+00
    0.75048E-01         0.13087E-01         0.00000E+00
    0.74019E-01         0.12549E-01         0.00000E+00
    0.72940E-01         0.12018E-01         0.00000E+00
    0.71814E-01         0.11494E-01         0.00000E+00
    0.70640E-01         0.10977E-01         0.00000E+00
    0.69419E-01         0.10469E-01         0.00000E+00
    0.68151E-01         0.99688E-02         0.00000E+00
    0.66837E-01         0.94775E-02         0.00000E+00
    0.65478E-01         0.89954E-02         0.00000E+00
    0.64073E-01         0.85228E-02         0.00000E+00
    0.62625E-01         0.80600E-02         0.00000E+00
    0.61133E-01         0.76075E-02         0.00000E+00
    0.59599E-01         0.71656E-02         0.00000E+00
    0.58022E-01         0.67345E-02         0.00000E+00
    0.56404E-01         0.63147E-02         0.00000E+00
    0.54745E-01         0.59065E-02         0.00000E+00
    0.53046E-01         0.55100E-02         0.00000E+00
    0.51307E-01         0.51257E-02         0.00000E+00
    0.49531E-01         0.47538E-02         0.00000E+00
    0.47716E-01         0.43946E-02         0.00000E+00
    0.45864E-01         0.40484E-02         0.00000E+00
    0.43977E-01         0.37153E-02         0.00000E+00
    0.42054E-01         0.33956E-02         0.00000E+00
    0.40096E-01         0.30896E-02         0.00000E+00
    0.38105E-01         0.27974E-02         0.00000E+00
    0.36082E-01         0.25192E-02         0.00000E+00
    0.34026E-01         0.22551E-02         0.00000E+00
    0.31940E-01         0.20053E-02         0.00000E+00
    0.29823E-01         0.17699E-02         0.00000E+00
    0.27677E-01         0.15490E-02         0.00000E+00
    0.25503E-01         0.13426E-02         0.00000E+00
    0.23302E-01         0.11507E-02         0.00000E+00
    0.21075E-01         0.97333E-03         0.00000E+00
    0.18822E-01         0.81035E-03         0.00000E+00
    0.16545E-01         0.66166E-03         0.00000E+00
    0.14244E-01         0.52709E-03         0.00000E+00
    0.11921E-01         0.40644E-03         0.00000E+00
    0.95758E-02         0.29942E-03         0.00000E+00
    0.72103E-02         0.20569E-03         0.00000E+00
    0.48253E-02         0.12487E-03         0.00000E+00
    0.24215E-02         0.56480E-04         0.00000E+00
    0.00000E+00         0.00000E+00         0.00000E+00
    0.79278E-01         0.15464E-01         0.00000E+00
    0.78726E-01         0.14973E-01         0.00000E+00
    0.78123E-01         0.14484E-01         0.00000E+00
    0.77470E-01         0.13997E-01         0.00000E+00
    0.76767E-01         0.13512E-01         0.00000E+00
    0.76014E-01         0.13031E-01         0.00000E+00
    0.75212E-01         0.12553E-01         0.00000E+00
    0.74361E-01         0.12079E-01         0.00000E+00
    0.73461E-01         0.11610E-01         0.00000E+00
    0.72513E-01         0.11145E-01         0.00000E+00
    0.71518E-01         0.10686E-01         0.00000E+00
    0.70476E-01         0.10233E-01         0.00000E+00
    0.69387E-01         0.97857E-02         0.00000E+00
    0.68251E-01         0.93450E-02         0.00000E+00
    0.67071E-01         0.89113E-02         0.00000E+00
    0.65845E-01         0.84847E-02         0.00000E+00
    0.64574E-01         0.80657E-02         0.00000E+00
    0.63260E-01         0.76545E-02         0.00000E+00
    0.61903E-01         0.72515E-02         0.00000E+00
    0.60502E-01         0.68570E-02         0.00000E+00
    0.59060E-01         0.64713E-02         0.00000E+00
    0.57577E-01         0.60946E-02         0.00000E+00
    0.56052E-01         0.57274E-02         0.00000E+00
    0.54488E-01         0.53697E-02         0.00000E+00
    0.52884E-01         0.50219E-02         0.00000E+00
    0.51242E-01         0.46843E-02         0.00000E+00
    0.49561E-01         0.43570E-02         0.00000E+00
    0.47844E-01         0.40404E-02         0.00000E+00
    0.46090E-01         0.37346E-02         0.00000E+00
    0.44301E-01         0.34399E-02         0.00000E+00
    0.42477E-01         0.31565E-02         0.00000E+00
    0.40618E-01         0.28845E-02         0.00000E+00
    0.38727E-01         0.26242E-02         0.00000E+00
    0.36803E-01         0.23756E-02         0.00000E+00
    0.34848E-01         0.21391E-02         0.00000E+00
    0.32862E-01         0.19146E-02         0.00000E+00
    0.30846E-01         0.17023E-02         0.00000E+00
    0.28802E-01         0.15023E-02         0.00000E+00
    0.26729E-01         0.13146E-02         0.00000E+00
    0.24629E-01         0.11392E-02         0.00000E+00
    0.22503E-01         0.97627E-03         0.00000E+00
    0.20352E-01         0.82565E-03         0.00000E+00
    0.18176E-01         0.68729E-03         0.00000E+00
    0.15976E-01         0.56110E-03         0.00000E+00
    0.13755E-01         0.44692E-03         0.00000E+00
    0.11511E-01         0.34458E-03         0.00000E+00
    0.92466E-02         0.25381E-03         0.00000E+00
    0.69625E-02         0.17434E-03         0.00000E+00
    0.46594E-02         0.10583E-03         0.00000E+00
    0.23383E-02         0.47863E-04         0.00000E+00
    0.00000E+00         0.00000E+00         0.00000E+00
    0.76934E-01         0.12873E-01         0.00000E+00
    0.76399E-01         0.12464E-01         0.00000E+00
    0.75815E-01         0.12056E-01         0.00000E+00
    0.75182E-01         0.11650E-01         0.00000E+00
    0.74500E-01         0.11245E-01         0.00000E+00
    0.73770E-01         0.10844E-01         0.00000E+00
    0.72991E-01         0.10446E-01         0.00000E+00
    0.72166E-01         0.10050E-01         0.00000E+00
    0.71293E-01         0.96591E-02         0.00000E+00
    0.70373E-01         0.92720E-02         0.00000E+00
    0.69407E-01         0.88894E-02         0.00000E+00
    0.68395E-01         0.85116E-02         0.00000E+00
    0.67338E-01         0.81389E-02         0.00000E+00
    0.66236E-01         0.77717E-02         0.00000E+00
    0.65089E-01         0.74103E-02         0.00000E+00
    0.63899E-01         0.70549E-02         0.00000E+00
    0.62666E-01         0.67058E-02         0.00000E+00
    0.61390E-01         0.63634E-02         0.00000E+00
    0.60072E-01         0.60278E-02         0.00000E+00
    0.58712E-01         0.56993E-02         0.00000E+00
    0.57312E-01         0.53781E-02         0.00000E+00
    0.55872E-01         0.50646E-02         0.00000E+00
    0.54392E-01         0.47589E-02         0.00000E+00
    0.52873E-01         0.44612E-02         0.00000E+00
    0.51316E-01         0.41718E-02         0.00000E+00
    0.49721E-01         0.38909E-02         0.00000E+00
    0.48090E-01         0.36187E-02         0.00000E+00
    0.46423E-01         0.33553E-02         0.00000E+00
    0.44721E-01         0.31010E-02         0.00000E+00
    0.42984E-01         0.28560E-02         0.00000E+00
    0.41214E-01         0.26204E-02         0.00000E+00
    0.39410E-01         0.23943E-02         0.00000E+00
    0.37574E-01         0.21779E-02         0.00000E+00
    0.35707E-01         0.19714E-02         0.00000E+00
    0.33810E-01         0.17749E-02         0.00000E+00
    0.31883E-01         0.15884E-02         0.00000E+00
    0.29927E-01         0.14121E-02         0.00000E+00
    0.27943E-01         0.12460E-02         0.00000E+00
    0.25931E-01         0.10902E-02         0.00000E+00
    0.23894E-01         0.94468E-03         0.00000E+00
    0.21831E-01         0.80944E-03         0.00000E+00
    0.19744E-01         0.68447E-03         0.00000E+00
    0.17633E-01         0.56970E-03         0.00000E+00
    0.15499E-01         0.46504E-03         0.00000E+00
    0.13344E-01         0.37036E-03         0.00000E+00
    0.11167E-01         0.28551E-03         0.00000E+00
    0.89704E-02         0.21028E-03         0.00000E+00
    0.67544E-02         0.14443E-03         0.00000E+00
    0.45202E-02         0.87657E-04         0.00000E+00
    0.22684E-02         0.39642E-04         0.00000E+00
    0.00000E+00         0.00000E+00         0.00000E+00
    0.75009E-01         0.10357E-01         0.00000E+00
    0.74489E-01         0.10028E-01         0.00000E+00
    0.73920E-01         0.96989E-02         0.00000E+00
    0.73303E-01         0.93716E-02         0.00000E+00
    0.72638E-01         0.90459E-02         0.00000E+00
    0.71927E-01         0.87224E-02         0.00000E+00
    0.71168E-01         0.84014E-02         0.00000E+00
    0.70363E-01         0.80831E-02         0.00000E+00
    0.69512E-01         0.77678E-02         0.00000E+00
    0.68616E-01         0.74560E-02         0.00000E+00
    0.67674E-01         0.71478E-02         0.00000E+00
    0.66687E-01         0.68435E-02         0.00000E+00
    0.65656E-01         0.65434E-02         0.00000E+00
    0.64581E-01         0.62477E-02         0.00000E+00
    0.63463E-01         0.59566E-02         0.00000E+00
    0.62303E-01         0.56705E-02         0.00000E+00
    0.61100E-01         0.53895E-02         0.00000E+00
    0.59856E-01         0.51138E-02         0.00000E+00
    0.58570E-01         0.48437E-02         0.00000E+00
    0.57244E-01         0.45793E-02         0.00000E+00
    0.55879E-01         0.43209E-02         0.00000E+00
    0.54474E-01         0.40686E-02         0.00000E+00
    0.53030E-01         0.38227E-02         0.00000E+00
    0.51549E-01         0.35832E-02         0.00000E+00
    0.50031E-01         0.33505E-02         0.00000E+00
    0.48476E-01         0.31245E-02         0.00000E+00
    0.46885E-01         0.29056E-02         0.00000E+00
    0.45260E-01         0.26939E-02         0.00000E+00
    0.43600E-01         0.24895E-02         0.00000E+00
    0.41906E-01         0.22925E-02         0.00000E+00
    0.40179E-01         0.21032E-02         0.00000E+00
    0.38421E-01         0.19215E-02         0.00000E+00
    0.36631E-01         0.17477E-02         0.00000E+00
    0.34811E-01         0.15818E-02         0.00000E+00
    0.32961E-01         0.14240E-02         0.00000E+00
    0.31082E-01         0.12742E-02         0.00000E+00
    0.29174E-01         0.11326E-02         0.00000E+00
    0.27240E-01         0.99931E-03         0.00000E+00
    0.25279E-01         0.87424E-03         0.00000E+00
    0.23293E-01         0.75745E-03         0.00000E+00
    0.21282E-01         0.64894E-03         0.00000E+00
    0.19247E-01         0.54868E-03         0.00000E+00
    0.17189E-01         0.45662E-03         0.00000E+00
    0.15109E-01         0.37269E-03         0.00000E+00
    0.13008E-01         0.29678E-03         0.00000E+00
    0.10886E-01         0.22876E-03         0.00000E+00
    0.87447E-02         0.16846E-03         0.00000E+00
    0.65846E-02         0.11569E-03         0.00000E+00
    0.44065E-02         0.70209E-04         0.00000E+00
    0.22114E-02         0.31749E-04         0.00000E+00
    0.00000E+00         0.00000E+00         0.00000E+00
    0.73494E-01         0.79028E-02         0.00000E+00
    0.72984E-01         0.76508E-02         0.00000E+00
    0.72428E-01         0.73996E-02         0.00000E+00
    0.71824E-01         0.71495E-02         0.00000E+00
    0.71173E-01         0.69007E-02         0.00000E+00
    0.70476E-01         0.66535E-02         0.00000E+00
    0.69733E-01         0.64082E-02         0.00000E+00
    0.68945E-01         0.61651E-02         0.00000E+00
    0.68111E-01         0.59243E-02         0.00000E+00
    0.67233E-01         0.56861E-02         0.00000E+00
    0.66310E-01         0.54507E-02         0.00000E+00
    0.65343E-01         0.52183E-02         0.00000E+00
    0.64333E-01         0.49891E-02         0.00000E+00
    0.63280E-01         0.47633E-02         0.00000E+00
    0.62185E-01         0.45411E-02         0.00000E+00
    0.61047E-01         0.43227E-02         0.00000E+00
    0.59869E-01         0.41081E-02         0.00000E+00
    0.58649E-01         0.38977E-02         0.00000E+00
    0.57389E-01         0.36915E-02         0.00000E+00
    0.56090E-01         0.34898E-02         0.00000E+00
    0.54752E-01         0.32926E-02         0.00000E+00
    0.53375E-01         0.31001E-02         0.00000E+00
    0.51961E-01         0.29124E-02         0.00000E+00
    0.50509E-01         0.27298E-02         0.00000E+00
    0.49021E-01         0.25522E-02         0.00000E+00
    0.47497E-01         0.23799E-02         0.00000E+00
    0.45939E-01         0.22130E-02         0.00000E+00
    0.44346E-01         0.20515E-02         0.00000E+00
    0.42719E-01         0.18957E-02         0.00000E+00
    0.41059E-01         0.17455E-02         0.00000E+00
    0.39367E-01         0.16012E-02         0.00000E+00
    0.37644E-01         0.14628E-02         0.00000E+00
    0.35890E-01         0.13303E-02         0.00000E+00
    0.34107E-01         0.12039E-02         0.00000E+00
    0.32294E-01         0.10836E-02         0.00000E+00
    0.30453E-01         0.96959E-03         0.00000E+00
    0.28584E-01         0.86177E-03         0.00000E+00
    0.26689E-01         0.76023E-03         0.00000E+00
    0.24768E-01         0.66500E-03         0.00000E+00
    0.22822E-01         0.57610E-03         0.00000E+00
    0.20852E-01         0.49350E-03         0.00000E+00
    0.18858E-01         0.41720E-03         0.00000E+00
    0.16842E-01         0.34716E-03         0.00000E+00
    0.14804E-01         0.28331E-03         0.00000E+00
    0.12745E-01         0.22557E-03         0.00000E+00
    0.10666E-01         0.17385E-03         0.00000E+00
    0.85680E-02         0.12801E-03         0.00000E+00
    0.64515E-02         0.87897E-04         0.00000E+00
    0.43175E-02         0.53336E-04         0.00000E+00
    0.21667E-02         0.24116E-04         0.00000E+00
    0.00000E+00         0.00000E+00         0.00000E+00
    0.72380E-01         0.54947E-02         0.00000E+00
    0.71879E-01         0.53193E-02         0.00000E+00
    0.71331E-01         0.51444E-02         0.00000E+00
    0.70737E-01         0.49702E-02         0.00000E+00
    0.70097E-01         0.47970E-02         0.00000E+00
    0.69411E-01         0.46250E-02         0.00000E+00
    0.68679E-01         0.44542E-02         0.00000E+00
    0.67903E-01         0.42850E-02         0.00000E+00
    0.67082E-01         0.41174E-02         0.00000E+00
    0.66217E-01         0.39516E-02         0.00000E+00
    0.65309E-01         0.37878E-02         0.00000E+00
    0.64357E-01         0.36260E-02         0.00000E+00
    0.63362E-01         0.34666E-02         0.00000E+00
    0.62325E-01         0.33095E-02         0.00000E+00
    0.61246E-01         0.31549E-02         0.00000E+00
    0.60126E-01         0.30029E-02         0.00000E+00
    0.58965E-01         0.28537E-02         0.00000E+00
    0.57764E-01         0.27073E-02         0.00000E+00
    0.56523E-01         0.25639E-02         0.00000E+00
    0.55243E-01         0.24236E-02         0.00000E+00
    0.53925E-01         0.22865E-02         0.00000E+00
    0.52569E-01         0.21526E-02         0.00000E+00
    0.51176E-01         0.20221E-02         0.00000E+00
    0.49746E-01         0.18952E-02         0.00000E+00
    0.48281E-01         0.17718E-02         0.00000E+00
    0.46780E-01         0.16520E-02         0.00000E+00
    0.45245E-01         0.15360E-02         0.00000E+00
    0.43675E-01         0.14238E-02         0.00000E+00
    0.42073E-01         0.13155E-02         0.00000E+00
    0.40439E-01         0.12112E-02         0.00000E+00
    0.38772E-01         0.11109E-02         0.00000E+00
    0.37075E-01         0.10148E-02         0.00000E+00
    0.35348E-01         0.92276E-03         0.00000E+00
    0.33591E-01         0.83499E-03         0.00000E+00
    0.31806E-01         0.75149E-03         0.00000E+00
    0.29992E-01         0.67231E-03         0.00000E+00
    0.28152E-01         0.59747E-03         0.00000E+00
    0.26286E-01         0.52700E-03         0.00000E+00
    0.24394E-01         0.46092E-03         0.00000E+00
    0.22477E-01         0.39924E-03         0.00000E+00
    0.20536E-01         0.34195E-03         0.00000E+00
    0.18573E-01         0.28903E-03         0.00000E+00
    0.16587E-01         0.24047E-03         0.00000E+00
    0.14580E-01         0.19620E-03         0.00000E+00
    0.12552E-01         0.15619E-03         0.00000E+00
    0.10505E-01         0.12035E-03         0.00000E+00
    0.84387E-02         0.88600E-04         0.00000E+00
    0.63542E-02         0.60825E-04         0.00000E+00
    0.42524E-02         0.36901E-04         0.00000E+00
    0.21341E-02         0.16682E-04         0.00000E+00
    0.00000E+00         0.00000E+00         0.00000E+00
    0.71663E-01         0.31195E-02         0.00000E+00
    0.71167E-01         0.30197E-02         0.00000E+00
    0.70625E-01         0.29203E-02         0.00000E+00
    0.70037E-01         0.28212E-02         0.00000E+00
    0.69403E-01         0.27227E-02         0.00000E+00
    0.68724E-01         0.26249E-02         0.00000E+00
    0.68001E-01         0.25278E-02         0.00000E+00
    0.67232E-01         0.24315E-02         0.00000E+00
    0.66420E-01         0.23363E-02         0.00000E+00
    0.65564E-01         0.22420E-02         0.00000E+00
    0.64664E-01         0.21489E-02         0.00000E+00
    0.63722E-01         0.20570E-02         0.00000E+00
    0.62737E-01         0.19664E-02         0.00000E+00
    0.61710E-01         0.18771E-02         0.00000E+00
    0.60642E-01         0.17893E-02         0.00000E+00
    0.59533E-01         0.17029E-02         0.00000E+00
    0.58383E-01         0.16182E-02         0.00000E+00
    0.57194E-01         0.15350E-02         0.00000E+00
    0.55966E-01         0.14536E-02         0.00000E+00
    0.54698E-01         0.13739E-02         0.00000E+00
    0.53393E-01         0.12961E-02         0.00000E+00
    0.52051E-01         0.12201E-02         0.00000E+00
    0.50671E-01         0.11460E-02         0.00000E+00
    0.49256E-01         0.10739E-02         0.00000E+00
    0.47805E-01         0.10039E-02         0.00000E+00
    0.46319E-01         0.93592E-03         0.00000E+00
    0.44798E-01         0.87008E-03         0.00000E+00
    0.43245E-01         0.80642E-03         0.00000E+00
    0.41658E-01         0.74499E-03         0.00000E+00
    0.40040E-01         0.68581E-03         0.00000E+00
    0.38390E-01         0.62894E-03         0.00000E+00
    0.36710E-01         0.57440E-03         0.00000E+00
    0.34999E-01         0.52224E-03         0.00000E+00
    0.33260E-01         0.47248E-03         0.00000E+00
    0.31492E-01         0.42514E-03         0.00000E+00
    0.29697E-01         0.38026E-03         0.00000E+00
    0.27875E-01         0.33786E-03         0.00000E+00
    0.26027E-01         0.29794E-03         0.00000E+00
    0.24153E-01         0.26051E-03         0.00000E+00
    0.22256E-01         0.22559E-03         0.00000E+00
    0.20334E-01         0.19316E-03         0.00000E+00
    0.18390E-01         0.16321E-03         0.00000E+00
    0.16424E-01         0.13574E-03         0.00000E+00
    0.14437E-01         0.11072E-03         0.00000E+00
    0.12429E-01         0.88103E-04         0.00000E+00
    0.10402E-01         0.67861E-04         0.00000E+00
    0.83558E-02         0.49936E-04         0.00000E+00
    0.62919E-02         0.34266E-04         0.00000E+00
    0.42107E-02         0.20779E-04         0.00000E+00
    0.21132E-02         0.93891E-05         0.00000E+00
    0.00000E+00         0.00000E+00         0.00000E+00
    0.71338E-01         0.76347E-03         0.00000E+00
    0.70844E-01         0.73882E-03         0.00000E+00
    0.70305E-01         0.71427E-03         0.00000E+00
    0.69720E-01         0.68983E-03         0.00000E+00
    0.69090E-01         0.66554E-03         0.00000E+00
    0.68414E-01         0.64142E-03         0.00000E+00
    0.67694E-01         0.61750E-03         0.00000E+00
    0.66929E-01         0.59381E-03         0.00000E+00
    0.66120E-01         0.57037E-03         0.00000E+00
    0.65268E-01         0.54719E-03         0.00000E+00
    0.64373E-01         0.52430E-03         0.00000E+00
    0.63435E-01         0.50172E-03         0.00000E+00
    0.62455E-01         0.47947E-03         0.00000E+00
    0.61432E-01         0.45756E-03         0.00000E+00
    0.60369E-01         0.43601E-03         0.00000E+00
    0.59265E-01         0.41484E-03         0.00000E+00
    0.58121E-01         0.39406E-03         0.00000E+00
    0.56937E-01         0.37368E-03         0.00000E+00
    0.55714E-01         0.35373E-03         0.00000E+00
    0.54453E-01         0.33422E-03         0.00000E+00
    0.53154E-01         0.31515E-03         0.00000E+00
    0.51817E-01         0.29655E-03         0.00000E+00
    0.50444E-01         0.27842E-03         0.00000E+00
    0.49035E-01         0.26079E-03         0.00000E+00
    0.47590E-01         0.24365E-03         0.00000E+00
    0.46111E-01         0.22703E-03         0.00000E+00
    0.44597E-01         0.21094E-03         0.00000E+00
    0.43051E-01         0.19538E-03         0.00000E+00
    0.41471E-01         0.18037E-03         0.00000E+00
    0.39860E-01         0.16592E-03         0.00000E+00
    0.38218E-01         0.15204E-03         0.00000E+00
    0.36545E-01         0.13873E-03         0.00000E+00
    0.34842E-01         0.12601E-03         0.00000E+00
    0.33111E-01         0.11388E-03         0.00000E+00
    0.31351E-01         0.10236E-03         0.00000E+00
    0.29564E-01         0.91439E-04         0.00000E+00
    0.27750E-01         0.81132E-04         0.00000E+00
    0.25910E-01         0.71440E-04         0.00000E+00
    0.24045E-01         0.62366E-04         0.00000E+00
    0.22156E-01         0.53910E-04         0.00000E+00
    0.20243E-01         0.46072E-04         0.00000E+00
    0.18308E-01         0.38850E-04         0.00000E+00
    0.16351E-01         0.32239E-04         0.00000E+00
    0.14372E-01         0.26231E-04         0.00000E+00
    0.12374E-01         0.20819E-04         0.00000E+00
    0.10356E-01         0.15991E-04         0.00000E+00
    0.83187E-02         0.11732E-04         0.00000E+00
    0.62639E-02         0.80251E-05         0.00000E+00
    0.41921E-02         0.48505E-05         0.00000E+00
    0.21038E-02         0.21844E-05         0.00000E+00
    0.00000E+00         0.00000E+00         0.00000E+00
    0.71403E-01        -0.15869E-02         0.00000E+00
    0.70910E-01        -0.15365E-02         0.00000E+00
    0.70370E-01        -0.14863E-02         0.00000E+00
    0.69785E-01        -0.14362E-02         0.00000E+00
    0.69154E-01        -0.13864E-02         0.00000E+00
    0.68478E-01        -0.13369E-02         0.00000E+00
    0.67757E-01        -0.12877E-02         0.00000E+00
    0.66992E-01        -0.12390E-02         0.00000E+00
    0.66183E-01        -0.11907E-02         0.00000E+00
    0.65330E-01        -0.11429E-02         0.00000E+00
    0.64434E-01        -0.10957E-02         0.00000E+00
    0.63495E-01        -0.10491E-02         0.00000E+00
    0.62514E-01        -0.10031E-02         0.00000E+00
    0.61491E-01        -0.95772E-03         0.00000E+00
    0.60427E-01        -0.91311E-03         0.00000E+00
    0.59322E-01        -0.86924E-03         0.00000E+00
    0.58176E-01        -0.82617E-03         0.00000E+00
    0.56991E-01        -0.78391E-03         0.00000E+00
    0.55767E-01        -0.74251E-03         0.00000E+00
    0.54505E-01        -0.70199E-03         0.00000E+00
    0.53204E-01        -0.66239E-03         0.00000E+00
    0.51867E-01        -0.62374E-03         0.00000E+00
    0.50492E-01        -0.58607E-03         0.00000E+00
    0.49082E-01        -0.54940E-03         0.00000E+00
    0.47636E-01        -0.51376E-03         0.00000E+00
    0.46155E-01        -0.47918E-03         0.00000E+00
    0.44640E-01        -0.44567E-03         0.00000E+00
    0.43092E-01        -0.41327E-03         0.00000E+00
    0.41511E-01        -0.38200E-03         0.00000E+00
    0.39898E-01        -0.35187E-03         0.00000E+00
    0.38255E-01        -0.32290E-03         0.00000E+00
    0.36580E-01        -0.29512E-03         0.00000E+00
    0.34876E-01        -0.26853E-03         0.00000E+00
    0.33143E-01        -0.24316E-03         0.00000E+00
    0.31381E-01        -0.21901E-03         0.00000E+00
    0.29592E-01        -0.19610E-03         0.00000E+00
    0.27777E-01        -0.17443E-03         0.00000E+00
    0.25935E-01        -0.15402E-03         0.00000E+00
    0.24069E-01        -0.13486E-03         0.00000E+00
    0.22178E-01        -0.11696E-03         0.00000E+00
    0.20263E-01        -0.10031E-03         0.00000E+00
    0.18326E-01        -0.84915E-04         0.00000E+00
    0.16367E-01        -0.70761E-04         0.00000E+00
    0.14386E-01        -0.57838E-04         0.00000E+00
    0.12386E-01        -0.46131E-04         0.00000E+00
    0.10366E-01        -0.35619E-04         0.00000E+00
    0.83269E-02        -0.26279E-04         0.00000E+00
    0.62702E-02        -0.18083E-04         0.00000E+00
    0.41962E-02        -0.10997E-04         0.00000E+00
    0.21059E-02        -0.49834E-05         0.00000E+00
    0.00000E+00         0.00000E+00         0.00000E+00
    0.71860E-01        -0.39451E-02         0.00000E+00
    0.71364E-01        -0.38194E-02         0.00000E+00
    0.70821E-01        -0.36940E-02         0.00000E+00
    0.70232E-01        -0.35691E-02         0.00000E+00
    0.69597E-01        -0.34449E-02         0.00000E+00
    0.68917E-01        -0.33215E-02         0.00000E+00
    0.68191E-01        -0.31990E-02         0.00000E+00
    0.67421E-01        -0.30775E-02         0.00000E+00
    0.66607E-01        -0.29572E-02         0.00000E+00
    0.65749E-01        -0.28382E-02         0.00000E+00
    0.64847E-01        -0.27206E-02         0.00000E+00
    0.63902E-01        -0.26045E-02         0.00000E+00
    0.62915E-01        -0.24900E-02         0.00000E+00
    0.61885E-01        -0.23772E-02         0.00000E+00
    0.60814E-01        -0.22661E-02         0.00000E+00
    0.59702E-01        -0.21570E-02         0.00000E+00
    0.58550E-01        -0.20498E-02         0.00000E+00
    0.57357E-01        -0.19447E-02         0.00000E+00
    0.56125E-01        -0.18418E-02         0.00000E+00
    0.54855E-01        -0.17410E-02         0.00000E+00
    0.53546E-01        -0.16426E-02         0.00000E+00
    0.52199E-01        -0.15465E-02         0.00000E+00
    0.50816E-01        -0.14528E-02         0.00000E+00
    0.49396E-01        -0.13617E-02         0.00000E+00
    0.47941E-01        -0.12731E-02         0.00000E+00
    0.46451E-01        -0.11871E-02         0.00000E+00
    0.44927E-01        -0.11039E-02         0.00000E+00
    0.43368E-01        -0.10234E-02         0.00000E+00
    0.41778E-01        -0.94569E-03         0.00000E+00
    0.40154E-01        -0.87085E-03         0.00000E+00
    0.38500E-01        -0.79891E-03         0.00000E+00
    0.36815E-01        -0.72993E-03         0.00000E+00
    0.35100E-01        -0.66393E-03         0.00000E+00
    0.33355E-01        -0.60097E-03         0.00000E+00
    0.31583E-01        -0.54106E-03         0.00000E+00
    0.29782E-01        -0.48423E-03         0.00000E+00
    0.27955E-01        -0.43052E-03         0.00000E+00
    0.26102E-01        -0.37993E-03         0.00000E+00
    0.24223E-01        -0.33247E-03         0.00000E+00
    0.22320E-01        -0.28815E-03         0.00000E+00
    0.20393E-01        -0.24697E-03         0.00000E+00
    0.18444E-01        -0.20891E-03         0.00000E+00
    0.16472E-01        -0.17395E-03         0.00000E+00
    0.14479E-01        -0.14206E-03         0.00000E+00
    0.12465E-01        -0.11320E-03         0.00000E+00
    0.10432E-01        -0.87318E-04         0.00000E+00
    0.83805E-02        -0.64355E-04         0.00000E+00
    0.63105E-02        -0.44235E-04         0.00000E+00
    0.42232E-02        -0.26870E-04         0.00000E+00
    0.21195E-02        -0.12163E-04         0.00000E+00
    0.00000E+00         0.00000E+00         0.00000E+00
    0.72711E-01        -0.63245E-02         0.00000E+00
    0.72209E-01        -0.61227E-02         0.00000E+00
    0.71659E-01        -0.59216E-02         0.00000E+00
    0.71063E-01        -0.57212E-02         0.00000E+00
    0.70421E-01        -0.55219E-02         0.00000E+00
    0.69733E-01        -0.53239E-02         0.00000E+00
    0.68999E-01        -0.51273E-02         0.00000E+00
    0.68220E-01        -0.49325E-02         0.00000E+00
    0.67396E-01        -0.47395E-02         0.00000E+00
    0.66527E-01        -0.45486E-02         0.00000E+00
    0.65615E-01        -0.43600E-02         0.00000E+00
    0.64659E-01        -0.41737E-02         0.00000E+00
    0.63659E-01        -0.39901E-02         0.00000E+00
    0.62618E-01        -0.38092E-02         0.00000E+00
    0.61534E-01        -0.36311E-02         0.00000E+00
    0.60409E-01        -0.34561E-02         0.00000E+00
    0.59243E-01        -0.32843E-02         0.00000E+00
    0.58036E-01        -0.31158E-02         0.00000E+00
    0.56789E-01        -0.29507E-02         0.00000E+00
    0.55504E-01        -0.27891E-02         0.00000E+00
    0.54179E-01        -0.26313E-02         0.00000E+00
    0.52817E-01        -0.24772E-02         0.00000E+00
    0.51417E-01        -0.23271E-02         0.00000E+00
    0.49981E-01        -0.21810E-02         0.00000E+00
    0.48508E-01        -0.20390E-02         0.00000E+00
    0.47001E-01        -0.19012E-02         0.00000E+00
    0.45458E-01        -0.17678E-02         0.00000E+00
    0.43882E-01        -0.16387E-02         0.00000E+00
    0.42272E-01        -0.15142E-02         0.00000E+00
    0.40629E-01        -0.13943E-02         0.00000E+00
    0.38955E-01        -0.12790E-02         0.00000E+00
    0.37250E-01        -0.11685E-02         0.00000E+00
    0.35515E-01        -0.10627E-02         0.00000E+00
    0.33750E-01        -0.96182E-03         0.00000E+00
    0.31956E-01        -0.86584E-03         0.00000E+00
    0.30134E-01        -0.77481E-03         0.00000E+00
    0.28286E-01        -0.68877E-03         0.00000E+00
    0.26410E-01        -0.60774E-03         0.00000E+00
    0.24509E-01        -0.53175E-03         0.00000E+00
    0.22584E-01        -0.46079E-03         0.00000E+00
    0.20634E-01        -0.39486E-03         0.00000E+00
    0.18662E-01        -0.33394E-03         0.00000E+00
    0.16667E-01        -0.27800E-03         0.00000E+00
    0.14650E-01        -0.22698E-03         0.00000E+00
    0.12613E-01        -0.18083E-03         0.00000E+00
    0.10556E-01        -0.13945E-03         0.00000E+00
    0.84795E-02        -0.10275E-03         0.00000E+00
    0.63851E-02        -0.70604E-04         0.00000E+00
    0.42731E-02        -0.42876E-04         0.00000E+00
    0.21445E-02        -0.19402E-04         0.00000E+00
    0.00000E+00         0.00000E+00         0.00000E+00
    0.73961E-01        -0.87387E-02         0.00000E+00
    0.73450E-01        -0.84598E-02         0.00000E+00
    0.72891E-01        -0.81817E-02         0.00000E+00
    0.72284E-01        -0.79047E-02         0.00000E+00
    0.71631E-01        -0.76292E-02         0.00000E+00
    0.70931E-01        -0.73555E-02         0.00000E+00
    0.70184E-01        -0.70839E-02         0.00000E+00
    0.69391E-01        -0.68146E-02         0.00000E+00
    0.68553E-01        -0.65479E-02         0.00000E+00
    0.67669E-01        -0.62841E-02         0.00000E+00
    0.66741E-01        -0.60234E-02         0.00000E+00
    0.65769E-01        -0.57660E-02         0.00000E+00
    0.64752E-01        -0.55122E-02         0.00000E+00
    0.63693E-01        -0.52622E-02         0.00000E+00
    0.62590E-01        -0.50162E-02         0.00000E+00
    0.61446E-01        -0.47743E-02         0.00000E+00
    0.60259E-01        -0.45369E-02         0.00000E+00
    0.59032E-01        -0.43040E-02         0.00000E+00
    0.57764E-01        -0.40759E-02         0.00000E+00
    0.56456E-01        -0.38527E-02         0.00000E+00
    0.55109E-01        -0.36346E-02         0.00000E+00
    0.53723E-01        -0.34217E-02         0.00000E+00
    0.52299E-01        -0.32143E-02         0.00000E+00
    0.50838E-01        -0.30124E-02         0.00000E+00
    0.49340E-01        -0.28162E-02         0.00000E+00
    0.47807E-01        -0.26258E-02         0.00000E+00
    0.46238E-01        -0.24415E-02         0.00000E+00
    0.44634E-01        -0.22632E-02         0.00000E+00
    0.42997E-01        -0.20912E-02         0.00000E+00
    0.41326E-01        -0.19255E-02         0.00000E+00
    0.39623E-01        -0.17662E-02         0.00000E+00
    0.37889E-01        -0.16135E-02         0.00000E+00
    0.36124E-01        -0.14674E-02         0.00000E+00
    0.34328E-01        -0.13280E-02         0.00000E+00
    0.32504E-01        -0.11954E-02         0.00000E+00
    0.30651E-01        -0.10697E-02         0.00000E+00
    0.28770E-01        -0.95085E-03         0.00000E+00
    0.26863E-01        -0.83894E-03         0.00000E+00
    0.24929E-01        -0.73398E-03         0.00000E+00
    0.22971E-01        -0.63599E-03         0.00000E+00
    0.20988E-01        -0.54495E-03         0.00000E+00
    0.18981E-01        -0.46083E-03         0.00000E+00
    0.16952E-01        -0.38360E-03         0.00000E+00
    0.14901E-01        -0.31317E-03         0.00000E+00
    0.12829E-01        -0.24946E-03         0.00000E+00
    0.10736E-01        -0.19235E-03         0.00000E+00
    0.86246E-02        -0.14171E-03         0.00000E+00
    0.64943E-02        -0.97366E-04         0.00000E+00
    0.43462E-02        -0.59120E-04         0.00000E+00
    0.21812E-02        -0.26750E-04         0.00000E+00
    0.00000E+00         0.00000E+00         0.00000E+00
    0.75616E-01        -0.11201E-01         0.00000E+00
    0.75093E-01        -0.10844E-01         0.00000E+00
    0.74521E-01        -0.10487E-01         0.00000E+00
    0.73901E-01        -0.10132E-01         0.00000E+00
    0.73233E-01        -0.97791E-02         0.00000E+00
    0.72517E-01        -0.94283E-02         0.00000E+00
    0.71753E-01        -0.90800E-02         0.00000E+00
    0.70943E-01        -0.87348E-02         0.00000E+00
    0.70085E-01        -0.83930E-02         0.00000E+00
    0.69182E-01        -0.80548E-02         0.00000E+00
    0.68233E-01        -0.77206E-02         0.00000E+00
    0.67238E-01        -0.73907E-02         0.00000E+00
    0.66199E-01        -0.70653E-02         0.00000E+00
    0.65116E-01        -0.67448E-02         0.00000E+00
    0.63989E-01        -0.64295E-02         0.00000E+00
    0.62818E-01        -0.61195E-02         0.00000E+00
    0.61605E-01        -0.58151E-02         0.00000E+00
    0.60350E-01        -0.55166E-02         0.00000E+00
    0.59054E-01        -0.52242E-02         0.00000E+00
    0.57717E-01        -0.49381E-02         0.00000E+00
    0.56340E-01        -0.46585E-02         0.00000E+00
    0.54923E-01        -0.43857E-02         0.00000E+00
    0.53467E-01        -0.41198E-02         0.00000E+00
    0.51973E-01        -0.38610E-02         0.00000E+00
    0.50442E-01        -0.36095E-02         0.00000E+00
    0.48874E-01        -0.33655E-02         0.00000E+00
    0.47270E-01        -0.31292E-02         0.00000E+00
    0.45630E-01        -0.29007E-02         0.00000E+00
    0.43956E-01        -0.26802E-02         0.00000E+00
    0.42248E-01        -0.24677E-02         0.00000E+00
    0.40507E-01        -0.22636E-02         0.00000E+00
    0.38734E-01        -0.20678E-02         0.00000E+00
    0.36929E-01        -0.18806E-02         0.00000E+00
    0.35094E-01        -0.17019E-02         0.00000E+00
    0.33229E-01        -0.15320E-02         0.00000E+00
    0.31334E-01        -0.13708E-02         0.00000E+00
    0.29412E-01        -0.12185E-02         0.00000E+00
    0.27462E-01        -0.10750E-02         0.00000E+00
    0.25485E-01        -0.94050E-03         0.00000E+00
    0.23483E-01        -0.81490E-03         0.00000E+00
    0.21455E-01        -0.69822E-03         0.00000E+00
    0.19404E-01        -0.59042E-03         0.00000E+00
    0.17330E-01        -0.49144E-03         0.00000E+00
    0.15233E-01        -0.40119E-03         0.00000E+00
    0.13114E-01        -0.31955E-03         0.00000E+00
    0.10975E-01        -0.24639E-03         0.00000E+00
    0.88166E-02        -0.18151E-03         0.00000E+00
    0.66388E-02        -0.12470E-03         0.00000E+00
    0.44429E-02        -0.75711E-04         0.00000E+00
    0.22297E-02        -0.34254E-04         0.00000E+00
    0.00000E+00         0.00000E+00         0.00000E+00
    0.77685E-01        -0.13727E-01         0.00000E+00
    0.77147E-01        -0.13289E-01         0.00000E+00
    0.76560E-01        -0.12852E-01         0.00000E+00
    0.75923E-01        -0.12417E-01         0.00000E+00
    0.75236E-01        -0.11984E-01         0.00000E+00
    0.74500E-01        -0.11554E-01         0.00000E+00
    0.73715E-01        -0.11127E-01         0.00000E+00
    0.72882E-01        -0.10704E-01         0.00000E+00
    0.72001E-01        -0.10286E-01         0.00000E+00
    0.71073E-01        -0.98711E-02         0.00000E+00
    0.70098E-01        -0.94616E-02         0.00000E+00
    0.69076E-01        -0.90574E-02         0.00000E+00
    0.68008E-01        -0.86587E-02         0.00000E+00
    0.66895E-01        -0.82660E-02         0.00000E+00
    0.65737E-01        -0.78796E-02         0.00000E+00
    0.64534E-01        -0.74998E-02         0.00000E+00
    0.63288E-01        -0.71268E-02         0.00000E+00
    0.61999E-01        -0.67610E-02         0.00000E+00
    0.60667E-01        -0.64027E-02         0.00000E+00
    0.59293E-01        -0.60521E-02         0.00000E+00
    0.57878E-01        -0.57095E-02         0.00000E+00
    0.56422E-01        -0.53751E-02         0.00000E+00
    0.54927E-01        -0.50493E-02         0.00000E+00
    0.53392E-01        -0.47321E-02         0.00000E+00
    0.51819E-01        -0.44239E-02         0.00000E+00
    0.50208E-01        -0.41249E-02         0.00000E+00
    0.48560E-01        -0.38353E-02         0.00000E+00
    0.46876E-01        -0.35552E-02         0.00000E+00
    0.45156E-01        -0.32849E-02         0.00000E+00
    0.43401E-01        -0.30246E-02         0.00000E+00
    0.41613E-01        -0.27744E-02         0.00000E+00
    0.39791E-01        -0.25345E-02         0.00000E+00
    0.37937E-01        -0.23049E-02         0.00000E+00
    0.36051E-01        -0.20860E-02         0.00000E+00
    0.34135E-01        -0.18777E-02         0.00000E+00
    0.32189E-01        -0.16801E-02         0.00000E+00
    0.30214E-01        -0.14934E-02         0.00000E+00
    0.28210E-01        -0.13176E-02         0.00000E+00
    0.26180E-01        -0.11527E-02         0.00000E+00
    0.24123E-01        -0.99873E-03         0.00000E+00
    0.22040E-01        -0.85571E-03         0.00000E+00
    0.19933E-01        -0.72357E-03         0.00000E+00
    0.17802E-01        -0.60225E-03         0.00000E+00
    0.15648E-01        -0.49164E-03         0.00000E+00
    0.13472E-01        -0.39159E-03         0.00000E+00
    0.11274E-01        -0.30192E-03         0.00000E+00
    0.90566E-02        -0.22241E-03         0.00000E+00
    0.68195E-02        -0.15279E-03         0.00000E+00
    0.45638E-02        -0.92764E-04         0.00000E+00
    0.22904E-02        -0.41967E-04         0.00000E+00
    0.00000E+00         0.00000E+00         0.00000E+00
    0.80180E-01        -0.16330E-01         0.00000E+00
    0.79625E-01        -0.15808E-01         0.00000E+00
    0.79018E-01        -0.15289E-01         0.00000E+00
    0.78360E-01        -0.14771E-01         0.00000E+00
    0.77650E-01        -0.14257E-01         0.00000E+00
    0.76890E-01        -0.13745E-01         0.00000E+00
    0.76080E-01        -0.13238E-01         0.00000E+00
    0.75220E-01        -0.12735E-01         0.00000E+00
    0.74311E-01        -0.12237E-01         0.00000E+00
    0.73352E-01        -0.11744E-01         0.00000E+00
    0.72346E-01        -0.11257E-01         0.00000E+00
    0.71291E-01        -0.10776E-01         0.00000E+00
    0.70189E-01        -0.10302E-01         0.00000E+00
    0.69040E-01        -0.98350E-02         0.00000E+00
    0.67844E-01        -0.93754E-02         0.00000E+00
    0.66603E-01        -0.89236E-02         0.00000E+00
    0.65317E-01        -0.84800E-02         0.00000E+00
    0.63986E-01        -0.80449E-02         0.00000E+00
    0.62611E-01        -0.76187E-02         0.00000E+00
    0.61193E-01        -0.72016E-02         0.00000E+00
    0.59733E-01        -0.67941E-02         0.00000E+00
    0.58230E-01        -0.63963E-02         0.00000E+00
    0.56687E-01        -0.60086E-02         0.00000E+00
    0.55103E-01        -0.56314E-02         0.00000E+00
    0.53479E-01        -0.52647E-02         0.00000E+00
    0.51817E-01        -0.49089E-02         0.00000E+00
    0.50116E-01        -0.45643E-02         0.00000E+00
    0.48377E-01        -0.42311E-02         0.00000E+00
    0.46602E-01        -0.39095E-02         0.00000E+00
    0.44792E-01        -0.35997E-02         0.00000E+00
    0.42946E-01        -0.33020E-02         0.00000E+00
    0.41065E-01        -0.30165E-02         0.00000E+00
    0.39152E-01        -0.27433E-02         0.00000E+00
    0.37206E-01        -0.24827E-02         0.00000E+00
    0.35228E-01        -0.22348E-02         0.00000E+00
    0.33220E-01        -0.19997E-02         0.00000E+00
    0.31181E-01        -0.17775E-02         0.00000E+00
    0.29114E-01        -0.15682E-02         0.00000E+00
    0.27018E-01        -0.13720E-02         0.00000E+00
    0.24895E-01        -0.11887E-02         0.00000E+00
    0.22745E-01        -0.10185E-02         0.00000E+00
    0.20571E-01        -0.86123E-03         0.00000E+00
    0.18371E-01        -0.71683E-03         0.00000E+00
    0.16148E-01        -0.58516E-03         0.00000E+00
    0.13902E-01        -0.46607E-03         0.00000E+00
    0.11635E-01        -0.35934E-03         0.00000E+00
    0.93461E-02        -0.26470E-03         0.00000E+00
    0.70375E-02        -0.18185E-03         0.00000E+00
    0.47096E-02        -0.11040E-03         0.00000E+00
    0.23635E-02        -0.49945E-04         0.00000E+00
    0.00000E+00         0.00000E+00         0.00000E+00
    0.83114E-01        -0.19025E-01         0.00000E+00
    0.82538E-01        -0.18418E-01         0.00000E+00
    0.81909E-01        -0.17813E-01         0.00000E+00
    0.81226E-01        -0.17210E-01         0.00000E+00
    0.80490E-01        -0.16611E-01         0.00000E+00
    0.79702E-01        -0.16015E-01         0.00000E+00
    0.78862E-01        -0.15424E-01         0.00000E+00
    0.77970E-01        -0.14839E-01         0.00000E+00
    0.77027E-01        -0.14258E-01         0.00000E+00
    0.76033E-01        -0.13685E-01         0.00000E+00
    0.74989E-01        -0.13117E-01         0.00000E+00
    0.73896E-01        -0.12557E-01         0.00000E+00
    0.72753E-01        -0.12005E-01         0.00000E+00
    0.71562E-01        -0.11461E-01         0.00000E+00
    0.70322E-01        -0.10926E-01         0.00000E+00
    0.69036E-01        -0.10400E-01         0.00000E+00
    0.67703E-01        -0.98831E-02         0.00000E+00
    0.66323E-01        -0.93763E-02         0.00000E+00
    0.64898E-01        -0.88798E-02         0.00000E+00
    0.63428E-01        -0.83940E-02         0.00000E+00
    0.61915E-01        -0.79192E-02         0.00000E+00
    0.60357E-01        -0.74558E-02         0.00000E+00
    0.58757E-01        -0.70042E-02         0.00000E+00
    0.57116E-01        -0.65646E-02         0.00000E+00
    0.55433E-01        -0.61373E-02         0.00000E+00
    0.53709E-01        -0.57228E-02         0.00000E+00
    0.51946E-01        -0.53212E-02         0.00000E+00
    0.50144E-01        -0.49329E-02         0.00000E+00
    0.48305E-01        -0.45581E-02         0.00000E+00
    0.46428E-01        -0.41970E-02         0.00000E+00
    0.44514E-01        -0.38500E-02         0.00000E+00
    0.42565E-01        -0.35172E-02         0.00000E+00
    0.40582E-01        -0.31988E-02         0.00000E+00
    0.38565E-01        -0.28950E-02         0.00000E+00
    0.36515E-01        -0.26060E-02         0.00000E+00
    0.34433E-01        -0.23319E-02         0.00000E+00
    0.32320E-01        -0.20728E-02         0.00000E+00
    0.30177E-01        -0.18288E-02         0.00000E+00
    0.28004E-01        -0.16000E-02         0.00000E+00
    0.25804E-01        -0.13863E-02         0.00000E+00
    0.23576E-01        -0.11878E-02         0.00000E+00
    0.21321E-01        -0.10044E-02         0.00000E+00
    0.19042E-01        -0.83600E-03         0.00000E+00
    0.16737E-01        -0.68245E-03         0.00000E+00
    0.14410E-01        -0.54356E-03         0.00000E+00
    0.12059E-01        -0.41908E-03         0.00000E+00
    0.96869E-02        -0.30871E-03         0.00000E+00
    0.72940E-02        -0.21208E-03         0.00000E+00
    0.48813E-02        -0.12875E-03         0.00000E+00
    0.24497E-02        -0.58246E-04         0.00000E+00
    0.00000E+00         0.00000E+00         0.00000E+00
    0.86504E-01        -0.21828E-01         0.00000E+00
    0.85903E-01        -0.21132E-01         0.00000E+00
    0.85247E-01        -0.20438E-01         0.00000E+00
    0.84536E-01        -0.19747E-01         0.00000E+00
    0.83770E-01        -0.19060E-01         0.00000E+00
    0.82949E-01        -0.18377E-01         0.00000E+00
    0.82074E-01        -0.17700E-01         0.00000E+00
    0.81145E-01        -0.17028E-01         0.00000E+00
    0.80164E-01        -0.16363E-01         0.00000E+00
    0.79129E-01        -0.15705E-01         0.00000E+00
    0.78042E-01        -0.15054E-01         0.00000E+00
    0.76904E-01        -0.14412E-01         0.00000E+00
    0.75715E-01        -0.13779E-01         0.00000E+00
    0.74475E-01        -0.13155E-01         0.00000E+00
    0.73185E-01        -0.12541E-01         0.00000E+00
    0.71846E-01        -0.11938E-01         0.00000E+00
    0.70459E-01        -0.11345E-01         0.00000E+00
    0.69023E-01        -0.10764E-01         0.00000E+00
    0.67540E-01        -0.10194E-01         0.00000E+00
    0.66011E-01        -0.96370E-02         0.00000E+00
    0.64436E-01        -0.90923E-02         0.00000E+00
    0.62815E-01        -0.85607E-02         0.00000E+00
    0.61150E-01        -0.80424E-02         0.00000E+00
    0.59442E-01        -0.75380E-02         0.00000E+00
    0.57690E-01        -0.70477E-02         0.00000E+00
    0.55897E-01        -0.65720E-02         0.00000E+00
    0.54062E-01        -0.61111E-02         0.00000E+00
    0.52187E-01        -0.56654E-02         0.00000E+00
    0.50272E-01        -0.52352E-02         0.00000E+00
    0.48319E-01        -0.48207E-02         0.00000E+00
    0.46328E-01        -0.44223E-02         0.00000E+00
    0.44300E-01        -0.40402E-02         0.00000E+00
    0.42235E-01        -0.36746E-02         0.00000E+00
    0.40136E-01        -0.33258E-02         0.00000E+00
    0.38003E-01        -0.29939E-02         0.00000E+00
    0.35836E-01        -0.26791E-02         0.00000E+00
    0.33637E-01        -0.23815E-02         0.00000E+00
    0.31406E-01        -0.21012E-02         0.00000E+00
    0.29145E-01        -0.18384E-02         0.00000E+00
    0.26855E-01        -0.15929E-02         0.00000E+00
    0.24536E-01        -0.13649E-02         0.00000E+00
    0.22190E-01        -0.11542E-02         0.00000E+00
    0.19817E-01        -0.96068E-03         0.00000E+00
    0.17419E-01        -0.78425E-03         0.00000E+00
    0.14996E-01        -0.62466E-03         0.00000E+00
    0.12550E-01        -0.48162E-03         0.00000E+00
    0.10081E-01        -0.35478E-03         0.00000E+00
    0.75909E-02        -0.24373E-03         0.00000E+00
    0.50799E-02        -0.14797E-03         0.00000E+00
    0.25493E-02        -0.66939E-04         0.00000E+00
    0.00000E+00         0.00000E+00         0.00000E+00
    0.90366E-01        -0.24755E-01         0.00000E+00
    0.89738E-01        -0.23967E-01         0.00000E+00
    0.89051E-01        -0.23181E-01         0.00000E+00
    0.88308E-01        -0.22398E-01         0.00000E+00
    0.87506E-01        -0.21619E-01         0.00000E+00
    0.86648E-01        -0.20846E-01         0.00000E+00
    0.85734E-01        -0.20078E-01         0.00000E+00
    0.84764E-01        -0.19317E-01         0.00000E+00
    0.83738E-01        -0.18563E-01         0.00000E+00
    0.82657E-01        -0.17817E-01         0.00000E+00
    0.81522E-01        -0.17080E-01         0.00000E+00
    0.80333E-01        -0.16352E-01         0.00000E+00
    0.79091E-01        -0.15635E-01         0.00000E+00
    0.77796E-01        -0.14928E-01         0.00000E+00
    0.76448E-01        -0.14232E-01         0.00000E+00
    0.75050E-01        -0.13548E-01         0.00000E+00
    0.73601E-01        -0.12876E-01         0.00000E+00
    0.72101E-01        -0.12217E-01         0.00000E+00
    0.70553E-01        -0.11571E-01         0.00000E+00
    0.68955E-01        -0.10939E-01         0.00000E+00
    0.67310E-01        -0.10321E-01         0.00000E+00
    0.65617E-01        -0.97183E-02         0.00000E+00
    0.63879E-01        -0.91306E-02         0.00000E+00
    0.62094E-01        -0.85584E-02         0.00000E+00
    0.60265E-01        -0.80022E-02         0.00000E+00
    0.58392E-01        -0.74625E-02         0.00000E+00
    0.56476E-01        -0.69396E-02         0.00000E+00
    0.54517E-01        -0.64338E-02         0.00000E+00
    0.52517E-01        -0.59456E-02         0.00000E+00
    0.50477E-01        -0.54752E-02         0.00000E+00
    0.48397E-01        -0.50230E-02         0.00000E+00
    0.46279E-01        -0.45893E-02         0.00000E+00
    0.44123E-01        -0.41743E-02         0.00000E+00
    0.41930E-01        -0.37782E-02         0.00000E+00
    0.39701E-01        -0.34014E-02         0.00000E+00
    0.37438E-01        -0.30439E-02         0.00000E+00
    0.35140E-01        -0.27059E-02         0.00000E+00
    0.32810E-01        -0.23876E-02         0.00000E+00
    0.30448E-01        -0.20891E-02         0.00000E+00
    0.28056E-01        -0.18102E-02         0.00000E+00
    0.25633E-01        -0.15511E-02         0.00000E+00
    0.23182E-01        -0.13117E-02         0.00000E+00
    0.20703E-01        -0.10919E-02         0.00000E+00
    0.18198E-01        -0.89139E-03         0.00000E+00
    0.15667E-01        -0.71002E-03         0.00000E+00
    0.13111E-01        -0.54745E-03         0.00000E+00
    0.10532E-01        -0.40329E-03         0.00000E+00
    0.79301E-02        -0.27706E-03         0.00000E+00
    0.53069E-02        -0.16821E-03         0.00000E+00
    0.26632E-02        -0.76096E-04         0.00000E+00
    0.00000E+00         0.00000E+00         0.00000E+00
    0.94721E-01        -0.27824E-01         0.00000E+00
    0.94061E-01        -0.26939E-01         0.00000E+00
    0.93341E-01        -0.26056E-01         0.00000E+00
    0.92561E-01        -0.25178E-01         0.00000E+00
    0.91720E-01        -0.24304E-01         0.00000E+00
    0.90821E-01        -0.23435E-01         0.00000E+00
    0.89862E-01        -0.22573E-01         0.00000E+00
    0.88844E-01        -0.21719E-01         0.00000E+00
    0.87769E-01        -0.20872E-01         0.00000E+00
    0.86636E-01        -0.20035E-01         0.00000E+00
    0.85446E-01        -0.19207E-01         0.00000E+00
    0.84200E-01        -0.18390E-01         0.00000E+00
    0.82898E-01        -0.17584E-01         0.00000E+00
    0.81541E-01        -0.16790E-01         0.00000E+00
    0.80130E-01        -0.16008E-01         0.00000E+00
    0.78664E-01        -0.15240E-01         0.00000E+00
    0.77146E-01        -0.14485E-01         0.00000E+00
    0.75575E-01        -0.13744E-01         0.00000E+00
    0.73952E-01        -0.13019E-01         0.00000E+00
    0.72278E-01        -0.12309E-01         0.00000E+00
    0.70554E-01        -0.11614E-01         0.00000E+00
    0.68781E-01        -0.10937E-01         0.00000E+00
    0.66959E-01        -0.10276E-01         0.00000E+00
    0.65089E-01        -0.96328E-02         0.00000E+00
    0.63172E-01        -0.90075E-02         0.00000E+00
    0.61209E-01        -0.84007E-02         0.00000E+00
    0.59201E-01        -0.78126E-02         0.00000E+00
    0.57149E-01        -0.72438E-02         0.00000E+00
    0.55053E-01        -0.66946E-02         0.00000E+00
    0.52915E-01        -0.61655E-02         0.00000E+00
    0.50735E-01        -0.56567E-02         0.00000E+00
    0.48515E-01        -0.51686E-02         0.00000E+00
    0.46255E-01        -0.47016E-02         0.00000E+00
    0.43957E-01        -0.42558E-02         0.00000E+00
    0.41621E-01        -0.38316E-02         0.00000E+00
    0.39248E-01        -0.34292E-02         0.00000E+00
    0.36840E-01        -0.30487E-02         0.00000E+00
    0.34397E-01        -0.26903E-02         0.00000E+00
    0.31922E-01        -0.23540E-02         0.00000E+00
    0.29413E-01        -0.20400E-02         0.00000E+00
    0.26874E-01        -0.17481E-02         0.00000E+00
    0.24304E-01        -0.14784E-02         0.00000E+00
    0.21705E-01        -0.12307E-02         0.00000E+00
    0.19079E-01        -0.10048E-02         0.00000E+00
    0.16425E-01        -0.80039E-03         0.00000E+00
    0.13746E-01        -0.61716E-03         0.00000E+00
    0.11042E-01        -0.45466E-03         0.00000E+00
    0.83140E-02        -0.31236E-03         0.00000E+00
    0.55638E-02        -0.18965E-03         0.00000E+00
    0.27921E-02        -0.85796E-04         0.00000E+00
    0.00000E+00         0.00000E+00         0.00000E+00
    0.99592E-01        -0.31052E-01         0.00000E+00
    0.98897E-01        -0.30066E-01         0.00000E+00
    0.98139E-01        -0.29083E-01         0.00000E+00
    0.97317E-01        -0.28103E-01         0.00000E+00
    0.96433E-01        -0.27129E-01         0.00000E+00
    0.95486E-01        -0.26161E-01         0.00000E+00
    0.94478E-01        -0.25201E-01         0.00000E+00
    0.93408E-01        -0.24248E-01         0.00000E+00
    0.92278E-01        -0.23305E-01         0.00000E+00
    0.91087E-01        -0.22371E-01         0.00000E+00
    0.89836E-01        -0.21449E-01         0.00000E+00
    0.88526E-01        -0.20538E-01         0.00000E+00
    0.87158E-01        -0.19639E-01         0.00000E+00
    0.85732E-01        -0.18754E-01         0.00000E+00
    0.84249E-01        -0.17882E-01         0.00000E+00
    0.82709E-01        -0.17025E-01         0.00000E+00
    0.81113E-01        -0.16183E-01         0.00000E+00
    0.79462E-01        -0.15357E-01         0.00000E+00
    0.77757E-01        -0.14548E-01         0.00000E+00
    0.75998E-01        -0.13755E-01         0.00000E+00
    0.74187E-01        -0.12981E-01         0.00000E+00
    0.72323E-01        -0.12224E-01         0.00000E+00
    0.70408E-01        -0.11487E-01         0.00000E+00
    0.68443E-01        -0.10769E-01         0.00000E+00
    0.66429E-01        -0.10071E-01         0.00000E+00
    0.64366E-01        -0.93932E-02         0.00000E+00
    0.62255E-01        -0.87364E-02         0.00000E+00
    0.60098E-01        -0.81011E-02         0.00000E+00
    0.57895E-01        -0.74877E-02         0.00000E+00
    0.55648E-01        -0.68965E-02         0.00000E+00
    0.53356E-01        -0.63280E-02         0.00000E+00
    0.51022E-01        -0.57826E-02         0.00000E+00
    0.48646E-01        -0.52606E-02         0.00000E+00
    0.46230E-01        -0.47623E-02         0.00000E+00
    0.43774E-01        -0.42880E-02         0.00000E+00
    0.41279E-01        -0.38380E-02         0.00000E+00
    0.38747E-01        -0.34125E-02         0.00000E+00
    0.36179E-01        -0.30116E-02         0.00000E+00
    0.33575E-01        -0.26354E-02         0.00000E+00
    0.30937E-01        -0.22840E-02         0.00000E+00
    0.28266E-01        -0.19575E-02         0.00000E+00
    0.25564E-01        -0.16556E-02         0.00000E+00
    0.22831E-01        -0.13783E-02         0.00000E+00
    0.20068E-01        -0.11254E-02         0.00000E+00
    0.17277E-01        -0.89653E-03         0.00000E+00
    0.14459E-01        -0.69134E-03         0.00000E+00
    0.11614E-01        -0.50934E-03         0.00000E+00
    0.87452E-02        -0.34995E-03         0.00000E+00
    0.58523E-02        -0.21248E-03         0.00000E+00
    0.29369E-02        -0.96128E-04         0.00000E+00
    0.00000E+00         0.00000E+00         0.00000E+00
    0.10500E+00        -0.34458E-01         0.00000E+00
    0.10427E+00        -0.33366E-01         0.00000E+00
    0.10347E+00        -0.32277E-01         0.00000E+00
    0.10260E+00        -0.31192E-01         0.00000E+00
    0.10167E+00        -0.30113E-01         0.00000E+00
    0.10067E+00        -0.29041E-01         0.00000E+00
    0.99607E-01        -0.27976E-01         0.00000E+00
    0.98479E-01        -0.26921E-01         0.00000E+00
    0.97288E-01        -0.25876E-01         0.00000E+00
    0.96033E-01        -0.24842E-01         0.00000E+00
    0.94715E-01        -0.23819E-01         0.00000E+00
    0.93335E-01        -0.22809E-01         0.00000E+00
    0.91893E-01        -0.21813E-01         0.00000E+00
    0.90391E-01        -0.20832E-01         0.00000E+00
    0.88828E-01        -0.19865E-01         0.00000E+00
    0.87206E-01        -0.18915E-01         0.00000E+00
    0.85525E-01        -0.17981E-01         0.00000E+00
    0.83786E-01        -0.17065E-01         0.00000E+00
    0.81989E-01        -0.16168E-01         0.00000E+00
    0.80137E-01        -0.15289E-01         0.00000E+00
    0.78228E-01        -0.14429E-01         0.00000E+00
    0.76265E-01        -0.13590E-01         0.00000E+00
    0.74247E-01        -0.12771E-01         0.00000E+00
    0.72177E-01        -0.11974E-01         0.00000E+00
    0.70054E-01        -0.11199E-01         0.00000E+00
    0.67880E-01        -0.10447E-01         0.00000E+00
    0.65656E-01        -0.97178E-02         0.00000E+00
    0.63383E-01        -0.90121E-02         0.00000E+00
    0.61061E-01        -0.83306E-02         0.00000E+00
    0.58692E-01        -0.76738E-02         0.00000E+00
    0.56277E-01        -0.70421E-02         0.00000E+00
    0.53816E-01        -0.64358E-02         0.00000E+00
    0.51312E-01        -0.58556E-02         0.00000E+00
    0.48764E-01        -0.53015E-02         0.00000E+00
    0.46174E-01        -0.47741E-02         0.00000E+00
    0.43544E-01        -0.42736E-02         0.00000E+00
    0.40874E-01        -0.38002E-02         0.00000E+00
    0.38165E-01        -0.33542E-02         0.00000E+00
    0.35419E-01        -0.29356E-02         0.00000E+00
    0.32637E-01        -0.25445E-02         0.00000E+00
    0.29820E-01        -0.21809E-02         0.00000E+00
    0.26970E-01        -0.18448E-02         0.00000E+00
    0.24087E-01        -0.15360E-02         0.00000E+00
    0.21172E-01        -0.12543E-02         0.00000E+00
    0.18228E-01        -0.99930E-03         0.00000E+00
    0.15255E-01        -0.77066E-03         0.00000E+00
    0.12254E-01        -0.56783E-03         0.00000E+00
    0.92269E-02        -0.39016E-03         0.00000E+00
    0.61748E-02        -0.23691E-03         0.00000E+00
    0.30987E-02        -0.10719E-03         0.00000E+00
    0.00000E+00         0.00000E+00         0.00000E+00
    0.11098E+00        -0.38062E-01         0.00000E+00
    0.11020E+00        -0.36857E-01         0.00000E+00
    0.10936E+00        -0.35657E-01         0.00000E+00
    0.10844E+00        -0.34461E-01         0.00000E+00
    0.10745E+00        -0.33272E-01         0.00000E+00
    0.10640E+00        -0.32090E-01         0.00000E+00
    0.10527E+00        -0.30917E-01         0.00000E+00
    0.10408E+00        -0.29753E-01         0.00000E+00
    0.10282E+00        -0.28600E-01         0.00000E+00
    0.10150E+00        -0.27460E-01         0.00000E+00
    0.10011E+00        -0.26332E-01         0.00000E+00
    0.98651E-01        -0.25219E-01         0.00000E+00
    0.97129E-01        -0.24120E-01         0.00000E+00
    0.95543E-01        -0.23037E-01         0.00000E+00
    0.93893E-01        -0.21971E-01         0.00000E+00
    0.92180E-01        -0.20922E-01         0.00000E+00
    0.90405E-01        -0.19892E-01         0.00000E+00
    0.88569E-01        -0.18880E-01         0.00000E+00
    0.86673E-01        -0.17889E-01         0.00000E+00
    0.84716E-01        -0.16919E-01         0.00000E+00
    0.82701E-01        -0.15969E-01         0.00000E+00
    0.80628E-01        -0.15042E-01         0.00000E+00
    0.78498E-01        -0.14138E-01         0.00000E+00
    0.76311E-01        -0.13258E-01         0.00000E+00
    0.74070E-01        -0.12401E-01         0.00000E+00
    0.71774E-01        -0.11570E-01         0.00000E+00
    0.69424E-01        -0.10763E-01         0.00000E+00
    0.67023E-01        -0.99831E-02         0.00000E+00
    0.64570E-01        -0.92294E-02         0.00000E+00
    0.62067E-01        -0.85029E-02         0.00000E+00
    0.59515E-01        -0.78039E-02         0.00000E+00
    0.56915E-01        -0.71331E-02         0.00000E+00
    0.54268E-01        -0.64909E-02         0.00000E+00
    0.51575E-01        -0.58776E-02         0.00000E+00
    0.48838E-01        -0.52936E-02         0.00000E+00
    0.46057E-01        -0.47393E-02         0.00000E+00
    0.43234E-01        -0.42149E-02         0.00000E+00
    0.40371E-01        -0.37207E-02         0.00000E+00
    0.37467E-01        -0.32568E-02         0.00000E+00
    0.34526E-01        -0.28233E-02         0.00000E+00
    0.31547E-01        -0.24202E-02         0.00000E+00
    0.28532E-01        -0.20475E-02         0.00000E+00
    0.25482E-01        -0.17050E-02         0.00000E+00
    0.22400E-01        -0.13925E-02         0.00000E+00
    0.19285E-01        -0.11096E-02         0.00000E+00
    0.16140E-01        -0.85580E-03         0.00000E+00
    0.12965E-01        -0.63063E-03         0.00000E+00
    0.97627E-02        -0.43336E-03         0.00000E+00
    0.65334E-02        -0.26315E-03         0.00000E+00
    0.32788E-02        -0.11907E-03         0.00000E+00
    0.00000E+00         0.00000E+00         0.00000E+00
    0.11755E+00        -0.41881E-01         0.00000E+00
    0.11673E+00        -0.40560E-01         0.00000E+00
    0.11583E+00        -0.39242E-01         0.00000E+00
    0.11486E+00        -0.37929E-01         0.00000E+00
    0.11381E+00        -0.36623E-01         0.00000E+00
    0.11270E+00        -0.35326E-01         0.00000E+00
    0.11151E+00        -0.34037E-01         0.00000E+00
    0.11025E+00        -0.32760E-01         0.00000E+00
    0.10892E+00        -0.31494E-01         0.00000E+00
    0.10751E+00        -0.30241E-01         0.00000E+00
    0.10604E+00        -0.29003E-01         0.00000E+00
    0.10450E+00        -0.27779E-01         0.00000E+00
    0.10289E+00        -0.26572E-01         0.00000E+00
    0.10121E+00        -0.25382E-01         0.00000E+00
    0.99470E-01        -0.24210E-01         0.00000E+00
    0.97658E-01        -0.23058E-01         0.00000E+00
    0.95781E-01        -0.21925E-01         0.00000E+00
    0.93839E-01        -0.20813E-01         0.00000E+00
    0.91833E-01        -0.19723E-01         0.00000E+00
    0.89764E-01        -0.18655E-01         0.00000E+00
    0.87632E-01        -0.17611E-01         0.00000E+00
    0.85438E-01        -0.16591E-01         0.00000E+00
    0.83185E-01        -0.15596E-01         0.00000E+00
    0.80871E-01        -0.14627E-01         0.00000E+00
    0.78499E-01        -0.13684E-01         0.00000E+00
    0.76069E-01        -0.12768E-01         0.00000E+00
    0.73582E-01        -0.11880E-01         0.00000E+00
    0.71040E-01        -0.11020E-01         0.00000E+00
    0.68443E-01        -0.10190E-01         0.00000E+00
    0.65793E-01        -0.93892E-02         0.00000E+00
    0.63091E-01        -0.86187E-02         0.00000E+00
    0.60337E-01        -0.78791E-02         0.00000E+00
    0.57534E-01        -0.71708E-02         0.00000E+00
    0.54681E-01        -0.64943E-02         0.00000E+00
    0.51782E-01        -0.58500E-02         0.00000E+00
    0.48836E-01        -0.52383E-02         0.00000E+00
    0.45845E-01        -0.46595E-02         0.00000E+00
    0.42810E-01        -0.41138E-02         0.00000E+00
    0.39733E-01        -0.36015E-02         0.00000E+00
    0.36615E-01        -0.31227E-02         0.00000E+00
    0.33457E-01        -0.26773E-02         0.00000E+00
    0.30261E-01        -0.22654E-02         0.00000E+00
    0.27028E-01        -0.18867E-02         0.00000E+00
    0.23759E-01        -0.15411E-02         0.00000E+00
    0.20456E-01        -0.12282E-02         0.00000E+00
    0.17121E-01        -0.94743E-03         0.00000E+00
    0.13754E-01        -0.69824E-03         0.00000E+00
    0.10357E-01        -0.47988E-03         0.00000E+00
    0.69311E-02        -0.29143E-03         0.00000E+00
    0.34784E-02        -0.13187E-03         0.00000E+00
    0.00000E+00         0.00000E+00         0.00000E+00
    0.12475E+00        -0.45937E-01         0.00000E+00
    0.12387E+00        -0.44491E-01         0.00000E+00
    0.12292E+00        -0.43049E-01         0.00000E+00
    0.12189E+00        -0.41614E-01         0.00000E+00
    0.12078E+00        -0.40185E-01         0.00000E+00
    0.11960E+00        -0.38765E-01         0.00000E+00
    0.11834E+00        -0.37356E-01         0.00000E+00
    0.11700E+00        -0.35957E-01         0.00000E+00
    0.11559E+00        -0.34572E-01         0.00000E+00
    0.11411E+00        -0.33201E-01         0.00000E+00
    0.11255E+00        -0.31845E-01         0.00000E+00
    0.11092E+00        -0.30505E-01         0.00000E+00
    0.10921E+00        -0.29183E-01         0.00000E+00
    0.10744E+00        -0.27880E-01         0.00000E+00
    0.10559E+00        -0.26596E-01         0.00000E+00
    0.10367E+00        -0.25333E-01         0.00000E+00
    0.10168E+00        -0.24092E-01         0.00000E+00
    0.99624E-01        -0.22873E-01         0.00000E+00
    0.97499E-01        -0.21678E-01         0.00000E+00
    0.95306E-01        -0.20508E-01         0.00000E+00
    0.93047E-01        -0.19363E-01         0.00000E+00
    0.90723E-01        -0.18244E-01         0.00000E+00
    0.88334E-01        -0.17152E-01         0.00000E+00
    0.85882E-01        -0.16089E-01         0.00000E+00
    0.83367E-01        -0.15054E-01         0.00000E+00
    0.80791E-01        -0.14049E-01         0.00000E+00
    0.78154E-01        -0.13074E-01         0.00000E+00
    0.75458E-01        -0.12130E-01         0.00000E+00
    0.72704E-01        -0.11218E-01         0.00000E+00
    0.69893E-01        -0.10338E-01         0.00000E+00
    0.67026E-01        -0.94912E-02         0.00000E+00
    0.64105E-01        -0.86782E-02         0.00000E+00
    0.61130E-01        -0.78994E-02         0.00000E+00
    0.58103E-01        -0.71555E-02         0.00000E+00
    0.55025E-01        -0.64467E-02         0.00000E+00
    0.51897E-01        -0.57737E-02         0.00000E+00
    0.48722E-01        -0.51367E-02         0.00000E+00
    0.45499E-01        -0.45360E-02         0.00000E+00
    0.42231E-01        -0.39718E-02         0.00000E+00
    0.38919E-01        -0.34444E-02         0.00000E+00
    0.35565E-01        -0.29537E-02         0.00000E+00
    0.32169E-01        -0.24997E-02         0.00000E+00
    0.28734E-01        -0.20823E-02         0.00000E+00
    0.25260E-01        -0.17012E-02         0.00000E+00
    0.21750E-01        -0.13560E-02         0.00000E+00
    0.18204E-01        -0.10462E-02         0.00000E+00
    0.14625E-01        -0.77115E-03         0.00000E+00
    0.11013E-01        -0.53006E-03         0.00000E+00
    0.73708E-02        -0.32194E-03         0.00000E+00
    0.36992E-02        -0.14569E-03         0.00000E+00
    0.00000E+00         0.00000E+00         0.00000E+00
    0.13261E+00        -0.50247E-01         0.00000E+00
    0.13168E+00        -0.48670E-01         0.00000E+00
    0.13066E+00        -0.47098E-01         0.00000E+00
    0.12957E+00        -0.45532E-01         0.00000E+00
    0.12839E+00        -0.43973E-01         0.00000E+00
    0.12714E+00        -0.42424E-01         0.00000E+00
    0.12580E+00        -0.40886E-01         0.00000E+00
    0.12439E+00        -0.39361E-01         0.00000E+00
    0.12289E+00        -0.37849E-01         0.00000E+00
    0.12132E+00        -0.36352E-01         0.00000E+00
    0.11966E+00        -0.34872E-01         0.00000E+00
    0.11793E+00        -0.33409E-01         0.00000E+00
    0.11612E+00        -0.31966E-01         0.00000E+00
    0.11424E+00        -0.30542E-01         0.00000E+00
    0.11228E+00        -0.29140E-01         0.00000E+00
    0.11025E+00        -0.27760E-01         0.00000E+00
    0.10814E+00        -0.26403E-01         0.00000E+00
    0.10596E+00        -0.25071E-01         0.00000E+00
    0.10370E+00        -0.23765E-01         0.00000E+00
    0.10137E+00        -0.22485E-01         0.00000E+00
    0.98978E-01        -0.21233E-01         0.00000E+00
    0.96511E-01        -0.20009E-01         0.00000E+00
    0.93976E-01        -0.18815E-01         0.00000E+00
    0.91373E-01        -0.17651E-01         0.00000E+00
    0.88703E-01        -0.16518E-01         0.00000E+00
    0.85968E-01        -0.15418E-01         0.00000E+00
    0.83168E-01        -0.14350E-01         0.00000E+00
    0.80304E-01        -0.13316E-01         0.00000E+00
    0.77379E-01        -0.12317E-01         0.00000E+00
    0.74392E-01        -0.11353E-01         0.00000E+00
    0.71346E-01        -0.10425E-01         0.00000E+00
    0.68241E-01        -0.95340E-02         0.00000E+00
    0.65078E-01        -0.86801E-02         0.00000E+00
    0.61860E-01        -0.78641E-02         0.00000E+00
    0.58587E-01        -0.70866E-02         0.00000E+00
    0.55261E-01        -0.63480E-02         0.00000E+00
    0.51884E-01        -0.56487E-02         0.00000E+00
    0.48456E-01        -0.49892E-02         0.00000E+00
    0.44979E-01        -0.43696E-02         0.00000E+00
    0.41454E-01        -0.37901E-02         0.00000E+00
    0.37884E-01        -0.32509E-02         0.00000E+00
    0.34269E-01        -0.27518E-02         0.00000E+00
    0.30612E-01        -0.22928E-02         0.00000E+00
    0.26913E-01        -0.18735E-02         0.00000E+00
    0.23174E-01        -0.14936E-02         0.00000E+00
    0.19398E-01        -0.11526E-02         0.00000E+00
    0.15585E-01        -0.84976E-03         0.00000E+00
    0.11737E-01        -0.58418E-03         0.00000E+00
    0.78557E-02        -0.35486E-03         0.00000E+00
    0.39428E-02        -0.16059E-03         0.00000E+00
    0.00000E+00         0.00000E+00         0.00000E+00
    0.14116E+00        -0.54830E-01         0.00000E+00
    0.14017E+00        -0.53115E-01         0.00000E+00
    0.13909E+00        -0.51404E-01         0.00000E+00
    0.13793E+00        -0.49700E-01         0.00000E+00
    0.13668E+00        -0.48004E-01         0.00000E+00
    0.13535E+00        -0.46318E-01         0.00000E+00
    0.13393E+00        -0.44644E-01         0.00000E+00
    0.13243E+00        -0.42983E-01         0.00000E+00
    0.13084E+00        -0.41337E-01         0.00000E+00
    0.12917E+00        -0.39707E-01         0.00000E+00
    0.12742E+00        -0.38095E-01         0.00000E+00
    0.12558E+00        -0.36502E-01         0.00000E+00
    0.12366E+00        -0.34929E-01         0.00000E+00
    0.12166E+00        -0.33378E-01         0.00000E+00
    0.11958E+00        -0.31850E-01         0.00000E+00
    0.11742E+00        -0.30346E-01         0.00000E+00
    0.11518E+00        -0.28867E-01         0.00000E+00
    0.11287E+00        -0.27414E-01         0.00000E+00
    0.11047E+00        -0.25990E-01         0.00000E+00
    0.10800E+00        -0.24594E-01         0.00000E+00
    0.10546E+00        -0.23227E-01         0.00000E+00
    0.10284E+00        -0.21892E-01         0.00000E+00
    0.10014E+00        -0.20588E-01         0.00000E+00
    0.97375E-01        -0.19318E-01         0.00000E+00
    0.94537E-01        -0.18081E-01         0.00000E+00
    0.91628E-01        -0.16879E-01         0.00000E+00
    0.88651E-01        -0.15713E-01         0.00000E+00
    0.85606E-01        -0.14584E-01         0.00000E+00
    0.82493E-01        -0.13492E-01         0.00000E+00
    0.79316E-01        -0.12438E-01         0.00000E+00
    0.76074E-01        -0.11423E-01         0.00000E+00
    0.72769E-01        -0.10449E-01         0.00000E+00
    0.69403E-01        -0.95149E-02         0.00000E+00
    0.65976E-01        -0.86222E-02         0.00000E+00
    0.62491E-01        -0.77713E-02         0.00000E+00
    0.58949E-01        -0.69628E-02         0.00000E+00
    0.55350E-01        -0.61971E-02         0.00000E+00
    0.51698E-01        -0.54747E-02         0.00000E+00
    0.47992E-01        -0.47959E-02         0.00000E+00
    0.44236E-01        -0.41608E-02         0.00000E+00
    0.40429E-01        -0.35696E-02         0.00000E+00
    0.36575E-01        -0.30223E-02         0.00000E+00
    0.32674E-01        -0.25187E-02         0.00000E+00
    0.28729E-01        -0.20586E-02         0.00000E+00
    0.24740E-01        -0.16416E-02         0.00000E+00
    0.20710E-01        -0.12671E-02         0.00000E+00
    0.16641E-01        -0.93430E-03         0.00000E+00
    0.12533E-01        -0.64241E-03         0.00000E+00
    0.83893E-02        -0.39029E-03         0.00000E+00
    0.42110E-02        -0.17665E-03         0.00000E+00
    0.00000E+00         0.00000E+00         0.00000E+00
    0.15044E+00        -0.59702E-01         0.00000E+00
    0.14939E+00        -0.57840E-01         0.00000E+00
    0.14824E+00        -0.55982E-01         0.00000E+00
    0.14701E+00        -0.54132E-01         0.00000E+00
    0.14569E+00        -0.52290E-01         0.00000E+00
    0.14427E+00        -0.50459E-01         0.00000E+00
    0.14277E+00        -0.48640E-01         0.00000E+00
    0.14117E+00        -0.46836E-01         0.00000E+00
    0.13949E+00        -0.45047E-01         0.00000E+00
    0.13771E+00        -0.43276E-01         0.00000E+00
    0.13585E+00        -0.41524E-01         0.00000E+00
    0.13390E+00        -0.39792E-01         0.00000E+00
    0.13186E+00        -0.38082E-01         0.00000E+00
    0.12974E+00        -0.36395E-01         0.00000E+00
    0.12753E+00        -0.34733E-01         0.00000E+00
    0.12524E+00        -0.33096E-01         0.00000E+00
    0.12286E+00        -0.31487E-01         0.00000E+00
    0.12039E+00        -0.29907E-01         0.00000E+00
    0.11785E+00        -0.28356E-01         0.00000E+00
    0.11522E+00        -0.26837E-01         0.00000E+00
    0.11252E+00        -0.25349E-01         0.00000E+00
    0.10973E+00        -0.23895E-01         0.00000E+00
    0.10686E+00        -0.22476E-01         0.00000E+00
    0.10392E+00        -0.21092E-01         0.00000E+00
    0.10090E+00        -0.19744E-01         0.00000E+00
    0.97803E-01        -0.18435E-01         0.00000E+00
    0.94634E-01        -0.17164E-01         0.00000E+00
    0.91391E-01        -0.15933E-01         0.00000E+00
    0.88076E-01        -0.14742E-01         0.00000E+00
    0.84691E-01        -0.13593E-01         0.00000E+00
    0.81237E-01        -0.12487E-01         0.00000E+00
    0.77716E-01        -0.11423E-01         0.00000E+00
    0.74128E-01        -0.10404E-01         0.00000E+00
    0.70475E-01        -0.94299E-02         0.00000E+00
    0.66758E-01        -0.85010E-02         0.00000E+00
    0.62980E-01        -0.76181E-02         0.00000E+00
    0.59142E-01        -0.67819E-02         0.00000E+00
    0.55244E-01        -0.59926E-02         0.00000E+00
    0.51290E-01        -0.52508E-02         0.00000E+00
    0.47280E-01        -0.45565E-02         0.00000E+00
    0.43216E-01        -0.39100E-02         0.00000E+00
    0.39100E-01        -0.33113E-02         0.00000E+00
    0.34934E-01        -0.27602E-02         0.00000E+00
    0.30719E-01        -0.22565E-02         0.00000E+00
    0.26457E-01        -0.17998E-02         0.00000E+00
    0.22150E-01        -0.13895E-02         0.00000E+00
    0.17799E-01        -0.10248E-02         0.00000E+00
    0.13407E-01        -0.70477E-03         0.00000E+00
    0.89752E-02        -0.42824E-03         0.00000E+00
    0.45056E-02        -0.19384E-03         0.00000E+00
    0.00000E+00         0.00000E+00         0.00000E+00
    0.16049E+00        -0.64876E-01         0.00000E+00
    0.15937E+00        -0.62857E-01         0.00000E+00
    0.15816E+00        -0.60844E-01         0.00000E+00
    0.15685E+00        -0.58837E-01         0.00000E+00
    0.15545E+00        -0.56841E-01         0.00000E+00
    0.15395E+00        -0.54855E-01         0.00000E+00
    0.15235E+00        -0.52883E-01         0.00000E+00
    0.15066E+00        -0.50926E-01         0.00000E+00
    0.14887E+00        -0.48985E-01         0.00000E+00
    0.14698E+00        -0.47064E-01         0.00000E+00
    0.14501E+00        -0.45162E-01         0.00000E+00
    0.14294E+00        -0.43282E-01         0.00000E+00
    0.14077E+00        -0.41426E-01         0.00000E+00
    0.13851E+00        -0.39595E-01         0.00000E+00
    0.13617E+00        -0.37790E-01         0.00000E+00
    0.13373E+00        -0.36014E-01         0.00000E+00
    0.13120E+00        -0.34266E-01         0.00000E+00
    0.12858E+00        -0.32550E-01         0.00000E+00
    0.12587E+00        -0.30865E-01         0.00000E+00
    0.12308E+00        -0.29214E-01         0.00000E+00
    0.12019E+00        -0.27598E-01         0.00000E+00
    0.11723E+00        -0.26018E-01         0.00000E+00
    0.11418E+00        -0.24475E-01         0.00000E+00
    0.11104E+00        -0.22970E-01         0.00000E+00
    0.10782E+00        -0.21506E-01         0.00000E+00
    0.10452E+00        -0.20082E-01         0.00000E+00
    0.10115E+00        -0.18700E-01         0.00000E+00
    0.97690E-01        -0.17361E-01         0.00000E+00
    0.94156E-01        -0.16066E-01         0.00000E+00
    0.90547E-01        -0.14816E-01         0.00000E+00
    0.86862E-01        -0.13612E-01         0.00000E+00
    0.83105E-01        -0.12455E-01         0.00000E+00
    0.79277E-01        -0.11346E-01         0.00000E+00
    0.75378E-01        -0.10285E-01         0.00000E+00
    0.71411E-01        -0.92736E-02         0.00000E+00
    0.67377E-01        -0.83121E-02         0.00000E+00
    0.63277E-01        -0.74012E-02         0.00000E+00
    0.59114E-01        -0.65412E-02         0.00000E+00
    0.54889E-01        -0.57327E-02         0.00000E+00
    0.50604E-01        -0.49758E-02         0.00000E+00
    0.46260E-01        -0.42708E-02         0.00000E+00
    0.41859E-01        -0.36177E-02         0.00000E+00
    0.37403E-01        -0.30164E-02         0.00000E+00
    0.32894E-01        -0.24665E-02         0.00000E+00
    0.28334E-01        -0.19678E-02         0.00000E+00
    0.23724E-01        -0.15195E-02         0.00000E+00
    0.19067E-01        -0.11209E-02         0.00000E+00
    0.14364E-01        -0.77103E-03         0.00000E+00
    0.96169E-02        -0.46857E-03         0.00000E+00
    0.48284E-02        -0.21212E-03         0.00000E+00
    0.00000E+00         0.00000E+00         0.00000E+00
    0.17135E+00        -0.70361E-01         0.00000E+00
    0.17017E+00        -0.68175E-01         0.00000E+00
    0.16889E+00        -0.65995E-01         0.00000E+00
    0.16750E+00        -0.63823E-01         0.00000E+00
    0.16601E+00        -0.61661E-01         0.00000E+00
    0.16442E+00        -0.59511E-01         0.00000E+00
    0.16272E+00        -0.57375E-01         0.00000E+00
    0.16093E+00        -0.55254E-01         0.00000E+00
    0.15903E+00        -0.53152E-01         0.00000E+00
    0.15703E+00        -0.51070E-01         0.00000E+00
    0.15493E+00        -0.49009E-01         0.00000E+00
    0.15273E+00        -0.46972E-01         0.00000E+00
    0.15043E+00        -0.44960E-01         0.00000E+00
    0.14803E+00        -0.42975E-01         0.00000E+00
    0.14553E+00        -0.41019E-01         0.00000E+00
    0.14294E+00        -0.39092E-01         0.00000E+00
    0.14025E+00        -0.37198E-01         0.00000E+00
    0.13746E+00        -0.35336E-01         0.00000E+00
    0.13458E+00        -0.33509E-01         0.00000E+00
    0.13160E+00        -0.31719E-01         0.00000E+00
    0.12853E+00        -0.29966E-01         0.00000E+00
    0.12537E+00        -0.28252E-01         0.00000E+00
    0.12211E+00        -0.26579E-01         0.00000E+00
    0.11877E+00        -0.24947E-01         0.00000E+00
    0.11534E+00        -0.23358E-01         0.00000E+00
    0.11182E+00        -0.21813E-01         0.00000E+00
    0.10822E+00        -0.20314E-01         0.00000E+00
    0.10453E+00        -0.18861E-01         0.00000E+00
    0.10076E+00        -0.17456E-01         0.00000E+00
    0.96908E-01        -0.16099E-01         0.00000E+00
    0.92975E-01        -0.14793E-01         0.00000E+00
    0.88963E-01        -0.13537E-01         0.00000E+00
    0.84873E-01        -0.12333E-01         0.00000E+00
    0.80708E-01        -0.11182E-01         0.00000E+00
    0.76469E-01        -0.10084E-01         0.00000E+00
    0.72158E-01        -0.90398E-02         0.00000E+00
    0.67775E-01        -0.80505E-02         0.00000E+00
    0.63324E-01        -0.71164E-02         0.00000E+00
    0.58805E-01        -0.62379E-02         0.00000E+00
    0.54221E-01        -0.54155E-02         0.00000E+00
    0.49573E-01        -0.46491E-02         0.00000E+00
    0.44863E-01        -0.39390E-02         0.00000E+00
    0.40093E-01        -0.32850E-02         0.00000E+00
    0.35265E-01        -0.26868E-02         0.00000E+00
    0.30380E-01        -0.21440E-02         0.00000E+00
    0.25441E-01        -0.16560E-02         0.00000E+00
    0.20450E-01        -0.12219E-02         0.00000E+00
    0.15408E-01        -0.84060E-03         0.00000E+00
    0.10318E-01        -0.51093E-03         0.00000E+00
    0.51810E-02        -0.23131E-03         0.00000E+00
    0.00000E+00         0.00000E+00         0.00000E+00
    0.18307E+00        -0.76160E-01         0.00000E+00
    0.18183E+00        -0.73796E-01         0.00000E+00
    0.18047E+00        -0.71439E-01         0.00000E+00
    0.17900E+00        -0.69089E-01         0.00000E+00
    0.17743E+00        -0.66750E-01         0.00000E+00
    0.17574E+00        -0.64423E-01         0.00000E+00
    0.17395E+00        -0.62111E-01         0.00000E+00
    0.17204E+00        -0.59817E-01         0.00000E+00
    0.17003E+00        -0.57541E-01         0.00000E+00
    0.16790E+00        -0.55287E-01         0.00000E+00
    0.16567E+00        -0.53057E-01         0.00000E+00
    0.16333E+00        -0.50851E-01         0.00000E+00
    0.16089E+00        -0.48673E-01         0.00000E+00
    0.15833E+00        -0.46524E-01         0.00000E+00
    0.15568E+00        -0.44405E-01         0.00000E+00
    0.15291E+00        -0.42320E-01         0.00000E+00
    0.15005E+00        -0.40268E-01         0.00000E+00
    0.14708E+00        -0.38253E-01         0.00000E+00
    0.14400E+00        -0.36275E-01         0.00000E+00
    0.14083E+00        -0.34337E-01         0.00000E+00
    0.13756E+00        -0.32439E-01         0.00000E+00
    0.13419E+00        -0.30584E-01         0.00000E+00
    0.13072E+00        -0.28772E-01         0.00000E+00
    0.12715E+00        -0.27006E-01         0.00000E+00
    0.12349E+00        -0.25286E-01         0.00000E+00
    0.11973E+00        -0.23614E-01         0.00000E+00
    0.11589E+00        -0.21991E-01         0.00000E+00
    0.11195E+00        -0.20419E-01         0.00000E+00
    0.10792E+00        -0.18899E-01         0.00000E+00
    0.10380E+00        -0.17431E-01         0.00000E+00
    0.99598E-01        -0.16017E-01         0.00000E+00
    0.95310E-01        -0.14659E-01         0.00000E+00
    0.90939E-01        -0.13356E-01         0.00000E+00
    0.86485E-01        -0.12110E-01         0.00000E+00
    0.81952E-01        -0.10922E-01         0.00000E+00
    0.77340E-01        -0.97921E-02         0.00000E+00
    0.72652E-01        -0.87215E-02         0.00000E+00
    0.67889E-01        -0.77106E-02         0.00000E+00
    0.63052E-01        -0.67598E-02         0.00000E+00
    0.58145E-01        -0.58694E-02         0.00000E+00
    0.53167E-01        -0.50397E-02         0.00000E+00
    0.48123E-01        -0.42707E-02         0.00000E+00
    0.43012E-01        -0.35623E-02         0.00000E+00
    0.37838E-01        -0.29142E-02         0.00000E+00
    0.32602E-01        -0.23259E-02         0.00000E+00
    0.27306E-01        -0.17969E-02         0.00000E+00
    0.21953E-01        -0.13260E-02         0.00000E+00
    0.16543E-01        -0.91243E-03         0.00000E+00
    0.11080E-01        -0.55466E-03         0.00000E+00
    0.55647E-02        -0.25113E-03         0.00000E+00
    0.00000E+00         0.00000E+00         0.00000E+00
    0.19571E+00        -0.82271E-01         0.00000E+00
    0.19440E+00        -0.79716E-01         0.00000E+00
    0.19297E+00        -0.77167E-01         0.00000E+00
    0.19142E+00        -0.74626E-01         0.00000E+00
    0.18976E+00        -0.72096E-01         0.00000E+00
    0.18797E+00        -0.69580E-01         0.00000E+00
    0.18607E+00        -0.67080E-01         0.00000E+00
    0.18405E+00        -0.64598E-01         0.00000E+00
    0.18191E+00        -0.62137E-01         0.00000E+00
    0.17966E+00        -0.59698E-01         0.00000E+00
    0.17729E+00        -0.57285E-01         0.00000E+00
    0.17480E+00        -0.54900E-01         0.00000E+00
    0.17220E+00        -0.52544E-01         0.00000E+00
    0.16948E+00        -0.50219E-01         0.00000E+00
    0.16665E+00        -0.47928E-01         0.00000E+00
    0.16371E+00        -0.45672E-01         0.00000E+00
    0.16065E+00        -0.43454E-01         0.00000E+00
    0.15748E+00        -0.41275E-01         0.00000E+00
    0.15420E+00        -0.39137E-01         0.00000E+00
    0.15082E+00        -0.37042E-01         0.00000E+00
    0.14732E+00        -0.34992E-01         0.00000E+00
    0.14372E+00        -0.32987E-01         0.00000E+00
    0.14002E+00        -0.31030E-01         0.00000E+00
    0.13621E+00        -0.29122E-01         0.00000E+00
    0.13229E+00        -0.27265E-01         0.00000E+00
    0.12828E+00        -0.25461E-01         0.00000E+00
    0.12417E+00        -0.23709E-01         0.00000E+00
    0.11996E+00        -0.22013E-01         0.00000E+00
    0.11565E+00        -0.20373E-01         0.00000E+00
    0.11125E+00        -0.18790E-01         0.00000E+00
    0.10675E+00        -0.17265E-01         0.00000E+00
    0.10217E+00        -0.15800E-01         0.00000E+00
    0.97489E-01        -0.14396E-01         0.00000E+00
    0.92724E-01        -0.13053E-01         0.00000E+00
    0.87873E-01        -0.11772E-01         0.00000E+00
    0.82937E-01        -0.10555E-01         0.00000E+00
    0.77918E-01        -0.94013E-02         0.00000E+00
    0.72818E-01        -0.83121E-02         0.00000E+00
    0.67639E-01        -0.72876E-02         0.00000E+00
    0.62382E-01        -0.63283E-02         0.00000E+00
    0.57050E-01        -0.54343E-02         0.00000E+00
    0.51644E-01        -0.46057E-02         0.00000E+00
    0.46167E-01        -0.38422E-02         0.00000E+00
    0.40619E-01        -0.31436E-02         0.00000E+00
    0.35004E-01        -0.25094E-02         0.00000E+00
    0.29323E-01        -0.19389E-02         0.00000E+00
    0.23578E-01        -0.14311E-02         0.00000E+00
    0.17771E-01        -0.98484E-03         0.00000E+00
    0.11905E-01        -0.59873E-03         0.00000E+00
    0.59802E-02        -0.27110E-03         0.00000E+00
    0.00000E+00         0.00000E+00         0.00000E+00
    0.20933E+00        -0.88682E-01         0.00000E+00
    0.20795E+00        -0.85921E-01         0.00000E+00
    0.20645E+00        -0.83165E-01         0.00000E+00
    0.20482E+00        -0.80418E-01         0.00000E+00
    0.20306E+00        -0.77682E-01         0.00000E+00
    0.20118E+00        -0.74961E-01         0.00000E+00
    0.19916E+00        -0.72257E-01         0.00000E+00
    0.19702E+00        -0.69573E-01         0.00000E+00
    0.19475E+00        -0.66911E-01         0.00000E+00
    0.19236E+00        -0.64275E-01         0.00000E+00
    0.18984E+00        -0.61666E-01         0.00000E+00
    0.18719E+00        -0.59086E-01         0.00000E+00
    0.18442E+00        -0.56539E-01         0.00000E+00
    0.18152E+00        -0.54027E-01         0.00000E+00
    0.17850E+00        -0.51551E-01         0.00000E+00
    0.17536E+00        -0.49115E-01         0.00000E+00
    0.17210E+00        -0.46719E-01         0.00000E+00
    0.16872E+00        -0.44367E-01         0.00000E+00
    0.16522E+00        -0.42059E-01         0.00000E+00
    0.16160E+00        -0.39799E-01         0.00000E+00
    0.15786E+00        -0.37587E-01         0.00000E+00
    0.15401E+00        -0.35426E-01         0.00000E+00
    0.15005E+00        -0.33317E-01         0.00000E+00
    0.14597E+00        -0.31262E-01         0.00000E+00
    0.14179E+00        -0.29262E-01         0.00000E+00
    0.13749E+00        -0.27319E-01         0.00000E+00
    0.13309E+00        -0.25435E-01         0.00000E+00
    0.12859E+00        -0.23610E-01         0.00000E+00
    0.12398E+00        -0.21847E-01         0.00000E+00
    0.11926E+00        -0.20146E-01         0.00000E+00
    0.11445E+00        -0.18508E-01         0.00000E+00
    0.10954E+00        -0.16935E-01         0.00000E+00
    0.10453E+00        -0.15427E-01         0.00000E+00
    0.99433E-01        -0.13987E-01         0.00000E+00
    0.94238E-01        -0.12613E-01         0.00000E+00
    0.88952E-01        -0.11308E-01         0.00000E+00
    0.83577E-01        -0.10071E-01         0.00000E+00
    0.78115E-01        -0.89038E-02         0.00000E+00
    0.72567E-01        -0.78062E-02         0.00000E+00
    0.66935E-01        -0.67785E-02         0.00000E+00
    0.61221E-01        -0.58209E-02         0.00000E+00
    0.55428E-01        -0.49334E-02         0.00000E+00
    0.49556E-01        -0.41158E-02         0.00000E+00
    0.43608E-01        -0.33677E-02         0.00000E+00
    0.37586E-01        -0.26885E-02         0.00000E+00
    0.31491E-01        -0.20774E-02         0.00000E+00
    0.25326E-01        -0.15335E-02         0.00000E+00
    0.19092E-01        -0.10554E-02         0.00000E+00
    0.12792E-01        -0.64164E-03         0.00000E+00
    0.64274E-02        -0.29053E-03         0.00000E+00
    0.00000E+00         0.00000E+00         0.00000E+00
    0.22400E+00        -0.95376E-01         0.00000E+00
    0.22256E+00        -0.92389E-01         0.00000E+00
    0.22099E+00        -0.89408E-01         0.00000E+00
    0.21928E+00        -0.86436E-01         0.00000E+00
    0.21743E+00        -0.83476E-01         0.00000E+00
    0.21543E+00        -0.80533E-01         0.00000E+00
    0.21330E+00        -0.77607E-01         0.00000E+00
    0.21103E+00        -0.74704E-01         0.00000E+00
    0.20863E+00        -0.71825E-01         0.00000E+00
    0.20608E+00        -0.68974E-01         0.00000E+00
    0.20340E+00        -0.66153E-01         0.00000E+00
    0.20058E+00        -0.63365E-01         0.00000E+00
    0.19762E+00        -0.60613E-01         0.00000E+00
    0.19453E+00        -0.57899E-01         0.00000E+00
    0.19130E+00        -0.55226E-01         0.00000E+00
    0.18794E+00        -0.52596E-01         0.00000E+00
    0.18445E+00        -0.50012E-01         0.00000E+00
    0.18083E+00        -0.47476E-01         0.00000E+00
    0.17709E+00        -0.44989E-01         0.00000E+00
    0.17321E+00        -0.42554E-01         0.00000E+00
    0.16921E+00        -0.40173E-01         0.00000E+00
    0.16509E+00        -0.37848E-01         0.00000E+00
    0.16084E+00        -0.35581E-01         0.00000E+00
    0.15648E+00        -0.33373E-01         0.00000E+00
    0.15199E+00        -0.31226E-01         0.00000E+00
    0.14739E+00        -0.29141E-01         0.00000E+00
    0.14267E+00        -0.27121E-01         0.00000E+00
    0.13785E+00        -0.25166E-01         0.00000E+00
    0.13291E+00        -0.23278E-01         0.00000E+00
    0.12786E+00        -0.21458E-01         0.00000E+00
    0.12270E+00        -0.19707E-01         0.00000E+00
    0.11744E+00        -0.18026E-01         0.00000E+00
    0.11208E+00        -0.16416E-01         0.00000E+00
    0.10661E+00        -0.14879E-01         0.00000E+00
    0.10105E+00        -0.13414E-01         0.00000E+00
    0.95383E-01        -0.12022E-01         0.00000E+00
    0.89625E-01        -0.10705E-01         0.00000E+00
    0.83773E-01        -0.94623E-02         0.00000E+00
    0.77829E-01        -0.82942E-02         0.00000E+00
    0.71795E-01        -0.72011E-02         0.00000E+00
    0.65673E-01        -0.61829E-02         0.00000E+00
    0.59465E-01        -0.52396E-02         0.00000E+00
    0.53172E-01        -0.43709E-02         0.00000E+00
    0.46796E-01        -0.35761E-02         0.00000E+00
    0.40340E-01        -0.28547E-02         0.00000E+00
    0.33804E-01        -0.22058E-02         0.00000E+00
    0.27191E-01        -0.16282E-02         0.00000E+00
    0.20502E-01        -0.11206E-02         0.00000E+00
    0.13739E-01        -0.68126E-03         0.00000E+00
    0.69049E-02        -0.30845E-03         0.00000E+00
    0.00000E+00         0.00000E+00         0.00000E+00
    0.23981E+00        -0.10232E+00         0.00000E+00
    0.23832E+00        -0.99088E-01         0.00000E+00
    0.23668E+00        -0.95860E-01         0.00000E+00
    0.23489E+00        -0.92642E-01         0.00000E+00
    0.23294E+00        -0.89437E-01         0.00000E+00
    0.23084E+00        -0.86249E-01         0.00000E+00
    0.22858E+00        -0.83082E-01         0.00000E+00
    0.22617E+00        -0.79938E-01         0.00000E+00
    0.22361E+00        -0.76823E-01         0.00000E+00
    0.22090E+00        -0.73738E-01         0.00000E+00
    0.21804E+00        -0.70688E-01         0.00000E+00
    0.21503E+00        -0.67674E-01         0.00000E+00
    0.21187E+00        -0.64701E-01         0.00000E+00
    0.20856E+00        -0.61770E-01         0.00000E+00
    0.20510E+00        -0.58886E-01         0.00000E+00
    0.20151E+00        -0.56050E-01         0.00000E+00
    0.19776E+00        -0.53265E-01         0.00000E+00
    0.19388E+00        -0.50533E-01         0.00000E+00
    0.18986E+00        -0.47858E-01         0.00000E+00
    0.18570E+00        -0.45240E-01         0.00000E+00
    0.18141E+00        -0.42683E-01         0.00000E+00
    0.17698E+00        -0.40187E-01         0.00000E+00
    0.17242E+00        -0.37756E-01         0.00000E+00
    0.16774E+00        -0.35391E-01         0.00000E+00
    0.16292E+00        -0.33094E-01         0.00000E+00
    0.15798E+00        -0.30866E-01         0.00000E+00
    0.15292E+00        -0.28708E-01         0.00000E+00
    0.14774E+00        -0.26622E-01         0.00000E+00
    0.14244E+00        -0.24610E-01         0.00000E+00
    0.13702E+00        -0.22672E-01         0.00000E+00
    0.13149E+00        -0.20810E-01         0.00000E+00
    0.12585E+00        -0.19024E-01         0.00000E+00
    0.12010E+00        -0.17316E-01         0.00000E+00
    0.11424E+00        -0.15686E-01         0.00000E+00
    0.10828E+00        -0.14134E-01         0.00000E+00
    0.10221E+00        -0.12662E-01         0.00000E+00
    0.96041E-01        -0.11269E-01         0.00000E+00
    0.89772E-01        -0.99566E-02         0.00000E+00
    0.83406E-01        -0.87239E-02         0.00000E+00
    0.76943E-01        -0.75713E-02         0.00000E+00
    0.70386E-01        -0.64985E-02         0.00000E+00
    0.63737E-01        -0.55053E-02         0.00000E+00
    0.56996E-01        -0.45911E-02         0.00000E+00
    0.50167E-01        -0.37554E-02         0.00000E+00
    0.43251E-01        -0.29972E-02         0.00000E+00
    0.36248E-01        -0.23154E-02         0.00000E+00
    0.29161E-01        -0.17088E-02         0.00000E+00
    0.21991E-01        -0.11759E-02         0.00000E+00
    0.14740E-01        -0.71479E-03         0.00000E+00
    0.74094E-02        -0.32359E-03         0.00000E+00
    0.00000E+00         0.00000E+00         0.00000E+00
    0.25688E+00        -0.10949E+00         0.00000E+00
    0.25535E+00        -0.10598E+00         0.00000E+00
    0.25364E+00        -0.10248E+00         0.00000E+00
    0.25176E+00        -0.98986E-01         0.00000E+00
    0.24971E+00        -0.95509E-01         0.00000E+00
    0.24749E+00        -0.92052E-01         0.00000E+00
    0.24510E+00        -0.88618E-01         0.00000E+00
    0.24255E+00        -0.85212E-01         0.00000E+00
    0.23982E+00        -0.81837E-01         0.00000E+00
    0.23692E+00        -0.78497E-01         0.00000E+00
    0.23386E+00        -0.75195E-01         0.00000E+00
    0.23064E+00        -0.71936E-01         0.00000E+00
    0.22725E+00        -0.68723E-01         0.00000E+00
    0.22370E+00        -0.65559E-01         0.00000E+00
    0.21998E+00        -0.62447E-01         0.00000E+00
    0.21612E+00        -0.59391E-01         0.00000E+00
    0.21209E+00        -0.56392E-01         0.00000E+00
    0.20791E+00        -0.53454E-01         0.00000E+00
    0.20359E+00        -0.50580E-01         0.00000E+00
    0.19911E+00        -0.47771E-01         0.00000E+00
    0.19449E+00        -0.45030E-01         0.00000E+00
    0.18972E+00        -0.42359E-01         0.00000E+00
    0.18482E+00        -0.39760E-01         0.00000E+00
    0.17977E+00        -0.37235E-01         0.00000E+00
    0.17459E+00        -0.34786E-01         0.00000E+00
    0.16928E+00        -0.32413E-01         0.00000E+00
    0.16384E+00        -0.30119E-01         0.00000E+00
    0.15827E+00        -0.27906E-01         0.00000E+00
    0.15257E+00        -0.25773E-01         0.00000E+00
    0.14675E+00        -0.23722E-01         0.00000E+00
    0.14081E+00        -0.21754E-01         0.00000E+00
    0.13476E+00        -0.19869E-01         0.00000E+00
    0.12859E+00        -0.18069E-01         0.00000E+00
    0.12230E+00        -0.16354E-01         0.00000E+00
    0.11591E+00        -0.14724E-01         0.00000E+00
    0.10940E+00        -0.13180E-01         0.00000E+00
    0.10279E+00        -0.11721E-01         0.00000E+00
    0.96078E-01        -0.10348E-01         0.00000E+00
    0.89261E-01        -0.90601E-02         0.00000E+00
    0.82343E-01        -0.78576E-02         0.00000E+00
    0.75325E-01        -0.67399E-02         0.00000E+00
    0.68210E-01        -0.57062E-02         0.00000E+00
    0.60998E-01        -0.47560E-02         0.00000E+00
    0.53692E-01        -0.38882E-02         0.00000E+00
    0.46293E-01        -0.31017E-02         0.00000E+00
    0.38801E-01        -0.23951E-02         0.00000E+00
    0.31218E-01        -0.17670E-02         0.00000E+00
    0.23546E-01        -0.12155E-02         0.00000E+00
    0.15785E-01        -0.73863E-03         0.00000E+00
    0.79357E-02        -0.33429E-03         0.00000E+00
    0.00000E+00         0.00000E+00         0.00000E+00
    0.27536E+00        -0.11683E+00         0.00000E+00
    0.27378E+00        -0.11301E+00         0.00000E+00
    0.27201E+00        -0.10921E+00         0.00000E+00
    0.27005E+00        -0.10541E+00         0.00000E+00
    0.26789E+00        -0.10163E+00         0.00000E+00
    0.26554E+00        -0.97874E-01         0.00000E+00
    0.26301E+00        -0.94144E-01         0.00000E+00
    0.26028E+00        -0.90446E-01         0.00000E+00
    0.25736E+00        -0.86784E-01         0.00000E+00
    0.25426E+00        -0.83163E-01         0.00000E+00
    0.25097E+00        -0.79587E-01         0.00000E+00
    0.24750E+00        -0.76060E-01         0.00000E+00
    0.24385E+00        -0.72586E-01         0.00000E+00
    0.24003E+00        -0.69169E-01         0.00000E+00
    0.23602E+00        -0.65812E-01         0.00000E+00
    0.23184E+00        -0.62519E-01         0.00000E+00
    0.22750E+00        -0.59293E-01         0.00000E+00
    0.22299E+00        -0.56136E-01         0.00000E+00
    0.21831E+00        -0.53053E-01         0.00000E+00
    0.21347E+00        -0.50044E-01         0.00000E+00
    0.20848E+00        -0.47113E-01         0.00000E+00
    0.20333E+00        -0.44262E-01         0.00000E+00
    0.19803E+00        -0.41492E-01         0.00000E+00
    0.19259E+00        -0.38806E-01         0.00000E+00
    0.18700E+00        -0.36205E-01         0.00000E+00
    0.18127E+00        -0.33691E-01         0.00000E+00
    0.17540E+00        -0.31265E-01         0.00000E+00
    0.16940E+00        -0.28928E-01         0.00000E+00
    0.16327E+00        -0.26681E-01         0.00000E+00
    0.15700E+00        -0.24525E-01         0.00000E+00
    0.15062E+00        -0.22460E-01         0.00000E+00
    0.14411E+00        -0.20487E-01         0.00000E+00
    0.13748E+00        -0.18607E-01         0.00000E+00
    0.13074E+00        -0.16819E-01         0.00000E+00
    0.12388E+00        -0.15123E-01         0.00000E+00
    0.11691E+00        -0.13520E-01         0.00000E+00
    0.10983E+00        -0.12008E-01         0.00000E+00
    0.10264E+00        -0.10589E-01         0.00000E+00
    0.95340E-01        -0.92601E-02         0.00000E+00
    0.87940E-01        -0.80220E-02         0.00000E+00
    0.80438E-01        -0.68733E-02         0.00000E+00
    0.72833E-01        -0.58132E-02         0.00000E+00
    0.65129E-01        -0.48403E-02         0.00000E+00
    0.57326E-01        -0.39534E-02         0.00000E+00
    0.49425E-01        -0.31510E-02         0.00000E+00
    0.41427E-01        -0.24313E-02         0.00000E+00
    0.33333E-01        -0.17923E-02         0.00000E+00
    0.25142E-01        -0.12321E-02         0.00000E+00
    0.16856E-01        -0.74835E-03         0.00000E+00
    0.84756E-02        -0.33854E-03         0.00000E+00
    0.00000E+00         0.00000E+00         0.00000E+00
    0.29543E+00        -0.12431E+00         0.00000E+00
    0.29381E+00        -0.12015E+00         0.00000E+00
    0.29198E+00        -0.11599E+00         0.00000E+00
    0.28992E+00        -0.11185E+00         0.00000E+00
    0.28765E+00        -0.10773E+00         0.00000E+00
    0.28516E+00        -0.10364E+00         0.00000E+00
    0.28245E+00        -0.99580E-01         0.00000E+00
    0.27953E+00        -0.95557E-01         0.00000E+00
    0.27640E+00        -0.91576E-01         0.00000E+00
    0.27305E+00        -0.87643E-01         0.00000E+00
    0.26951E+00        -0.83764E-01         0.00000E+00
    0.26575E+00        -0.79942E-01         0.00000E+00
    0.26180E+00        -0.76183E-01         0.00000E+00
    0.25765E+00        -0.72491E-01         0.00000E+00
    0.25331E+00        -0.68869E-01         0.00000E+00
    0.24877E+00        -0.65322E-01         0.00000E+00
    0.24405E+00        -0.61853E-01         0.00000E+00
    0.23915E+00        -0.58465E-01         0.00000E+00
    0.23408E+00        -0.55161E-01         0.00000E+00
    0.22883E+00        -0.51945E-01         0.00000E+00
    0.22341E+00        -0.48817E-01         0.00000E+00
    0.21782E+00        -0.45782E-01         0.00000E+00
    0.21208E+00        -0.42840E-01         0.00000E+00
    0.20618E+00        -0.39994E-01         0.00000E+00
    0.20013E+00        -0.37245E-01         0.00000E+00
    0.19393E+00        -0.34594E-01         0.00000E+00
    0.18758E+00        -0.32042E-01         0.00000E+00
    0.18110E+00        -0.29590E-01         0.00000E+00
    0.17448E+00        -0.27239E-01         0.00000E+00
    0.16773E+00        -0.24989E-01         0.00000E+00
    0.16085E+00        -0.22841E-01         0.00000E+00
    0.15385E+00        -0.20794E-01         0.00000E+00
    0.14672E+00        -0.18849E-01         0.00000E+00
    0.13948E+00        -0.17004E-01         0.00000E+00
    0.13212E+00        -0.15261E-01         0.00000E+00
    0.12464E+00        -0.13616E-01         0.00000E+00
    0.11706E+00        -0.12071E-01         0.00000E+00
    0.10937E+00        -0.10624E-01         0.00000E+00
    0.10157E+00        -0.92744E-02         0.00000E+00
    0.93659E-01        -0.80199E-02         0.00000E+00
    0.85649E-01        -0.68595E-02         0.00000E+00
    0.77537E-01        -0.57917E-02         0.00000E+00
    0.69323E-01        -0.48146E-02         0.00000E+00
    0.61008E-01        -0.39263E-02         0.00000E+00
    0.52593E-01        -0.31248E-02         0.00000E+00
    0.44078E-01        -0.24078E-02         0.00000E+00
    0.35464E-01        -0.17728E-02         0.00000E+00
    0.26749E-01        -0.12174E-02         0.00000E+00
    0.17934E-01        -0.73871E-03         0.00000E+00
    0.90175E-02        -0.33393E-03         0.00000E+00
    0.00000E+00         0.00000E+00         0.00000E+00
    0.31733E+00        -0.13189E+00         0.00000E+00
    0.31568E+00        -0.12734E+00         0.00000E+00
    0.31377E+00        -0.12279E+00         0.00000E+00
    0.31161E+00        -0.11826E+00         0.00000E+00
    0.30920E+00        -0.11376E+00         0.00000E+00
    0.30654E+00        -0.10928E+00         0.00000E+00
    0.30364E+00        -0.10485E+00         0.00000E+00
    0.30049E+00        -0.10046E+00         0.00000E+00
    0.29710E+00        -0.96122E-01         0.00000E+00
    0.29347E+00        -0.91842E-01         0.00000E+00
    0.28961E+00        -0.87625E-01         0.00000E+00
    0.28552E+00        -0.83478E-01         0.00000E+00
    0.28121E+00        -0.79406E-01         0.00000E+00
    0.27668E+00        -0.75412E-01         0.00000E+00
    0.27194E+00        -0.71503E-01         0.00000E+00
    0.26699E+00        -0.67682E-01         0.00000E+00
    0.26183E+00        -0.63953E-01         0.00000E+00
    0.25648E+00        -0.60319E-01         0.00000E+00
    0.25094E+00        -0.56784E-01         0.00000E+00
    0.24521E+00        -0.53351E-01         0.00000E+00
    0.23930E+00        -0.50022E-01         0.00000E+00
    0.23321E+00        -0.46800E-01         0.00000E+00
    0.22695E+00        -0.43685E-01         0.00000E+00
    0.22053E+00        -0.40681E-01         0.00000E+00
    0.21396E+00        -0.37788E-01         0.00000E+00
    0.20722E+00        -0.35007E-01         0.00000E+00
    0.20034E+00        -0.32339E-01         0.00000E+00
    0.19332E+00        -0.29784E-01         0.00000E+00
    0.18616E+00        -0.27343E-01         0.00000E+00
    0.17887E+00        -0.25016E-01         0.00000E+00
    0.17144E+00        -0.22801E-01         0.00000E+00
    0.16389E+00        -0.20699E-01         0.00000E+00
    0.15622E+00        -0.18709E-01         0.00000E+00
    0.14843E+00        -0.16830E-01         0.00000E+00
    0.14053E+00        -0.15061E-01         0.00000E+00
    0.13252E+00        -0.13399E-01         0.00000E+00
    0.12439E+00        -0.11845E-01         0.00000E+00
    0.11617E+00        -0.10395E-01         0.00000E+00
    0.10783E+00        -0.90482E-02         0.00000E+00
    0.99398E-01        -0.78023E-02         0.00000E+00
    0.90862E-01        -0.66549E-02         0.00000E+00
    0.82226E-01        -0.56036E-02         0.00000E+00
    0.73490E-01        -0.46460E-02         0.00000E+00
    0.64656E-01        -0.37792E-02         0.00000E+00
    0.55722E-01        -0.30004E-02         0.00000E+00
    0.46689E-01        -0.23067E-02         0.00000E+00
    0.37556E-01        -0.16949E-02         0.00000E+00
    0.28322E-01        -0.11617E-02         0.00000E+00
    0.18986E-01        -0.70378E-03         0.00000E+00
    0.95460E-02        -0.31774E-03         0.00000E+00
    0.00000E+00         0.00000E+00         0.00000E+00
    0.34137E+00        -0.13957E+00         0.00000E+00
    0.33967E+00        -0.13457E+00         0.00000E+00
    0.33768E+00        -0.12957E+00         0.00000E+00
    0.33539E+00        -0.12460E+00         0.00000E+00
    0.33282E+00        -0.11965E+00         0.00000E+00
    0.32995E+00        -0.11475E+00         0.00000E+00
    0.32680E+00        -0.10989E+00         0.00000E+00
    0.32338E+00        -0.10509E+00         0.00000E+00
    0.31968E+00        -0.10035E+00         0.00000E+00
    0.31571E+00        -0.95677E-01         0.00000E+00
    0.31147E+00        -0.91084E-01         0.00000E+00
    0.30699E+00        -0.86575E-01         0.00000E+00
    0.30225E+00        -0.82156E-01         0.00000E+00
    0.29727E+00        -0.77833E-01         0.00000E+00
    0.29205E+00        -0.73609E-01         0.00000E+00
    0.28660E+00        -0.69491E-01         0.00000E+00
    0.28093E+00        -0.65482E-01         0.00000E+00
    0.27504E+00        -0.61587E-01         0.00000E+00
    0.26895E+00        -0.57808E-01         0.00000E+00
    0.26266E+00        -0.54149E-01         0.00000E+00
    0.25617E+00        -0.50612E-01         0.00000E+00
    0.24950E+00        -0.47200E-01         0.00000E+00
    0.24266E+00        -0.43913E-01         0.00000E+00
    0.23564E+00        -0.40754E-01         0.00000E+00
    0.22845E+00        -0.37723E-01         0.00000E+00
    0.22111E+00        -0.34822E-01         0.00000E+00
    0.21362E+00        -0.32050E-01         0.00000E+00
    0.20599E+00        -0.29406E-01         0.00000E+00
    0.19822E+00        -0.26892E-01         0.00000E+00
    0.19031E+00        -0.24506E-01         0.00000E+00
    0.18228E+00        -0.22246E-01         0.00000E+00
    0.17413E+00        -0.20112E-01         0.00000E+00
    0.16586E+00        -0.18102E-01         0.00000E+00
    0.15748E+00        -0.16215E-01         0.00000E+00
    0.14899E+00        -0.14447E-01         0.00000E+00
    0.14040E+00        -0.12797E-01         0.00000E+00
    0.13170E+00        -0.11262E-01         0.00000E+00
    0.12291E+00        -0.98393E-02         0.00000E+00
    0.11402E+00        -0.85260E-02         0.00000E+00
    0.10503E+00        -0.73188E-02         0.00000E+00
    0.95953E-01        -0.62145E-02         0.00000E+00
    0.86783E-01        -0.52096E-02         0.00000E+00
    0.77520E-01        -0.43004E-02         0.00000E+00
    0.68166E-01        -0.34831E-02         0.00000E+00
    0.58719E-01        -0.27540E-02         0.00000E+00
    0.49178E-01        -0.21090E-02         0.00000E+00
    0.39542E-01        -0.15440E-02         0.00000E+00
    0.29809E-01        -0.10548E-02         0.00000E+00
    0.19976E-01        -0.63729E-03         0.00000E+00
    0.10041E-01        -0.28711E-03         0.00000E+00
    0.00000E+00         0.00000E+00         0.00000E+00
    0.36793E+00        -0.14739E+00         0.00000E+00
    0.36617E+00        -0.14186E+00         0.00000E+00
    0.36407E+00        -0.13635E+00         0.00000E+00
    0.36162E+00        -0.13087E+00         0.00000E+00
    0.35883E+00        -0.12542E+00         0.00000E+00
    0.35571E+00        -0.12002E+00         0.00000E+00
    0.35226E+00        -0.11468E+00         0.00000E+00
    0.34848E+00        -0.10941E+00         0.00000E+00
    0.34440E+00        -0.10421E+00         0.00000E+00
    0.34001E+00        -0.99101E-01         0.00000E+00
    0.33532E+00        -0.94087E-01         0.00000E+00
    0.33034E+00        -0.89174E-01         0.00000E+00
    0.32509E+00        -0.84370E-01         0.00000E+00
    0.31956E+00        -0.79681E-01         0.00000E+00
    0.31377E+00        -0.75113E-01         0.00000E+00
    0.30772E+00        -0.70671E-01         0.00000E+00
    0.30144E+00        -0.66360E-01         0.00000E+00
    0.29492E+00        -0.62184E-01         0.00000E+00
    0.28818E+00        -0.58146E-01         0.00000E+00
    0.28122E+00        -0.54250E-01         0.00000E+00
    0.27407E+00        -0.50498E-01         0.00000E+00
    0.26671E+00        -0.46892E-01         0.00000E+00
    0.25917E+00        -0.43433E-01         0.00000E+00
    0.25146E+00        -0.40122E-01         0.00000E+00
    0.24358E+00        -0.36961E-01         0.00000E+00
    0.23554E+00        -0.33949E-01         0.00000E+00
    0.22735E+00        -0.31085E-01         0.00000E+00
    0.21902E+00        -0.28369E-01         0.00000E+00
    0.21056E+00        -0.25800E-01         0.00000E+00
    0.20197E+00        -0.23376E-01         0.00000E+00
    0.19326E+00        -0.21095E-01         0.00000E+00
    0.18444E+00        -0.18955E-01         0.00000E+00
    0.17551E+00        -0.16953E-01         0.00000E+00
    0.16648E+00        -0.15087E-01         0.00000E+00
    0.15735E+00        -0.13352E-01         0.00000E+00
    0.14814E+00        -0.11745E-01         0.00000E+00
    0.13883E+00        -0.10263E-01         0.00000E+00
    0.12944E+00        -0.89020E-02         0.00000E+00
    0.11996E+00        -0.76568E-02         0.00000E+00
    0.11041E+00        -0.65233E-02         0.00000E+00
    0.10078E+00        -0.54969E-02         0.00000E+00
    0.91067E-01        -0.45727E-02         0.00000E+00
    0.81280E-01        -0.37457E-02         0.00000E+00
    0.71415E-01        -0.30109E-02         0.00000E+00
    0.61471E-01        -0.23629E-02         0.00000E+00
    0.51446E-01        -0.17965E-02         0.00000E+00
    0.41337E-01        -0.13064E-02         0.00000E+00
    0.31143E-01        -0.88706E-03         0.00000E+00
    0.20858E-01        -0.53314E-03         0.00000E+00
    0.10479E-01        -0.23923E-03         0.00000E+00
    0.00000E+00         0.00000E+00         0.00000E+00
    0.39750E+00        -0.15545E+00         0.00000E+00
    0.39564E+00        -0.14933E+00         0.00000E+00
    0.39338E+00        -0.14322E+00         0.00000E+00
    0.39071E+00        -0.13714E+00         0.00000E+00
    0.38764E+00        -0.13112E+00         0.00000E+00
    0.38418E+00        -0.12515E+00         0.00000E+00
    0.38035E+00        -0.11926E+00         0.00000E+00
    0.37614E+00        -0.11345E+00         0.00000E+00
    0.37158E+00        -0.10774E+00         0.00000E+00
    0.36666E+00        -0.10213E+00         0.00000E+00
    0.36141E+00        -0.96644E-01         0.00000E+00
    0.35583E+00        -0.91279E-01         0.00000E+00
    0.34994E+00        -0.86045E-01         0.00000E+00
    0.34375E+00        -0.80951E-01         0.00000E+00
    0.33727E+00        -0.76002E-01         0.00000E+00
    0.33051E+00        -0.71205E-01         0.00000E+00
    0.32349E+00        -0.66564E-01         0.00000E+00
    0.31622E+00        -0.62085E-01         0.00000E+00
    0.30870E+00        -0.57770E-01         0.00000E+00
    0.30096E+00        -0.53622E-01         0.00000E+00
    0.29301E+00        -0.49644E-01         0.00000E+00
    0.28486E+00        -0.45838E-01         0.00000E+00
    0.27651E+00        -0.42205E-01         0.00000E+00
    0.26799E+00        -0.38745E-01         0.00000E+00
    0.25930E+00        -0.35458E-01         0.00000E+00
    0.25046E+00        -0.32343E-01         0.00000E+00
    0.24147E+00        -0.29400E-01         0.00000E+00
    0.23234E+00        -0.26627E-01         0.00000E+00
    0.22310E+00        -0.24022E-01         0.00000E+00
    0.21373E+00        -0.21581E-01         0.00000E+00
    0.20426E+00        -0.19303E-01         0.00000E+00
    0.19469E+00        -0.17183E-01         0.00000E+00
    0.18503E+00        -0.15217E-01         0.00000E+00
    0.17529E+00        -0.13402E-01         0.00000E+00
    0.16547E+00        -0.11732E-01         0.00000E+00
    0.15557E+00        -0.10203E-01         0.00000E+00
    0.14561E+00        -0.88095E-02         0.00000E+00
    0.13559E+00        -0.75454E-02         0.00000E+00
    0.12551E+00        -0.64053E-02         0.00000E+00
    0.11537E+00        -0.53829E-02         0.00000E+00
    0.10517E+00        -0.44719E-02         0.00000E+00
    0.94922E-01        -0.36658E-02         0.00000E+00
    0.84620E-01        -0.29579E-02         0.00000E+00
    0.74263E-01        -0.23414E-02         0.00000E+00
    0.63850E-01        -0.18094E-02         0.00000E+00
    0.53379E-01        -0.13550E-02         0.00000E+00
    0.42846E-01        -0.97099E-03         0.00000E+00
    0.32247E-01        -0.65045E-03         0.00000E+00
    0.21577E-01        -0.38637E-03         0.00000E+00
    0.10830E-01        -0.17182E-03         0.00000E+00
    0.00000E+00         0.00000E+00         0.00000E+00
    0.43068E+00        -0.16398E+00         0.00000E+00
    0.42866E+00        -0.15716E+00         0.00000E+00
    0.42615E+00        -0.15036E+00         0.00000E+00
    0.42317E+00        -0.14361E+00         0.00000E+00
    0.41973E+00        -0.13692E+00         0.00000E+00
    0.41584E+00        -0.13030E+00         0.00000E+00
    0.41150E+00        -0.12378E+00         0.00000E+00
    0.40675E+00        -0.11737E+00         0.00000E+00
    0.40158E+00        -0.11107E+00         0.00000E+00
    0.39601E+00        -0.10490E+00         0.00000E+00
    0.39006E+00        -0.98876E-01         0.00000E+00
    0.38374E+00        -0.93001E-01         0.00000E+00
    0.37708E+00        -0.87287E-01         0.00000E+00
    0.37008E+00        -0.81740E-01         0.00000E+00
    0.36276E+00        -0.76369E-01         0.00000E+00
    0.35514E+00        -0.71179E-01         0.00000E+00
    0.34723E+00        -0.66177E-01         0.00000E+00
    0.33906E+00        -0.61365E-01         0.00000E+00
    0.33063E+00        -0.56749E-01         0.00000E+00
    0.32196E+00        -0.52331E-01         0.00000E+00
    0.31307E+00        -0.48112E-01         0.00000E+00
    0.30398E+00        -0.44095E-01         0.00000E+00
    0.29469E+00        -0.40280E-01         0.00000E+00
    0.28522E+00        -0.36667E-01         0.00000E+00
    0.27560E+00        -0.33255E-01         0.00000E+00
    0.26582E+00        -0.30043E-01         0.00000E+00
    0.25591E+00        -0.27028E-01         0.00000E+00
    0.24588E+00        -0.24209E-01         0.00000E+00
    0.23573E+00        -0.21581E-01         0.00000E+00
    0.22549E+00        -0.19141E-01         0.00000E+00
    0.21516E+00        -0.16885E-01         0.00000E+00
    0.20476E+00        -0.14807E-01         0.00000E+00
    0.19429E+00        -0.12903E-01         0.00000E+00
    0.18375E+00        -0.11166E-01         0.00000E+00
    0.17317E+00        -0.95912E-02         0.00000E+00
    0.16255E+00        -0.81708E-02         0.00000E+00
    0.15189E+00        -0.68981E-02         0.00000E+00
    0.14119E+00        -0.57657E-02         0.00000E+00
    0.13047E+00        -0.47659E-02         0.00000E+00
    0.11973E+00        -0.38907E-02         0.00000E+00
    0.10897E+00        -0.31319E-02         0.00000E+00
    0.98185E-01        -0.24808E-02         0.00000E+00
    0.87384E-01        -0.19289E-02         0.00000E+00
    0.76563E-01        -0.14671E-02         0.00000E+00
    0.65722E-01        -0.10866E-02         0.00000E+00
    0.54857E-01        -0.77818E-03         0.00000E+00
    0.43964E-01        -0.53278E-03         0.00000E+00
    0.33039E-01        -0.34126E-03         0.00000E+00
    0.22075E-01        -0.19457E-03         0.00000E+00
    0.11065E-01        -0.83742E-04         0.00000E+00
    0.00000E+00         0.00000E+00         0.00000E+00
    0.46818E+00        -0.17335E+00         0.00000E+00
    0.46589E+00        -0.16573E+00         0.00000E+00
    0.46304E+00        -0.15814E+00         0.00000E+00
    0.45963E+00        -0.15061E+00         0.00000E+00
    0.45568E+00        -0.14316E+00         0.00000E+00
    0.45121E+00        -0.13581E+00         0.00000E+00
    0.44623E+00        -0.12857E+00         0.00000E+00
    0.44076E+00        -0.12146E+00         0.00000E+00
    0.43483E+00        -0.11450E+00         0.00000E+00
    0.42844E+00        -0.10770E+00         0.00000E+00
    0.42163E+00        -0.10107E+00         0.00000E+00
    0.41440E+00        -0.94620E-01         0.00000E+00
    0.40679E+00        -0.88366E-01         0.00000E+00
    0.39881E+00        -0.82314E-01         0.00000E+00
    0.39048E+00        -0.76471E-01         0.00000E+00
    0.38183E+00        -0.70844E-01         0.00000E+00
    0.37286E+00        -0.65440E-01         0.00000E+00
    0.36361E+00        -0.60261E-01         0.00000E+00
    0.35409E+00        -0.55312E-01         0.00000E+00
    0.34433E+00        -0.50596E-01         0.00000E+00
    0.33434E+00        -0.46114E-01         0.00000E+00
    0.32414E+00        -0.41867E-01         0.00000E+00
    0.31375E+00        -0.37855E-01         0.00000E+00
    0.30319E+00        -0.34077E-01         0.00000E+00
    0.29248E+00        -0.30532E-01         0.00000E+00
    0.28163E+00        -0.27216E-01         0.00000E+00
    0.27066E+00        -0.24128E-01         0.00000E+00
    0.25959E+00        -0.21263E-01         0.00000E+00
    0.24842E+00        -0.18617E-01         0.00000E+00
    0.23719E+00        -0.16185E-01         0.00000E+00
    0.22589E+00        -0.13961E-01         0.00000E+00
    0.21455E+00        -0.11938E-01         0.00000E+00
    0.20317E+00        -0.10110E-01         0.00000E+00
    0.19177E+00        -0.84700E-02         0.00000E+00
    0.18035E+00        -0.70092E-02         0.00000E+00
    0.16893E+00        -0.57194E-02         0.00000E+00
    0.15751E+00        -0.45917E-02         0.00000E+00
    0.14611E+00        -0.36168E-02         0.00000E+00
    0.13472E+00        -0.27849E-02         0.00000E+00
    0.12335E+00        -0.20858E-02         0.00000E+00
    0.11202E+00        -0.15091E-02         0.00000E+00
    0.10070E+00        -0.10440E-02         0.00000E+00
    0.89425E-01        -0.67943E-03         0.00000E+00
    0.78176E-01        -0.40403E-03         0.00000E+00
    0.66956E-01        -0.20637E-03         0.00000E+00
    0.55762E-01        -0.74838E-04         0.00000E+00
    0.44591E-01         0.22691E-05         0.00000E+00
    0.33437E-01         0.36672E-04         0.00000E+00
    0.22293E-01         0.40060E-04         0.00000E+00
    0.11151E-01         0.24026E-04         0.00000E+00
    0.00000E+00         0.00000E+00         0.00000E+00
    0.51085E+00        -0.18416E+00         0.00000E+00
    0.50815E+00        -0.17562E+00         0.00000E+00
    0.50478E+00        -0.16713E+00         0.00000E+00
    0.50077E+00        -0.15872E+00         0.00000E+00
    0.49614E+00        -0.15040E+00         0.00000E+00
    0.49090E+00        -0.14221E+00         0.00000E+00
    0.48508E+00        -0.13416E+00         0.00000E+00
    0.47871E+00        -0.12628E+00         0.00000E+00
    0.47182E+00        -0.11857E+00         0.00000E+00
    0.46441E+00        -0.11105E+00         0.00000E+00
    0.45653E+00        -0.10374E+00         0.00000E+00
    0.44819E+00        -0.96651E-01         0.00000E+00
    0.43943E+00        -0.89792E-01         0.00000E+00
    0.43026E+00        -0.83174E-01         0.00000E+00
    0.42072E+00        -0.76803E-01         0.00000E+00
    0.41083E+00        -0.70687E-01         0.00000E+00
    0.40061E+00        -0.64832E-01         0.00000E+00
    0.39009E+00        -0.59242E-01         0.00000E+00
    0.37929E+00        -0.53920E-01         0.00000E+00
    0.36824E+00        -0.48868E-01         0.00000E+00
    0.35696E+00        -0.44087E-01         0.00000E+00
    0.34548E+00        -0.39578E-01         0.00000E+00
    0.33382E+00        -0.35340E-01         0.00000E+00
    0.32199E+00        -0.31371E-01         0.00000E+00
    0.31003E+00        -0.27669E-01         0.00000E+00
    0.29794E+00        -0.24230E-01         0.00000E+00
    0.28576E+00        -0.21049E-01         0.00000E+00
    0.27350E+00        -0.18123E-01         0.00000E+00
    0.26119E+00        -0.15445E-01         0.00000E+00
    0.24882E+00        -0.13009E-01         0.00000E+00
    0.23644E+00        -0.10808E-01         0.00000E+00
    0.22404E+00        -0.88342E-02         0.00000E+00
    0.21165E+00        -0.70789E-02         0.00000E+00
    0.19928E+00        -0.55331E-02         0.00000E+00
    0.18694E+00        -0.41873E-02         0.00000E+00
    0.17465E+00        -0.30312E-02         0.00000E+00
    0.16242E+00        -0.20539E-02         0.00000E+00
    0.15025E+00        -0.12442E-02         0.00000E+00
    0.13815E+00        -0.59017E-03         0.00000E+00
    0.12614E+00        -0.79393E-04         0.00000E+00
    0.11421E+00         0.30092E-03         0.00000E+00
    0.10238E+00         0.56403E-03         0.00000E+00
    0.90639E-01         0.72357E-03         0.00000E+00
    0.78997E-01         0.79354E-03         0.00000E+00
    0.67452E-01         0.78822E-03         0.00000E+00
    0.56002E-01         0.72217E-03         0.00000E+00
    0.44644E-01         0.61013E-03         0.00000E+00
    0.33372E-01         0.46695E-03         0.00000E+00
    0.22181E-01         0.30760E-03         0.00000E+00
    0.11060E-01         0.14699E-03         0.00000E+00
    0.00000E+00         0.00000E+00         0.00000E+00
    0.55966E+00        -0.19729E+00         0.00000E+00
    0.55633E+00        -0.18771E+00         0.00000E+00
    0.55223E+00        -0.17821E+00         0.00000E+00
    0.54739E+00        -0.16880E+00         0.00000E+00
    0.54184E+00        -0.15952E+00         0.00000E+00
    0.53560E+00        -0.15039E+00         0.00000E+00
    0.52870E+00        -0.14143E+00         0.00000E+00
    0.52119E+00        -0.13267E+00         0.00000E+00
    0.51308E+00        -0.12413E+00         0.00000E+00
    0.50442E+00        -0.11581E+00         0.00000E+00
    0.49523E+00        -0.10775E+00         0.00000E+00
    0.48554E+00        -0.99942E-01         0.00000E+00
    0.47539E+00        -0.92409E-01         0.00000E+00
    0.46480E+00        -0.85157E-01         0.00000E+00
    0.45382E+00        -0.78194E-01         0.00000E+00
    0.44246E+00        -0.71529E-01         0.00000E+00
    0.43077E+00        -0.65165E-01         0.00000E+00
    0.41876E+00        -0.59107E-01         0.00000E+00
    0.40647E+00        -0.53357E-01         0.00000E+00
    0.39393E+00        -0.47917E-01         0.00000E+00
    0.38117E+00        -0.42788E-01         0.00000E+00
    0.36821E+00        -0.37968E-01         0.00000E+00
    0.35508E+00        -0.33455E-01         0.00000E+00
    0.34180E+00        -0.29248E-01         0.00000E+00
    0.32841E+00        -0.25343E-01         0.00000E+00
    0.31493E+00        -0.21734E-01         0.00000E+00
    0.30138E+00        -0.18418E-01         0.00000E+00
    0.28778E+00        -0.15387E-01         0.00000E+00
    0.27415E+00        -0.12635E-01         0.00000E+00
    0.26052E+00        -0.10155E-01         0.00000E+00
    0.24691E+00        -0.79371E-02         0.00000E+00
    0.23334E+00        -0.59735E-02         0.00000E+00
    0.21982E+00        -0.42541E-02         0.00000E+00
    0.20638E+00        -0.27685E-02         0.00000E+00
    0.19302E+00        -0.15054E-02         0.00000E+00
    0.17977E+00        -0.45315E-03         0.00000E+00
    0.16664E+00         0.40083E-03         0.00000E+00
    0.15364E+00         0.10697E-02         0.00000E+00
    0.14079E+00         0.15672E-02         0.00000E+00
    0.12809E+00         0.19079E-02         0.00000E+00
    0.11555E+00         0.21068E-02         0.00000E+00
    0.10319E+00         0.21796E-02         0.00000E+00
    0.91001E-01         0.21425E-02         0.00000E+00
    0.78994E-01         0.20124E-02         0.00000E+00
    0.67172E-01         0.18064E-02         0.00000E+00
    0.55535E-01         0.15425E-02         0.00000E+00
    0.44081E-01         0.12387E-02         0.00000E+00
    0.32807E-01         0.91369E-03         0.00000E+00
    0.21708E-01         0.58616E-03         0.00000E+00
    0.10776E-01         0.27520E-03         0.00000E+00
    0.00000E+00         0.00000E+00         0.00000E+00
    0.61570E+00        -0.21400E+00         0.00000E+00
    0.61144E+00        -0.20327E+00         0.00000E+00
    0.60631E+00        -0.19264E+00         0.00000E+00
    0.60034E+00        -0.18213E+00         0.00000E+00
    0.59356E+00        -0.17177E+00         0.00000E+00
    0.58602E+00        -0.16161E+00         0.00000E+00
    0.57775E+00        -0.15165E+00         0.00000E+00
    0.56880E+00        -0.14193E+00         0.00000E+00
    0.55920E+00        -0.13247E+00         0.00000E+00
    0.54899E+00        -0.12328E+00         0.00000E+00
    0.53821E+00        -0.11438E+00         0.00000E+00
    0.52690E+00        -0.10578E+00         0.00000E+00
    0.51510E+00        -0.97499E-01         0.00000E+00
    0.50284E+00        -0.89543E-01         0.00000E+00
    0.49016E+00        -0.81920E-01         0.00000E+00
    0.47709E+00        -0.74636E-01         0.00000E+00
    0.46369E+00        -0.67695E-01         0.00000E+00
    0.44997E+00        -0.61101E-01         0.00000E+00
    0.43597E+00        -0.54855E-01         0.00000E+00
    0.42173E+00        -0.48957E-01         0.00000E+00
    0.40727E+00        -0.43408E-01         0.00000E+00
    0.39264E+00        -0.38204E-01         0.00000E+00
    0.37785E+00        -0.33343E-01         0.00000E+00
    0.36295E+00        -0.28822E-01         0.00000E+00
    0.34796E+00        -0.24635E-01         0.00000E+00
    0.33290E+00        -0.20777E-01         0.00000E+00
    0.31781E+00        -0.17243E-01         0.00000E+00
    0.30271E+00        -0.14024E-01         0.00000E+00
    0.28764E+00        -0.11114E-01         0.00000E+00
    0.27260E+00        -0.85029E-02         0.00000E+00
    0.25763E+00        -0.61827E-02         0.00000E+00
    0.24275E+00        -0.41432E-02         0.00000E+00
    0.22798E+00        -0.23738E-02         0.00000E+00
    0.21334E+00        -0.86317E-03         0.00000E+00
    0.19886E+00         0.40078E-03         0.00000E+00
    0.18455E+00         0.14309E-02         0.00000E+00
    0.17044E+00         0.22407E-02         0.00000E+00
    0.15653E+00         0.28445E-02         0.00000E+00
    0.14284E+00         0.32577E-02         0.00000E+00
    0.12940E+00         0.34961E-02         0.00000E+00
    0.11621E+00         0.35767E-02         0.00000E+00
    0.10328E+00         0.35171E-02         0.00000E+00
    0.90634E-01         0.33358E-02         0.00000E+00
    0.78269E-01         0.30523E-02         0.00000E+00
    0.66195E-01         0.26867E-02         0.00000E+00
    0.54419E-01         0.22601E-02         0.00000E+00
    0.42941E-01         0.17943E-02         0.00000E+00
    0.31764E-01         0.13118E-02         0.00000E+00
    0.20885E-01         0.83587E-03         0.00000E+00
    0.10299E-01         0.39046E-03         0.00000E+00
    0.00000E+00         0.00000E+00         0.00000E+00
    0.68010E+00        -0.23601E+00         0.00000E+00
    0.67452E+00        -0.22403E+00         0.00000E+00
    0.66797E+00        -0.21216E+00         0.00000E+00
    0.66048E+00        -0.20046E+00         0.00000E+00
    0.65211E+00        -0.18894E+00         0.00000E+00
    0.64290E+00        -0.17766E+00         0.00000E+00
    0.63290E+00        -0.16662E+00         0.00000E+00
    0.62216E+00        -0.15586E+00         0.00000E+00
    0.61073E+00        -0.14541E+00         0.00000E+00
    0.59866E+00        -0.13527E+00         0.00000E+00
    0.58598E+00        -0.12547E+00         0.00000E+00
    0.57274E+00        -0.11601E+00         0.00000E+00
    0.55900E+00        -0.10691E+00         0.00000E+00
    0.54479E+00        -0.98185E-01         0.00000E+00
    0.53016E+00        -0.89831E-01         0.00000E+00
    0.51514E+00        -0.81855E-01         0.00000E+00
    0.49979E+00        -0.74261E-01         0.00000E+00
    0.48413E+00        -0.67051E-01         0.00000E+00
    0.46821E+00        -0.60223E-01         0.00000E+00
    0.45206E+00        -0.53778E-01         0.00000E+00
    0.43572E+00        -0.47712E-01         0.00000E+00
    0.41923E+00        -0.42023E-01         0.00000E+00
    0.40262E+00        -0.36706E-01         0.00000E+00
    0.38592E+00        -0.31756E-01         0.00000E+00
    0.36917E+00        -0.27168E-01         0.00000E+00
    0.35239E+00        -0.22934E-01         0.00000E+00
    0.33562E+00        -0.19049E-01         0.00000E+00
    0.31888E+00        -0.15504E-01         0.00000E+00
    0.30221E+00        -0.12291E-01         0.00000E+00
    0.28563E+00        -0.94016E-02         0.00000E+00
    0.26917E+00        -0.68264E-02         0.00000E+00
    0.25285E+00        -0.45554E-02         0.00000E+00
    0.23671E+00        -0.25781E-02         0.00000E+00
    0.22076E+00        -0.88327E-03         0.00000E+00
    0.20504E+00         0.54103E-03         0.00000E+00
    0.18956E+00         0.17075E-02         0.00000E+00
    0.17434E+00         0.26297E-02         0.00000E+00
    0.15942E+00         0.33220E-02         0.00000E+00
    0.14481E+00         0.37999E-02         0.00000E+00
    0.13054E+00         0.40798E-02         0.00000E+00
    0.11661E+00         0.41793E-02         0.00000E+00
    0.10306E+00         0.41170E-02         0.00000E+00
    0.89896E-01         0.39129E-02         0.00000E+00
    0.77134E-01         0.35882E-02         0.00000E+00
    0.64789E-01         0.31653E-02         0.00000E+00
    0.52874E-01         0.26682E-02         0.00000E+00
    0.41398E-01         0.21221E-02         0.00000E+00
    0.30369E-01         0.15536E-02         0.00000E+00
    0.19792E-01         0.99065E-03         0.00000E+00
    0.96695E-02         0.46257E-03         0.00000E+00
    0.00000E+00         0.00000E+00         0.00000E+00
    0.75401E+00        -0.26558E+00         0.00000E+00
    0.74660E+00        -0.25227E+00         0.00000E+00
    0.73813E+00        -0.23911E+00         0.00000E+00
    0.72865E+00        -0.22614E+00         0.00000E+00
    0.71822E+00        -0.21341E+00         0.00000E+00
    0.70691E+00        -0.20094E+00         0.00000E+00
    0.69476E+00        -0.18877E+00         0.00000E+00
    0.68184E+00        -0.17693E+00         0.00000E+00
    0.66820E+00        -0.16543E+00         0.00000E+00
    0.65389E+00        -0.15430E+00         0.00000E+00
    0.63898E+00        -0.14354E+00         0.00000E+00
    0.62351E+00        -0.13318E+00         0.00000E+00
    0.60753E+00        -0.12321E+00         0.00000E+00
    0.59110E+00        -0.11365E+00         0.00000E+00
    0.57426E+00        -0.10450E+00         0.00000E+00
    0.55705E+00        -0.95761E-01         0.00000E+00
    0.53953E+00        -0.87434E-01         0.00000E+00
    0.52174E+00        -0.79517E-01         0.00000E+00
    0.50371E+00        -0.72009E-01         0.00000E+00
    0.48549E+00        -0.64905E-01         0.00000E+00
    0.46712E+00        -0.58202E-01         0.00000E+00
    0.44863E+00        -0.51892E-01         0.00000E+00
    0.43005E+00        -0.45971E-01         0.00000E+00
    0.41144E+00        -0.40432E-01         0.00000E+00
    0.39281E+00        -0.35268E-01         0.00000E+00
    0.37419E+00        -0.30472E-01         0.00000E+00
    0.35563E+00        -0.26036E-01         0.00000E+00
    0.33715E+00        -0.21953E-01         0.00000E+00
    0.31879E+00        -0.18215E-01         0.00000E+00
    0.30056E+00        -0.14814E-01         0.00000E+00
    0.28251E+00        -0.11741E-01         0.00000E+00
    0.26465E+00        -0.89873E-02         0.00000E+00
    0.24703E+00        -0.65447E-02         0.00000E+00
    0.22965E+00        -0.44032E-02         0.00000E+00
    0.21257E+00        -0.25527E-02         0.00000E+00
    0.19580E+00        -0.98244E-03         0.00000E+00
    0.17937E+00         0.31920E-03         0.00000E+00
    0.16330E+00         0.13648E-02         0.00000E+00
    0.14764E+00         0.21679E-02         0.00000E+00
    0.13240E+00         0.27434E-02         0.00000E+00
    0.11761E+00         0.31077E-02         0.00000E+00
    0.10330E+00         0.32785E-02         0.00000E+00
    0.89501E-01         0.32754E-02         0.00000E+00
    0.76228E-01         0.31198E-02         0.00000E+00
    0.63511E-01         0.28349E-02         0.00000E+00
    0.51371E-01         0.24464E-02         0.00000E+00
    0.39830E-01         0.19818E-02         0.00000E+00
    0.28907E-01         0.14712E-02         0.00000E+00
    0.18619E-01         0.94700E-03         0.00000E+00
    0.89801E-02         0.44415E-03         0.00000E+00
    0.00000E+00         0.00000E+00         0.00000E+00
    0.83847E+00        -0.30563E+00         0.00000E+00
    0.82860E+00        -0.29095E+00         0.00000E+00
    0.81761E+00        -0.27647E+00         0.00000E+00
    0.80556E+00        -0.26222E+00         0.00000E+00
    0.79254E+00        -0.24825E+00         0.00000E+00
    0.77860E+00        -0.23460E+00         0.00000E+00
    0.76381E+00        -0.22129E+00         0.00000E+00
    0.74825E+00        -0.20836E+00         0.00000E+00
    0.73198E+00        -0.19581E+00         0.00000E+00
    0.71506E+00        -0.18367E+00         0.00000E+00
    0.69756E+00        -0.17195E+00         0.00000E+00
    0.67953E+00        -0.16066E+00         0.00000E+00
    0.66103E+00        -0.14980E+00         0.00000E+00
    0.64212E+00        -0.13937E+00         0.00000E+00
    0.62284E+00        -0.12937E+00         0.00000E+00
    0.60325E+00        -0.11981E+00         0.00000E+00
    0.58340E+00        -0.11068E+00         0.00000E+00
    0.56332E+00        -0.10196E+00         0.00000E+00
    0.54307E+00        -0.93666E-01         0.00000E+00
    0.52268E+00        -0.85775E-01         0.00000E+00
    0.50219E+00        -0.78283E-01         0.00000E+00
    0.48164E+00        -0.71182E-01         0.00000E+00
    0.46106E+00        -0.64464E-01         0.00000E+00
    0.44048E+00        -0.58120E-01         0.00000E+00
    0.41994E+00        -0.52142E-01         0.00000E+00
    0.39947E+00        -0.46523E-01         0.00000E+00
    0.37910E+00        -0.41254E-01         0.00000E+00
    0.35885E+00        -0.36329E-01         0.00000E+00
    0.33875E+00        -0.31742E-01         0.00000E+00
    0.31885E+00        -0.27486E-01         0.00000E+00
    0.29915E+00        -0.23555E-01         0.00000E+00
    0.27970E+00        -0.19943E-01         0.00000E+00
    0.26051E+00        -0.16646E-01         0.00000E+00
    0.24163E+00        -0.13657E-01         0.00000E+00
    0.22308E+00        -0.10971E-01         0.00000E+00
    0.20490E+00        -0.85820E-02         0.00000E+00
    0.18711E+00        -0.64829E-02         0.00000E+00
    0.16975E+00        -0.46661E-02         0.00000E+00
    0.15286E+00        -0.31229E-02         0.00000E+00
    0.13647E+00        -0.18432E-02         0.00000E+00
    0.12062E+00        -0.81527E-03         0.00000E+00
    0.10534E+00        -0.25212E-04         0.00000E+00
    0.90679E-01         0.54296E-03         0.00000E+00
    0.76667E-01         0.90784E-03         0.00000E+00
    0.63346E-01         0.10909E-02         0.00000E+00
    0.50754E-01         0.11167E-02         0.00000E+00
    0.38929E-01         0.10132E-02         0.00000E+00
    0.27907E-01         0.81216E-03         0.00000E+00
    0.17724E-01         0.54910E-03         0.00000E+00
    0.84116E-02         0.26372E-03         0.00000E+00
    0.00000E+00         0.00000E+00         0.00000E+00
    0.93436E+00        -0.35976E+00         0.00000E+00
    0.92125E+00        -0.34375E+00         0.00000E+00
    0.90700E+00        -0.32799E+00         0.00000E+00
    0.89169E+00        -0.31251E+00         0.00000E+00
    0.87542E+00        -0.29737E+00         0.00000E+00
    0.85825E+00        -0.28259E+00         0.00000E+00
    0.84028E+00        -0.26820E+00         0.00000E+00
    0.82158E+00        -0.25424E+00         0.00000E+00
    0.80223E+00        -0.24071E+00         0.00000E+00
    0.78229E+00        -0.22762E+00         0.00000E+00
    0.76185E+00        -0.21498E+00         0.00000E+00
    0.74095E+00        -0.20280E+00         0.00000E+00
    0.71967E+00        -0.19107E+00         0.00000E+00
    0.69807E+00        -0.17978E+00         0.00000E+00
    0.67620E+00        -0.16894E+00         0.00000E+00
    0.65410E+00        -0.15852E+00         0.00000E+00
    0.63183E+00        -0.14852E+00         0.00000E+00
    0.60943E+00        -0.13893E+00         0.00000E+00
    0.58694E+00        -0.12973E+00         0.00000E+00
    0.56440E+00        -0.12091E+00         0.00000E+00
    0.54184E+00        -0.11245E+00         0.00000E+00
    0.51929E+00        -0.10435E+00         0.00000E+00
    0.49679E+00        -0.96591E-01         0.00000E+00
    0.47435E+00        -0.89164E-01         0.00000E+00
    0.45201E+00        -0.82059E-01         0.00000E+00
    0.42978E+00        -0.75267E-01         0.00000E+00
    0.40770E+00        -0.68782E-01         0.00000E+00
    0.38578E+00        -0.62599E-01         0.00000E+00
    0.36405E+00        -0.56713E-01         0.00000E+00
    0.34253E+00        -0.51122E-01         0.00000E+00
    0.32125E+00        -0.45824E-01         0.00000E+00
    0.30022E+00        -0.40820E-01         0.00000E+00
    0.27949E+00        -0.36111E-01         0.00000E+00
    0.25907E+00        -0.31697E-01         0.00000E+00
    0.23899E+00        -0.27582E-01         0.00000E+00
    0.21930E+00        -0.23767E-01         0.00000E+00
    0.20002E+00        -0.20255E-01         0.00000E+00
    0.18119E+00        -0.17047E-01         0.00000E+00
    0.16285E+00        -0.14144E-01         0.00000E+00
    0.14506E+00        -0.11545E-01         0.00000E+00
    0.12784E+00        -0.92479E-02         0.00000E+00
    0.11127E+00        -0.72478E-02         0.00000E+00
    0.95376E-01        -0.55371E-02         0.00000E+00
    0.80229E-01        -0.41046E-02         0.00000E+00
    0.65882E-01        -0.29355E-02         0.00000E+00
    0.52396E-01        -0.20106E-02         0.00000E+00
    0.39829E-01        -0.13056E-02         0.00000E+00
    0.28245E-01        -0.79093E-03         0.00000E+00
    0.17705E-01        -0.43092E-03         0.00000E+00
    0.82703E-02        -0.18357E-03         0.00000E+00
    0.00000E+00         0.00000E+00         0.00000E+00
    0.10422E+01        -0.43237E+00         0.00000E+00
    0.10249E+01        -0.41517E+00         0.00000E+00
    0.10065E+01        -0.39827E+00         0.00000E+00
    0.98716E+00        -0.38171E+00         0.00000E+00
    0.96688E+00        -0.36555E+00         0.00000E+00
    0.94580E+00        -0.34981E+00         0.00000E+00
    0.92401E+00        -0.33451E+00         0.00000E+00
    0.90161E+00        -0.31968E+00         0.00000E+00
    0.87869E+00        -0.30532E+00         0.00000E+00
    0.85533E+00        -0.29144E+00         0.00000E+00
    0.83160E+00        -0.27803E+00         0.00000E+00
    0.80758E+00        -0.26508E+00         0.00000E+00
    0.78333E+00        -0.25258E+00         0.00000E+00
    0.75891E+00        -0.24051E+00         0.00000E+00
    0.73437E+00        -0.22886E+00         0.00000E+00
    0.70977E+00        -0.21760E+00         0.00000E+00
    0.68515E+00        -0.20671E+00         0.00000E+00
    0.66054E+00        -0.19617E+00         0.00000E+00
    0.63597E+00        -0.18596E+00         0.00000E+00
    0.61148E+00        -0.17605E+00         0.00000E+00
    0.58709E+00        -0.16643E+00         0.00000E+00
    0.56281E+00        -0.15708E+00         0.00000E+00
    0.53867E+00        -0.14798E+00         0.00000E+00
    0.51468E+00        -0.13912E+00         0.00000E+00
    0.49084E+00        -0.13048E+00         0.00000E+00
    0.46717E+00        -0.12206E+00         0.00000E+00
    0.44369E+00        -0.11386E+00         0.00000E+00
    0.42039E+00        -0.10586E+00         0.00000E+00
    0.39729E+00        -0.98079E-01         0.00000E+00
    0.37441E+00        -0.90509E-01         0.00000E+00
    0.35175E+00        -0.83159E-01         0.00000E+00
    0.32932E+00        -0.76037E-01         0.00000E+00
    0.30716E+00        -0.69154E-01         0.00000E+00
    0.28527E+00        -0.62523E-01         0.00000E+00
    0.26368E+00        -0.56157E-01         0.00000E+00
    0.24242E+00        -0.50074E-01         0.00000E+00
    0.22153E+00        -0.44288E-01         0.00000E+00
    0.20105E+00        -0.38817E-01         0.00000E+00
    0.18101E+00        -0.33676E-01         0.00000E+00
    0.16148E+00        -0.28880E-01         0.00000E+00
    0.14250E+00        -0.24444E-01         0.00000E+00
    0.12415E+00        -0.20377E-01         0.00000E+00
    0.10648E+00        -0.16689E-01         0.00000E+00
    0.89573E-01        -0.13382E-01         0.00000E+00
    0.73512E-01        -0.10456E-01         0.00000E+00
    0.58382E-01        -0.79038E-02         0.00000E+00
    0.44272E-01        -0.57123E-02         0.00000E+00
    0.31279E-01        -0.38605E-02         0.00000E+00
    0.19501E-01        -0.23188E-02         0.00000E+00
    0.90405E-02        -0.10483E-02         0.00000E+00
    0.00000E+00         0.00000E+00         0.00000E+00
    0.11623E+01        -0.52876E+00         0.00000E+00
    0.11397E+01        -0.51063E+00         0.00000E+00
    0.11161E+01        -0.49287E+00         0.00000E+00
    0.10916E+01        -0.47553E+00         0.00000E+00
    0.10664E+01        -0.45865E+00         0.00000E+00
    0.10406E+01        -0.44225E+00         0.00000E+00
    0.10143E+01        -0.42636E+00         0.00000E+00
    0.98756E+00        -0.41097E+00         0.00000E+00
    0.96056E+00        -0.39608E+00         0.00000E+00
    0.93337E+00        -0.38169E+00         0.00000E+00
    0.90606E+00        -0.36776E+00         0.00000E+00
    0.87871E+00        -0.35427E+00         0.00000E+00
    0.85140E+00        -0.34120E+00         0.00000E+00
    0.82417E+00        -0.32851E+00         0.00000E+00
    0.79709E+00        -0.31616E+00         0.00000E+00
    0.77017E+00        -0.30412E+00         0.00000E+00
    0.74347E+00        -0.29234E+00         0.00000E+00
    0.71699E+00        -0.28080E+00         0.00000E+00
    0.69076E+00        -0.26946E+00         0.00000E+00
    0.66478E+00        -0.25829E+00         0.00000E+00
    0.63907E+00        -0.24726E+00         0.00000E+00
    0.61361E+00        -0.23634E+00         0.00000E+00
    0.58840E+00        -0.22551E+00         0.00000E+00
    0.56344E+00        -0.21476E+00         0.00000E+00
    0.53871E+00        -0.20407E+00         0.00000E+00
    0.51419E+00        -0.19344E+00         0.00000E+00
    0.48988E+00        -0.18287E+00         0.00000E+00
    0.46577E+00        -0.17235E+00         0.00000E+00
    0.44183E+00        -0.16189E+00         0.00000E+00
    0.41806E+00        -0.15151E+00         0.00000E+00
    0.39445E+00        -0.14121E+00         0.00000E+00
    0.37099E+00        -0.13103E+00         0.00000E+00
    0.34770E+00        -0.12098E+00         0.00000E+00
    0.32456E+00        -0.11110E+00         0.00000E+00
    0.30160E+00        -0.10140E+00         0.00000E+00
    0.27883E+00        -0.91941E-01         0.00000E+00
    0.25627E+00        -0.82741E-01         0.00000E+00
    0.23397E+00        -0.73843E-01         0.00000E+00
    0.21195E+00        -0.65284E-01         0.00000E+00
    0.19029E+00        -0.57104E-01         0.00000E+00
    0.16902E+00        -0.49340E-01         0.00000E+00
    0.14824E+00        -0.42028E-01         0.00000E+00
    0.12801E+00        -0.35200E-01         0.00000E+00
    0.10844E+00        -0.28886E-01         0.00000E+00
    0.89637E-01        -0.23109E-01         0.00000E+00
    0.71706E-01        -0.17886E-01         0.00000E+00
    0.54779E-01        -0.13225E-01         0.00000E+00
    0.38994E-01        -0.91243E-02         0.00000E+00
    0.24497E-01        -0.55725E-02         0.00000E+00
    0.11444E-01        -0.25443E-02         0.00000E+00
    0.00000E+00         0.00000E+00         0.00000E+00
    0.12942E+01        -0.65546E+00         0.00000E+00
    0.12649E+01        -0.63685E+00         0.00000E+00
    0.12347E+01        -0.61869E+00         0.00000E+00
    0.12040E+01        -0.60104E+00         0.00000E+00
    0.11727E+01        -0.58394E+00         0.00000E+00
    0.11412E+01        -0.56739E+00         0.00000E+00
    0.11095E+01        -0.55139E+00         0.00000E+00
    0.10778E+01        -0.53593E+00         0.00000E+00
    0.10462E+01        -0.52098E+00         0.00000E+00
    0.10148E+01        -0.50650E+00         0.00000E+00
    0.98369E+00        -0.49244E+00         0.00000E+00
    0.95297E+00        -0.47876E+00         0.00000E+00
    0.92268E+00        -0.46539E+00         0.00000E+00
    0.89288E+00        -0.45228E+00         0.00000E+00
    0.86360E+00        -0.43937E+00         0.00000E+00
    0.83485E+00        -0.42660E+00         0.00000E+00
    0.80664E+00        -0.41392E+00         0.00000E+00
    0.77898E+00        -0.40127E+00         0.00000E+00
    0.75183E+00        -0.38860E+00         0.00000E+00
    0.72519E+00        -0.37589E+00         0.00000E+00
    0.69902E+00        -0.36308E+00         0.00000E+00
    0.67329E+00        -0.35014E+00         0.00000E+00
    0.64795E+00        -0.33706E+00         0.00000E+00
    0.62297E+00        -0.32381E+00         0.00000E+00
    0.59828E+00        -0.31039E+00         0.00000E+00
    0.57386E+00        -0.29679E+00         0.00000E+00
    0.54964E+00        -0.28300E+00         0.00000E+00
    0.52558E+00        -0.26905E+00         0.00000E+00
    0.50163E+00        -0.25494E+00         0.00000E+00
    0.47775E+00        -0.24071E+00         0.00000E+00
    0.45389E+00        -0.22637E+00         0.00000E+00
    0.43004E+00        -0.21196E+00         0.00000E+00
    0.40614E+00        -0.19752E+00         0.00000E+00
    0.38219E+00        -0.18310E+00         0.00000E+00
    0.35817E+00        -0.16876E+00         0.00000E+00
    0.33407E+00        -0.15453E+00         0.00000E+00
    0.30991E+00        -0.14050E+00         0.00000E+00
    0.28568E+00        -0.12672E+00         0.00000E+00
    0.26143E+00        -0.11326E+00         0.00000E+00
    0.23719E+00        -0.10018E+00         0.00000E+00
    0.21302E+00        -0.87561E-01         0.00000E+00
    0.18900E+00        -0.75470E-01         0.00000E+00
    0.16521E+00        -0.63977E-01         0.00000E+00
    0.14175E+00        -0.53147E-01         0.00000E+00
    0.11877E+00        -0.43041E-01         0.00000E+00
    0.96385E-01        -0.33715E-01         0.00000E+00
    0.74775E-01        -0.25216E-01         0.00000E+00
    0.54119E-01        -0.17579E-01         0.00000E+00
    0.34620E-01        -0.10829E-01         0.00000E+00
    0.16500E-01        -0.49730E-02         0.00000E+00
    0.00000E+00         0.00000E+00         0.00000E+00
    0.14376E+01        -0.82106E+00         0.00000E+00
    0.13995E+01        -0.80261E+00         0.00000E+00
    0.13610E+01        -0.78475E+00         0.00000E+00
    0.13222E+01        -0.76751E+00         0.00000E+00
    0.12835E+01        -0.75091E+00         0.00000E+00
    0.12449E+01        -0.73493E+00         0.00000E+00
    0.12069E+01        -0.71953E+00         0.00000E+00
    0.11694E+01        -0.70466E+00         0.00000E+00
    0.11327E+01        -0.69024E+00         0.00000E+00
    0.10968E+01        -0.67619E+00         0.00000E+00
    0.10619E+01        -0.66244E+00         0.00000E+00
    0.10280E+01        -0.64888E+00         0.00000E+00
    0.99517E+00        -0.63543E+00         0.00000E+00
    0.96338E+00        -0.62201E+00         0.00000E+00
    0.93265E+00        -0.60853E+00         0.00000E+00
    0.90296E+00        -0.59491E+00         0.00000E+00
    0.87427E+00        -0.58108E+00         0.00000E+00
    0.84652E+00        -0.56697E+00         0.00000E+00
    0.81965E+00        -0.55254E+00         0.00000E+00
    0.79359E+00        -0.53773E+00         0.00000E+00
    0.76825E+00        -0.52250E+00         0.00000E+00
    0.74356E+00        -0.50683E+00         0.00000E+00
    0.71941E+00        -0.49069E+00         0.00000E+00
    0.69572E+00        -0.47406E+00         0.00000E+00
    0.67239E+00        -0.45695E+00         0.00000E+00
    0.64933E+00        -0.43936E+00         0.00000E+00
    0.62644E+00        -0.42129E+00         0.00000E+00
    0.60362E+00        -0.40278E+00         0.00000E+00
    0.58080E+00        -0.38383E+00         0.00000E+00
    0.55787E+00        -0.36450E+00         0.00000E+00
    0.53475E+00        -0.34481E+00         0.00000E+00
    0.51138E+00        -0.32483E+00         0.00000E+00
    0.48768E+00        -0.30460E+00         0.00000E+00
    0.46358E+00        -0.28420E+00         0.00000E+00
    0.43903E+00        -0.26369E+00         0.00000E+00
    0.41400E+00        -0.24315E+00         0.00000E+00
    0.38843E+00        -0.22267E+00         0.00000E+00
    0.36233E+00        -0.20233E+00         0.00000E+00
    0.33567E+00        -0.18224E+00         0.00000E+00
    0.30848E+00        -0.16250E+00         0.00000E+00
    0.28078E+00        -0.14322E+00         0.00000E+00
    0.25262E+00        -0.12451E+00         0.00000E+00
    0.22408E+00        -0.10648E+00         0.00000E+00
    0.19526E+00        -0.89249E-01         0.00000E+00
    0.16628E+00        -0.72934E-01         0.00000E+00
    0.13730E+00        -0.57646E-01         0.00000E+00
    0.10849E+00        -0.43492E-01         0.00000E+00
    0.80091E-01        -0.30571E-01         0.00000E+00
    0.52342E-01        -0.18971E-01         0.00000E+00
    0.25537E-01        -0.87631E-02         0.00000E+00
    0.00000E+00         0.00000E+00         0.00000E+00
    0.15909E+01        -0.10383E+01         0.00000E+00
    0.15410E+01        -0.10209E+01         0.00000E+00
    0.14913E+01        -0.10042E+01         0.00000E+00
    0.14421E+01        -0.98832E+00         0.00000E+00
    0.13938E+01        -0.97312E+00         0.00000E+00
    0.13468E+01        -0.95855E+00         0.00000E+00
    0.13012E+01        -0.94449E+00         0.00000E+00
    0.12573E+01        -0.93081E+00         0.00000E+00
    0.12151E+01        -0.91738E+00         0.00000E+00
    0.11749E+01        -0.90406E+00         0.00000E+00
    0.11366E+01        -0.89071E+00         0.00000E+00
    0.11002E+01        -0.87721E+00         0.00000E+00
    0.10657E+01        -0.86344E+00         0.00000E+00
    0.10331E+01        -0.84928E+00         0.00000E+00
    0.10023E+01        -0.83465E+00         0.00000E+00
    0.97307E+00        -0.81945E+00         0.00000E+00
    0.94543E+00        -0.80361E+00         0.00000E+00
    0.91920E+00        -0.78708E+00         0.00000E+00
    0.89424E+00        -0.76980E+00         0.00000E+00
    0.87042E+00        -0.75175E+00         0.00000E+00
    0.84758E+00        -0.73289E+00         0.00000E+00
    0.82556E+00        -0.71321E+00         0.00000E+00
    0.80422E+00        -0.69271E+00         0.00000E+00
    0.78340E+00        -0.67138E+00         0.00000E+00
    0.76296E+00        -0.64923E+00         0.00000E+00
    0.74274E+00        -0.62629E+00         0.00000E+00
    0.72260E+00        -0.60258E+00         0.00000E+00
    0.70240E+00        -0.57812E+00         0.00000E+00
    0.68200E+00        -0.55297E+00         0.00000E+00
    0.66125E+00        -0.52715E+00         0.00000E+00
    0.64004E+00        -0.50074E+00         0.00000E+00
    0.61823E+00        -0.47377E+00         0.00000E+00
    0.59569E+00        -0.44633E+00         0.00000E+00
    0.57233E+00        -0.41848E+00         0.00000E+00
    0.54801E+00        -0.39032E+00         0.00000E+00
    0.52266E+00        -0.36192E+00         0.00000E+00
    0.49616E+00        -0.33339E+00         0.00000E+00
    0.46846E+00        -0.30484E+00         0.00000E+00
    0.43947E+00        -0.27640E+00         0.00000E+00
    0.40915E+00        -0.24819E+00         0.00000E+00
    0.37746E+00        -0.22035E+00         0.00000E+00
    0.34441E+00        -0.19304E+00         0.00000E+00
    0.31000E+00        -0.16642E+00         0.00000E+00
    0.27429E+00        -0.14065E+00         0.00000E+00
    0.23735E+00        -0.11593E+00         0.00000E+00
    0.19930E+00        -0.92429E-01         0.00000E+00
    0.16030E+00        -0.70349E-01         0.00000E+00
    0.12058E+00        -0.49879E-01         0.00000E+00
    0.80398E-01        -0.31211E-01         0.00000E+00
    0.40073E-01        -0.14526E-01         0.00000E+00
    0.00000E+00         0.00000E+00         0.00000E+00
    0.17493E+01        -0.13284E+01         0.00000E+00
    0.16825E+01        -0.13127E+01         0.00000E+00
    0.16172E+01        -0.12981E+01         0.00000E+00
    0.15542E+01        -0.12842E+01         0.00000E+00
    0.14938E+01        -0.12710E+01         0.00000E+00
    0.14365E+01        -0.12582E+01         0.00000E+00
    0.13825E+01        -0.12456E+01         0.00000E+00
    0.13319E+01        -0.12329E+01         0.00000E+00
    0.12847E+01        -0.12199E+01         0.00000E+00
    0.12409E+01        -0.12065E+01         0.00000E+00
    0.12005E+01        -0.11925E+01         0.00000E+00
    0.11632E+01        -0.11776E+01         0.00000E+00
    0.11289E+01        -0.11619E+01         0.00000E+00
    0.10974E+01        -0.11452E+01         0.00000E+00
    0.10684E+01        -0.11274E+01         0.00000E+00
    0.10418E+01        -0.11086E+01         0.00000E+00
    0.10172E+01        -0.10886E+01         0.00000E+00
    0.99450E+00        -0.10674E+01         0.00000E+00
    0.97339E+00        -0.10450E+01         0.00000E+00
    0.95365E+00        -0.10215E+01         0.00000E+00
    0.93505E+00        -0.99686E+00         0.00000E+00
    0.91738E+00        -0.97107E+00         0.00000E+00
    0.90042E+00        -0.94417E+00         0.00000E+00
    0.88397E+00        -0.91619E+00         0.00000E+00
    0.86782E+00        -0.88716E+00         0.00000E+00
    0.85179E+00        -0.85713E+00         0.00000E+00
    0.83568E+00        -0.82613E+00         0.00000E+00
    0.81931E+00        -0.79419E+00         0.00000E+00
    0.80250E+00        -0.76138E+00         0.00000E+00
    0.78508E+00        -0.72773E+00         0.00000E+00
    0.76686E+00        -0.69330E+00         0.00000E+00
    0.74767E+00        -0.65814E+00         0.00000E+00
    0.72733E+00        -0.62232E+00         0.00000E+00
    0.70568E+00        -0.58590E+00         0.00000E+00
    0.68255E+00        -0.54895E+00         0.00000E+00
    0.65774E+00        -0.51156E+00         0.00000E+00
    0.63111E+00        -0.47381E+00         0.00000E+00
    0.60248E+00        -0.43583E+00         0.00000E+00
    0.57169E+00        -0.39772E+00         0.00000E+00
    0.53859E+00        -0.35961E+00         0.00000E+00
    0.50303E+00        -0.32166E+00         0.00000E+00
    0.46488E+00        -0.28405E+00         0.00000E+00
    0.42404E+00        -0.24696E+00         0.00000E+00
    0.38043E+00        -0.21060E+00         0.00000E+00
    0.33401E+00        -0.17523E+00         0.00000E+00
    0.28475E+00        -0.14110E+00         0.00000E+00
    0.23271E+00        -0.10850E+00         0.00000E+00
    0.17799E+00        -0.77744E-01         0.00000E+00
    0.12078E+00        -0.49170E-01         0.00000E+00
    0.61331E-01        -0.23137E-01         0.00000E+00
    0.00000E+00         0.00000E+00         0.00000E+00
    0.18946E+01        -0.17274E+01         0.00000E+00
    0.18029E+01        -0.17128E+01         0.00000E+00
    0.17162E+01        -0.16995E+01         0.00000E+00
    0.16354E+01        -0.16867E+01         0.00000E+00
    0.15608E+01        -0.16740E+01         0.00000E+00
    0.14925E+01        -0.16610E+01         0.00000E+00
    0.14304E+01        -0.16474E+01         0.00000E+00
    0.13744E+01        -0.16327E+01         0.00000E+00
    0.13242E+01        -0.16168E+01         0.00000E+00
    0.12793E+01        -0.15995E+01         0.00000E+00
    0.12394E+01        -0.15807E+01         0.00000E+00
    0.12040E+01        -0.15603E+01         0.00000E+00
    0.11727E+01        -0.15382E+01         0.00000E+00
    0.11450E+01        -0.15145E+01         0.00000E+00
    0.11205E+01        -0.14891E+01         0.00000E+00
    0.10988E+01        -0.14622E+01         0.00000E+00
    0.10794E+01        -0.14338E+01         0.00000E+00
    0.10621E+01        -0.14040E+01         0.00000E+00
    0.10465E+01        -0.13728E+01         0.00000E+00
    0.10323E+01        -0.13402E+01         0.00000E+00
    0.10193E+01        -0.13065E+01         0.00000E+00
    0.10070E+01        -0.12715E+01         0.00000E+00
    0.99540E+00        -0.12355E+01         0.00000E+00
    0.98414E+00        -0.11984E+01         0.00000E+00
    0.97303E+00        -0.11602E+01         0.00000E+00
    0.96185E+00        -0.11212E+01         0.00000E+00
    0.95040E+00        -0.10812E+01         0.00000E+00
    0.93849E+00        -0.10403E+01         0.00000E+00
    0.92590E+00        -0.99863E+00         0.00000E+00
    0.91244E+00        -0.95614E+00         0.00000E+00
    0.89792E+00        -0.91289E+00         0.00000E+00
    0.88212E+00        -0.86890E+00         0.00000E+00
    0.86484E+00        -0.82420E+00         0.00000E+00
    0.84585E+00        -0.77884E+00         0.00000E+00
    0.82492E+00        -0.73283E+00         0.00000E+00
    0.80181E+00        -0.68623E+00         0.00000E+00
    0.77625E+00        -0.63909E+00         0.00000E+00
    0.74799E+00        -0.59145E+00         0.00000E+00
    0.71674E+00        -0.54339E+00         0.00000E+00
    0.68219E+00        -0.49500E+00         0.00000E+00
    0.64403E+00        -0.44639E+00         0.00000E+00
    0.60194E+00        -0.39770E+00         0.00000E+00
    0.55561E+00        -0.34911E+00         0.00000E+00
    0.50472E+00        -0.30082E+00         0.00000E+00
    0.44895E+00        -0.25309E+00         0.00000E+00
    0.38804E+00        -0.20624E+00         0.00000E+00
    0.32175E+00        -0.16062E+00         0.00000E+00
    0.24988E+00        -0.11666E+00         0.00000E+00
    0.17230E+00        -0.74846E-01         0.00000E+00
    0.88955E-01        -0.35730E-01         0.00000E+00
    0.00000E+00         0.00000E+00         0.00000E+00
    0.19706E+01        -0.22870E+01         0.00000E+00
    0.18453E+01        -0.22683E+01         0.00000E+00
    0.17331E+01        -0.22503E+01         0.00000E+00
    0.16333E+01        -0.22320E+01         0.00000E+00
    0.15457E+01        -0.22126E+01         0.00000E+00
    0.14693E+01        -0.21916E+01         0.00000E+00
    0.14034E+01        -0.21685E+01         0.00000E+00
    0.13468E+01        -0.21430E+01         0.00000E+00
    0.12985E+01        -0.21151E+01         0.00000E+00
    0.12575E+01        -0.20848E+01         0.00000E+00
    0.12226E+01        -0.20522E+01         0.00000E+00
    0.11932E+01        -0.20175E+01         0.00000E+00
    0.11683E+01        -0.19808E+01         0.00000E+00
    0.11473E+01        -0.19423E+01         0.00000E+00
    0.11295E+01        -0.19021E+01         0.00000E+00
    0.11145E+01        -0.18606E+01         0.00000E+00
    0.11017E+01        -0.18177E+01         0.00000E+00
    0.10907E+01        -0.17737E+01         0.00000E+00
    0.10812E+01        -0.17287E+01         0.00000E+00
    0.10728E+01        -0.16828E+01         0.00000E+00
    0.10652E+01        -0.16362E+01         0.00000E+00
    0.10583E+01        -0.15888E+01         0.00000E+00
    0.10517E+01        -0.15407E+01         0.00000E+00
    0.10453E+01        -0.14921E+01         0.00000E+00
    0.10388E+01        -0.14430E+01         0.00000E+00
    0.10320E+01        -0.13933E+01         0.00000E+00
    0.10248E+01        -0.13432E+01         0.00000E+00
    0.10170E+01        -0.12926E+01         0.00000E+00
    0.10084E+01        -0.12415E+01         0.00000E+00
    0.99882E+00        -0.11900E+01         0.00000E+00
    0.98806E+00        -0.11380E+01         0.00000E+00
    0.97593E+00        -0.10856E+01         0.00000E+00
    0.96219E+00        -0.10326E+01         0.00000E+00
    0.94663E+00        -0.97908E+00         0.00000E+00
    0.92898E+00        -0.92502E+00         0.00000E+00
    0.90894E+00        -0.87036E+00         0.00000E+00
    0.88622E+00        -0.81507E+00         0.00000E+00
    0.86044E+00        -0.75912E+00         0.00000E+00
    0.83122E+00        -0.70249E+00         0.00000E+00
    0.79811E+00        -0.64515E+00         0.00000E+00
    0.76062E+00        -0.58710E+00         0.00000E+00
    0.71819E+00        -0.52836E+00         0.00000E+00
    0.67021E+00        -0.46898E+00         0.00000E+00
    0.61601E+00        -0.40905E+00         0.00000E+00
    0.55486E+00        -0.34874E+00         0.00000E+00
    0.48601E+00        -0.28828E+00         0.00000E+00
    0.40868E+00        -0.22801E+00         0.00000E+00
    0.32213E+00        -0.16840E+00         0.00000E+00
    0.22565E+00        -0.11006E+00         0.00000E+00
    0.11858E+00        -0.53687E-01         0.00000E+00
    0.00000E+00         0.00000E+00         0.00000E+00
    0.18419E+01        -0.30451E+01         0.00000E+00
    0.16856E+01        -0.30069E+01         0.00000E+00
    0.15541E+01        -0.29686E+01         0.00000E+00
    0.14458E+01        -0.29279E+01         0.00000E+00
    0.13575E+01        -0.28841E+01         0.00000E+00
    0.12859E+01        -0.28368E+01         0.00000E+00
    0.12279E+01        -0.27863E+01         0.00000E+00
    0.11811E+01        -0.27329E+01         0.00000E+00
    0.11433E+01        -0.26771E+01         0.00000E+00
    0.11128E+01        -0.26193E+01         0.00000E+00
    0.10882E+01        -0.25599E+01         0.00000E+00
    0.10684E+01        -0.24993E+01         0.00000E+00
    0.10524E+01        -0.24378E+01         0.00000E+00
    0.10396E+01        -0.23757E+01         0.00000E+00
    0.10292E+01        -0.23133E+01         0.00000E+00
    0.10209E+01        -0.22506E+01         0.00000E+00
    0.10141E+01        -0.21879E+01         0.00000E+00
    0.10085E+01        -0.21253E+01         0.00000E+00
    0.10039E+01        -0.20629E+01         0.00000E+00
    0.99987E+00        -0.20007E+01         0.00000E+00
    0.99635E+00        -0.19388E+01         0.00000E+00
    0.99308E+00        -0.18772E+01         0.00000E+00
    0.98992E+00        -0.18160E+01         0.00000E+00
    0.98669E+00        -0.17551E+01         0.00000E+00
    0.98327E+00        -0.16945E+01         0.00000E+00
    0.97952E+00        -0.16342E+01         0.00000E+00
    0.97530E+00        -0.15742E+01         0.00000E+00
    0.97050E+00        -0.15145E+01         0.00000E+00
    0.96497E+00        -0.14549E+01         0.00000E+00
    0.95857E+00        -0.13954E+01         0.00000E+00
    0.95117E+00        -0.13361E+01         0.00000E+00
    0.94258E+00        -0.12767E+01         0.00000E+00
    0.93265E+00        -0.12172E+01         0.00000E+00
    0.92116E+00        -0.11576E+01         0.00000E+00
    0.90788E+00        -0.10977E+01         0.00000E+00
    0.89256E+00        -0.10374E+01         0.00000E+00
    0.87489E+00        -0.97668E+00         0.00000E+00
    0.85452E+00        -0.91528E+00         0.00000E+00
    0.83104E+00        -0.85312E+00         0.00000E+00
    0.80396E+00        -0.79002E+00         0.00000E+00
    0.77271E+00        -0.72584E+00         0.00000E+00
    0.73662E+00        -0.66039E+00         0.00000E+00
    0.69486E+00        -0.59349E+00         0.00000E+00
    0.64648E+00        -0.52498E+00         0.00000E+00
    0.59033E+00        -0.45470E+00         0.00000E+00
    0.52502E+00        -0.38253E+00         0.00000E+00
    0.44895E+00        -0.30845E+00         0.00000E+00
    0.36027E+00        -0.23256E+00         0.00000E+00
    0.25696E+00        -0.15523E+00         0.00000E+00
    0.13716E+00        -0.77232E-01         0.00000E+00
    0.00000E+00         0.00000E+00         0.00000E+00
    0.12705E+01        -0.39277E+01         0.00000E+00
    0.11208E+01        -0.38453E+01         0.00000E+00
    0.10143E+01        -0.37559E+01         0.00000E+00
    0.93676E+00        -0.36618E+01         0.00000E+00
    0.87911E+00        -0.35647E+01         0.00000E+00
    0.83565E+00        -0.34664E+01         0.00000E+00
    0.80252E+00        -0.33678E+01         0.00000E+00
    0.77704E+00        -0.32698E+01         0.00000E+00
    0.75732E+00        -0.31729E+01         0.00000E+00
    0.74198E+00        -0.30775E+01         0.00000E+00
    0.73001E+00        -0.29838E+01         0.00000E+00
    0.72063E+00        -0.28921E+01         0.00000E+00
    0.71327E+00        -0.28023E+01         0.00000E+00
    0.70747E+00        -0.27146E+01         0.00000E+00
    0.70288E+00        -0.26288E+01         0.00000E+00
    0.69923E+00        -0.25450E+01         0.00000E+00
    0.69629E+00        -0.24632E+01         0.00000E+00
    0.69388E+00        -0.23831E+01         0.00000E+00
    0.69185E+00        -0.23049E+01         0.00000E+00
    0.69007E+00        -0.22283E+01         0.00000E+00
    0.68844E+00        -0.21533E+01         0.00000E+00
    0.68687E+00        -0.20798E+01         0.00000E+00
    0.68528E+00        -0.20078E+01         0.00000E+00
    0.68360E+00        -0.19370E+01         0.00000E+00
    0.68175E+00        -0.18675E+01         0.00000E+00
    0.67968E+00        -0.17991E+01         0.00000E+00
    0.67731E+00        -0.17318E+01         0.00000E+00
    0.67458E+00        -0.16654E+01         0.00000E+00
    0.67143E+00        -0.15998E+01         0.00000E+00
    0.66778E+00        -0.15349E+01         0.00000E+00
    0.66356E+00        -0.14707E+01         0.00000E+00
    0.65866E+00        -0.14070E+01         0.00000E+00
    0.65299E+00        -0.13436E+01         0.00000E+00
    0.64644E+00        -0.12805E+01         0.00000E+00
    0.63887E+00        -0.12175E+01         0.00000E+00
    0.63012E+00        -0.11545E+01         0.00000E+00
    0.62001E+00        -0.10913E+01         0.00000E+00
    0.60832E+00        -0.10277E+01         0.00000E+00
    0.59477E+00        -0.96341E+00         0.00000E+00
    0.57904E+00        -0.89831E+00         0.00000E+00
    0.56074E+00        -0.83208E+00         0.00000E+00
    0.53937E+00        -0.76439E+00         0.00000E+00
    0.51432E+00        -0.69487E+00         0.00000E+00
    0.48480E+00        -0.62308E+00         0.00000E+00
    0.44979E+00        -0.54850E+00         0.00000E+00
    0.40797E+00        -0.47052E+00         0.00000E+00
    0.35754E+00        -0.38840E+00         0.00000E+00
    0.29605E+00        -0.30131E+00         0.00000E+00
    0.21996E+00        -0.20826E+00         0.00000E+00
    0.12402E+00        -0.10816E+00         0.00000E+00
    0.00000E+00         0.00000E+00         0.00000E+00
    0.00000E+00        -0.45145E+01         0.00000E+00
    0.00000E+00        -0.43560E+01         0.00000E+00
    0.00000E+00        -0.41999E+01         0.00000E+00
    0.00000E+00        -0.40487E+01         0.00000E+00
    0.00000E+00        -0.39035E+01         0.00000E+00
    0.00000E+00        -0.37645E+01         0.00000E+00
    0.00000E+00        -0.36316E+01         0.00000E+00
    0.00000E+00        -0.35044E+01         0.00000E+00
    0.00000E+00        -0.33827E+01         0.00000E+00
    0.00000E+00        -0.32660E+01         0.00000E+00
    0.00000E+00        -0.31540E+01         0.00000E+00
    0.00000E+00        -0.30464E+01         0.00000E+00
    0.00000E+00        -0.29428E+01         0.00000E+00
    0.00000E+00        -0.28429E+01         0.00000E+00
    0.00000E+00        -0.27465E+01         0.00000E+00
    0.00000E+00        -0.26534E+01         0.00000E+00
    0.00000E+00        -0.25632E+01         0.00000E+00
    0.00000E+00        -0.24758E+01         0.00000E+00
    0.00000E+00        -0.23910E+01         0.00000E+00
    0.00000E+00        -0.23086E+01         0.00000E+00
    0.00000E+00        -0.22284E+01         0.00000E+00
    0.00000E+00        -0.21503E+01         0.00000E+00
    0.00000E+00        -0.20740E+01         0.00000E+00
    0.00000E+00        -0.19995E+01         0.00000E+00
    0.00000E+00        -0.19267E+01         0.00000E+00
    0.00000E+00        -0.18553E+01         0.00000E+00
    0.00000E+00        -0.17852E+01         0.00000E+00
    0.00000E+00        -0.17164E+01         0.00000E+00
    0.00000E+00        -0.16487E+01         0.00000E+00
    0.00000E+00        -0.15820E+01         0.00000E+00
    0.00000E+00        -0.15161E+01         0.00000E+00
    0.00000E+00        -0.14510E+01         0.00000E+00
    0.00000E+00        -0.13864E+01         0.00000E+00
    0.00000E+00        -0.13223E+01         0.00000E+00
    0.00000E+00        -0.12585E+01         0.00000E+00
    0.00000E+00        -0.11948E+01         0.00000E+00
    0.00000E+00        -0.11311E+01         0.00000E+00
    0.00000E+00        -0.10672E+01         0.00000E+00
    0.00000E+00        -0.10027E+01         0.00000E+00
    0.00000E+00        -0.93754E+00         0.00000E+00
    0.00000E+00        -0.87132E+00         0.00000E+00
    0.00000E+00        -0.80371E+00         0.00000E+00
    0.00000E+00        -0.73425E+00         0.00000E+00
    0.00000E+00        -0.66243E+00         0.00000E+00
    0.00000E+00        -0.58756E+00         0.00000E+00
    0.00000E+00        -0.50881E+00         0.00000E+00
    0.00000E+00        -0.42508E+00         0.00000E+00
    0.00000E+00        -0.33487E+00         0.00000E+00
    0.00000E+00        -0.23617E+00         0.00000E+00
    0.00000E+00        -0.12602E+00         0.00000E+00
    0.00000E+00         0.00000E+00         0.00000E+00
CELL_DATA       5000
VECTORS vDarcy double 
    0.92070E-06         0.29319E-08         0.00000E+00
    0.91845E-06         0.82971E-08         0.00000E+00
    0.91423E-06         0.12829E-07         0.00000E+00
    0.90850E-06         0.15811E-07         0.00000E+00
    0.90192E-06         0.17087E-07         0.00000E+00
    0.89502E-06         0.17420E-07         0.00000E+00
    0.88806E-06         0.17392E-07         0.00000E+00
    0.88113E-06         0.17235E-07         0.00000E+00
    0.87429E-06         0.16973E-07         0.00000E+00
    0.86757E-06         0.16631E-07         0.00000E+00
    0.86100E-06         0.16234E-07         0.00000E+00
    0.85459E-06         0.15802E-07         0.00000E+00
    0.84836E-06         0.15352E-07         0.00000E+00
    0.84231E-06         0.14894E-07         0.00000E+00
    0.83644E-06         0.14439E-07         0.00000E+00
    0.83076E-06         0.13993E-07         0.00000E+00
    0.82525E-06         0.13559E-07         0.00000E+00
    0.81991E-06         0.13142E-07         0.00000E+00
    0.81473E-06         0.12742E-07         0.00000E+00
    0.80971E-06         0.12361E-07         0.00000E+00
    0.80484E-06         0.11999E-07         0.00000E+00
    0.80010E-06         0.11657E-07         0.00000E+00
    0.79551E-06         0.11335E-07         0.00000E+00
    0.79103E-06         0.11032E-07         0.00000E+00
    0.78668E-06         0.10748E-07         0.00000E+00
    0.78243E-06         0.10482E-07         0.00000E+00
    0.77829E-06         0.10234E-07         0.00000E+00
    0.77424E-06         0.10003E-07         0.00000E+00
    0.77028E-06         0.97880E-08         0.00000E+00
    0.76641E-06         0.95881E-08         0.00000E+00
    0.76261E-06         0.94018E-08         0.00000E+00
    0.75888E-06         0.92275E-08         0.00000E+00
    0.75522E-06         0.90630E-08         0.00000E+00
    0.75163E-06         0.89055E-08         0.00000E+00
    0.74810E-06         0.87518E-08         0.00000E+00
    0.74463E-06         0.85974E-08         0.00000E+00
    0.74122E-06         0.84369E-08         0.00000E+00
    0.73788E-06         0.82635E-08         0.00000E+00
    0.73462E-06         0.80686E-08         0.00000E+00
    0.73143E-06         0.78415E-08         0.00000E+00
    0.72835E-06         0.75694E-08         0.00000E+00
    0.72539E-06         0.72367E-08         0.00000E+00
    0.72258E-06         0.68255E-08         0.00000E+00
    0.71995E-06         0.63156E-08         0.00000E+00
    0.71755E-06         0.56863E-08         0.00000E+00
    0.71543E-06         0.49184E-08         0.00000E+00
    0.71365E-06         0.39994E-08         0.00000E+00
    0.71226E-06         0.29326E-08         0.00000E+00
    0.71132E-06         0.17507E-08         0.00000E+00
    0.71086E-06         0.54024E-09         0.00000E+00
    0.61194E-06         0.64594E-08         0.00000E+00
    0.61174E-06         0.16976E-07         0.00000E+00
    0.61186E-06         0.24703E-07         0.00000E+00
    0.61242E-06         0.29755E-07         0.00000E+00
    0.61313E-06         0.32499E-07         0.00000E+00
    0.61366E-06         0.33840E-07         0.00000E+00
    0.61393E-06         0.34426E-07         0.00000E+00
    0.61399E-06         0.34574E-07         0.00000E+00
    0.61387E-06         0.34408E-07         0.00000E+00
    0.61363E-06         0.34023E-07         0.00000E+00
    0.61327E-06         0.33490E-07         0.00000E+00
    0.61282E-06         0.32862E-07         0.00000E+00
    0.61227E-06         0.32178E-07         0.00000E+00
    0.61164E-06         0.31464E-07         0.00000E+00
    0.61093E-06         0.30738E-07         0.00000E+00
    0.61016E-06         0.30013E-07         0.00000E+00
    0.60931E-06         0.29297E-07         0.00000E+00
    0.60842E-06         0.28597E-07         0.00000E+00
    0.60747E-06         0.27915E-07         0.00000E+00
    0.60647E-06         0.27254E-07         0.00000E+00
    0.60544E-06         0.26616E-07         0.00000E+00
    0.60438E-06         0.26001E-07         0.00000E+00
    0.60330E-06         0.25410E-07         0.00000E+00
    0.60220E-06         0.24843E-07         0.00000E+00
    0.60108E-06         0.24300E-07         0.00000E+00
    0.59995E-06         0.23782E-07         0.00000E+00
    0.59883E-06         0.23288E-07         0.00000E+00
    0.59770E-06         0.22818E-07         0.00000E+00
    0.59658E-06         0.22371E-07         0.00000E+00
    0.59547E-06         0.21948E-07         0.00000E+00
    0.59436E-06         0.21545E-07         0.00000E+00
    0.59327E-06         0.21163E-07         0.00000E+00
    0.59220E-06         0.20798E-07         0.00000E+00
    0.59114E-06         0.20447E-07         0.00000E+00
    0.59009E-06         0.20105E-07         0.00000E+00
    0.58905E-06         0.19768E-07         0.00000E+00
    0.58803E-06         0.19426E-07         0.00000E+00
    0.58701E-06         0.19069E-07         0.00000E+00
    0.58599E-06         0.18684E-07         0.00000E+00
    0.58497E-06         0.18253E-07         0.00000E+00
    0.58393E-06         0.17752E-07         0.00000E+00
    0.58287E-06         0.17154E-07         0.00000E+00
    0.58178E-06         0.16422E-07         0.00000E+00
    0.58065E-06         0.15511E-07         0.00000E+00
    0.57948E-06         0.14366E-07         0.00000E+00
    0.57826E-06         0.12921E-07         0.00000E+00
    0.57703E-06         0.11095E-07         0.00000E+00
    0.57582E-06         0.87937E-08         0.00000E+00
    0.57476E-06         0.58991E-08         0.00000E+00
    0.57404E-06         0.22631E-08         0.00000E+00
    0.29457E-06         0.44042E-08         0.00000E+00
    0.29635E-06         0.11072E-07         0.00000E+00
    0.29926E-06         0.15486E-07         0.00000E+00
    0.30280E-06         0.18475E-07         0.00000E+00
    0.30672E-06         0.20605E-07         0.00000E+00
    0.31091E-06         0.22122E-07         0.00000E+00
    0.31524E-06         0.23170E-07         0.00000E+00
    0.31958E-06         0.23874E-07         0.00000E+00
    0.32384E-06         0.24347E-07         0.00000E+00
    0.32797E-06         0.24662E-07         0.00000E+00
    0.33192E-06         0.24871E-07         0.00000E+00
    0.33567E-06         0.25003E-07         0.00000E+00
    0.33921E-06         0.25080E-07         0.00000E+00
    0.34253E-06         0.25113E-07         0.00000E+00
    0.34563E-06         0.25109E-07         0.00000E+00
    0.34852E-06         0.25071E-07         0.00000E+00
    0.35121E-06         0.25000E-07         0.00000E+00
    0.35371E-06         0.24898E-07         0.00000E+00
    0.35603E-06         0.24766E-07         0.00000E+00
    0.35818E-06         0.24603E-07         0.00000E+00
    0.36018E-06         0.24410E-07         0.00000E+00
    0.36205E-06         0.24189E-07         0.00000E+00
    0.36379E-06         0.23941E-07         0.00000E+00
    0.36542E-06         0.23668E-07         0.00000E+00
    0.36696E-06         0.23372E-07         0.00000E+00
    0.36841E-06         0.23055E-07         0.00000E+00
    0.36980E-06         0.22720E-07         0.00000E+00
    0.37113E-06         0.22370E-07         0.00000E+00
    0.37241E-06         0.22006E-07         0.00000E+00
    0.37366E-06         0.21632E-07         0.00000E+00
    0.37489E-06         0.21250E-07         0.00000E+00
    0.37610E-06         0.20862E-07         0.00000E+00
    0.37730E-06         0.20472E-07         0.00000E+00
    0.37850E-06         0.20081E-07         0.00000E+00
    0.37970E-06         0.19691E-07         0.00000E+00
    0.38091E-06         0.19302E-07         0.00000E+00
    0.38213E-06         0.18915E-07         0.00000E+00
    0.38336E-06         0.18526E-07         0.00000E+00
    0.38460E-06         0.18131E-07         0.00000E+00
    0.38584E-06         0.17723E-07         0.00000E+00
    0.38708E-06         0.17286E-07         0.00000E+00
    0.38830E-06         0.16801E-07         0.00000E+00
    0.38950E-06         0.16236E-07         0.00000E+00
    0.39066E-06         0.15546E-07         0.00000E+00
    0.39176E-06         0.14668E-07         0.00000E+00
    0.39280E-06         0.13513E-07         0.00000E+00
    0.39375E-06         0.11955E-07         0.00000E+00
    0.39457E-06         0.98221E-08         0.00000E+00
    0.39524E-06         0.68750E-08         0.00000E+00
    0.39565E-06         0.27864E-08         0.00000E+00
    0.89801E-07        -0.30554E-09         0.00000E+00
    0.91297E-07        -0.63345E-09         0.00000E+00
    0.93958E-07        -0.66387E-09         0.00000E+00
    0.97453E-07        -0.52751E-09         0.00000E+00
    0.10150E-06        -0.28064E-09         0.00000E+00
    0.10590E-06         0.90614E-10         0.00000E+00
    0.11050E-06         0.60215E-09         0.00000E+00
    0.11519E-06         0.12492E-08         0.00000E+00
    0.11992E-06         0.20097E-08         0.00000E+00
    0.12462E-06         0.28587E-08         0.00000E+00
    0.12925E-06         0.37701E-08         0.00000E+00
    0.13378E-06         0.47182E-08         0.00000E+00
    0.13818E-06         0.56787E-08         0.00000E+00
    0.14243E-06         0.66296E-08         0.00000E+00
    0.14654E-06         0.75517E-08         0.00000E+00
    0.15049E-06         0.84285E-08         0.00000E+00
    0.15428E-06         0.92466E-08         0.00000E+00
    0.15791E-06         0.99954E-08         0.00000E+00
    0.16139E-06         0.10667E-07         0.00000E+00
    0.16473E-06         0.11256E-07         0.00000E+00
    0.16793E-06         0.11759E-07         0.00000E+00
    0.17100E-06         0.12174E-07         0.00000E+00
    0.17395E-06         0.12501E-07         0.00000E+00
    0.17679E-06         0.12742E-07         0.00000E+00
    0.17953E-06         0.12899E-07         0.00000E+00
    0.18219E-06         0.12975E-07         0.00000E+00
    0.18477E-06         0.12974E-07         0.00000E+00
    0.18728E-06         0.12901E-07         0.00000E+00
    0.18974E-06         0.12761E-07         0.00000E+00
    0.19215E-06         0.12559E-07         0.00000E+00
    0.19453E-06         0.12303E-07         0.00000E+00
    0.19688E-06         0.11999E-07         0.00000E+00
    0.19922E-06         0.11654E-07         0.00000E+00
    0.20154E-06         0.11277E-07         0.00000E+00
    0.20386E-06         0.10874E-07         0.00000E+00
    0.20619E-06         0.10455E-07         0.00000E+00
    0.20851E-06         0.10028E-07         0.00000E+00
    0.21085E-06         0.96006E-08         0.00000E+00
    0.21318E-06         0.91794E-08         0.00000E+00
    0.21553E-06         0.87690E-08         0.00000E+00
    0.21786E-06         0.83705E-08         0.00000E+00
    0.22019E-06         0.79801E-08         0.00000E+00
    0.22248E-06         0.75869E-08         0.00000E+00
    0.22473E-06         0.71703E-08         0.00000E+00
    0.22689E-06         0.66973E-08         0.00000E+00
    0.22893E-06         0.61195E-08         0.00000E+00
    0.23078E-06         0.53705E-08         0.00000E+00
    0.23236E-06         0.43653E-08         0.00000E+00
    0.23356E-06         0.30028E-08         0.00000E+00
    0.23424E-06         0.11755E-08         0.00000E+00
    0.67029E-08        -0.30312E-08         0.00000E+00
    0.72256E-08        -0.79989E-08         0.00000E+00
    0.82377E-08        -0.11663E-07         0.00000E+00
    0.96883E-08        -0.14256E-07         0.00000E+00
    0.11521E-07        -0.15969E-07         0.00000E+00
    0.13674E-07        -0.16969E-07         0.00000E+00
    0.16088E-07        -0.17391E-07         0.00000E+00
    0.18707E-07        -0.17342E-07         0.00000E+00
    0.21483E-07        -0.16914E-07         0.00000E+00
    0.24376E-07        -0.16184E-07         0.00000E+00
    0.27355E-07        -0.15224E-07         0.00000E+00
    0.30390E-07        -0.14095E-07         0.00000E+00
    0.33459E-07        -0.12850E-07         0.00000E+00
    0.36541E-07        -0.11538E-07         0.00000E+00
    0.39618E-07        -0.10198E-07         0.00000E+00
    0.42678E-07        -0.88646E-08         0.00000E+00
    0.45709E-07        -0.75662E-08         0.00000E+00
    0.48702E-07        -0.63257E-08         0.00000E+00
    0.51650E-07        -0.51616E-08         0.00000E+00
    0.54548E-07        -0.40881E-08         0.00000E+00
    0.57394E-07        -0.31157E-08         0.00000E+00
    0.60185E-07        -0.22518E-08         0.00000E+00
    0.62920E-07        -0.15012E-08         0.00000E+00
    0.65601E-07        -0.86619E-09         0.00000E+00
    0.68230E-07        -0.34710E-09         0.00000E+00
    0.70807E-07         0.57460E-10         0.00000E+00
    0.73336E-07         0.35043E-09         0.00000E+00
    0.75820E-07         0.53611E-09         0.00000E+00
    0.78262E-07         0.62008E-09         0.00000E+00
    0.80666E-07         0.60911E-09         0.00000E+00
    0.83036E-07         0.51118E-09         0.00000E+00
    0.85374E-07         0.33544E-09         0.00000E+00
    0.87684E-07         0.92259E-10         0.00000E+00
    0.89969E-07        -0.20674E-09         0.00000E+00
    0.92229E-07        -0.54869E-09         0.00000E+00
    0.94467E-07        -0.91950E-09         0.00000E+00
    0.96681E-07        -0.13039E-08         0.00000E+00
    0.98872E-07        -0.16857E-08         0.00000E+00
    0.10104E-06        -0.20479E-08         0.00000E+00
    0.10317E-06        -0.23730E-08         0.00000E+00
    0.10526E-06        -0.26437E-08         0.00000E+00
    0.10731E-06        -0.28432E-08         0.00000E+00
    0.10928E-06        -0.29561E-08         0.00000E+00
    0.11118E-06        -0.29687E-08         0.00000E+00
    0.11295E-06        -0.28695E-08         0.00000E+00
    0.11459E-06        -0.26495E-08         0.00000E+00
    0.11602E-06        -0.23021E-08         0.00000E+00
    0.11721E-06        -0.18217E-08         0.00000E+00
    0.11809E-06        -0.12038E-08         0.00000E+00
    0.11858E-06        -0.44497E-09         0.00000E+00
   -0.12812E-07        -0.36072E-08         0.00000E+00
   -0.12851E-07        -0.98418E-08         0.00000E+00
   -0.12860E-07        -0.14838E-07         0.00000E+00
   -0.12778E-07        -0.18741E-07         0.00000E+00
   -0.12570E-07        -0.21689E-07         0.00000E+00
   -0.12212E-07        -0.23806E-07         0.00000E+00
   -0.11694E-07        -0.25212E-07         0.00000E+00
   -0.11014E-07        -0.26014E-07         0.00000E+00
   -0.10176E-07        -0.26311E-07         0.00000E+00
   -0.91891E-08        -0.26192E-07         0.00000E+00
   -0.80634E-08        -0.25738E-07         0.00000E+00
   -0.68114E-08        -0.25018E-07         0.00000E+00
   -0.54463E-08        -0.24095E-07         0.00000E+00
   -0.39812E-08        -0.23026E-07         0.00000E+00
   -0.24293E-08        -0.21858E-07         0.00000E+00
   -0.80327E-09        -0.20634E-07         0.00000E+00
    0.88455E-09        -0.19390E-07         0.00000E+00
    0.26226E-08        -0.18157E-07         0.00000E+00
    0.44002E-08        -0.16959E-07         0.00000E+00
    0.62073E-08        -0.15818E-07         0.00000E+00
    0.80348E-08        -0.14751E-07         0.00000E+00
    0.98746E-08        -0.13770E-07         0.00000E+00
    0.11719E-07        -0.12886E-07         0.00000E+00
    0.13563E-07        -0.12104E-07         0.00000E+00
    0.15399E-07        -0.11430E-07         0.00000E+00
    0.17222E-07        -0.10864E-07         0.00000E+00
    0.19029E-07        -0.10407E-07         0.00000E+00
    0.20815E-07        -0.10057E-07         0.00000E+00
    0.22577E-07        -0.98082E-08         0.00000E+00
    0.24312E-07        -0.96561E-08         0.00000E+00
    0.26016E-07        -0.95926E-08         0.00000E+00
    0.27687E-07        -0.96083E-08         0.00000E+00
    0.29322E-07        -0.96920E-08         0.00000E+00
    0.30920E-07        -0.98308E-08         0.00000E+00
    0.32477E-07        -0.10010E-07         0.00000E+00
    0.33990E-07        -0.10212E-07         0.00000E+00
    0.35456E-07        -0.10419E-07         0.00000E+00
    0.36873E-07        -0.10609E-07         0.00000E+00
    0.38236E-07        -0.10760E-07         0.00000E+00
    0.39540E-07        -0.10847E-07         0.00000E+00
    0.40781E-07        -0.10842E-07         0.00000E+00
    0.41952E-07        -0.10717E-07         0.00000E+00
    0.43046E-07        -0.10440E-07         0.00000E+00
    0.44054E-07        -0.99809E-08         0.00000E+00
    0.44964E-07        -0.93040E-08         0.00000E+00
    0.45765E-07        -0.83743E-08         0.00000E+00
    0.46442E-07        -0.71550E-08         0.00000E+00
    0.46979E-07        -0.56084E-08         0.00000E+00
    0.47357E-07        -0.36952E-08         0.00000E+00
    0.47557E-07        -0.13744E-08         0.00000E+00
   -0.10950E-07        -0.32328E-08         0.00000E+00
   -0.11149E-07        -0.90248E-08         0.00000E+00
   -0.11486E-07        -0.13926E-07         0.00000E+00
   -0.11900E-07        -0.17991E-07         0.00000E+00
   -0.12339E-07        -0.21286E-07         0.00000E+00
   -0.12763E-07        -0.23879E-07         0.00000E+00
   -0.13141E-07        -0.25842E-07         0.00000E+00
   -0.13448E-07        -0.27247E-07         0.00000E+00
   -0.13668E-07        -0.28166E-07         0.00000E+00
   -0.13790E-07        -0.28664E-07         0.00000E+00
   -0.13808E-07        -0.28807E-07         0.00000E+00
   -0.13718E-07        -0.28655E-07         0.00000E+00
   -0.13522E-07        -0.28262E-07         0.00000E+00
   -0.13223E-07        -0.27679E-07         0.00000E+00
   -0.12826E-07        -0.26951E-07         0.00000E+00
   -0.12337E-07        -0.26118E-07         0.00000E+00
   -0.11762E-07        -0.25216E-07         0.00000E+00
   -0.11111E-07        -0.24276E-07         0.00000E+00
   -0.10392E-07        -0.23324E-07         0.00000E+00
   -0.96132E-08        -0.22383E-07         0.00000E+00
   -0.87837E-08        -0.21472E-07         0.00000E+00
   -0.79122E-08        -0.20606E-07         0.00000E+00
   -0.70074E-08        -0.19798E-07         0.00000E+00
   -0.60775E-08        -0.19057E-07         0.00000E+00
   -0.51306E-08        -0.18391E-07         0.00000E+00
   -0.41745E-08        -0.17802E-07         0.00000E+00
   -0.32165E-08        -0.17294E-07         0.00000E+00
   -0.22635E-08        -0.16865E-07         0.00000E+00
   -0.13223E-08        -0.16515E-07         0.00000E+00
   -0.39918E-09        -0.16238E-07         0.00000E+00
    0.50005E-09        -0.16028E-07         0.00000E+00
    0.13698E-08        -0.15878E-07         0.00000E+00
    0.22049E-08        -0.15776E-07         0.00000E+00
    0.30007E-08        -0.15712E-07         0.00000E+00
    0.37526E-08        -0.15671E-07         0.00000E+00
    0.44569E-08        -0.15637E-07         0.00000E+00
    0.51100E-08        -0.15592E-07         0.00000E+00
    0.57089E-08        -0.15514E-07         0.00000E+00
    0.62513E-08        -0.15381E-07         0.00000E+00
    0.67355E-08        -0.15169E-07         0.00000E+00
    0.71602E-08        -0.14848E-07         0.00000E+00
    0.75253E-08        -0.14391E-07         0.00000E+00
    0.78312E-08        -0.13764E-07         0.00000E+00
    0.80796E-08        -0.12936E-07         0.00000E+00
    0.82730E-08        -0.11868E-07         0.00000E+00
    0.84154E-08        -0.10527E-07         0.00000E+00
    0.85119E-08        -0.88715E-08         0.00000E+00
    0.85694E-08        -0.68644E-08         0.00000E+00
    0.85964E-08        -0.44659E-08         0.00000E+00
    0.86037E-08        -0.16361E-08         0.00000E+00
   -0.50792E-08        -0.26755E-08         0.00000E+00
   -0.52811E-08        -0.75761E-08         0.00000E+00
   -0.56459E-08        -0.11863E-07         0.00000E+00
   -0.61319E-08        -0.15555E-07         0.00000E+00
   -0.67012E-08        -0.18679E-07         0.00000E+00
   -0.73205E-08        -0.21269E-07         0.00000E+00
   -0.79609E-08        -0.23363E-07         0.00000E+00
   -0.85980E-08        -0.25005E-07         0.00000E+00
   -0.92119E-08        -0.26238E-07         0.00000E+00
   -0.97864E-08        -0.27109E-07         0.00000E+00
   -0.10309E-07        -0.27661E-07         0.00000E+00
   -0.10771E-07        -0.27938E-07         0.00000E+00
   -0.11167E-07        -0.27981E-07         0.00000E+00
   -0.11492E-07        -0.27830E-07         0.00000E+00
   -0.11745E-07        -0.27520E-07         0.00000E+00
   -0.11927E-07        -0.27085E-07         0.00000E+00
   -0.12041E-07        -0.26553E-07         0.00000E+00
   -0.12090E-07        -0.25952E-07         0.00000E+00
   -0.12077E-07        -0.25306E-07         0.00000E+00
   -0.12009E-07        -0.24634E-07         0.00000E+00
   -0.11891E-07        -0.23955E-07         0.00000E+00
   -0.11731E-07        -0.23284E-07         0.00000E+00
   -0.11533E-07        -0.22631E-07         0.00000E+00
   -0.11306E-07        -0.22008E-07         0.00000E+00
   -0.11057E-07        -0.21422E-07         0.00000E+00
   -0.10791E-07        -0.20878E-07         0.00000E+00
   -0.10517E-07        -0.20378E-07         0.00000E+00
   -0.10241E-07        -0.19925E-07         0.00000E+00
   -0.99696E-08        -0.19518E-07         0.00000E+00
   -0.97087E-08        -0.19154E-07         0.00000E+00
   -0.94644E-08        -0.18829E-07         0.00000E+00
   -0.92421E-08        -0.18537E-07         0.00000E+00
   -0.90468E-08        -0.18269E-07         0.00000E+00
   -0.88830E-08        -0.18017E-07         0.00000E+00
   -0.87544E-08        -0.17769E-07         0.00000E+00
   -0.86642E-08        -0.17512E-07         0.00000E+00
   -0.86146E-08        -0.17231E-07         0.00000E+00
   -0.86069E-08        -0.16908E-07         0.00000E+00
   -0.86416E-08        -0.16526E-07         0.00000E+00
   -0.87176E-08        -0.16064E-07         0.00000E+00
   -0.88329E-08        -0.15500E-07         0.00000E+00
   -0.89838E-08        -0.14810E-07         0.00000E+00
   -0.91650E-08        -0.13969E-07         0.00000E+00
   -0.93696E-08        -0.12950E-07         0.00000E+00
   -0.95887E-08        -0.11726E-07         0.00000E+00
   -0.98115E-08        -0.10267E-07         0.00000E+00
   -0.10025E-07        -0.85463E-08         0.00000E+00
   -0.10214E-07        -0.65334E-08         0.00000E+00
   -0.10360E-07        -0.42000E-08         0.00000E+00
   -0.10444E-07        -0.15180E-08         0.00000E+00
   -0.74079E-10        -0.21783E-08         0.00000E+00
   -0.24316E-09        -0.62185E-08         0.00000E+00
   -0.55809E-09        -0.98218E-08         0.00000E+00
   -0.99259E-09        -0.12994E-07         0.00000E+00
   -0.15217E-08        -0.15748E-07         0.00000E+00
   -0.21220E-08        -0.18101E-07         0.00000E+00
   -0.27722E-08        -0.20077E-07         0.00000E+00
   -0.34532E-08        -0.21700E-07         0.00000E+00
   -0.41481E-08        -0.22999E-07         0.00000E+00
   -0.48424E-08        -0.24004E-07         0.00000E+00
   -0.55239E-08        -0.24744E-07         0.00000E+00
   -0.61828E-08        -0.25250E-07         0.00000E+00
   -0.68112E-08        -0.25551E-07         0.00000E+00
   -0.74033E-08        -0.25675E-07         0.00000E+00
   -0.79550E-08        -0.25649E-07         0.00000E+00
   -0.84640E-08        -0.25498E-07         0.00000E+00
   -0.89292E-08        -0.25245E-07         0.00000E+00
   -0.93509E-08        -0.24910E-07         0.00000E+00
   -0.97305E-08        -0.24513E-07         0.00000E+00
   -0.10070E-07        -0.24069E-07         0.00000E+00
   -0.10373E-07        -0.23594E-07         0.00000E+00
   -0.10643E-07        -0.23100E-07         0.00000E+00
   -0.10883E-07        -0.22598E-07         0.00000E+00
   -0.11100E-07        -0.22096E-07         0.00000E+00
   -0.11296E-07        -0.21600E-07         0.00000E+00
   -0.11478E-07        -0.21117E-07         0.00000E+00
   -0.11650E-07        -0.20649E-07         0.00000E+00
   -0.11817E-07        -0.20199E-07         0.00000E+00
   -0.11984E-07        -0.19767E-07         0.00000E+00
   -0.12156E-07        -0.19351E-07         0.00000E+00
   -0.12337E-07        -0.18949E-07         0.00000E+00
   -0.12531E-07        -0.18558E-07         0.00000E+00
   -0.12741E-07        -0.18171E-07         0.00000E+00
   -0.12972E-07        -0.17782E-07         0.00000E+00
   -0.13225E-07        -0.17384E-07         0.00000E+00
   -0.13501E-07        -0.16966E-07         0.00000E+00
   -0.13802E-07        -0.16519E-07         0.00000E+00
   -0.14127E-07        -0.16030E-07         0.00000E+00
   -0.14476E-07        -0.15487E-07         0.00000E+00
   -0.14846E-07        -0.14875E-07         0.00000E+00
   -0.15233E-07        -0.14179E-07         0.00000E+00
   -0.15632E-07        -0.13382E-07         0.00000E+00
   -0.16036E-07        -0.12468E-07         0.00000E+00
   -0.16438E-07        -0.11419E-07         0.00000E+00
   -0.16827E-07        -0.10216E-07         0.00000E+00
   -0.17191E-07        -0.88413E-08         0.00000E+00
   -0.17517E-07        -0.72752E-08         0.00000E+00
   -0.17789E-07        -0.54995E-08         0.00000E+00
   -0.17990E-07        -0.34961E-08         0.00000E+00
   -0.18101E-07        -0.12475E-08         0.00000E+00
    0.33764E-08        -0.17732E-08         0.00000E+00
    0.32376E-08        -0.50839E-08         0.00000E+00
    0.29749E-08        -0.80682E-08         0.00000E+00
    0.26056E-08        -0.10729E-07         0.00000E+00
    0.21468E-08        -0.13074E-07         0.00000E+00
    0.16148E-08        -0.15114E-07         0.00000E+00
    0.10248E-08        -0.16864E-07         0.00000E+00
    0.39116E-09        -0.18340E-07         0.00000E+00
   -0.27325E-09        -0.19563E-07         0.00000E+00
   -0.95682E-09        -0.20551E-07         0.00000E+00
   -0.16494E-08        -0.21326E-07         0.00000E+00
   -0.23422E-08        -0.21909E-07         0.00000E+00
   -0.30281E-08        -0.22321E-07         0.00000E+00
   -0.37009E-08        -0.22581E-07         0.00000E+00
   -0.43560E-08        -0.22709E-07         0.00000E+00
   -0.49899E-08        -0.22724E-07         0.00000E+00
   -0.56004E-08        -0.22641E-07         0.00000E+00
   -0.61860E-08        -0.22477E-07         0.00000E+00
   -0.67462E-08        -0.22247E-07         0.00000E+00
   -0.72814E-08        -0.21961E-07         0.00000E+00
   -0.77925E-08        -0.21633E-07         0.00000E+00
   -0.82812E-08        -0.21270E-07         0.00000E+00
   -0.87494E-08        -0.20883E-07         0.00000E+00
   -0.91997E-08        -0.20478E-07         0.00000E+00
   -0.96347E-08        -0.20061E-07         0.00000E+00
   -0.10057E-07        -0.19635E-07         0.00000E+00
   -0.10471E-07        -0.19205E-07         0.00000E+00
   -0.10878E-07        -0.18773E-07         0.00000E+00
   -0.11281E-07        -0.18339E-07         0.00000E+00
   -0.11685E-07        -0.17903E-07         0.00000E+00
   -0.12091E-07        -0.17464E-07         0.00000E+00
   -0.12501E-07        -0.17020E-07         0.00000E+00
   -0.12918E-07        -0.16568E-07         0.00000E+00
   -0.13344E-07        -0.16104E-07         0.00000E+00
   -0.13779E-07        -0.15623E-07         0.00000E+00
   -0.14224E-07        -0.15120E-07         0.00000E+00
   -0.14679E-07        -0.14587E-07         0.00000E+00
   -0.15142E-07        -0.14018E-07         0.00000E+00
   -0.15613E-07        -0.13404E-07         0.00000E+00
   -0.16087E-07        -0.12738E-07         0.00000E+00
   -0.16562E-07        -0.12009E-07         0.00000E+00
   -0.17032E-07        -0.11208E-07         0.00000E+00
   -0.17491E-07        -0.10325E-07         0.00000E+00
   -0.17932E-07        -0.93498E-08         0.00000E+00
   -0.18346E-07        -0.82712E-08         0.00000E+00
   -0.18723E-07        -0.70786E-08         0.00000E+00
   -0.19052E-07        -0.57611E-08         0.00000E+00
   -0.19321E-07        -0.43082E-08         0.00000E+00
   -0.19515E-07        -0.27095E-08         0.00000E+00
   -0.19621E-07        -0.95503E-09         0.00000E+00
    0.55464E-08        -0.14407E-08         0.00000E+00
    0.54302E-08        -0.41408E-08         0.00000E+00
    0.52085E-08        -0.65896E-08         0.00000E+00
    0.48942E-08        -0.87894E-08         0.00000E+00
    0.44994E-08        -0.10745E-07         0.00000E+00
    0.40362E-08        -0.12466E-07         0.00000E+00
    0.35161E-08        -0.13961E-07         0.00000E+00
    0.29500E-08        -0.15243E-07         0.00000E+00
    0.23476E-08        -0.16326E-07         0.00000E+00
    0.17183E-08        -0.17223E-07         0.00000E+00
    0.10701E-08        -0.17950E-07         0.00000E+00
    0.41020E-09        -0.18522E-07         0.00000E+00
   -0.25504E-09        -0.18953E-07         0.00000E+00
   -0.92033E-09        -0.19258E-07         0.00000E+00
   -0.15812E-08        -0.19452E-07         0.00000E+00
   -0.22342E-08        -0.19547E-07         0.00000E+00
   -0.28764E-08        -0.19555E-07         0.00000E+00
   -0.35059E-08        -0.19488E-07         0.00000E+00
   -0.41214E-08        -0.19357E-07         0.00000E+00
   -0.47220E-08        -0.19171E-07         0.00000E+00
   -0.53075E-08        -0.18939E-07         0.00000E+00
   -0.58783E-08        -0.18667E-07         0.00000E+00
   -0.64349E-08        -0.18362E-07         0.00000E+00
   -0.69783E-08        -0.18031E-07         0.00000E+00
   -0.75097E-08        -0.17676E-07         0.00000E+00
   -0.80305E-08        -0.17303E-07         0.00000E+00
   -0.85423E-08        -0.16913E-07         0.00000E+00
   -0.90464E-08        -0.16509E-07         0.00000E+00
   -0.95446E-08        -0.16092E-07         0.00000E+00
   -0.10038E-07        -0.15663E-07         0.00000E+00
   -0.10529E-07        -0.15222E-07         0.00000E+00
   -0.11017E-07        -0.14768E-07         0.00000E+00
   -0.11504E-07        -0.14298E-07         0.00000E+00
   -0.11991E-07        -0.13813E-07         0.00000E+00
   -0.12477E-07        -0.13308E-07         0.00000E+00
   -0.12963E-07        -0.12782E-07         0.00000E+00
   -0.13447E-07        -0.12230E-07         0.00000E+00
   -0.13928E-07        -0.11650E-07         0.00000E+00
   -0.14405E-07        -0.11036E-07         0.00000E+00
   -0.14875E-07        -0.10385E-07         0.00000E+00
   -0.15334E-07        -0.96916E-08         0.00000E+00
   -0.15779E-07        -0.89511E-08         0.00000E+00
   -0.16205E-07        -0.81584E-08         0.00000E+00
   -0.16606E-07        -0.73081E-08         0.00000E+00
   -0.16975E-07        -0.63951E-08         0.00000E+00
   -0.17306E-07        -0.54137E-08         0.00000E+00
   -0.17590E-07        -0.43588E-08         0.00000E+00
   -0.17819E-07        -0.32247E-08         0.00000E+00
   -0.17981E-07        -0.20064E-08         0.00000E+00
   -0.18068E-07        -0.69850E-09         0.00000E+00
    0.67823E-08        -0.11620E-08         0.00000E+00
    0.66836E-08        -0.33451E-08         0.00000E+00
    0.64948E-08        -0.53331E-08         0.00000E+00
    0.62256E-08        -0.71280E-08         0.00000E+00
    0.58858E-08        -0.87338E-08         0.00000E+00
    0.54847E-08        -0.10156E-07         0.00000E+00
    0.50313E-08        -0.11404E-07         0.00000E+00
    0.45341E-08        -0.12484E-07         0.00000E+00
    0.40011E-08        -0.13408E-07         0.00000E+00
    0.34394E-08        -0.14186E-07         0.00000E+00
    0.28557E-08        -0.14828E-07         0.00000E+00
    0.22560E-08        -0.15346E-07         0.00000E+00
    0.16454E-08        -0.15750E-07         0.00000E+00
    0.10286E-08        -0.16051E-07         0.00000E+00
    0.40954E-09        -0.16259E-07         0.00000E+00
   -0.20853E-09        -0.16384E-07         0.00000E+00
   -0.82284E-09        -0.16435E-07         0.00000E+00
   -0.14312E-08        -0.16419E-07         0.00000E+00
   -0.20320E-08        -0.16346E-07         0.00000E+00
   -0.26238E-08        -0.16221E-07         0.00000E+00
   -0.32060E-08        -0.16051E-07         0.00000E+00
   -0.37779E-08        -0.15841E-07         0.00000E+00
   -0.43394E-08        -0.15597E-07         0.00000E+00
   -0.48906E-08        -0.15323E-07         0.00000E+00
   -0.54315E-08        -0.15022E-07         0.00000E+00
   -0.59628E-08        -0.14697E-07         0.00000E+00
   -0.64847E-08        -0.14350E-07         0.00000E+00
   -0.69980E-08        -0.13985E-07         0.00000E+00
   -0.75031E-08        -0.13601E-07         0.00000E+00
   -0.80006E-08        -0.13200E-07         0.00000E+00
   -0.84909E-08        -0.12782E-07         0.00000E+00
   -0.89743E-08        -0.12348E-07         0.00000E+00
   -0.94510E-08        -0.11898E-07         0.00000E+00
   -0.99210E-08        -0.11430E-07         0.00000E+00
   -0.10384E-07        -0.10945E-07         0.00000E+00
   -0.10839E-07        -0.10440E-07         0.00000E+00
   -0.11286E-07        -0.99160E-08         0.00000E+00
   -0.11724E-07        -0.93700E-08         0.00000E+00
   -0.12150E-07        -0.88010E-08         0.00000E+00
   -0.12563E-07        -0.82073E-08         0.00000E+00
   -0.12960E-07        -0.75872E-08         0.00000E+00
   -0.13338E-07        -0.69388E-08         0.00000E+00
   -0.13694E-07        -0.62602E-08         0.00000E+00
   -0.14025E-07        -0.55496E-08         0.00000E+00
   -0.14325E-07        -0.48049E-08         0.00000E+00
   -0.14590E-07        -0.40241E-08         0.00000E+00
   -0.14815E-07        -0.32050E-08         0.00000E+00
   -0.14993E-07        -0.23455E-08         0.00000E+00
   -0.15119E-07        -0.14433E-08         0.00000E+00
   -0.15185E-07        -0.49604E-09         0.00000E+00
    0.73494E-08        -0.92586E-09         0.00000E+00
    0.72657E-08        -0.26690E-08         0.00000E+00
    0.71050E-08        -0.42619E-08         0.00000E+00
    0.68755E-08        -0.57058E-08         0.00000E+00
    0.65849E-08        -0.70039E-08         0.00000E+00
    0.62408E-08        -0.81604E-08         0.00000E+00
    0.58504E-08        -0.91810E-08         0.00000E+00
    0.54206E-08        -0.10072E-07         0.00000E+00
    0.49578E-08        -0.10841E-07         0.00000E+00
    0.44678E-08        -0.11495E-07         0.00000E+00
    0.39561E-08        -0.12042E-07         0.00000E+00
    0.34277E-08        -0.12491E-07         0.00000E+00
    0.28868E-08        -0.12848E-07         0.00000E+00
    0.23375E-08        -0.13122E-07         0.00000E+00
    0.17831E-08        -0.13320E-07         0.00000E+00
    0.12265E-08        -0.13450E-07         0.00000E+00
    0.67037E-09        -0.13517E-07         0.00000E+00
    0.11677E-09        -0.13527E-07         0.00000E+00
   -0.43253E-09        -0.13487E-07         0.00000E+00
   -0.97610E-09        -0.13402E-07         0.00000E+00
   -0.15128E-08        -0.13275E-07         0.00000E+00
   -0.20418E-08        -0.13112E-07         0.00000E+00
   -0.25623E-08        -0.12916E-07         0.00000E+00
   -0.30741E-08        -0.12690E-07         0.00000E+00
   -0.35766E-08        -0.12437E-07         0.00000E+00
   -0.40698E-08        -0.12159E-07         0.00000E+00
   -0.45535E-08        -0.11859E-07         0.00000E+00
   -0.50277E-08        -0.11538E-07         0.00000E+00
   -0.54924E-08        -0.11198E-07         0.00000E+00
   -0.59475E-08        -0.10840E-07         0.00000E+00
   -0.63929E-08        -0.10464E-07         0.00000E+00
   -0.68286E-08        -0.10071E-07         0.00000E+00
   -0.72544E-08        -0.96626E-08         0.00000E+00
   -0.76698E-08        -0.92382E-08         0.00000E+00
   -0.80745E-08        -0.87984E-08         0.00000E+00
   -0.84678E-08        -0.83431E-08         0.00000E+00
   -0.88490E-08        -0.78725E-08         0.00000E+00
   -0.92170E-08        -0.73867E-08         0.00000E+00
   -0.95707E-08        -0.68855E-08         0.00000E+00
   -0.99086E-08        -0.63691E-08         0.00000E+00
   -0.10229E-07        -0.58374E-08         0.00000E+00
   -0.10530E-07        -0.52903E-08         0.00000E+00
   -0.10810E-07        -0.47278E-08         0.00000E+00
   -0.11066E-07        -0.41499E-08         0.00000E+00
   -0.11296E-07        -0.35565E-08         0.00000E+00
   -0.11496E-07        -0.29475E-08         0.00000E+00
   -0.11663E-07        -0.23225E-08         0.00000E+00
   -0.11794E-07        -0.16811E-08         0.00000E+00
   -0.11885E-07        -0.10228E-08         0.00000E+00
   -0.11933E-07        -0.34683E-09         0.00000E+00
    0.74423E-08        -0.72668E-09         0.00000E+00
    0.73720E-08        -0.20979E-08         0.00000E+00
    0.72371E-08        -0.33551E-08         0.00000E+00
    0.70439E-08        -0.44994E-08         0.00000E+00
    0.67990E-08        -0.55326E-08         0.00000E+00
    0.65083E-08        -0.64579E-08         0.00000E+00
    0.61779E-08        -0.72792E-08         0.00000E+00
    0.58131E-08        -0.80010E-08         0.00000E+00
    0.54193E-08        -0.86285E-08         0.00000E+00
    0.50013E-08        -0.91672E-08         0.00000E+00
    0.45634E-08        -0.96225E-08         0.00000E+00
    0.41099E-08        -0.10000E-07         0.00000E+00
    0.36443E-08        -0.10306E-07         0.00000E+00
    0.31700E-08        -0.10546E-07         0.00000E+00
    0.26899E-08        -0.10724E-07         0.00000E+00
    0.22065E-08        -0.10846E-07         0.00000E+00
    0.17221E-08        -0.10918E-07         0.00000E+00
    0.12388E-08        -0.10942E-07         0.00000E+00
    0.75813E-09        -0.10923E-07         0.00000E+00
    0.28159E-09        -0.10866E-07         0.00000E+00
   -0.18961E-09        -0.10772E-07         0.00000E+00
   -0.65445E-09        -0.10646E-07         0.00000E+00
   -0.11121E-08        -0.10491E-07         0.00000E+00
   -0.15618E-08        -0.10308E-07         0.00000E+00
   -0.20029E-08        -0.10100E-07         0.00000E+00
   -0.24351E-08        -0.98694E-08         0.00000E+00
   -0.28578E-08        -0.96170E-08         0.00000E+00
   -0.32708E-08        -0.93448E-08         0.00000E+00
   -0.36736E-08        -0.90541E-08         0.00000E+00
   -0.40660E-08        -0.87460E-08         0.00000E+00
   -0.44477E-08        -0.84216E-08         0.00000E+00
   -0.48183E-08        -0.80818E-08         0.00000E+00
   -0.51775E-08        -0.77275E-08         0.00000E+00
   -0.55248E-08        -0.73595E-08         0.00000E+00
   -0.58598E-08        -0.69786E-08         0.00000E+00
   -0.61820E-08        -0.65855E-08         0.00000E+00
   -0.64907E-08        -0.61809E-08         0.00000E+00
   -0.67852E-08        -0.57656E-08         0.00000E+00
   -0.70647E-08        -0.53404E-08         0.00000E+00
   -0.73284E-08        -0.49061E-08         0.00000E+00
   -0.75752E-08        -0.44635E-08         0.00000E+00
   -0.78041E-08        -0.40135E-08         0.00000E+00
   -0.80138E-08        -0.35570E-08         0.00000E+00
   -0.82030E-08        -0.30949E-08         0.00000E+00
   -0.83703E-08        -0.26280E-08         0.00000E+00
   -0.85142E-08        -0.21570E-08         0.00000E+00
   -0.86330E-08        -0.16826E-08         0.00000E+00
   -0.87250E-08        -0.12053E-08         0.00000E+00
   -0.87883E-08        -0.72527E-09         0.00000E+00
   -0.88210E-08        -0.24265E-09         0.00000E+00
    0.72092E-08        -0.56111E-09         0.00000E+00
    0.71513E-08        -0.16225E-08         0.00000E+00
    0.70401E-08        -0.25994E-08         0.00000E+00
    0.68807E-08        -0.34923E-08         0.00000E+00
    0.66782E-08        -0.43024E-08         0.00000E+00
    0.64375E-08        -0.50316E-08         0.00000E+00
    0.61634E-08        -0.56827E-08         0.00000E+00
    0.58604E-08        -0.62586E-08         0.00000E+00
    0.55326E-08        -0.67630E-08         0.00000E+00
    0.51840E-08        -0.71995E-08         0.00000E+00
    0.48182E-08        -0.75721E-08         0.00000E+00
    0.44385E-08        -0.78848E-08         0.00000E+00
    0.40481E-08        -0.81415E-08         0.00000E+00
    0.36495E-08        -0.83461E-08         0.00000E+00
    0.32454E-08        -0.85024E-08         0.00000E+00
    0.28379E-08        -0.86139E-08         0.00000E+00
    0.24290E-08        -0.86840E-08         0.00000E+00
    0.20205E-08        -0.87158E-08         0.00000E+00
    0.16138E-08        -0.87124E-08         0.00000E+00
    0.12104E-08        -0.86764E-08         0.00000E+00
    0.81141E-09        -0.86104E-08         0.00000E+00
    0.41787E-09        -0.85165E-08         0.00000E+00
    0.30699E-10        -0.83970E-08         0.00000E+00
   -0.34932E-09        -0.82536E-08         0.00000E+00
   -0.72148E-09        -0.80882E-08         0.00000E+00
   -0.10852E-08        -0.79022E-08         0.00000E+00
   -0.14399E-08        -0.76970E-08         0.00000E+00
   -0.17851E-08        -0.74741E-08         0.00000E+00
   -0.21203E-08        -0.72345E-08         0.00000E+00
   -0.24451E-08        -0.69793E-08         0.00000E+00
   -0.27591E-08        -0.67096E-08         0.00000E+00
   -0.30620E-08        -0.64264E-08         0.00000E+00
   -0.33532E-08        -0.61307E-08         0.00000E+00
   -0.36325E-08        -0.58233E-08         0.00000E+00
   -0.38994E-08        -0.55053E-08         0.00000E+00
   -0.41535E-08        -0.51775E-08         0.00000E+00
   -0.43944E-08        -0.48411E-08         0.00000E+00
   -0.46216E-08        -0.44969E-08         0.00000E+00
   -0.48347E-08        -0.41461E-08         0.00000E+00
   -0.50331E-08        -0.37899E-08         0.00000E+00
   -0.52163E-08        -0.34292E-08         0.00000E+00
   -0.53839E-08        -0.30654E-08         0.00000E+00
   -0.55354E-08        -0.26996E-08         0.00000E+00
   -0.56700E-08        -0.23330E-08         0.00000E+00
   -0.57873E-08        -0.19667E-08         0.00000E+00
   -0.58867E-08        -0.16019E-08         0.00000E+00
   -0.59675E-08        -0.12394E-08         0.00000E+00
   -0.60292E-08        -0.88013E-09         0.00000E+00
   -0.60711E-08        -0.52470E-09         0.00000E+00
   -0.60923E-08        -0.17351E-09         0.00000E+00
    0.67664E-08        -0.42620E-09         0.00000E+00
    0.67197E-08        -0.12348E-08         0.00000E+00
    0.66300E-08        -0.19823E-08         0.00000E+00
    0.65013E-08        -0.26687E-08         0.00000E+00
    0.63376E-08        -0.32948E-08         0.00000E+00
    0.61427E-08        -0.38617E-08         0.00000E+00
    0.59205E-08        -0.43710E-08         0.00000E+00
    0.56744E-08        -0.48247E-08         0.00000E+00
    0.54078E-08        -0.52250E-08         0.00000E+00
    0.51238E-08        -0.55746E-08         0.00000E+00
    0.48254E-08        -0.58760E-08         0.00000E+00
    0.45152E-08        -0.61319E-08         0.00000E+00
    0.41958E-08        -0.63449E-08         0.00000E+00
    0.38693E-08        -0.65178E-08         0.00000E+00
    0.35379E-08        -0.66530E-08         0.00000E+00
    0.32034E-08        -0.67531E-08         0.00000E+00
    0.28674E-08        -0.68204E-08         0.00000E+00
    0.25315E-08        -0.68572E-08         0.00000E+00
    0.21971E-08        -0.68655E-08         0.00000E+00
    0.18653E-08        -0.68472E-08         0.00000E+00
    0.15372E-08        -0.68042E-08         0.00000E+00
    0.12138E-08        -0.67381E-08         0.00000E+00
    0.89602E-09        -0.66505E-08         0.00000E+00
    0.58456E-09        -0.65428E-08         0.00000E+00
    0.28016E-09        -0.64162E-08         0.00000E+00
   -0.16569E-10        -0.62720E-08         0.00000E+00
   -0.30504E-09        -0.61114E-08         0.00000E+00
   -0.58473E-09        -0.59354E-08         0.00000E+00
   -0.85517E-09        -0.57449E-08         0.00000E+00
   -0.11159E-08        -0.55410E-08         0.00000E+00
   -0.13665E-08        -0.53246E-08         0.00000E+00
   -0.16066E-08        -0.50966E-08         0.00000E+00
   -0.18359E-08        -0.48579E-08         0.00000E+00
   -0.20540E-08        -0.46094E-08         0.00000E+00
   -0.22605E-08        -0.43520E-08         0.00000E+00
   -0.24553E-08        -0.40866E-08         0.00000E+00
   -0.26379E-08        -0.38143E-08         0.00000E+00
   -0.28082E-08        -0.35361E-08         0.00000E+00
   -0.29660E-08        -0.32530E-08         0.00000E+00
   -0.31110E-08        -0.29660E-08         0.00000E+00
   -0.32430E-08        -0.26764E-08         0.00000E+00
   -0.33620E-08        -0.23853E-08         0.00000E+00
   -0.34678E-08        -0.20937E-08         0.00000E+00
   -0.35604E-08        -0.18029E-08         0.00000E+00
   -0.36396E-08        -0.15140E-08         0.00000E+00
   -0.37056E-08        -0.12279E-08         0.00000E+00
   -0.37582E-08        -0.94574E-09         0.00000E+00
   -0.37977E-08        -0.66827E-09         0.00000E+00
   -0.38239E-08        -0.39622E-09         0.00000E+00
   -0.38370E-08        -0.13010E-09         0.00000E+00
    0.62041E-08        -0.31878E-09         0.00000E+00
    0.61674E-08        -0.92566E-09         0.00000E+00
    0.60968E-08        -0.14896E-08         0.00000E+00
    0.59953E-08        -0.20104E-08         0.00000E+00
    0.58660E-08        -0.24882E-08         0.00000E+00
    0.57119E-08        -0.29237E-08         0.00000E+00
    0.55359E-08        -0.33177E-08         0.00000E+00
    0.53408E-08        -0.36715E-08         0.00000E+00
    0.51290E-08        -0.39864E-08         0.00000E+00
    0.49031E-08        -0.42640E-08         0.00000E+00
    0.46654E-08        -0.45060E-08         0.00000E+00
    0.44180E-08        -0.47140E-08         0.00000E+00
    0.41629E-08        -0.48899E-08         0.00000E+00
    0.39018E-08        -0.50353E-08         0.00000E+00
    0.36366E-08        -0.51520E-08         0.00000E+00
    0.33686E-08        -0.52416E-08         0.00000E+00
    0.30993E-08        -0.53057E-08         0.00000E+00
    0.28300E-08        -0.53459E-08         0.00000E+00
    0.25618E-08        -0.53635E-08         0.00000E+00
    0.22957E-08        -0.53599E-08         0.00000E+00
    0.20327E-08        -0.53364E-08         0.00000E+00
    0.17737E-08        -0.52941E-08         0.00000E+00
    0.15195E-08        -0.52343E-08         0.00000E+00
    0.12707E-08        -0.51578E-08         0.00000E+00
    0.10280E-08        -0.50658E-08         0.00000E+00
    0.79208E-09        -0.49590E-08         0.00000E+00
    0.56336E-09        -0.48385E-08         0.00000E+00
    0.34239E-09        -0.47050E-08         0.00000E+00
    0.12961E-09        -0.45593E-08         0.00000E+00
   -0.74560E-10        -0.44022E-08         0.00000E+00
   -0.26974E-09        -0.42345E-08         0.00000E+00
   -0.45559E-09        -0.40569E-08         0.00000E+00
   -0.63181E-09        -0.38702E-08         0.00000E+00
   -0.79813E-09        -0.36752E-08         0.00000E+00
   -0.95430E-09        -0.34725E-08         0.00000E+00
   -0.11001E-08        -0.32631E-08         0.00000E+00
   -0.12355E-08        -0.30478E-08         0.00000E+00
   -0.13602E-08        -0.28273E-08         0.00000E+00
   -0.14743E-08        -0.26026E-08         0.00000E+00
   -0.15777E-08        -0.23745E-08         0.00000E+00
   -0.16704E-08        -0.21440E-08         0.00000E+00
   -0.17526E-08        -0.19119E-08         0.00000E+00
   -0.18244E-08        -0.16793E-08         0.00000E+00
   -0.18859E-08        -0.14469E-08         0.00000E+00
   -0.19375E-08        -0.12157E-08         0.00000E+00
   -0.19795E-08        -0.98653E-09         0.00000E+00
   -0.20122E-08        -0.76020E-09         0.00000E+00
   -0.20360E-08        -0.53739E-09         0.00000E+00
   -0.20515E-08        -0.31871E-09         0.00000E+00
   -0.20590E-08        -0.10466E-09         0.00000E+00
    0.55906E-08        -0.23534E-09         0.00000E+00
    0.55624E-08        -0.68518E-09         0.00000E+00
    0.55082E-08        -0.11057E-08         0.00000E+00
    0.54302E-08        -0.14966E-08         0.00000E+00
    0.53306E-08        -0.18578E-08         0.00000E+00
    0.52117E-08        -0.21894E-08         0.00000E+00
    0.50757E-08        -0.24919E-08         0.00000E+00
    0.49246E-08        -0.27659E-08         0.00000E+00
    0.47603E-08        -0.30122E-08         0.00000E+00
    0.45849E-08        -0.32316E-08         0.00000E+00
    0.44000E-08        -0.34253E-08         0.00000E+00
    0.42073E-08        -0.35941E-08         0.00000E+00
    0.40083E-08        -0.37392E-08         0.00000E+00
    0.38044E-08        -0.38616E-08         0.00000E+00
    0.35970E-08        -0.39625E-08         0.00000E+00
    0.33873E-08        -0.40429E-08         0.00000E+00
    0.31765E-08        -0.41038E-08         0.00000E+00
    0.29655E-08        -0.41462E-08         0.00000E+00
    0.27553E-08        -0.41712E-08         0.00000E+00
    0.25469E-08        -0.41795E-08         0.00000E+00
    0.23409E-08        -0.41721E-08         0.00000E+00
    0.21382E-08        -0.41497E-08         0.00000E+00
    0.19393E-08        -0.41133E-08         0.00000E+00
    0.17451E-08        -0.40634E-08         0.00000E+00
    0.15559E-08        -0.40009E-08         0.00000E+00
    0.13723E-08        -0.39263E-08         0.00000E+00
    0.11949E-08        -0.38404E-08         0.00000E+00
    0.10240E-08        -0.37438E-08         0.00000E+00
    0.86013E-09        -0.36370E-08         0.00000E+00
    0.70353E-09        -0.35207E-08         0.00000E+00
    0.55458E-09        -0.33954E-08         0.00000E+00
    0.41357E-09        -0.32617E-08         0.00000E+00
    0.28073E-09        -0.31202E-08         0.00000E+00
    0.15629E-09        -0.29714E-08         0.00000E+00
    0.40403E-10        -0.28160E-08         0.00000E+00
   -0.66800E-10        -0.26545E-08         0.00000E+00
   -0.16525E-09        -0.24875E-08         0.00000E+00
   -0.25491E-09        -0.23156E-08         0.00000E+00
   -0.33582E-09        -0.21394E-08         0.00000E+00
   -0.40806E-09        -0.19596E-08         0.00000E+00
   -0.47178E-09        -0.17767E-08         0.00000E+00
   -0.52719E-09        -0.15913E-08         0.00000E+00
   -0.57456E-09        -0.14042E-08         0.00000E+00
   -0.61423E-09        -0.12158E-08         0.00000E+00
   -0.64660E-09        -0.10269E-08         0.00000E+00
   -0.67213E-09        -0.83783E-09         0.00000E+00
   -0.69135E-09        -0.64927E-09         0.00000E+00
   -0.70482E-09        -0.46168E-09         0.00000E+00
   -0.71316E-09        -0.27551E-09         0.00000E+00
   -0.71701E-09        -0.91159E-10         0.00000E+00
    0.49747E-08        -0.17216E-09         0.00000E+00
    0.49537E-08        -0.50282E-09         0.00000E+00
    0.49131E-08        -0.81410E-09         0.00000E+00
    0.48546E-08        -0.11056E-08         0.00000E+00
    0.47799E-08        -0.13771E-08         0.00000E+00
    0.46904E-08        -0.16285E-08         0.00000E+00
    0.45879E-08        -0.18599E-08         0.00000E+00
    0.44737E-08        -0.20716E-08         0.00000E+00
    0.43495E-08        -0.22640E-08         0.00000E+00
    0.42164E-08        -0.24375E-08         0.00000E+00
    0.40760E-08        -0.25926E-08         0.00000E+00
    0.39293E-08        -0.27299E-08         0.00000E+00
    0.37777E-08        -0.28500E-08         0.00000E+00
    0.36221E-08        -0.29536E-08         0.00000E+00
    0.34637E-08        -0.30413E-08         0.00000E+00
    0.33033E-08        -0.31137E-08         0.00000E+00
    0.31419E-08        -0.31715E-08         0.00000E+00
    0.29802E-08        -0.32153E-08         0.00000E+00
    0.28191E-08        -0.32457E-08         0.00000E+00
    0.26593E-08        -0.32633E-08         0.00000E+00
    0.25013E-08        -0.32687E-08         0.00000E+00
    0.23460E-08        -0.32625E-08         0.00000E+00
    0.21937E-08        -0.32450E-08         0.00000E+00
    0.20450E-08        -0.32170E-08         0.00000E+00
    0.19005E-08        -0.31787E-08         0.00000E+00
    0.17605E-08        -0.31308E-08         0.00000E+00
    0.16254E-08        -0.30737E-08         0.00000E+00
    0.14958E-08        -0.30077E-08         0.00000E+00
    0.13718E-08        -0.29334E-08         0.00000E+00
    0.12537E-08        -0.28512E-08         0.00000E+00
    0.11420E-08        -0.27613E-08         0.00000E+00
    0.10367E-08        -0.26643E-08         0.00000E+00
    0.93815E-09        -0.25605E-08         0.00000E+00
    0.84644E-09        -0.24503E-08         0.00000E+00
    0.76169E-09        -0.23340E-08         0.00000E+00
    0.68400E-09        -0.22120E-08         0.00000E+00
    0.61337E-09        -0.20846E-08         0.00000E+00
    0.54980E-09        -0.19523E-08         0.00000E+00
    0.49320E-09        -0.18152E-08         0.00000E+00
    0.44344E-09        -0.16738E-08         0.00000E+00
    0.40034E-09        -0.15283E-08         0.00000E+00
    0.36365E-09        -0.13792E-08         0.00000E+00
    0.33304E-09        -0.12265E-08         0.00000E+00
    0.30815E-09        -0.10707E-08         0.00000E+00
    0.28855E-09        -0.91208E-09         0.00000E+00
    0.27372E-09        -0.75082E-09         0.00000E+00
    0.26313E-09        -0.58723E-09         0.00000E+00
    0.25618E-09        -0.42157E-09         0.00000E+00
    0.25222E-09        -0.25411E-09         0.00000E+00
    0.25057E-09        -0.85102E-10         0.00000E+00
    0.43891E-08        -0.12562E-09         0.00000E+00
    0.43738E-08        -0.36818E-09         0.00000E+00
    0.43443E-08        -0.59833E-09         0.00000E+00
    0.43017E-08        -0.81564E-09         0.00000E+00
    0.42470E-08        -0.10198E-08         0.00000E+00
    0.41815E-08        -0.12107E-08         0.00000E+00
    0.41061E-08        -0.13882E-08         0.00000E+00
    0.40221E-08        -0.15523E-08         0.00000E+00
    0.39303E-08        -0.17032E-08         0.00000E+00
    0.38319E-08        -0.18411E-08         0.00000E+00
    0.37278E-08        -0.19661E-08         0.00000E+00
    0.36188E-08        -0.20785E-08         0.00000E+00
    0.35059E-08        -0.21787E-08         0.00000E+00
    0.33899E-08        -0.22670E-08         0.00000E+00
    0.32715E-08        -0.23438E-08         0.00000E+00
    0.31515E-08        -0.24093E-08         0.00000E+00
    0.30306E-08        -0.24641E-08         0.00000E+00
    0.29094E-08        -0.25083E-08         0.00000E+00
    0.27884E-08        -0.25425E-08         0.00000E+00
    0.26684E-08        -0.25670E-08         0.00000E+00
    0.25497E-08        -0.25821E-08         0.00000E+00
    0.24329E-08        -0.25882E-08         0.00000E+00
    0.23185E-08        -0.25856E-08         0.00000E+00
    0.22068E-08        -0.25747E-08         0.00000E+00
    0.20983E-08        -0.25558E-08         0.00000E+00
    0.19934E-08        -0.25291E-08         0.00000E+00
    0.18923E-08        -0.24949E-08         0.00000E+00
    0.17954E-08        -0.24537E-08         0.00000E+00
    0.17030E-08        -0.24055E-08         0.00000E+00
    0.16153E-08        -0.23506E-08         0.00000E+00
    0.15326E-08        -0.22894E-08         0.00000E+00
    0.14550E-08        -0.22219E-08         0.00000E+00
    0.13827E-08        -0.21485E-08         0.00000E+00
    0.13158E-08        -0.20692E-08         0.00000E+00
    0.12544E-08        -0.19843E-08         0.00000E+00
    0.11986E-08        -0.18939E-08         0.00000E+00
    0.11483E-08        -0.17981E-08         0.00000E+00
    0.11035E-08        -0.16970E-08         0.00000E+00
    0.10641E-08        -0.15906E-08         0.00000E+00
    0.10300E-08        -0.14791E-08         0.00000E+00
    0.10010E-08        -0.13625E-08         0.00000E+00
    0.97684E-09        -0.12407E-08         0.00000E+00
    0.95722E-09        -0.11139E-08         0.00000E+00
    0.94181E-09        -0.98188E-09         0.00000E+00
    0.93018E-09        -0.84477E-09         0.00000E+00
    0.92188E-09        -0.70254E-09         0.00000E+00
    0.91641E-09        -0.55521E-09         0.00000E+00
    0.91322E-09        -0.40283E-09         0.00000E+00
    0.91170E-09        -0.24548E-09         0.00000E+00
    0.91126E-09        -0.83288E-10         0.00000E+00
    0.38534E-08        -0.92314E-10         0.00000E+00
    0.38427E-08        -0.27159E-09         0.00000E+00
    0.38218E-08        -0.44311E-09         0.00000E+00
    0.37916E-08        -0.60648E-09         0.00000E+00
    0.37527E-08        -0.76141E-09         0.00000E+00
    0.37060E-08        -0.90768E-09         0.00000E+00
    0.36521E-08        -0.10451E-08         0.00000E+00
    0.35919E-08        -0.11737E-08         0.00000E+00
    0.35259E-08        -0.12933E-08         0.00000E+00
    0.34549E-08        -0.14040E-08         0.00000E+00
    0.33795E-08        -0.15058E-08         0.00000E+00
    0.33005E-08        -0.15989E-08         0.00000E+00
    0.32184E-08        -0.16834E-08         0.00000E+00
    0.31338E-08        -0.17594E-08         0.00000E+00
    0.30473E-08        -0.18271E-08         0.00000E+00
    0.29595E-08        -0.18867E-08         0.00000E+00
    0.28708E-08        -0.19384E-08         0.00000E+00
    0.27817E-08        -0.19823E-08         0.00000E+00
    0.26927E-08        -0.20188E-08         0.00000E+00
    0.26042E-08        -0.20480E-08         0.00000E+00
    0.25166E-08        -0.20700E-08         0.00000E+00
    0.24304E-08        -0.20852E-08         0.00000E+00
    0.23459E-08        -0.20937E-08         0.00000E+00
    0.22633E-08        -0.20957E-08         0.00000E+00
    0.21832E-08        -0.20914E-08         0.00000E+00
    0.21056E-08        -0.20810E-08         0.00000E+00
    0.20310E-08        -0.20646E-08         0.00000E+00
    0.19595E-08        -0.20423E-08         0.00000E+00
    0.18915E-08        -0.20144E-08         0.00000E+00
    0.18270E-08        -0.19809E-08         0.00000E+00
    0.17663E-08        -0.19419E-08         0.00000E+00
    0.17095E-08        -0.18975E-08         0.00000E+00
    0.16568E-08        -0.18477E-08         0.00000E+00
    0.16082E-08        -0.17926E-08         0.00000E+00
    0.15638E-08        -0.17321E-08         0.00000E+00
    0.15236E-08        -0.16662E-08         0.00000E+00
    0.14877E-08        -0.15947E-08         0.00000E+00
    0.14560E-08        -0.15177E-08         0.00000E+00
    0.14284E-08        -0.14349E-08         0.00000E+00
    0.14048E-08        -0.13462E-08         0.00000E+00
    0.13849E-08        -0.12513E-08         0.00000E+00
    0.13688E-08        -0.11501E-08         0.00000E+00
    0.13559E-08        -0.10423E-08         0.00000E+00
    0.13462E-08        -0.92756E-09         0.00000E+00
    0.13391E-08        -0.80575E-09         0.00000E+00
    0.13344E-08        -0.67658E-09         0.00000E+00
    0.13316E-08        -0.53989E-09         0.00000E+00
    0.13303E-08        -0.39551E-09         0.00000E+00
    0.13299E-08        -0.24339E-09         0.00000E+00
    0.13300E-08        -0.83531E-10         0.00000E+00
    0.33774E-08        -0.69228E-10         0.00000E+00
    0.33701E-08        -0.20441E-09         0.00000E+00
    0.33558E-08        -0.33476E-09         0.00000E+00
    0.33351E-08        -0.45998E-09         0.00000E+00
    0.33083E-08        -0.57977E-09         0.00000E+00
    0.32760E-08        -0.69394E-09         0.00000E+00
    0.32385E-08        -0.80231E-09         0.00000E+00
    0.31965E-08        -0.90475E-09         0.00000E+00
    0.31502E-08        -0.10012E-08         0.00000E+00
    0.31003E-08        -0.10915E-08         0.00000E+00
    0.30472E-08        -0.11758E-08         0.00000E+00
    0.29912E-08        -0.12540E-08         0.00000E+00
    0.29329E-08        -0.13262E-08         0.00000E+00
    0.28726E-08        -0.13923E-08         0.00000E+00
    0.28107E-08        -0.14525E-08         0.00000E+00
    0.27477E-08        -0.15069E-08         0.00000E+00
    0.26839E-08        -0.15556E-08         0.00000E+00
    0.26197E-08        -0.15985E-08         0.00000E+00
    0.25554E-08        -0.16360E-08         0.00000E+00
    0.24913E-08        -0.16679E-08         0.00000E+00
    0.24277E-08        -0.16946E-08         0.00000E+00
    0.23650E-08        -0.17160E-08         0.00000E+00
    0.23035E-08        -0.17323E-08         0.00000E+00
    0.22433E-08        -0.17436E-08         0.00000E+00
    0.21847E-08        -0.17499E-08         0.00000E+00
    0.21280E-08        -0.17514E-08         0.00000E+00
    0.20735E-08        -0.17481E-08         0.00000E+00
    0.20211E-08        -0.17400E-08         0.00000E+00
    0.19713E-08        -0.17272E-08         0.00000E+00
    0.19241E-08        -0.17097E-08         0.00000E+00
    0.18797E-08        -0.16874E-08         0.00000E+00
    0.18381E-08        -0.16604E-08         0.00000E+00
    0.17995E-08        -0.16284E-08         0.00000E+00
    0.17640E-08        -0.15915E-08         0.00000E+00
    0.17317E-08        -0.15494E-08         0.00000E+00
    0.17024E-08        -0.15019E-08         0.00000E+00
    0.16764E-08        -0.14489E-08         0.00000E+00
    0.16534E-08        -0.13900E-08         0.00000E+00
    0.16334E-08        -0.13249E-08         0.00000E+00
    0.16165E-08        -0.12532E-08         0.00000E+00
    0.16023E-08        -0.11746E-08         0.00000E+00
    0.15908E-08        -0.10885E-08         0.00000E+00
    0.15819E-08        -0.99470E-09         0.00000E+00
    0.15751E-08        -0.89256E-09         0.00000E+00
    0.15703E-08        -0.78171E-09         0.00000E+00
    0.15673E-08        -0.66173E-09         0.00000E+00
    0.15655E-08        -0.53226E-09         0.00000E+00
    0.15649E-08        -0.39299E-09         0.00000E+00
    0.15648E-08        -0.24374E-09         0.00000E+00
    0.15650E-08        -0.84409E-10         0.00000E+00
    0.29637E-08        -0.53784E-10         0.00000E+00
    0.29589E-08        -0.15926E-09         0.00000E+00
    0.29495E-08        -0.26161E-09         0.00000E+00
    0.29358E-08        -0.36059E-09         0.00000E+00
    0.29179E-08        -0.45597E-09         0.00000E+00
    0.28962E-08        -0.54759E-09         0.00000E+00
    0.28710E-08        -0.63528E-09         0.00000E+00
    0.28425E-08        -0.71894E-09         0.00000E+00
    0.28110E-08        -0.79846E-09         0.00000E+00
    0.27768E-08        -0.87378E-09         0.00000E+00
    0.27402E-08        -0.94486E-09         0.00000E+00
    0.27015E-08        -0.10117E-08         0.00000E+00
    0.26610E-08        -0.10742E-08         0.00000E+00
    0.26189E-08        -0.11324E-08         0.00000E+00
    0.25756E-08        -0.11865E-08         0.00000E+00
    0.25312E-08        -0.12362E-08         0.00000E+00
    0.24861E-08        -0.12818E-08         0.00000E+00
    0.24406E-08        -0.13233E-08         0.00000E+00
    0.23948E-08        -0.13606E-08         0.00000E+00
    0.23490E-08        -0.13939E-08         0.00000E+00
    0.23034E-08        -0.14232E-08         0.00000E+00
    0.22583E-08        -0.14485E-08         0.00000E+00
    0.22139E-08        -0.14699E-08         0.00000E+00
    0.21704E-08        -0.14874E-08         0.00000E+00
    0.21279E-08        -0.15010E-08         0.00000E+00
    0.20867E-08        -0.15108E-08         0.00000E+00
    0.20468E-08        -0.15166E-08         0.00000E+00
    0.20086E-08        -0.15186E-08         0.00000E+00
    0.19720E-08        -0.15166E-08         0.00000E+00
    0.19373E-08        -0.15106E-08         0.00000E+00
    0.19045E-08        -0.15004E-08         0.00000E+00
    0.18738E-08        -0.14860E-08         0.00000E+00
    0.18452E-08        -0.14670E-08         0.00000E+00
    0.18188E-08        -0.14434E-08         0.00000E+00
    0.17946E-08        -0.14148E-08         0.00000E+00
    0.17727E-08        -0.13809E-08         0.00000E+00
    0.17531E-08        -0.13413E-08         0.00000E+00
    0.17357E-08        -0.12957E-08         0.00000E+00
    0.17205E-08        -0.12436E-08         0.00000E+00
    0.17075E-08        -0.11845E-08         0.00000E+00
    0.16965E-08        -0.11178E-08         0.00000E+00
    0.16875E-08        -0.10430E-08         0.00000E+00
    0.16804E-08        -0.95948E-09         0.00000E+00
    0.16749E-08        -0.86663E-09         0.00000E+00
    0.16709E-08        -0.76389E-09         0.00000E+00
    0.16682E-08        -0.65070E-09         0.00000E+00
    0.16666E-08        -0.52658E-09         0.00000E+00
    0.16658E-08        -0.39111E-09         0.00000E+00
    0.16655E-08        -0.24400E-09         0.00000E+00
    0.16655E-08        -0.85063E-10         0.00000E+00
    0.26103E-08        -0.43863E-10         0.00000E+00
    0.26073E-08        -0.13006E-09         0.00000E+00
    0.26013E-08        -0.21399E-09         0.00000E+00
    0.25925E-08        -0.29547E-09         0.00000E+00
    0.25810E-08        -0.37433E-09         0.00000E+00
    0.25670E-08        -0.45046E-09         0.00000E+00
    0.25505E-08        -0.52374E-09         0.00000E+00
    0.25317E-08        -0.59409E-09         0.00000E+00
    0.25108E-08        -0.66144E-09         0.00000E+00
    0.24880E-08        -0.72575E-09         0.00000E+00
    0.24634E-08        -0.78697E-09         0.00000E+00
    0.24372E-08        -0.84509E-09         0.00000E+00
    0.24096E-08        -0.90009E-09         0.00000E+00
    0.23808E-08        -0.95197E-09         0.00000E+00
    0.23509E-08        -0.10007E-08         0.00000E+00
    0.23201E-08        -0.10464E-08         0.00000E+00
    0.22887E-08        -0.10890E-08         0.00000E+00
    0.22567E-08        -0.11285E-08         0.00000E+00
    0.22244E-08        -0.11649E-08         0.00000E+00
    0.21920E-08        -0.11983E-08         0.00000E+00
    0.21595E-08        -0.12287E-08         0.00000E+00
    0.21272E-08        -0.12561E-08         0.00000E+00
    0.20952E-08        -0.12804E-08         0.00000E+00
    0.20638E-08        -0.13017E-08         0.00000E+00
    0.20329E-08        -0.13199E-08         0.00000E+00
    0.20027E-08        -0.13350E-08         0.00000E+00
    0.19735E-08        -0.13470E-08         0.00000E+00
    0.19452E-08        -0.13557E-08         0.00000E+00
    0.19181E-08        -0.13610E-08         0.00000E+00
    0.18921E-08        -0.13629E-08         0.00000E+00
    0.18675E-08        -0.13610E-08         0.00000E+00
    0.18442E-08        -0.13553E-08         0.00000E+00
    0.18223E-08        -0.13455E-08         0.00000E+00
    0.18020E-08        -0.13312E-08         0.00000E+00
    0.17832E-08        -0.13121E-08         0.00000E+00
    0.17660E-08        -0.12878E-08         0.00000E+00
    0.17504E-08        -0.12580E-08         0.00000E+00
    0.17363E-08        -0.12219E-08         0.00000E+00
    0.17239E-08        -0.11792E-08         0.00000E+00
    0.17130E-08        -0.11292E-08         0.00000E+00
    0.17036E-08        -0.10713E-08         0.00000E+00
    0.16956E-08        -0.10048E-08         0.00000E+00
    0.16890E-08        -0.92903E-09         0.00000E+00
    0.16838E-08        -0.84326E-09         0.00000E+00
    0.16797E-08        -0.74682E-09         0.00000E+00
    0.16766E-08        -0.63909E-09         0.00000E+00
    0.16745E-08        -0.51947E-09         0.00000E+00
    0.16732E-08        -0.38748E-09         0.00000E+00
    0.16724E-08        -0.24274E-09         0.00000E+00
    0.16722E-08        -0.85026E-10         0.00000E+00
    0.23122E-08        -0.37777E-10         0.00000E+00
    0.23104E-08        -0.11198E-09         0.00000E+00
    0.23067E-08        -0.18421E-09         0.00000E+00
    0.23013E-08        -0.25435E-09         0.00000E+00
    0.22942E-08        -0.32230E-09         0.00000E+00
    0.22854E-08        -0.38800E-09         0.00000E+00
    0.22749E-08        -0.45138E-09         0.00000E+00
    0.22629E-08        -0.51241E-09         0.00000E+00
    0.22493E-08        -0.57106E-09         0.00000E+00
    0.22344E-08        -0.62731E-09         0.00000E+00
    0.22182E-08        -0.68117E-09         0.00000E+00
    0.22007E-08        -0.73263E-09         0.00000E+00
    0.21821E-08        -0.78169E-09         0.00000E+00
    0.21626E-08        -0.82837E-09         0.00000E+00
    0.21421E-08        -0.87269E-09         0.00000E+00
    0.21209E-08        -0.91465E-09         0.00000E+00
    0.20991E-08        -0.95427E-09         0.00000E+00
    0.20767E-08        -0.99156E-09         0.00000E+00
    0.20539E-08        -0.10265E-08         0.00000E+00
    0.20309E-08        -0.10592E-08         0.00000E+00
    0.20077E-08        -0.10895E-08         0.00000E+00
    0.19844E-08        -0.11175E-08         0.00000E+00
    0.19611E-08        -0.11431E-08         0.00000E+00
    0.19381E-08        -0.11663E-08         0.00000E+00
    0.19153E-08        -0.11870E-08         0.00000E+00
    0.18929E-08        -0.12052E-08         0.00000E+00
    0.18710E-08        -0.12208E-08         0.00000E+00
    0.18496E-08        -0.12337E-08         0.00000E+00
    0.18289E-08        -0.12436E-08         0.00000E+00
    0.18089E-08        -0.12505E-08         0.00000E+00
    0.17897E-08        -0.12541E-08         0.00000E+00
    0.17713E-08        -0.12542E-08         0.00000E+00
    0.17539E-08        -0.12504E-08         0.00000E+00
    0.17375E-08        -0.12424E-08         0.00000E+00
    0.17220E-08        -0.12298E-08         0.00000E+00
    0.17076E-08        -0.12122E-08         0.00000E+00
    0.16943E-08        -0.11890E-08         0.00000E+00
    0.16821E-08        -0.11597E-08         0.00000E+00
    0.16710E-08        -0.11237E-08         0.00000E+00
    0.16611E-08        -0.10803E-08         0.00000E+00
    0.16522E-08        -0.10289E-08         0.00000E+00
    0.16444E-08        -0.96860E-09         0.00000E+00
    0.16377E-08        -0.89877E-09         0.00000E+00
    0.16320E-08        -0.81864E-09         0.00000E+00
    0.16273E-08        -0.72744E-09         0.00000E+00
    0.16235E-08        -0.62450E-09         0.00000E+00
    0.16207E-08        -0.50918E-09         0.00000E+00
    0.16186E-08        -0.38092E-09         0.00000E+00
    0.16173E-08        -0.23933E-09         0.00000E+00
    0.16168E-08        -0.84102E-10         0.00000E+00
    0.20629E-08        -0.34227E-10         0.00000E+00
    0.20618E-08        -0.10128E-09         0.00000E+00
    0.20597E-08        -0.16632E-09         0.00000E+00
    0.20565E-08        -0.22929E-09         0.00000E+00
    0.20522E-08        -0.29016E-09         0.00000E+00
    0.20468E-08        -0.34891E-09         0.00000E+00
    0.20403E-08        -0.40553E-09         0.00000E+00
    0.20327E-08        -0.46003E-09         0.00000E+00
    0.20240E-08        -0.51243E-09         0.00000E+00
    0.20143E-08        -0.56276E-09         0.00000E+00
    0.20036E-08        -0.61105E-09         0.00000E+00
    0.19920E-08        -0.65734E-09         0.00000E+00
    0.19795E-08        -0.70165E-09         0.00000E+00
    0.19662E-08        -0.74403E-09         0.00000E+00
    0.19521E-08        -0.78451E-09         0.00000E+00
    0.19374E-08        -0.82310E-09         0.00000E+00
    0.19220E-08        -0.85985E-09         0.00000E+00
    0.19062E-08        -0.89476E-09         0.00000E+00
    0.18898E-08        -0.92784E-09         0.00000E+00
    0.18731E-08        -0.95910E-09         0.00000E+00
    0.18562E-08        -0.98853E-09         0.00000E+00
    0.18390E-08        -0.10161E-08         0.00000E+00
    0.18217E-08        -0.10418E-08         0.00000E+00
    0.18043E-08        -0.10655E-08         0.00000E+00
    0.17870E-08        -0.10872E-08         0.00000E+00
    0.17698E-08        -0.11069E-08         0.00000E+00
    0.17527E-08        -0.11243E-08         0.00000E+00
    0.17359E-08        -0.11393E-08         0.00000E+00
    0.17194E-08        -0.11518E-08         0.00000E+00
    0.17033E-08        -0.11616E-08         0.00000E+00
    0.16876E-08        -0.11685E-08         0.00000E+00
    0.16724E-08        -0.11720E-08         0.00000E+00
    0.16577E-08        -0.11720E-08         0.00000E+00
    0.16436E-08        -0.11680E-08         0.00000E+00
    0.16301E-08        -0.11596E-08         0.00000E+00
    0.16173E-08        -0.11464E-08         0.00000E+00
    0.16053E-08        -0.11278E-08         0.00000E+00
    0.15939E-08        -0.11031E-08         0.00000E+00
    0.15833E-08        -0.10719E-08         0.00000E+00
    0.15736E-08        -0.10333E-08         0.00000E+00
    0.15646E-08        -0.98667E-09         0.00000E+00
    0.15565E-08        -0.93124E-09         0.00000E+00
    0.15492E-08        -0.86623E-09         0.00000E+00
    0.15428E-08        -0.79084E-09         0.00000E+00
    0.15374E-08        -0.70432E-09         0.00000E+00
    0.15328E-08        -0.60595E-09         0.00000E+00
    0.15291E-08        -0.49507E-09         0.00000E+00
    0.15264E-08        -0.37110E-09         0.00000E+00
    0.15245E-08        -0.23360E-09         0.00000E+00
    0.15236E-08        -0.82269E-10         0.00000E+00
    0.18554E-08        -0.32248E-10         0.00000E+00
    0.18549E-08        -0.95167E-10         0.00000E+00
    0.18536E-08        -0.15587E-09         0.00000E+00
    0.18518E-08        -0.21436E-09         0.00000E+00
    0.18492E-08        -0.27063E-09         0.00000E+00
    0.18458E-08        -0.32471E-09         0.00000E+00
    0.18417E-08        -0.37665E-09         0.00000E+00
    0.18369E-08        -0.42651E-09         0.00000E+00
    0.18312E-08        -0.47434E-09         0.00000E+00
    0.18248E-08        -0.52022E-09         0.00000E+00
    0.18176E-08        -0.56422E-09         0.00000E+00
    0.18097E-08        -0.60640E-09         0.00000E+00
    0.18010E-08        -0.64683E-09         0.00000E+00
    0.17917E-08        -0.68557E-09         0.00000E+00
    0.17817E-08        -0.72268E-09         0.00000E+00
    0.17711E-08        -0.75820E-09         0.00000E+00
    0.17599E-08        -0.79218E-09         0.00000E+00
    0.17482E-08        -0.82464E-09         0.00000E+00
    0.17361E-08        -0.85560E-09         0.00000E+00
    0.17235E-08        -0.88508E-09         0.00000E+00
    0.17106E-08        -0.91305E-09         0.00000E+00
    0.16974E-08        -0.93951E-09         0.00000E+00
    0.16839E-08        -0.96441E-09         0.00000E+00
    0.16702E-08        -0.98770E-09         0.00000E+00
    0.16564E-08        -0.10093E-08         0.00000E+00
    0.16425E-08        -0.10291E-08         0.00000E+00
    0.16285E-08        -0.10470E-08         0.00000E+00
    0.16146E-08        -0.10629E-08         0.00000E+00
    0.16008E-08        -0.10765E-08         0.00000E+00
    0.15870E-08        -0.10877E-08         0.00000E+00
    0.15735E-08        -0.10961E-08         0.00000E+00
    0.15601E-08        -0.11016E-08         0.00000E+00
    0.15471E-08        -0.11037E-08         0.00000E+00
    0.15343E-08        -0.11020E-08         0.00000E+00
    0.15219E-08        -0.10962E-08         0.00000E+00
    0.15099E-08        -0.10858E-08         0.00000E+00
    0.14983E-08        -0.10701E-08         0.00000E+00
    0.14872E-08        -0.10487E-08         0.00000E+00
    0.14767E-08        -0.10208E-08         0.00000E+00
    0.14667E-08        -0.98572E-09         0.00000E+00
    0.14574E-08        -0.94282E-09         0.00000E+00
    0.14487E-08        -0.89129E-09         0.00000E+00
    0.14408E-08        -0.83034E-09         0.00000E+00
    0.14337E-08        -0.75920E-09         0.00000E+00
    0.14274E-08        -0.67711E-09         0.00000E+00
    0.14220E-08        -0.58333E-09         0.00000E+00
    0.14176E-08        -0.47720E-09         0.00000E+00
    0.14142E-08        -0.35815E-09         0.00000E+00
    0.14119E-08        -0.22573E-09         0.00000E+00
    0.14107E-08        -0.79606E-10         0.00000E+00
    0.16831E-08        -0.31147E-10         0.00000E+00
    0.16828E-08        -0.91651E-10         0.00000E+00
    0.16820E-08        -0.14968E-09         0.00000E+00
    0.16808E-08        -0.20525E-09         0.00000E+00
    0.16792E-08        -0.25842E-09         0.00000E+00
    0.16770E-08        -0.30925E-09         0.00000E+00
    0.16742E-08        -0.35783E-09         0.00000E+00
    0.16709E-08        -0.40425E-09         0.00000E+00
    0.16669E-08        -0.44861E-09         0.00000E+00
    0.16624E-08        -0.49103E-09         0.00000E+00
    0.16572E-08        -0.53159E-09         0.00000E+00
    0.16514E-08        -0.57040E-09         0.00000E+00
    0.16450E-08        -0.60757E-09         0.00000E+00
    0.16380E-08        -0.64317E-09         0.00000E+00
    0.16304E-08        -0.67728E-09         0.00000E+00
    0.16223E-08        -0.70997E-09         0.00000E+00
    0.16137E-08        -0.74131E-09         0.00000E+00
    0.16045E-08        -0.77132E-09         0.00000E+00
    0.15949E-08        -0.80005E-09         0.00000E+00
    0.15848E-08        -0.82750E-09         0.00000E+00
    0.15744E-08        -0.85369E-09         0.00000E+00
    0.15635E-08        -0.87858E-09         0.00000E+00
    0.15524E-08        -0.90216E-09         0.00000E+00
    0.15409E-08        -0.92435E-09         0.00000E+00
    0.15292E-08        -0.94510E-09         0.00000E+00
    0.15173E-08        -0.96430E-09         0.00000E+00
    0.15053E-08        -0.98182E-09         0.00000E+00
    0.14931E-08        -0.99751E-09         0.00000E+00
    0.14808E-08        -0.10112E-08         0.00000E+00
    0.14684E-08        -0.10227E-08         0.00000E+00
    0.14561E-08        -0.10316E-08         0.00000E+00
    0.14438E-08        -0.10378E-08         0.00000E+00
    0.14316E-08        -0.10409E-08         0.00000E+00
    0.14194E-08        -0.10405E-08         0.00000E+00
    0.14075E-08        -0.10361E-08         0.00000E+00
    0.13958E-08        -0.10273E-08         0.00000E+00
    0.13844E-08        -0.10135E-08         0.00000E+00
    0.13732E-08        -0.99424E-09         0.00000E+00
    0.13625E-08        -0.96876E-09         0.00000E+00
    0.13522E-08        -0.93643E-09         0.00000E+00
    0.13424E-08        -0.89653E-09         0.00000E+00
    0.13332E-08        -0.84830E-09         0.00000E+00
    0.13246E-08        -0.79100E-09         0.00000E+00
    0.13168E-08        -0.72384E-09         0.00000E+00
    0.13098E-08        -0.64610E-09         0.00000E+00
    0.13038E-08        -0.55704E-09         0.00000E+00
    0.12987E-08        -0.45604E-09         0.00000E+00
    0.12948E-08        -0.34252E-09         0.00000E+00
    0.12920E-08        -0.21603E-09         0.00000E+00
    0.12906E-08        -0.76248E-10         0.00000E+00
    0.15396E-08        -0.30448E-10         0.00000E+00
    0.15394E-08        -0.89353E-10         0.00000E+00
    0.15388E-08        -0.14552E-09         0.00000E+00
    0.15379E-08        -0.19901E-09         0.00000E+00
    0.15366E-08        -0.24988E-09         0.00000E+00
    0.15349E-08        -0.29825E-09         0.00000E+00
    0.15328E-08        -0.34423E-09         0.00000E+00
    0.15301E-08        -0.38793E-09         0.00000E+00
    0.15270E-08        -0.42950E-09         0.00000E+00
    0.15233E-08        -0.46907E-09         0.00000E+00
    0.15192E-08        -0.50677E-09         0.00000E+00
    0.15144E-08        -0.54272E-09         0.00000E+00
    0.15092E-08        -0.57706E-09         0.00000E+00
    0.15034E-08        -0.60988E-09         0.00000E+00
    0.14972E-08        -0.64128E-09         0.00000E+00
    0.14904E-08        -0.67136E-09         0.00000E+00
    0.14831E-08        -0.70018E-09         0.00000E+00
    0.14753E-08        -0.72780E-09         0.00000E+00
    0.14670E-08        -0.75427E-09         0.00000E+00
    0.14584E-08        -0.77960E-09         0.00000E+00
    0.14493E-08        -0.80381E-09         0.00000E+00
    0.14398E-08        -0.82689E-09         0.00000E+00
    0.14299E-08        -0.84881E-09         0.00000E+00
    0.14197E-08        -0.86952E-09         0.00000E+00
    0.14092E-08        -0.88895E-09         0.00000E+00
    0.13985E-08        -0.90700E-09         0.00000E+00
    0.13874E-08        -0.92356E-09         0.00000E+00
    0.13762E-08        -0.93847E-09         0.00000E+00
    0.13647E-08        -0.95156E-09         0.00000E+00
    0.13531E-08        -0.96261E-09         0.00000E+00
    0.13414E-08        -0.97137E-09         0.00000E+00
    0.13296E-08        -0.97756E-09         0.00000E+00
    0.13178E-08        -0.98084E-09         0.00000E+00
    0.13059E-08        -0.98084E-09         0.00000E+00
    0.12942E-08        -0.97715E-09         0.00000E+00
    0.12825E-08        -0.96929E-09         0.00000E+00
    0.12710E-08        -0.95674E-09         0.00000E+00
    0.12597E-08        -0.93895E-09         0.00000E+00
    0.12487E-08        -0.91530E-09         0.00000E+00
    0.12380E-08        -0.88514E-09         0.00000E+00
    0.12278E-08        -0.84779E-09         0.00000E+00
    0.12181E-08        -0.80252E-09         0.00000E+00
    0.12090E-08        -0.74861E-09         0.00000E+00
    0.12007E-08        -0.68532E-09         0.00000E+00
    0.11931E-08        -0.61194E-09         0.00000E+00
    0.11865E-08        -0.52779E-09         0.00000E+00
    0.11810E-08        -0.43225E-09         0.00000E+00
    0.11766E-08        -0.32476E-09         0.00000E+00
    0.11736E-08        -0.20490E-09         0.00000E+00
    0.11720E-08        -0.72352E-10         0.00000E+00
    0.14196E-08        -0.29843E-10         0.00000E+00
    0.14193E-08        -0.87376E-10         0.00000E+00
    0.14188E-08        -0.14196E-09         0.00000E+00
    0.14179E-08        -0.19367E-09         0.00000E+00
    0.14166E-08        -0.24260E-09         0.00000E+00
    0.14150E-08        -0.28888E-09         0.00000E+00
    0.14130E-08        -0.33263E-09         0.00000E+00
    0.14105E-08        -0.37401E-09         0.00000E+00
    0.14076E-08        -0.41317E-09         0.00000E+00
    0.14042E-08        -0.45027E-09         0.00000E+00
    0.14004E-08        -0.48546E-09         0.00000E+00
    0.13961E-08        -0.51889E-09         0.00000E+00
    0.13913E-08        -0.55069E-09         0.00000E+00
    0.13860E-08        -0.58100E-09         0.00000E+00
    0.13802E-08        -0.60993E-09         0.00000E+00
    0.13740E-08        -0.63757E-09         0.00000E+00
    0.13673E-08        -0.66402E-09         0.00000E+00
    0.13602E-08        -0.68933E-09         0.00000E+00
    0.13526E-08        -0.71358E-09         0.00000E+00
    0.13445E-08        -0.73678E-09         0.00000E+00
    0.13361E-08        -0.75896E-09         0.00000E+00
    0.13272E-08        -0.78011E-09         0.00000E+00
    0.13180E-08        -0.80022E-09         0.00000E+00
    0.13084E-08        -0.81924E-09         0.00000E+00
    0.12985E-08        -0.83710E-09         0.00000E+00
    0.12883E-08        -0.85371E-09         0.00000E+00
    0.12777E-08        -0.86898E-09         0.00000E+00
    0.12669E-08        -0.88274E-09         0.00000E+00
    0.12559E-08        -0.89483E-09         0.00000E+00
    0.12446E-08        -0.90505E-09         0.00000E+00
    0.12332E-08        -0.91316E-09         0.00000E+00
    0.12216E-08        -0.91889E-09         0.00000E+00
    0.12099E-08        -0.92192E-09         0.00000E+00
    0.11982E-08        -0.92189E-09         0.00000E+00
    0.11864E-08        -0.91841E-09         0.00000E+00
    0.11747E-08        -0.91103E-09         0.00000E+00
    0.11631E-08        -0.89927E-09         0.00000E+00
    0.11516E-08        -0.88258E-09         0.00000E+00
    0.11403E-08        -0.86039E-09         0.00000E+00
    0.11294E-08        -0.83209E-09         0.00000E+00
    0.11188E-08        -0.79702E-09         0.00000E+00
    0.11088E-08        -0.75451E-09         0.00000E+00
    0.10993E-08        -0.70388E-09         0.00000E+00
    0.10906E-08        -0.64442E-09         0.00000E+00
    0.10826E-08        -0.57546E-09         0.00000E+00
    0.10757E-08        -0.49637E-09         0.00000E+00
    0.10698E-08        -0.40655E-09         0.00000E+00
    0.10651E-08        -0.30548E-09         0.00000E+00
    0.10619E-08        -0.19276E-09         0.00000E+00
    0.10602E-08        -0.68073E-10         0.00000E+00
    0.13183E-08        -0.29147E-10         0.00000E+00
    0.13180E-08        -0.85179E-10         0.00000E+00
    0.13173E-08        -0.13812E-09         0.00000E+00
    0.13163E-08        -0.18806E-09         0.00000E+00
    0.13149E-08        -0.23510E-09         0.00000E+00
    0.13132E-08        -0.27938E-09         0.00000E+00
    0.13110E-08        -0.32105E-09         0.00000E+00
    0.13084E-08        -0.36027E-09         0.00000E+00
    0.13053E-08        -0.39722E-09         0.00000E+00
    0.13019E-08        -0.43205E-09         0.00000E+00
    0.12980E-08        -0.46495E-09         0.00000E+00
    0.12936E-08        -0.49606E-09         0.00000E+00
    0.12888E-08        -0.52554E-09         0.00000E+00
    0.12836E-08        -0.55353E-09         0.00000E+00
    0.12779E-08        -0.58016E-09         0.00000E+00
    0.12718E-08        -0.60553E-09         0.00000E+00
    0.12652E-08        -0.62974E-09         0.00000E+00
    0.12582E-08        -0.65287E-09         0.00000E+00
    0.12508E-08        -0.67498E-09         0.00000E+00
    0.12430E-08        -0.69610E-09         0.00000E+00
    0.12347E-08        -0.71627E-09         0.00000E+00
    0.12261E-08        -0.73549E-09         0.00000E+00
    0.12171E-08        -0.75374E-09         0.00000E+00
    0.12077E-08        -0.77099E-09         0.00000E+00
    0.11980E-08        -0.78718E-09         0.00000E+00
    0.11880E-08        -0.80224E-09         0.00000E+00
    0.11777E-08        -0.81605E-09         0.00000E+00
    0.11670E-08        -0.82848E-09         0.00000E+00
    0.11561E-08        -0.83938E-09         0.00000E+00
    0.11450E-08        -0.84855E-09         0.00000E+00
    0.11337E-08        -0.85578E-09         0.00000E+00
    0.11221E-08        -0.86080E-09         0.00000E+00
    0.11105E-08        -0.86332E-09         0.00000E+00
    0.10988E-08        -0.86301E-09         0.00000E+00
    0.10870E-08        -0.85949E-09         0.00000E+00
    0.10752E-08        -0.85234E-09         0.00000E+00
    0.10634E-08        -0.84112E-09         0.00000E+00
    0.10518E-08        -0.82532E-09         0.00000E+00
    0.10404E-08        -0.80439E-09         0.00000E+00
    0.10293E-08        -0.77778E-09         0.00000E+00
    0.10186E-08        -0.74486E-09         0.00000E+00
    0.10083E-08        -0.70501E-09         0.00000E+00
    0.99858E-09        -0.65759E-09         0.00000E+00
    0.98959E-09        -0.60196E-09         0.00000E+00
    0.98144E-09        -0.53748E-09         0.00000E+00
    0.97425E-09        -0.46355E-09         0.00000E+00
    0.96818E-09        -0.37963E-09         0.00000E+00
    0.96339E-09        -0.28523E-09         0.00000E+00
    0.96002E-09        -0.17997E-09         0.00000E+00
    0.95826E-09        -0.63553E-10         0.00000E+00
    0.12320E-08        -0.28264E-10         0.00000E+00
    0.12316E-08        -0.82477E-10         0.00000E+00
    0.12308E-08        -0.13353E-09         0.00000E+00
    0.12296E-08        -0.18152E-09         0.00000E+00
    0.12280E-08        -0.22656E-09         0.00000E+00
    0.12259E-08        -0.26879E-09         0.00000E+00
    0.12235E-08        -0.30837E-09         0.00000E+00
    0.12206E-08        -0.34547E-09         0.00000E+00
    0.12173E-08        -0.38027E-09         0.00000E+00
    0.12135E-08        -0.41294E-09         0.00000E+00
    0.12093E-08        -0.44366E-09         0.00000E+00
    0.12047E-08        -0.47259E-09         0.00000E+00
    0.11997E-08        -0.49990E-09         0.00000E+00
    0.11942E-08        -0.52572E-09         0.00000E+00
    0.11884E-08        -0.55020E-09         0.00000E+00
    0.11821E-08        -0.57344E-09         0.00000E+00
    0.11754E-08        -0.59555E-09         0.00000E+00
    0.11683E-08        -0.61661E-09         0.00000E+00
    0.11608E-08        -0.63668E-09         0.00000E+00
    0.11529E-08        -0.65582E-09         0.00000E+00
    0.11447E-08        -0.67406E-09         0.00000E+00
    0.11360E-08        -0.69140E-09         0.00000E+00
    0.11270E-08        -0.70784E-09         0.00000E+00
    0.11177E-08        -0.72334E-09         0.00000E+00
    0.11080E-08        -0.73787E-09         0.00000E+00
    0.10980E-08        -0.75134E-09         0.00000E+00
    0.10877E-08        -0.76366E-09         0.00000E+00
    0.10771E-08        -0.77472E-09         0.00000E+00
    0.10662E-08        -0.78436E-09         0.00000E+00
    0.10551E-08        -0.79241E-09         0.00000E+00
    0.10438E-08        -0.79866E-09         0.00000E+00
    0.10323E-08        -0.80288E-09         0.00000E+00
    0.10207E-08        -0.80478E-09         0.00000E+00
    0.10089E-08        -0.80408E-09         0.00000E+00
    0.99711E-09        -0.80041E-09         0.00000E+00
    0.98530E-09        -0.79339E-09         0.00000E+00
    0.97353E-09        -0.78260E-09         0.00000E+00
    0.96189E-09        -0.76758E-09         0.00000E+00
    0.95043E-09        -0.74783E-09         0.00000E+00
    0.93925E-09        -0.72282E-09         0.00000E+00
    0.92844E-09        -0.69199E-09         0.00000E+00
    0.91809E-09        -0.65476E-09         0.00000E+00
    0.90832E-09        -0.61053E-09         0.00000E+00
    0.89925E-09        -0.55872E-09         0.00000E+00
    0.89101E-09        -0.49874E-09         0.00000E+00
    0.88375E-09        -0.43004E-09         0.00000E+00
    0.87761E-09        -0.35211E-09         0.00000E+00
    0.87276E-09        -0.26450E-09         0.00000E+00
    0.86935E-09        -0.16686E-09         0.00000E+00
    0.86757E-09        -0.58912E-10         0.00000E+00
    0.11578E-08        -0.27158E-10         0.00000E+00
    0.11573E-08        -0.79159E-10         0.00000E+00
    0.11563E-08        -0.12801E-09         0.00000E+00
    0.11549E-08        -0.17379E-09         0.00000E+00
    0.11530E-08        -0.21664E-09         0.00000E+00
    0.11506E-08        -0.25669E-09         0.00000E+00
    0.11478E-08        -0.29409E-09         0.00000E+00
    0.11446E-08        -0.32903E-09         0.00000E+00
    0.11409E-08        -0.36169E-09         0.00000E+00
    0.11368E-08        -0.39222E-09         0.00000E+00
    0.11322E-08        -0.42083E-09         0.00000E+00
    0.11273E-08        -0.44766E-09         0.00000E+00
    0.11219E-08        -0.47290E-09         0.00000E+00
    0.11162E-08        -0.49667E-09         0.00000E+00
    0.11100E-08        -0.51911E-09         0.00000E+00
    0.11035E-08        -0.54035E-09         0.00000E+00
    0.10965E-08        -0.56049E-09         0.00000E+00
    0.10892E-08        -0.57960E-09         0.00000E+00
    0.10815E-08        -0.59777E-09         0.00000E+00
    0.10735E-08        -0.61504E-09         0.00000E+00
    0.10651E-08        -0.63145E-09         0.00000E+00
    0.10563E-08        -0.64702E-09         0.00000E+00
    0.10472E-08        -0.66173E-09         0.00000E+00
    0.10378E-08        -0.67557E-09         0.00000E+00
    0.10280E-08        -0.68849E-09         0.00000E+00
    0.10180E-08        -0.70044E-09         0.00000E+00
    0.10077E-08        -0.71132E-09         0.00000E+00
    0.99704E-09        -0.72103E-09         0.00000E+00
    0.98618E-09        -0.72944E-09         0.00000E+00
    0.97509E-09        -0.73638E-09         0.00000E+00
    0.96380E-09        -0.74166E-09         0.00000E+00
    0.95234E-09        -0.74508E-09         0.00000E+00
    0.94074E-09        -0.74637E-09         0.00000E+00
    0.92903E-09        -0.74525E-09         0.00000E+00
    0.91727E-09        -0.74141E-09         0.00000E+00
    0.90551E-09        -0.73450E-09         0.00000E+00
    0.89380E-09        -0.72413E-09         0.00000E+00
    0.88221E-09        -0.70987E-09         0.00000E+00
    0.87081E-09        -0.69127E-09         0.00000E+00
    0.85968E-09        -0.66784E-09         0.00000E+00
    0.84892E-09        -0.63908E-09         0.00000E+00
    0.83863E-09        -0.60444E-09         0.00000E+00
    0.82890E-09        -0.56340E-09         0.00000E+00
    0.81988E-09        -0.51540E-09         0.00000E+00
    0.81169E-09        -0.45991E-09         0.00000E+00
    0.80446E-09        -0.39643E-09         0.00000E+00
    0.79835E-09        -0.32449E-09         0.00000E+00
    0.79352E-09        -0.24369E-09         0.00000E+00
    0.79014E-09        -0.15369E-09         0.00000E+00
    0.78836E-09        -0.54250E-10         0.00000E+00
    0.10931E-08        -0.25830E-10         0.00000E+00
    0.10926E-08        -0.75225E-10         0.00000E+00
    0.10915E-08        -0.12154E-09         0.00000E+00
    0.10898E-08        -0.16485E-09         0.00000E+00
    0.10877E-08        -0.20529E-09         0.00000E+00
    0.10850E-08        -0.24299E-09         0.00000E+00
    0.10819E-08        -0.27811E-09         0.00000E+00
    0.10783E-08        -0.31082E-09         0.00000E+00
    0.10742E-08        -0.34130E-09         0.00000E+00
    0.10698E-08        -0.36971E-09         0.00000E+00
    0.10649E-08        -0.39623E-09         0.00000E+00
    0.10596E-08        -0.42102E-09         0.00000E+00
    0.10539E-08        -0.44425E-09         0.00000E+00
    0.10478E-08        -0.46606E-09         0.00000E+00
    0.10413E-08        -0.48658E-09         0.00000E+00
    0.10345E-08        -0.50593E-09         0.00000E+00
    0.10273E-08        -0.52421E-09         0.00000E+00
    0.10197E-08        -0.54151E-09         0.00000E+00
    0.10118E-08        -0.55790E-09         0.00000E+00
    0.10036E-08        -0.57343E-09         0.00000E+00
    0.99500E-09        -0.58813E-09         0.00000E+00
    0.98610E-09        -0.60204E-09         0.00000E+00
    0.97688E-09        -0.61514E-09         0.00000E+00
    0.96736E-09        -0.62742E-09         0.00000E+00
    0.95755E-09        -0.63885E-09         0.00000E+00
    0.94746E-09        -0.64937E-09         0.00000E+00
    0.93710E-09        -0.65891E-09         0.00000E+00
    0.92649E-09        -0.66736E-09         0.00000E+00
    0.91565E-09        -0.67461E-09         0.00000E+00
    0.90460E-09        -0.68051E-09         0.00000E+00
    0.89336E-09        -0.68490E-09         0.00000E+00
    0.88197E-09        -0.68756E-09         0.00000E+00
    0.87045E-09        -0.68829E-09         0.00000E+00
    0.85885E-09        -0.68681E-09         0.00000E+00
    0.84721E-09        -0.68285E-09         0.00000E+00
    0.83557E-09        -0.67608E-09         0.00000E+00
    0.82400E-09        -0.66614E-09         0.00000E+00
    0.81255E-09        -0.65267E-09         0.00000E+00
    0.80130E-09        -0.63523E-09         0.00000E+00
    0.79033E-09        -0.61339E-09         0.00000E+00
    0.77973E-09        -0.58669E-09         0.00000E+00
    0.76959E-09        -0.55464E-09         0.00000E+00
    0.76002E-09        -0.51676E-09         0.00000E+00
    0.75114E-09        -0.47254E-09         0.00000E+00
    0.74308E-09        -0.42150E-09         0.00000E+00
    0.73598E-09        -0.36320E-09         0.00000E+00
    0.72998E-09        -0.29719E-09         0.00000E+00
    0.72523E-09        -0.22312E-09         0.00000E+00
    0.72191E-09        -0.14068E-09         0.00000E+00
    0.72016E-09        -0.49640E-10         0.00000E+00
    0.10364E-08        -0.24306E-10         0.00000E+00
    0.10357E-08        -0.70741E-10         0.00000E+00
    0.10345E-08        -0.11421E-09         0.00000E+00
    0.10327E-08        -0.15481E-09         0.00000E+00
    0.10303E-08        -0.19264E-09         0.00000E+00
    0.10274E-08        -0.22785E-09         0.00000E+00
    0.10240E-08        -0.26057E-09         0.00000E+00
    0.10201E-08        -0.29097E-09         0.00000E+00
    0.10157E-08        -0.31923E-09         0.00000E+00
    0.10109E-08        -0.34550E-09         0.00000E+00
    0.10057E-08        -0.36995E-09         0.00000E+00
    0.10001E-08        -0.39275E-09         0.00000E+00
    0.99413E-09        -0.41404E-09         0.00000E+00
    0.98776E-09        -0.43396E-09         0.00000E+00
    0.98102E-09        -0.45265E-09         0.00000E+00
    0.97392E-09        -0.47021E-09         0.00000E+00
    0.96649E-09        -0.48675E-09         0.00000E+00
    0.95872E-09        -0.50234E-09         0.00000E+00
    0.95062E-09        -0.51707E-09         0.00000E+00
    0.94221E-09        -0.53098E-09         0.00000E+00
    0.93350E-09        -0.54411E-09         0.00000E+00
    0.92448E-09        -0.55649E-09         0.00000E+00
    0.91518E-09        -0.56810E-09         0.00000E+00
    0.90560E-09        -0.57896E-09         0.00000E+00
    0.89575E-09        -0.58901E-09         0.00000E+00
    0.88564E-09        -0.59823E-09         0.00000E+00
    0.87530E-09        -0.60653E-09         0.00000E+00
    0.86472E-09        -0.61383E-09         0.00000E+00
    0.85394E-09        -0.62003E-09         0.00000E+00
    0.84298E-09        -0.62500E-09         0.00000E+00
    0.83185E-09        -0.62858E-09         0.00000E+00
    0.82058E-09        -0.63059E-09         0.00000E+00
    0.80921E-09        -0.63084E-09         0.00000E+00
    0.79778E-09        -0.62908E-09         0.00000E+00
    0.78631E-09        -0.62506E-09         0.00000E+00
    0.77487E-09        -0.61848E-09         0.00000E+00
    0.76351E-09        -0.60904E-09         0.00000E+00
    0.75228E-09        -0.59639E-09         0.00000E+00
    0.74126E-09        -0.58015E-09         0.00000E+00
    0.73052E-09        -0.55992E-09         0.00000E+00
    0.72015E-09        -0.53528E-09         0.00000E+00
    0.71024E-09        -0.50581E-09         0.00000E+00
    0.70090E-09        -0.47105E-09         0.00000E+00
    0.69225E-09        -0.43057E-09         0.00000E+00
    0.68439E-09        -0.38391E-09         0.00000E+00
    0.67747E-09        -0.33069E-09         0.00000E+00
    0.67163E-09        -0.27050E-09         0.00000E+00
    0.66702E-09        -0.20301E-09         0.00000E+00
    0.66378E-09        -0.12796E-09         0.00000E+00
    0.66208E-09        -0.45139E-10         0.00000E+00
    0.98614E-09        -0.22621E-10         0.00000E+00
    0.98545E-09        -0.65808E-10         0.00000E+00
    0.98410E-09        -0.10620E-09         0.00000E+00
    0.98214E-09        -0.14387E-09         0.00000E+00
    0.97958E-09        -0.17893E-09         0.00000E+00
    0.97648E-09        -0.21150E-09         0.00000E+00
    0.97285E-09        -0.24173E-09         0.00000E+00
    0.96872E-09        -0.26976E-09         0.00000E+00
    0.96413E-09        -0.29576E-09         0.00000E+00
    0.95910E-09        -0.31988E-09         0.00000E+00
    0.95365E-09        -0.34228E-09         0.00000E+00
    0.94780E-09        -0.36311E-09         0.00000E+00
    0.94156E-09        -0.38251E-09         0.00000E+00
    0.93497E-09        -0.40061E-09         0.00000E+00
    0.92802E-09        -0.41755E-09         0.00000E+00
    0.92073E-09        -0.43341E-09         0.00000E+00
    0.91312E-09        -0.44831E-09         0.00000E+00
    0.90520E-09        -0.46231E-09         0.00000E+00
    0.89697E-09        -0.47550E-09         0.00000E+00
    0.88845E-09        -0.48791E-09         0.00000E+00
    0.87964E-09        -0.49959E-09         0.00000E+00
    0.87057E-09        -0.51055E-09         0.00000E+00
    0.86122E-09        -0.52081E-09         0.00000E+00
    0.85163E-09        -0.53036E-09         0.00000E+00
    0.84179E-09        -0.53917E-09         0.00000E+00
    0.83172E-09        -0.54720E-09         0.00000E+00
    0.82144E-09        -0.55439E-09         0.00000E+00
    0.81095E-09        -0.56067E-09         0.00000E+00
    0.80028E-09        -0.56594E-09         0.00000E+00
    0.78945E-09        -0.57009E-09         0.00000E+00
    0.77848E-09        -0.57297E-09         0.00000E+00
    0.76739E-09        -0.57444E-09         0.00000E+00
    0.75622E-09        -0.57430E-09         0.00000E+00
    0.74500E-09        -0.57234E-09         0.00000E+00
    0.73378E-09        -0.56835E-09         0.00000E+00
    0.72259E-09        -0.56205E-09         0.00000E+00
    0.71149E-09        -0.55317E-09         0.00000E+00
    0.70054E-09        -0.54138E-09         0.00000E+00
    0.68980E-09        -0.52637E-09         0.00000E+00
    0.67936E-09        -0.50776E-09         0.00000E+00
    0.66928E-09        -0.48519E-09         0.00000E+00
    0.65966E-09        -0.45827E-09         0.00000E+00
    0.65060E-09        -0.42660E-09         0.00000E+00
    0.64221E-09        -0.38977E-09         0.00000E+00
    0.63461E-09        -0.34741E-09         0.00000E+00
    0.62791E-09        -0.29914E-09         0.00000E+00
    0.62227E-09        -0.24461E-09         0.00000E+00
    0.61781E-09        -0.18353E-09         0.00000E+00
    0.61468E-09        -0.11564E-09         0.00000E+00
    0.61304E-09        -0.40780E-10         0.00000E+00
    0.94148E-09        -0.20815E-10         0.00000E+00
    0.94075E-09        -0.60534E-10         0.00000E+00
    0.93934E-09        -0.97651E-10         0.00000E+00
    0.93727E-09        -0.13224E-09         0.00000E+00
    0.93459E-09        -0.16440E-09         0.00000E+00
    0.93134E-09        -0.19424E-09         0.00000E+00
    0.92755E-09        -0.22190E-09         0.00000E+00
    0.92326E-09        -0.24752E-09         0.00000E+00
    0.91850E-09        -0.27124E-09         0.00000E+00
    0.91330E-09        -0.29321E-09         0.00000E+00
    0.90767E-09        -0.31357E-09         0.00000E+00
    0.90165E-09        -0.33246E-09         0.00000E+00
    0.89526E-09        -0.35002E-09         0.00000E+00
    0.88851E-09        -0.36637E-09         0.00000E+00
    0.88143E-09        -0.38162E-09         0.00000E+00
    0.87402E-09        -0.39587E-09         0.00000E+00
    0.86630E-09        -0.40922E-09         0.00000E+00
    0.85829E-09        -0.42173E-09         0.00000E+00
    0.85000E-09        -0.43347E-09         0.00000E+00
    0.84143E-09        -0.44449E-09         0.00000E+00
    0.83260E-09        -0.45483E-09         0.00000E+00
    0.82352E-09        -0.46451E-09         0.00000E+00
    0.81419E-09        -0.47353E-09         0.00000E+00
    0.80464E-09        -0.48189E-09         0.00000E+00
    0.79486E-09        -0.48958E-09         0.00000E+00
    0.78488E-09        -0.49655E-09         0.00000E+00
    0.77471E-09        -0.50276E-09         0.00000E+00
    0.76436E-09        -0.50813E-09         0.00000E+00
    0.75385E-09        -0.51259E-09         0.00000E+00
    0.74320E-09        -0.51602E-09         0.00000E+00
    0.73243E-09        -0.51832E-09         0.00000E+00
    0.72156E-09        -0.51934E-09         0.00000E+00
    0.71064E-09        -0.51891E-09         0.00000E+00
    0.69968E-09        -0.51686E-09         0.00000E+00
    0.68873E-09        -0.51297E-09         0.00000E+00
    0.67784E-09        -0.50702E-09         0.00000E+00
    0.66704E-09        -0.49875E-09         0.00000E+00
    0.65641E-09        -0.48788E-09         0.00000E+00
    0.64600E-09        -0.47412E-09         0.00000E+00
    0.63587E-09        -0.45715E-09         0.00000E+00
    0.62612E-09        -0.43664E-09         0.00000E+00
    0.61682E-09        -0.41224E-09         0.00000E+00
    0.60808E-09        -0.38360E-09         0.00000E+00
    0.59998E-09        -0.35035E-09         0.00000E+00
    0.59265E-09        -0.31216E-09         0.00000E+00
    0.58621E-09        -0.26869E-09         0.00000E+00
    0.58077E-09        -0.21965E-09         0.00000E+00
    0.57648E-09        -0.16475E-09         0.00000E+00
    0.57348E-09        -0.10378E-09         0.00000E+00
    0.57191E-09        -0.36586E-10         0.00000E+00
    0.90173E-09        -0.18925E-10         0.00000E+00
    0.90098E-09        -0.55026E-10         0.00000E+00
    0.89951E-09        -0.88744E-10         0.00000E+00
    0.89738E-09        -0.12015E-09         0.00000E+00
    0.89462E-09        -0.14932E-09         0.00000E+00
    0.89128E-09        -0.17637E-09         0.00000E+00
    0.88740E-09        -0.20142E-09         0.00000E+00
    0.88300E-09        -0.22459E-09         0.00000E+00
    0.87814E-09        -0.24602E-09         0.00000E+00
    0.87283E-09        -0.26584E-09         0.00000E+00
    0.86710E-09        -0.28418E-09         0.00000E+00
    0.86098E-09        -0.30117E-09         0.00000E+00
    0.85450E-09        -0.31694E-09         0.00000E+00
    0.84768E-09        -0.33158E-09         0.00000E+00
    0.84053E-09        -0.34522E-09         0.00000E+00
    0.83307E-09        -0.35793E-09         0.00000E+00
    0.82531E-09        -0.36980E-09         0.00000E+00
    0.81728E-09        -0.38091E-09         0.00000E+00
    0.80898E-09        -0.39131E-09         0.00000E+00
    0.80042E-09        -0.40104E-09         0.00000E+00
    0.79162E-09        -0.41014E-09         0.00000E+00
    0.78259E-09        -0.41863E-09         0.00000E+00
    0.77334E-09        -0.42653E-09         0.00000E+00
    0.76388E-09        -0.43382E-09         0.00000E+00
    0.75422E-09        -0.44049E-09         0.00000E+00
    0.74437E-09        -0.44651E-09         0.00000E+00
    0.73435E-09        -0.45184E-09         0.00000E+00
    0.72418E-09        -0.45641E-09         0.00000E+00
    0.71386E-09        -0.46017E-09         0.00000E+00
    0.70342E-09        -0.46300E-09         0.00000E+00
    0.69289E-09        -0.46482E-09         0.00000E+00
    0.68228E-09        -0.46548E-09         0.00000E+00
    0.67163E-09        -0.46486E-09         0.00000E+00
    0.66096E-09        -0.46279E-09         0.00000E+00
    0.65032E-09        -0.45909E-09         0.00000E+00
    0.63974E-09        -0.45354E-09         0.00000E+00
    0.62928E-09        -0.44594E-09         0.00000E+00
    0.61898E-09        -0.43603E-09         0.00000E+00
    0.60891E-09        -0.42355E-09         0.00000E+00
    0.59913E-09        -0.40822E-09         0.00000E+00
    0.58971E-09        -0.38975E-09         0.00000E+00
    0.58075E-09        -0.36783E-09         0.00000E+00
    0.57233E-09        -0.34215E-09         0.00000E+00
    0.56454E-09        -0.31239E-09         0.00000E+00
    0.55749E-09        -0.27824E-09         0.00000E+00
    0.55130E-09        -0.23943E-09         0.00000E+00
    0.54608E-09        -0.19566E-09         0.00000E+00
    0.54197E-09        -0.14672E-09         0.00000E+00
    0.53909E-09        -0.92403E-10         0.00000E+00
    0.53758E-09        -0.32565E-10         0.00000E+00
    0.86642E-09        -0.16985E-10         0.00000E+00
    0.86565E-09        -0.49377E-10         0.00000E+00
    0.86416E-09        -0.79620E-10         0.00000E+00
    0.86199E-09        -0.10777E-09         0.00000E+00
    0.85920E-09        -0.13392E-09         0.00000E+00
    0.85581E-09        -0.15814E-09         0.00000E+00
    0.85188E-09        -0.18056E-09         0.00000E+00
    0.84744E-09        -0.20128E-09         0.00000E+00
    0.84252E-09        -0.22042E-09         0.00000E+00
    0.83716E-09        -0.23811E-09         0.00000E+00
    0.83140E-09        -0.25446E-09         0.00000E+00
    0.82525E-09        -0.26958E-09         0.00000E+00
    0.81874E-09        -0.28359E-09         0.00000E+00
    0.81190E-09        -0.29659E-09         0.00000E+00
    0.80474E-09        -0.30866E-09         0.00000E+00
    0.79729E-09        -0.31990E-09         0.00000E+00
    0.78955E-09        -0.33038E-09         0.00000E+00
    0.78155E-09        -0.34016E-09         0.00000E+00
    0.77330E-09        -0.34929E-09         0.00000E+00
    0.76481E-09        -0.35782E-09         0.00000E+00
    0.75609E-09        -0.36577E-09         0.00000E+00
    0.74716E-09        -0.37317E-09         0.00000E+00
    0.73802E-09        -0.38003E-09         0.00000E+00
    0.72869E-09        -0.38635E-09         0.00000E+00
    0.71918E-09        -0.39210E-09         0.00000E+00
    0.70950E-09        -0.39727E-09         0.00000E+00
    0.69967E-09        -0.40182E-09         0.00000E+00
    0.68970E-09        -0.40570E-09         0.00000E+00
    0.67960E-09        -0.40884E-09         0.00000E+00
    0.66941E-09        -0.41117E-09         0.00000E+00
    0.65913E-09        -0.41259E-09         0.00000E+00
    0.64880E-09        -0.41300E-09         0.00000E+00
    0.63843E-09        -0.41226E-09         0.00000E+00
    0.62807E-09        -0.41024E-09         0.00000E+00
    0.61774E-09        -0.40678E-09         0.00000E+00
    0.60749E-09        -0.40170E-09         0.00000E+00
    0.59736E-09        -0.39480E-09         0.00000E+00
    0.58740E-09        -0.38588E-09         0.00000E+00
    0.57767E-09        -0.37469E-09         0.00000E+00
    0.56824E-09        -0.36100E-09         0.00000E+00
    0.55917E-09        -0.34455E-09         0.00000E+00
    0.55053E-09        -0.32506E-09         0.00000E+00
    0.54243E-09        -0.30227E-09         0.00000E+00
    0.53494E-09        -0.27589E-09         0.00000E+00
    0.52817E-09        -0.24567E-09         0.00000E+00
    0.52223E-09        -0.21134E-09         0.00000E+00
    0.51723E-09        -0.17266E-09         0.00000E+00
    0.51329E-09        -0.12944E-09         0.00000E+00
    0.51053E-09        -0.81503E-10         0.00000E+00
    0.50909E-09        -0.28717E-10         0.00000E+00
    0.83524E-09        -0.15021E-10         0.00000E+00
    0.83447E-09        -0.43665E-10         0.00000E+00
    0.83297E-09        -0.70400E-10         0.00000E+00
    0.83080E-09        -0.95281E-10         0.00000E+00
    0.82799E-09        -0.11838E-09         0.00000E+00
    0.82459E-09        -0.13977E-09         0.00000E+00
    0.82065E-09        -0.15955E-09         0.00000E+00
    0.81620E-09        -0.17783E-09         0.00000E+00
    0.81129E-09        -0.19471E-09         0.00000E+00
    0.80593E-09        -0.21028E-09         0.00000E+00
    0.80018E-09        -0.22467E-09         0.00000E+00
    0.79404E-09        -0.23796E-09         0.00000E+00
    0.78756E-09        -0.25026E-09         0.00000E+00
    0.78075E-09        -0.26166E-09         0.00000E+00
    0.77363E-09        -0.27223E-09         0.00000E+00
    0.76623E-09        -0.28205E-09         0.00000E+00
    0.75856E-09        -0.29120E-09         0.00000E+00
    0.75063E-09        -0.29971E-09         0.00000E+00
    0.74247E-09        -0.30765E-09         0.00000E+00
    0.73408E-09        -0.31505E-09         0.00000E+00
    0.72548E-09        -0.32193E-09         0.00000E+00
    0.71667E-09        -0.32832E-09         0.00000E+00
    0.70768E-09        -0.33423E-09         0.00000E+00
    0.69851E-09        -0.33965E-09         0.00000E+00
    0.68917E-09        -0.34457E-09         0.00000E+00
    0.67969E-09        -0.34898E-09         0.00000E+00
    0.67006E-09        -0.35283E-09         0.00000E+00
    0.66031E-09        -0.35609E-09         0.00000E+00
    0.65045E-09        -0.35871E-09         0.00000E+00
    0.64051E-09        -0.36061E-09         0.00000E+00
    0.63050E-09        -0.36171E-09         0.00000E+00
    0.62044E-09        -0.36192E-09         0.00000E+00
    0.61037E-09        -0.36114E-09         0.00000E+00
    0.60031E-09        -0.35924E-09         0.00000E+00
    0.59029E-09        -0.35607E-09         0.00000E+00
    0.58036E-09        -0.35150E-09         0.00000E+00
    0.57056E-09        -0.34534E-09         0.00000E+00
    0.56093E-09        -0.33742E-09         0.00000E+00
    0.55154E-09        -0.32753E-09         0.00000E+00
    0.54244E-09        -0.31547E-09         0.00000E+00
    0.53369E-09        -0.30099E-09         0.00000E+00
    0.52538E-09        -0.28389E-09         0.00000E+00
    0.51758E-09        -0.26391E-09         0.00000E+00
    0.51038E-09        -0.24082E-09         0.00000E+00
    0.50387E-09        -0.21438E-09         0.00000E+00
    0.49817E-09        -0.18438E-09         0.00000E+00
    0.49337E-09        -0.15061E-09         0.00000E+00
    0.48959E-09        -0.11289E-09         0.00000E+00
    0.48695E-09        -0.71065E-10         0.00000E+00
    0.48556E-09        -0.25034E-10         0.00000E+00
    0.80800E-09        -0.13055E-10         0.00000E+00
    0.80723E-09        -0.37946E-10         0.00000E+00
    0.80574E-09        -0.61176E-10         0.00000E+00
    0.80357E-09        -0.82789E-10         0.00000E+00
    0.80078E-09        -0.10285E-09         0.00000E+00
    0.79740E-09        -0.12142E-09         0.00000E+00
    0.79348E-09        -0.13859E-09         0.00000E+00
    0.78906E-09        -0.15445E-09         0.00000E+00
    0.78417E-09        -0.16907E-09         0.00000E+00
    0.77885E-09        -0.18257E-09         0.00000E+00
    0.77314E-09        -0.19503E-09         0.00000E+00
    0.76706E-09        -0.20653E-09         0.00000E+00
    0.76063E-09        -0.21716E-09         0.00000E+00
    0.75389E-09        -0.22700E-09         0.00000E+00
    0.74685E-09        -0.23611E-09         0.00000E+00
    0.73953E-09        -0.24457E-09         0.00000E+00
    0.73195E-09        -0.25244E-09         0.00000E+00
    0.72413E-09        -0.25975E-09         0.00000E+00
    0.71608E-09        -0.26655E-09         0.00000E+00
    0.70782E-09        -0.27288E-09         0.00000E+00
    0.69936E-09        -0.27876E-09         0.00000E+00
    0.69070E-09        -0.28420E-09         0.00000E+00
    0.68187E-09        -0.28922E-09         0.00000E+00
    0.67287E-09        -0.29382E-09         0.00000E+00
    0.66373E-09        -0.29798E-09         0.00000E+00
    0.65444E-09        -0.30169E-09         0.00000E+00
    0.64503E-09        -0.30492E-09         0.00000E+00
    0.63550E-09        -0.30764E-09         0.00000E+00
    0.62588E-09        -0.30979E-09         0.00000E+00
    0.61619E-09        -0.31133E-09         0.00000E+00
    0.60644E-09        -0.31217E-09         0.00000E+00
    0.59665E-09        -0.31226E-09         0.00000E+00
    0.58686E-09        -0.31148E-09         0.00000E+00
    0.57709E-09        -0.30974E-09         0.00000E+00
    0.56737E-09        -0.30692E-09         0.00000E+00
    0.55775E-09        -0.30288E-09         0.00000E+00
    0.54826E-09        -0.29749E-09         0.00000E+00
    0.53894E-09        -0.29058E-09         0.00000E+00
    0.52986E-09        -0.28198E-09         0.00000E+00
    0.52106E-09        -0.27152E-09         0.00000E+00
    0.51262E-09        -0.25900E-09         0.00000E+00
    0.50460E-09        -0.24422E-09         0.00000E+00
    0.49708E-09        -0.22698E-09         0.00000E+00
    0.49015E-09        -0.20708E-09         0.00000E+00
    0.48389E-09        -0.18431E-09         0.00000E+00
    0.47840E-09        -0.15848E-09         0.00000E+00
    0.47379E-09        -0.12943E-09         0.00000E+00
    0.47015E-09        -0.96997E-10         0.00000E+00
    0.46761E-09        -0.61052E-10         0.00000E+00
    0.46629E-09        -0.21503E-10         0.00000E+00
    0.78458E-09        -0.11101E-10         0.00000E+00
    0.78382E-09        -0.32264E-10         0.00000E+00
    0.78235E-09        -0.52012E-10         0.00000E+00
    0.78020E-09        -0.70382E-10         0.00000E+00
    0.77743E-09        -0.87427E-10         0.00000E+00
    0.77408E-09        -0.10321E-09         0.00000E+00
    0.77020E-09        -0.11779E-09         0.00000E+00
    0.76582E-09        -0.13125E-09         0.00000E+00
    0.76099E-09        -0.14367E-09         0.00000E+00
    0.75573E-09        -0.15512E-09         0.00000E+00
    0.75009E-09        -0.16567E-09         0.00000E+00
    0.74408E-09        -0.17542E-09         0.00000E+00
    0.73773E-09        -0.18442E-09         0.00000E+00
    0.73107E-09        -0.19274E-09         0.00000E+00
    0.72413E-09        -0.20044E-09         0.00000E+00
    0.71691E-09        -0.20758E-09         0.00000E+00
    0.70945E-09        -0.21421E-09         0.00000E+00
    0.70175E-09        -0.22037E-09         0.00000E+00
    0.69383E-09        -0.22609E-09         0.00000E+00
    0.68570E-09        -0.23140E-09         0.00000E+00
    0.67738E-09        -0.23633E-09         0.00000E+00
    0.66889E-09        -0.24088E-09         0.00000E+00
    0.66022E-09        -0.24507E-09         0.00000E+00
    0.65140E-09        -0.24890E-09         0.00000E+00
    0.64244E-09        -0.25235E-09         0.00000E+00
    0.63335E-09        -0.25543E-09         0.00000E+00
    0.62415E-09        -0.25809E-09         0.00000E+00
    0.61484E-09        -0.26031E-09         0.00000E+00
    0.60545E-09        -0.26206E-09         0.00000E+00
    0.59599E-09        -0.26329E-09         0.00000E+00
    0.58649E-09        -0.26393E-09         0.00000E+00
    0.57696E-09        -0.26393E-09         0.00000E+00
    0.56743E-09        -0.26320E-09         0.00000E+00
    0.55793E-09        -0.26166E-09         0.00000E+00
    0.54848E-09        -0.25921E-09         0.00000E+00
    0.53914E-09        -0.25573E-09         0.00000E+00
    0.52993E-09        -0.25112E-09         0.00000E+00
    0.52090E-09        -0.24523E-09         0.00000E+00
    0.51210E-09        -0.23792E-09         0.00000E+00
    0.50358E-09        -0.22904E-09         0.00000E+00
    0.49541E-09        -0.21843E-09         0.00000E+00
    0.48766E-09        -0.20592E-09         0.00000E+00
    0.48039E-09        -0.19135E-09         0.00000E+00
    0.47369E-09        -0.17454E-09         0.00000E+00
    0.46765E-09        -0.15532E-09         0.00000E+00
    0.46235E-09        -0.13354E-09         0.00000E+00
    0.45790E-09        -0.10905E-09         0.00000E+00
    0.45440E-09        -0.81709E-10         0.00000E+00
    0.45195E-09        -0.51423E-10         0.00000E+00
    0.45067E-09        -0.18109E-10         0.00000E+00
    0.76493E-09        -0.91671E-11         0.00000E+00
    0.76418E-09        -0.26642E-10         0.00000E+00
    0.76272E-09        -0.42946E-10         0.00000E+00
    0.76060E-09        -0.58110E-10         0.00000E+00
    0.75786E-09        -0.72177E-10         0.00000E+00
    0.75456E-09        -0.85198E-10         0.00000E+00
    0.75072E-09        -0.97227E-10         0.00000E+00
    0.74640E-09        -0.10833E-09         0.00000E+00
    0.74163E-09        -0.11856E-09         0.00000E+00
    0.73644E-09        -0.12800E-09         0.00000E+00
    0.73087E-09        -0.13669E-09         0.00000E+00
    0.72494E-09        -0.14471E-09         0.00000E+00
    0.71869E-09        -0.15211E-09         0.00000E+00
    0.71213E-09        -0.15895E-09         0.00000E+00
    0.70528E-09        -0.16528E-09         0.00000E+00
    0.69818E-09        -0.17114E-09         0.00000E+00
    0.69083E-09        -0.17657E-09         0.00000E+00
    0.68325E-09        -0.18161E-09         0.00000E+00
    0.67546E-09        -0.18629E-09         0.00000E+00
    0.66747E-09        -0.19063E-09         0.00000E+00
    0.65930E-09        -0.19465E-09         0.00000E+00
    0.65095E-09        -0.19835E-09         0.00000E+00
    0.64245E-09        -0.20176E-09         0.00000E+00
    0.63380E-09        -0.20486E-09         0.00000E+00
    0.62501E-09        -0.20766E-09         0.00000E+00
    0.61611E-09        -0.21014E-09         0.00000E+00
    0.60709E-09        -0.21228E-09         0.00000E+00
    0.59799E-09        -0.21406E-09         0.00000E+00
    0.58880E-09        -0.21545E-09         0.00000E+00
    0.57956E-09        -0.21640E-09         0.00000E+00
    0.57028E-09        -0.21688E-09         0.00000E+00
    0.56098E-09        -0.21682E-09         0.00000E+00
    0.55168E-09        -0.21618E-09         0.00000E+00
    0.54242E-09        -0.21486E-09         0.00000E+00
    0.53322E-09        -0.21280E-09         0.00000E+00
    0.52412E-09        -0.20991E-09         0.00000E+00
    0.51516E-09        -0.20607E-09         0.00000E+00
    0.50637E-09        -0.20120E-09         0.00000E+00
    0.49782E-09        -0.19517E-09         0.00000E+00
    0.48955E-09        -0.18785E-09         0.00000E+00
    0.48162E-09        -0.17912E-09         0.00000E+00
    0.47409E-09        -0.16884E-09         0.00000E+00
    0.46704E-09        -0.15686E-09         0.00000E+00
    0.46055E-09        -0.14306E-09         0.00000E+00
    0.45469E-09        -0.12730E-09         0.00000E+00
    0.44956E-09        -0.10943E-09         0.00000E+00
    0.44525E-09        -0.89350E-10         0.00000E+00
    0.44186E-09        -0.66945E-10         0.00000E+00
    0.43949E-09        -0.42128E-10         0.00000E+00
    0.43826E-09        -0.14835E-10         0.00000E+00
    0.74900E-09        -0.72583E-11         0.00000E+00
    0.74826E-09        -0.21092E-10         0.00000E+00
    0.74682E-09        -0.33996E-10         0.00000E+00
    0.74472E-09        -0.45996E-10         0.00000E+00
    0.74203E-09        -0.57124E-10         0.00000E+00
    0.73876E-09        -0.67421E-10         0.00000E+00
    0.73498E-09        -0.76932E-10         0.00000E+00
    0.73072E-09        -0.85705E-10         0.00000E+00
    0.72601E-09        -0.93790E-10         0.00000E+00
    0.72089E-09        -0.10124E-09         0.00000E+00
    0.71540E-09        -0.10810E-09         0.00000E+00
    0.70955E-09        -0.11443E-09         0.00000E+00
    0.70338E-09        -0.12026E-09         0.00000E+00
    0.69691E-09        -0.12565E-09         0.00000E+00
    0.69017E-09        -0.13063E-09         0.00000E+00
    0.68316E-09        -0.13524E-09         0.00000E+00
    0.67592E-09        -0.13951E-09         0.00000E+00
    0.66846E-09        -0.14347E-09         0.00000E+00
    0.66079E-09        -0.14714E-09         0.00000E+00
    0.65293E-09        -0.15053E-09         0.00000E+00
    0.64489E-09        -0.15368E-09         0.00000E+00
    0.63668E-09        -0.15657E-09         0.00000E+00
    0.62832E-09        -0.15923E-09         0.00000E+00
    0.61982E-09        -0.16164E-09         0.00000E+00
    0.61119E-09        -0.16382E-09         0.00000E+00
    0.60245E-09        -0.16573E-09         0.00000E+00
    0.59360E-09        -0.16739E-09         0.00000E+00
    0.58467E-09        -0.16876E-09         0.00000E+00
    0.57567E-09        -0.16981E-09         0.00000E+00
    0.56661E-09        -0.17053E-09         0.00000E+00
    0.55752E-09        -0.17087E-09         0.00000E+00
    0.54841E-09        -0.17079E-09         0.00000E+00
    0.53931E-09        -0.17025E-09         0.00000E+00
    0.53025E-09        -0.16918E-09         0.00000E+00
    0.52126E-09        -0.16753E-09         0.00000E+00
    0.51237E-09        -0.16522E-09         0.00000E+00
    0.50362E-09        -0.16218E-09         0.00000E+00
    0.49504E-09        -0.15831E-09         0.00000E+00
    0.48670E-09        -0.15354E-09         0.00000E+00
    0.47863E-09        -0.14777E-09         0.00000E+00
    0.47089E-09        -0.14088E-09         0.00000E+00
    0.46356E-09        -0.13278E-09         0.00000E+00
    0.45669E-09        -0.12335E-09         0.00000E+00
    0.45037E-09        -0.11248E-09         0.00000E+00
    0.44466E-09        -0.10008E-09         0.00000E+00
    0.43967E-09        -0.86029E-10         0.00000E+00
    0.43548E-09        -0.70238E-10         0.00000E+00
    0.43218E-09        -0.52623E-10         0.00000E+00
    0.42988E-09        -0.33115E-10         0.00000E+00
    0.42868E-09        -0.11661E-10         0.00000E+00
    0.73679E-09        -0.53741E-11         0.00000E+00
    0.73606E-09        -0.15614E-10         0.00000E+00
    0.73464E-09        -0.25161E-10         0.00000E+00
    0.73257E-09        -0.34036E-10         0.00000E+00
    0.72991E-09        -0.42262E-10         0.00000E+00
    0.72668E-09        -0.49870E-10         0.00000E+00
    0.72295E-09        -0.56894E-10         0.00000E+00
    0.71874E-09        -0.63370E-10         0.00000E+00
    0.71409E-09        -0.69335E-10         0.00000E+00
    0.70903E-09        -0.74827E-10         0.00000E+00
    0.70360E-09        -0.79884E-10         0.00000E+00
    0.69783E-09        -0.84542E-10         0.00000E+00
    0.69173E-09        -0.88835E-10         0.00000E+00
    0.68534E-09        -0.92796E-10         0.00000E+00
    0.67868E-09        -0.96454E-10         0.00000E+00
    0.67177E-09        -0.99836E-10         0.00000E+00
    0.66462E-09        -0.10297E-09         0.00000E+00
    0.65726E-09        -0.10586E-09         0.00000E+00
    0.64969E-09        -0.10855E-09         0.00000E+00
    0.64193E-09        -0.11103E-09         0.00000E+00
    0.63400E-09        -0.11332E-09         0.00000E+00
    0.62591E-09        -0.11543E-09         0.00000E+00
    0.61767E-09        -0.11737E-09         0.00000E+00
    0.60929E-09        -0.11912E-09         0.00000E+00
    0.60079E-09        -0.12069E-09         0.00000E+00
    0.59218E-09        -0.12208E-09         0.00000E+00
    0.58347E-09        -0.12327E-09         0.00000E+00
    0.57468E-09        -0.12425E-09         0.00000E+00
    0.56582E-09        -0.12501E-09         0.00000E+00
    0.55692E-09        -0.12551E-09         0.00000E+00
    0.54798E-09        -0.12574E-09         0.00000E+00
    0.53903E-09        -0.12566E-09         0.00000E+00
    0.53009E-09        -0.12523E-09         0.00000E+00
    0.52120E-09        -0.12442E-09         0.00000E+00
    0.51237E-09        -0.12319E-09         0.00000E+00
    0.50364E-09        -0.12147E-09         0.00000E+00
    0.49505E-09        -0.11921E-09         0.00000E+00
    0.48665E-09        -0.11636E-09         0.00000E+00
    0.47846E-09        -0.11284E-09         0.00000E+00
    0.47055E-09        -0.10858E-09         0.00000E+00
    0.46298E-09        -0.10351E-09         0.00000E+00
    0.45579E-09        -0.97551E-10         0.00000E+00
    0.44907E-09        -0.90618E-10         0.00000E+00
    0.44288E-09        -0.82634E-10         0.00000E+00
    0.43730E-09        -0.73519E-10         0.00000E+00
    0.43241E-09        -0.63197E-10         0.00000E+00
    0.42831E-09        -0.51597E-10         0.00000E+00
    0.42509E-09        -0.38658E-10         0.00000E+00
    0.42284E-09        -0.24328E-10         0.00000E+00
    0.42166E-09        -0.85674E-11         0.00000E+00
    0.72832E-09        -0.35113E-11         0.00000E+00
    0.72760E-09        -0.10197E-10         0.00000E+00
    0.72619E-09        -0.16425E-10         0.00000E+00
    0.72414E-09        -0.22208E-10         0.00000E+00
    0.72150E-09        -0.27563E-10         0.00000E+00
    0.71831E-09        -0.32511E-10         0.00000E+00
    0.71461E-09        -0.37074E-10         0.00000E+00
    0.71044E-09        -0.41277E-10         0.00000E+00
    0.70583E-09        -0.45144E-10         0.00000E+00
    0.70083E-09        -0.48701E-10         0.00000E+00
    0.69545E-09        -0.51971E-10         0.00000E+00
    0.68973E-09        -0.54980E-10         0.00000E+00
    0.68369E-09        -0.57750E-10         0.00000E+00
    0.67737E-09        -0.60303E-10         0.00000E+00
    0.67077E-09        -0.62657E-10         0.00000E+00
    0.66392E-09        -0.64830E-10         0.00000E+00
    0.65684E-09        -0.66838E-10         0.00000E+00
    0.64955E-09        -0.68695E-10         0.00000E+00
    0.64206E-09        -0.70412E-10         0.00000E+00
    0.63438E-09        -0.71998E-10         0.00000E+00
    0.62653E-09        -0.73460E-10         0.00000E+00
    0.61853E-09        -0.74803E-10         0.00000E+00
    0.61037E-09        -0.76031E-10         0.00000E+00
    0.60209E-09        -0.77144E-10         0.00000E+00
    0.59368E-09        -0.78140E-10         0.00000E+00
    0.58517E-09        -0.79015E-10         0.00000E+00
    0.57656E-09        -0.79763E-10         0.00000E+00
    0.56787E-09        -0.80375E-10         0.00000E+00
    0.55912E-09        -0.80841E-10         0.00000E+00
    0.55032E-09        -0.81145E-10         0.00000E+00
    0.54150E-09        -0.81272E-10         0.00000E+00
    0.53266E-09        -0.81202E-10         0.00000E+00
    0.52384E-09        -0.80911E-10         0.00000E+00
    0.51506E-09        -0.80373E-10         0.00000E+00
    0.50636E-09        -0.79560E-10         0.00000E+00
    0.49775E-09        -0.78438E-10         0.00000E+00
    0.48928E-09        -0.76971E-10         0.00000E+00
    0.48100E-09        -0.75119E-10         0.00000E+00
    0.47293E-09        -0.72840E-10         0.00000E+00
    0.46514E-09        -0.70086E-10         0.00000E+00
    0.45768E-09        -0.66810E-10         0.00000E+00
    0.45060E-09        -0.62962E-10         0.00000E+00
    0.44398E-09        -0.58488E-10         0.00000E+00
    0.43789E-09        -0.53337E-10         0.00000E+00
    0.43240E-09        -0.47457E-10         0.00000E+00
    0.42759E-09        -0.40798E-10         0.00000E+00
    0.42355E-09        -0.33314E-10         0.00000E+00
    0.42038E-09        -0.24965E-10         0.00000E+00
    0.41817E-09        -0.15714E-10         0.00000E+00
    0.41702E-09        -0.55355E-11         0.00000E+00
    0.72360E-09        -0.16638E-11         0.00000E+00
    0.72288E-09        -0.48243E-11         0.00000E+00
    0.72148E-09        -0.77585E-11         0.00000E+00
    0.71945E-09        -0.10474E-10         0.00000E+00
    0.71682E-09        -0.12980E-10         0.00000E+00
    0.71365E-09        -0.15288E-10         0.00000E+00
    0.70997E-09        -0.17408E-10         0.00000E+00
    0.70583E-09        -0.19354E-10         0.00000E+00
    0.70125E-09        -0.21139E-10         0.00000E+00
    0.69627E-09        -0.22773E-10         0.00000E+00
    0.69092E-09        -0.24271E-10         0.00000E+00
    0.68523E-09        -0.25644E-10         0.00000E+00
    0.67923E-09        -0.26903E-10         0.00000E+00
    0.67294E-09        -0.28058E-10         0.00000E+00
    0.66638E-09        -0.29120E-10         0.00000E+00
    0.65958E-09        -0.30096E-10         0.00000E+00
    0.65254E-09        -0.30994E-10         0.00000E+00
    0.64529E-09        -0.31821E-10         0.00000E+00
    0.63784E-09        -0.32583E-10         0.00000E+00
    0.63021E-09        -0.33284E-10         0.00000E+00
    0.62241E-09        -0.33928E-10         0.00000E+00
    0.61445E-09        -0.34517E-10         0.00000E+00
    0.60635E-09        -0.35053E-10         0.00000E+00
    0.59812E-09        -0.35536E-10         0.00000E+00
    0.58977E-09        -0.35966E-10         0.00000E+00
    0.58131E-09        -0.36341E-10         0.00000E+00
    0.57276E-09        -0.36659E-10         0.00000E+00
    0.56414E-09        -0.36915E-10         0.00000E+00
    0.55545E-09        -0.37105E-10         0.00000E+00
    0.54672E-09        -0.37223E-10         0.00000E+00
    0.53796E-09        -0.37261E-10         0.00000E+00
    0.52919E-09        -0.37210E-10         0.00000E+00
    0.52044E-09        -0.37060E-10         0.00000E+00
    0.51174E-09        -0.36800E-10         0.00000E+00
    0.50310E-09        -0.36415E-10         0.00000E+00
    0.49457E-09        -0.35891E-10         0.00000E+00
    0.48617E-09        -0.35213E-10         0.00000E+00
    0.47796E-09        -0.34360E-10         0.00000E+00
    0.46997E-09        -0.33315E-10         0.00000E+00
    0.46225E-09        -0.32056E-10         0.00000E+00
    0.45485E-09        -0.30560E-10         0.00000E+00
    0.44785E-09        -0.28804E-10         0.00000E+00
    0.44129E-09        -0.26764E-10         0.00000E+00
    0.43526E-09        -0.24416E-10         0.00000E+00
    0.42982E-09        -0.21734E-10         0.00000E+00
    0.42506E-09        -0.18694E-10         0.00000E+00
    0.42107E-09        -0.15275E-10         0.00000E+00
    0.41793E-09        -0.11456E-10         0.00000E+00
    0.41574E-09        -0.72172E-11         0.00000E+00
    0.41460E-09        -0.25454E-11         0.00000E+00
    0.72266E-09         0.17625E-12         0.00000E+00
    0.72194E-09         0.52727E-12         0.00000E+00
    0.72054E-09         0.87436E-12         0.00000E+00
    0.71851E-09         0.12155E-11         0.00000E+00
    0.71589E-09         0.15489E-11         0.00000E+00
    0.71273E-09         0.18733E-11         0.00000E+00
    0.70905E-09         0.21877E-11         0.00000E+00
    0.70491E-09         0.24913E-11         0.00000E+00
    0.70034E-09         0.27838E-11         0.00000E+00
    0.69536E-09         0.30649E-11         0.00000E+00
    0.69002E-09         0.33346E-11         0.00000E+00
    0.68434E-09         0.35931E-11         0.00000E+00
    0.67835E-09         0.38406E-11         0.00000E+00
    0.67206E-09         0.40773E-11         0.00000E+00
    0.66551E-09         0.43036E-11         0.00000E+00
    0.65871E-09         0.45197E-11         0.00000E+00
    0.65168E-09         0.47260E-11         0.00000E+00
    0.64444E-09         0.49227E-11         0.00000E+00
    0.63700E-09         0.51099E-11         0.00000E+00
    0.62938E-09         0.52877E-11         0.00000E+00
    0.62158E-09         0.54562E-11         0.00000E+00
    0.61364E-09         0.56152E-11         0.00000E+00
    0.60555E-09         0.57645E-11         0.00000E+00
    0.59733E-09         0.59037E-11         0.00000E+00
    0.58899E-09         0.60323E-11         0.00000E+00
    0.58055E-09         0.61497E-11         0.00000E+00
    0.57202E-09         0.62549E-11         0.00000E+00
    0.56341E-09         0.63470E-11         0.00000E+00
    0.55474E-09         0.64247E-11         0.00000E+00
    0.54602E-09         0.64864E-11         0.00000E+00
    0.53728E-09         0.65306E-11         0.00000E+00
    0.52854E-09         0.65553E-11         0.00000E+00
    0.51981E-09         0.65582E-11         0.00000E+00
    0.51113E-09         0.65370E-11         0.00000E+00
    0.50251E-09         0.64888E-11         0.00000E+00
    0.49400E-09         0.64108E-11         0.00000E+00
    0.48564E-09         0.62998E-11         0.00000E+00
    0.47745E-09         0.61523E-11         0.00000E+00
    0.46948E-09         0.59650E-11         0.00000E+00
    0.46178E-09         0.57342E-11         0.00000E+00
    0.45442E-09         0.54563E-11         0.00000E+00
    0.44743E-09         0.51279E-11         0.00000E+00
    0.44090E-09         0.47458E-11         0.00000E+00
    0.43489E-09         0.43072E-11         0.00000E+00
    0.42947E-09         0.38099E-11         0.00000E+00
    0.42473E-09         0.32522E-11         0.00000E+00
    0.42076E-09         0.26336E-11         0.00000E+00
    0.41763E-09         0.19545E-11         0.00000E+00
    0.41545E-09         0.12164E-11         0.00000E+00
    0.41431E-09         0.42200E-12         0.00000E+00
    0.72553E-09         0.20182E-11         0.00000E+00
    0.72481E-09         0.58848E-11         0.00000E+00
    0.72341E-09         0.95173E-11         0.00000E+00
    0.72137E-09         0.12919E-10         0.00000E+00
    0.71874E-09         0.16097E-10         0.00000E+00
    0.71556E-09         0.19057E-10         0.00000E+00
    0.71187E-09         0.21811E-10         0.00000E+00
    0.70771E-09         0.24368E-10         0.00000E+00
    0.70312E-09         0.26741E-10         0.00000E+00
    0.69813E-09         0.28942E-10         0.00000E+00
    0.69276E-09         0.30983E-10         0.00000E+00
    0.68706E-09         0.32875E-10         0.00000E+00
    0.68104E-09         0.34632E-10         0.00000E+00
    0.67473E-09         0.36263E-10         0.00000E+00
    0.66815E-09         0.37778E-10         0.00000E+00
    0.66132E-09         0.39188E-10         0.00000E+00
    0.65426E-09         0.40500E-10         0.00000E+00
    0.64699E-09         0.41721E-10         0.00000E+00
    0.63952E-09         0.42857E-10         0.00000E+00
    0.63187E-09         0.43914E-10         0.00000E+00
    0.62404E-09         0.44893E-10         0.00000E+00
    0.61607E-09         0.45799E-10         0.00000E+00
    0.60795E-09         0.46632E-10         0.00000E+00
    0.59969E-09         0.47391E-10         0.00000E+00
    0.59133E-09         0.48076E-10         0.00000E+00
    0.58285E-09         0.48683E-10         0.00000E+00
    0.57429E-09         0.49208E-10         0.00000E+00
    0.56565E-09         0.49645E-10         0.00000E+00
    0.55695E-09         0.49987E-10         0.00000E+00
    0.54820E-09         0.50224E-10         0.00000E+00
    0.53943E-09         0.50346E-10         0.00000E+00
    0.53066E-09         0.50340E-10         0.00000E+00
    0.52190E-09         0.50192E-10         0.00000E+00
    0.51319E-09         0.49884E-10         0.00000E+00
    0.50455E-09         0.49399E-10         0.00000E+00
    0.49601E-09         0.48715E-10         0.00000E+00
    0.48762E-09         0.47810E-10         0.00000E+00
    0.47941E-09         0.46659E-10         0.00000E+00
    0.47142E-09         0.45236E-10         0.00000E+00
    0.46370E-09         0.43511E-10         0.00000E+00
    0.45631E-09         0.41457E-10         0.00000E+00
    0.44931E-09         0.39043E-10         0.00000E+00
    0.44276E-09         0.36237E-10         0.00000E+00
    0.43674E-09         0.33010E-10         0.00000E+00
    0.43131E-09         0.29334E-10         0.00000E+00
    0.42656E-09         0.25180E-10         0.00000E+00
    0.42257E-09         0.20526E-10         0.00000E+00
    0.41944E-09         0.15351E-10         0.00000E+00
    0.41725E-09         0.96408E-11         0.00000E+00
    0.41611E-09         0.33860E-11         0.00000E+00
    0.73225E-09         0.38724E-11         0.00000E+00
    0.73153E-09         0.11278E-10         0.00000E+00
    0.73011E-09         0.18218E-10         0.00000E+00
    0.72805E-09         0.24702E-10         0.00000E+00
    0.72540E-09         0.30743E-10         0.00000E+00
    0.72219E-09         0.36358E-10         0.00000E+00
    0.71846E-09         0.41568E-10         0.00000E+00
    0.71426E-09         0.46395E-10         0.00000E+00
    0.70963E-09         0.50863E-10         0.00000E+00
    0.70459E-09         0.54997E-10         0.00000E+00
    0.69917E-09         0.58821E-10         0.00000E+00
    0.69341E-09         0.62359E-10         0.00000E+00
    0.68733E-09         0.65635E-10         0.00000E+00
    0.68096E-09         0.68670E-10         0.00000E+00
    0.67432E-09         0.71484E-10         0.00000E+00
    0.66742E-09         0.74095E-10         0.00000E+00
    0.66030E-09         0.76519E-10         0.00000E+00
    0.65296E-09         0.78771E-10         0.00000E+00
    0.64542E-09         0.80862E-10         0.00000E+00
    0.63769E-09         0.82801E-10         0.00000E+00
    0.62979E-09         0.84597E-10         0.00000E+00
    0.62174E-09         0.86253E-10         0.00000E+00
    0.61354E-09         0.87772E-10         0.00000E+00
    0.60521E-09         0.89154E-10         0.00000E+00
    0.59677E-09         0.90396E-10         0.00000E+00
    0.58821E-09         0.91494E-10         0.00000E+00
    0.57957E-09         0.92440E-10         0.00000E+00
    0.57085E-09         0.93222E-10         0.00000E+00
    0.56207E-09         0.93827E-10         0.00000E+00
    0.55324E-09         0.94239E-10         0.00000E+00
    0.54439E-09         0.94437E-10         0.00000E+00
    0.53553E-09         0.94398E-10         0.00000E+00
    0.52670E-09         0.94095E-10         0.00000E+00
    0.51791E-09         0.93497E-10         0.00000E+00
    0.50919E-09         0.92569E-10         0.00000E+00
    0.50058E-09         0.91274E-10         0.00000E+00
    0.49211E-09         0.89568E-10         0.00000E+00
    0.48382E-09         0.87405E-10         0.00000E+00
    0.47576E-09         0.84736E-10         0.00000E+00
    0.46798E-09         0.81507E-10         0.00000E+00
    0.46052E-09         0.77664E-10         0.00000E+00
    0.45346E-09         0.73150E-10         0.00000E+00
    0.44686E-09         0.67906E-10         0.00000E+00
    0.44078E-09         0.61874E-10         0.00000E+00
    0.43530E-09         0.54999E-10         0.00000E+00
    0.43051E-09         0.47229E-10         0.00000E+00
    0.42649E-09         0.38516E-10         0.00000E+00
    0.42333E-09         0.28820E-10         0.00000E+00
    0.42112E-09         0.18110E-10         0.00000E+00
    0.41998E-09         0.63656E-11         0.00000E+00
    0.74287E-09         0.57499E-11         0.00000E+00
    0.74213E-09         0.16739E-10         0.00000E+00
    0.74069E-09         0.27028E-10         0.00000E+00
    0.73860E-09         0.36632E-10         0.00000E+00
    0.73591E-09         0.45572E-10         0.00000E+00
    0.73265E-09         0.53875E-10         0.00000E+00
    0.72887E-09         0.61572E-10         0.00000E+00
    0.72460E-09         0.68697E-10         0.00000E+00
    0.71990E-09         0.75286E-10         0.00000E+00
    0.71478E-09         0.81377E-10         0.00000E+00
    0.70928E-09         0.87006E-10         0.00000E+00
    0.70343E-09         0.92210E-10         0.00000E+00
    0.69726E-09         0.97023E-10         0.00000E+00
    0.69080E-09         0.10148E-09         0.00000E+00
    0.68405E-09         0.10561E-09         0.00000E+00
    0.67705E-09         0.10943E-09         0.00000E+00
    0.66982E-09         0.11298E-09         0.00000E+00
    0.66237E-09         0.11628E-09         0.00000E+00
    0.65471E-09         0.11933E-09         0.00000E+00
    0.64687E-09         0.12217E-09         0.00000E+00
    0.63886E-09         0.12479E-09         0.00000E+00
    0.63068E-09         0.12720E-09         0.00000E+00
    0.62236E-09         0.12942E-09         0.00000E+00
    0.61391E-09         0.13143E-09         0.00000E+00
    0.60533E-09         0.13323E-09         0.00000E+00
    0.59665E-09         0.13483E-09         0.00000E+00
    0.58788E-09         0.13620E-09         0.00000E+00
    0.57903E-09         0.13733E-09         0.00000E+00
    0.57011E-09         0.13820E-09         0.00000E+00
    0.56116E-09         0.13879E-09         0.00000E+00
    0.55217E-09         0.13906E-09         0.00000E+00
    0.54318E-09         0.13899E-09         0.00000E+00
    0.53422E-09         0.13853E-09         0.00000E+00
    0.52529E-09         0.13763E-09         0.00000E+00
    0.51645E-09         0.13626E-09         0.00000E+00
    0.50771E-09         0.13434E-09         0.00000E+00
    0.49911E-09         0.13182E-09         0.00000E+00
    0.49070E-09         0.12864E-09         0.00000E+00
    0.48252E-09         0.12471E-09         0.00000E+00
    0.47462E-09         0.11996E-09         0.00000E+00
    0.46705E-09         0.11430E-09         0.00000E+00
    0.45989E-09         0.10766E-09         0.00000E+00
    0.45318E-09         0.99949E-10         0.00000E+00
    0.44701E-09         0.91079E-10         0.00000E+00
    0.44145E-09         0.80967E-10         0.00000E+00
    0.43659E-09         0.69537E-10         0.00000E+00
    0.43251E-09         0.56717E-10         0.00000E+00
    0.42930E-09         0.42447E-10         0.00000E+00
    0.42707E-09         0.26679E-10         0.00000E+00
    0.42590E-09         0.93801E-11         0.00000E+00
    0.75743E-09         0.76616E-11         0.00000E+00
    0.75667E-09         0.22299E-10         0.00000E+00
    0.75520E-09         0.35999E-10         0.00000E+00
    0.75307E-09         0.48779E-10         0.00000E+00
    0.75032E-09         0.60671E-10         0.00000E+00
    0.74699E-09         0.71709E-10         0.00000E+00
    0.74313E-09         0.81937E-10         0.00000E+00
    0.73878E-09         0.91400E-10         0.00000E+00
    0.73397E-09         0.10015E-09         0.00000E+00
    0.72875E-09         0.10823E-09         0.00000E+00
    0.72314E-09         0.11569E-09         0.00000E+00
    0.71717E-09         0.12259E-09         0.00000E+00
    0.71088E-09         0.12897E-09         0.00000E+00
    0.70428E-09         0.13487E-09         0.00000E+00
    0.69739E-09         0.14033E-09         0.00000E+00
    0.69025E-09         0.14540E-09         0.00000E+00
    0.68287E-09         0.15009E-09         0.00000E+00
    0.67527E-09         0.15445E-09         0.00000E+00
    0.66746E-09         0.15849E-09         0.00000E+00
    0.65946E-09         0.16223E-09         0.00000E+00
    0.65128E-09         0.16569E-09         0.00000E+00
    0.64294E-09         0.16888E-09         0.00000E+00
    0.63445E-09         0.17180E-09         0.00000E+00
    0.62582E-09         0.17445E-09         0.00000E+00
    0.61707E-09         0.17683E-09         0.00000E+00
    0.60821E-09         0.17893E-09         0.00000E+00
    0.59926E-09         0.18073E-09         0.00000E+00
    0.59023E-09         0.18222E-09         0.00000E+00
    0.58113E-09         0.18336E-09         0.00000E+00
    0.57199E-09         0.18412E-09         0.00000E+00
    0.56282E-09         0.18448E-09         0.00000E+00
    0.55365E-09         0.18437E-09         0.00000E+00
    0.54450E-09         0.18375E-09         0.00000E+00
    0.53539E-09         0.18256E-09         0.00000E+00
    0.52636E-09         0.18073E-09         0.00000E+00
    0.51744E-09         0.17818E-09         0.00000E+00
    0.50866E-09         0.17484E-09         0.00000E+00
    0.50008E-09         0.17061E-09         0.00000E+00
    0.49173E-09         0.16539E-09         0.00000E+00
    0.48366E-09         0.15909E-09         0.00000E+00
    0.47594E-09         0.15160E-09         0.00000E+00
    0.46862E-09         0.14279E-09         0.00000E+00
    0.46178E-09         0.13257E-09         0.00000E+00
    0.45548E-09         0.12081E-09         0.00000E+00
    0.44980E-09         0.10740E-09         0.00000E+00
    0.44483E-09         0.92247E-10         0.00000E+00
    0.44067E-09         0.75247E-10         0.00000E+00
    0.43739E-09         0.56320E-10         0.00000E+00
    0.43511E-09         0.35403E-10         0.00000E+00
    0.43392E-09         0.12449E-10         0.00000E+00
    0.77597E-09         0.96185E-11         0.00000E+00
    0.77520E-09         0.27991E-10         0.00000E+00
    0.77369E-09         0.45180E-10         0.00000E+00
    0.77150E-09         0.61211E-10         0.00000E+00
    0.76868E-09         0.76121E-10         0.00000E+00
    0.76526E-09         0.89958E-10         0.00000E+00
    0.76131E-09         0.10277E-09         0.00000E+00
    0.75684E-09         0.11463E-09         0.00000E+00
    0.75192E-09         0.12558E-09         0.00000E+00
    0.74656E-09         0.13570E-09         0.00000E+00
    0.74080E-09         0.14504E-09         0.00000E+00
    0.73469E-09         0.15367E-09         0.00000E+00
    0.72823E-09         0.16165E-09         0.00000E+00
    0.72146E-09         0.16903E-09         0.00000E+00
    0.71441E-09         0.17586E-09         0.00000E+00
    0.70709E-09         0.18218E-09         0.00000E+00
    0.69952E-09         0.18805E-09         0.00000E+00
    0.69172E-09         0.19349E-09         0.00000E+00
    0.68372E-09         0.19853E-09         0.00000E+00
    0.67551E-09         0.20321E-09         0.00000E+00
    0.66713E-09         0.20753E-09         0.00000E+00
    0.65858E-09         0.21150E-09         0.00000E+00
    0.64987E-09         0.21515E-09         0.00000E+00
    0.64103E-09         0.21845E-09         0.00000E+00
    0.63205E-09         0.22142E-09         0.00000E+00
    0.62297E-09         0.22404E-09         0.00000E+00
    0.61379E-09         0.22629E-09         0.00000E+00
    0.60452E-09         0.22814E-09         0.00000E+00
    0.59519E-09         0.22956E-09         0.00000E+00
    0.58582E-09         0.23052E-09         0.00000E+00
    0.57641E-09         0.23095E-09         0.00000E+00
    0.56700E-09         0.23081E-09         0.00000E+00
    0.55761E-09         0.23003E-09         0.00000E+00
    0.54827E-09         0.22854E-09         0.00000E+00
    0.53900E-09         0.22624E-09         0.00000E+00
    0.52984E-09         0.22305E-09         0.00000E+00
    0.52084E-09         0.21887E-09         0.00000E+00
    0.51202E-09         0.21357E-09         0.00000E+00
    0.50345E-09         0.20705E-09         0.00000E+00
    0.49517E-09         0.19916E-09         0.00000E+00
    0.48724E-09         0.18978E-09         0.00000E+00
    0.47973E-09         0.17877E-09         0.00000E+00
    0.47270E-09         0.16597E-09         0.00000E+00
    0.46623E-09         0.15125E-09         0.00000E+00
    0.46040E-09         0.13448E-09         0.00000E+00
    0.45530E-09         0.11551E-09         0.00000E+00
    0.45102E-09         0.94224E-10         0.00000E+00
    0.44766E-09         0.70529E-10         0.00000E+00
    0.44531E-09         0.44337E-10         0.00000E+00
    0.44409E-09         0.15593E-10         0.00000E+00
    0.79856E-09         0.11631E-10         0.00000E+00
    0.79776E-09         0.33843E-10         0.00000E+00
    0.79621E-09         0.54619E-10         0.00000E+00
    0.79395E-09         0.73991E-10         0.00000E+00
    0.79104E-09         0.92004E-10         0.00000E+00
    0.78753E-09         0.10872E-09         0.00000E+00
    0.78345E-09         0.12419E-09         0.00000E+00
    0.77886E-09         0.13850E-09         0.00000E+00
    0.77378E-09         0.15172E-09         0.00000E+00
    0.76827E-09         0.16393E-09         0.00000E+00
    0.76234E-09         0.17520E-09         0.00000E+00
    0.75604E-09         0.18561E-09         0.00000E+00
    0.74940E-09         0.19523E-09         0.00000E+00
    0.74243E-09         0.20412E-09         0.00000E+00
    0.73517E-09         0.21235E-09         0.00000E+00
    0.72763E-09         0.21998E-09         0.00000E+00
    0.71984E-09         0.22705E-09         0.00000E+00
    0.71182E-09         0.23360E-09         0.00000E+00
    0.70357E-09         0.23968E-09         0.00000E+00
    0.69513E-09         0.24531E-09         0.00000E+00
    0.68649E-09         0.25051E-09         0.00000E+00
    0.67769E-09         0.25530E-09         0.00000E+00
    0.66872E-09         0.25969E-09         0.00000E+00
    0.65961E-09         0.26368E-09         0.00000E+00
    0.65037E-09         0.26726E-09         0.00000E+00
    0.64102E-09         0.27041E-09         0.00000E+00
    0.63156E-09         0.27312E-09         0.00000E+00
    0.62201E-09         0.27535E-09         0.00000E+00
    0.61240E-09         0.27707E-09         0.00000E+00
    0.60274E-09         0.27822E-09         0.00000E+00
    0.59304E-09         0.27874E-09         0.00000E+00
    0.58334E-09         0.27857E-09         0.00000E+00
    0.57366E-09         0.27764E-09         0.00000E+00
    0.56402E-09         0.27583E-09         0.00000E+00
    0.55447E-09         0.27307E-09         0.00000E+00
    0.54502E-09         0.26922E-09         0.00000E+00
    0.53573E-09         0.26418E-09         0.00000E+00
    0.52664E-09         0.25779E-09         0.00000E+00
    0.51779E-09         0.24992E-09         0.00000E+00
    0.50925E-09         0.24041E-09         0.00000E+00
    0.50107E-09         0.22910E-09         0.00000E+00
    0.49331E-09         0.21580E-09         0.00000E+00
    0.48605E-09         0.20037E-09         0.00000E+00
    0.47937E-09         0.18261E-09         0.00000E+00
    0.47335E-09         0.16236E-09         0.00000E+00
    0.46809E-09         0.13946E-09         0.00000E+00
    0.46367E-09         0.11377E-09         0.00000E+00
    0.46019E-09         0.85165E-10         0.00000E+00
    0.45777E-09         0.53542E-10         0.00000E+00
    0.45651E-09         0.18831E-10         0.00000E+00
    0.82525E-09         0.13708E-10         0.00000E+00
    0.82442E-09         0.39882E-10         0.00000E+00
    0.82282E-09         0.64359E-10         0.00000E+00
    0.82049E-09         0.87176E-10         0.00000E+00
    0.81748E-09         0.10839E-09         0.00000E+00
    0.81385E-09         0.12806E-09         0.00000E+00
    0.80964E-09         0.14628E-09         0.00000E+00
    0.80489E-09         0.16312E-09         0.00000E+00
    0.79965E-09         0.17868E-09         0.00000E+00
    0.79396E-09         0.19304E-09         0.00000E+00
    0.78784E-09         0.20629E-09         0.00000E+00
    0.78133E-09         0.21854E-09         0.00000E+00
    0.77447E-09         0.22985E-09         0.00000E+00
    0.76727E-09         0.24030E-09         0.00000E+00
    0.75977E-09         0.24998E-09         0.00000E+00
    0.75199E-09         0.25895E-09         0.00000E+00
    0.74394E-09         0.26726E-09         0.00000E+00
    0.73565E-09         0.27497E-09         0.00000E+00
    0.72714E-09         0.28211E-09         0.00000E+00
    0.71841E-09         0.28873E-09         0.00000E+00
    0.70949E-09         0.29485E-09         0.00000E+00
    0.70039E-09         0.30049E-09         0.00000E+00
    0.69113E-09         0.30565E-09         0.00000E+00
    0.68171E-09         0.31035E-09         0.00000E+00
    0.67216E-09         0.31456E-09         0.00000E+00
    0.66249E-09         0.31827E-09         0.00000E+00
    0.65270E-09         0.32147E-09         0.00000E+00
    0.64283E-09         0.32410E-09         0.00000E+00
    0.63288E-09         0.32612E-09         0.00000E+00
    0.62288E-09         0.32748E-09         0.00000E+00
    0.61285E-09         0.32811E-09         0.00000E+00
    0.60281E-09         0.32792E-09         0.00000E+00
    0.59278E-09         0.32683E-09         0.00000E+00
    0.58280E-09         0.32472E-09         0.00000E+00
    0.57290E-09         0.32147E-09         0.00000E+00
    0.56312E-09         0.31696E-09         0.00000E+00
    0.55349E-09         0.31103E-09         0.00000E+00
    0.54406E-09         0.30353E-09         0.00000E+00
    0.53489E-09         0.29427E-09         0.00000E+00
    0.52603E-09         0.28309E-09         0.00000E+00
    0.51755E-09         0.26977E-09         0.00000E+00
    0.50950E-09         0.25414E-09         0.00000E+00
    0.50197E-09         0.23597E-09         0.00000E+00
    0.49504E-09         0.21506E-09         0.00000E+00
    0.48879E-09         0.19122E-09         0.00000E+00
    0.48333E-09         0.16426E-09         0.00000E+00
    0.47874E-09         0.13401E-09         0.00000E+00
    0.47513E-09         0.10032E-09         0.00000E+00
    0.47261E-09         0.63077E-10         0.00000E+00
    0.47130E-09         0.22186E-10         0.00000E+00
    0.85610E-09         0.15856E-10         0.00000E+00
    0.85524E-09         0.46129E-10         0.00000E+00
    0.85358E-09         0.74432E-10         0.00000E+00
    0.85117E-09         0.10081E-09         0.00000E+00
    0.84806E-09         0.12533E-09         0.00000E+00
    0.84430E-09         0.14807E-09         0.00000E+00
    0.83994E-09         0.16912E-09         0.00000E+00
    0.83503E-09         0.18858E-09         0.00000E+00
    0.82961E-09         0.20654E-09         0.00000E+00
    0.82371E-09         0.22313E-09         0.00000E+00
    0.81738E-09         0.23844E-09         0.00000E+00
    0.81065E-09         0.25258E-09         0.00000E+00
    0.80355E-09         0.26564E-09         0.00000E+00
    0.79610E-09         0.27771E-09         0.00000E+00
    0.78834E-09         0.28889E-09         0.00000E+00
    0.78028E-09         0.29924E-09         0.00000E+00
    0.77195E-09         0.30884E-09         0.00000E+00
    0.76337E-09         0.31775E-09         0.00000E+00
    0.75455E-09         0.32600E-09         0.00000E+00
    0.74552E-09         0.33365E-09         0.00000E+00
    0.73628E-09         0.34073E-09         0.00000E+00
    0.72685E-09         0.34725E-09         0.00000E+00
    0.71725E-09         0.35322E-09         0.00000E+00
    0.70749E-09         0.35866E-09         0.00000E+00
    0.69758E-09         0.36354E-09         0.00000E+00
    0.68755E-09         0.36784E-09         0.00000E+00
    0.67740E-09         0.37155E-09         0.00000E+00
    0.66715E-09         0.37461E-09         0.00000E+00
    0.65683E-09         0.37697E-09         0.00000E+00
    0.64645E-09         0.37856E-09         0.00000E+00
    0.63603E-09         0.37931E-09         0.00000E+00
    0.62559E-09         0.37911E-09         0.00000E+00
    0.61517E-09         0.37787E-09         0.00000E+00
    0.60480E-09         0.37545E-09         0.00000E+00
    0.59450E-09         0.37172E-09         0.00000E+00
    0.58432E-09         0.36653E-09         0.00000E+00
    0.57430E-09         0.35969E-09         0.00000E+00
    0.56449E-09         0.35104E-09         0.00000E+00
    0.55495E-09         0.34036E-09         0.00000E+00
    0.54572E-09         0.32744E-09         0.00000E+00
    0.53688E-09         0.31207E-09         0.00000E+00
    0.52849E-09         0.29399E-09         0.00000E+00
    0.52065E-09         0.27299E-09         0.00000E+00
    0.51342E-09         0.24882E-09         0.00000E+00
    0.50691E-09         0.22126E-09         0.00000E+00
    0.50120E-09         0.19008E-09         0.00000E+00
    0.49642E-09         0.15508E-09         0.00000E+00
    0.49265E-09         0.11611E-09         0.00000E+00
    0.49003E-09         0.73004E-10         0.00000E+00
    0.48866E-09         0.25680E-10         0.00000E+00
    0.89117E-09         0.18081E-10         0.00000E+00
    0.89029E-09         0.52597E-10         0.00000E+00
    0.88857E-09         0.84862E-10         0.00000E+00
    0.88607E-09         0.11493E-09         0.00000E+00
    0.88285E-09         0.14287E-09         0.00000E+00
    0.87896E-09         0.16878E-09         0.00000E+00
    0.87445E-09         0.19276E-09         0.00000E+00
    0.86937E-09         0.21492E-09         0.00000E+00
    0.86375E-09         0.23539E-09         0.00000E+00
    0.85765E-09         0.25428E-09         0.00000E+00
    0.85109E-09         0.27172E-09         0.00000E+00
    0.84412E-09         0.28782E-09         0.00000E+00
    0.83676E-09         0.30269E-09         0.00000E+00
    0.82905E-09         0.31645E-09         0.00000E+00
    0.82101E-09         0.32918E-09         0.00000E+00
    0.81266E-09         0.34098E-09         0.00000E+00
    0.80403E-09         0.35192E-09         0.00000E+00
    0.79513E-09         0.36207E-09         0.00000E+00
    0.78599E-09         0.37149E-09         0.00000E+00
    0.77662E-09         0.38022E-09         0.00000E+00
    0.76703E-09         0.38829E-09         0.00000E+00
    0.75725E-09         0.39574E-09         0.00000E+00
    0.74728E-09         0.40257E-09         0.00000E+00
    0.73714E-09         0.40879E-09         0.00000E+00
    0.72685E-09         0.41438E-09         0.00000E+00
    0.71642E-09         0.41932E-09         0.00000E+00
    0.70587E-09         0.42358E-09         0.00000E+00
    0.69521E-09         0.42710E-09         0.00000E+00
    0.68447E-09         0.42982E-09         0.00000E+00
    0.67366E-09         0.43168E-09         0.00000E+00
    0.66281E-09         0.43256E-09         0.00000E+00
    0.65194E-09         0.43238E-09         0.00000E+00
    0.64107E-09         0.43100E-09         0.00000E+00
    0.63026E-09         0.42828E-09         0.00000E+00
    0.61951E-09         0.42407E-09         0.00000E+00
    0.60889E-09         0.41818E-09         0.00000E+00
    0.59843E-09         0.41043E-09         0.00000E+00
    0.58818E-09         0.40059E-09         0.00000E+00
    0.57821E-09         0.38844E-09         0.00000E+00
    0.56856E-09         0.37373E-09         0.00000E+00
    0.55932E-09         0.35621E-09         0.00000E+00
    0.55055E-09         0.33561E-09         0.00000E+00
    0.54233E-09         0.31167E-09         0.00000E+00
    0.53477E-09         0.28410E-09         0.00000E+00
    0.52795E-09         0.25265E-09         0.00000E+00
    0.52198E-09         0.21706E-09         0.00000E+00
    0.51696E-09         0.17712E-09         0.00000E+00
    0.51302E-09         0.13261E-09         0.00000E+00
    0.51027E-09         0.83389E-10         0.00000E+00
    0.50883E-09         0.29337E-10         0.00000E+00
    0.93056E-09         0.20383E-10         0.00000E+00
    0.92964E-09         0.59289E-10         0.00000E+00
    0.92787E-09         0.95652E-10         0.00000E+00
    0.92529E-09         0.12953E-09         0.00000E+00
    0.92196E-09         0.16102E-09         0.00000E+00
    0.91793E-09         0.19021E-09         0.00000E+00
    0.91327E-09         0.21722E-09         0.00000E+00
    0.90801E-09         0.24218E-09         0.00000E+00
    0.90220E-09         0.26524E-09         0.00000E+00
    0.89589E-09         0.28652E-09         0.00000E+00
    0.88911E-09         0.30616E-09         0.00000E+00
    0.88189E-09         0.32430E-09         0.00000E+00
    0.87428E-09         0.34106E-09         0.00000E+00
    0.86630E-09         0.35656E-09         0.00000E+00
    0.85797E-09         0.37091E-09         0.00000E+00
    0.84932E-09         0.38422E-09         0.00000E+00
    0.84038E-09         0.39656E-09         0.00000E+00
    0.83115E-09         0.40802E-09         0.00000E+00
    0.82167E-09         0.41866E-09         0.00000E+00
    0.81195E-09         0.42852E-09         0.00000E+00
    0.80200E-09         0.43766E-09         0.00000E+00
    0.79184E-09         0.44609E-09         0.00000E+00
    0.78148E-09         0.45384E-09         0.00000E+00
    0.77095E-09         0.46089E-09         0.00000E+00
    0.76024E-09         0.46724E-09         0.00000E+00
    0.74939E-09         0.47286E-09         0.00000E+00
    0.73841E-09         0.47772E-09         0.00000E+00
    0.72730E-09         0.48175E-09         0.00000E+00
    0.71611E-09         0.48488E-09         0.00000E+00
    0.70483E-09         0.48703E-09         0.00000E+00
    0.69351E-09         0.48810E-09         0.00000E+00
    0.68216E-09         0.48796E-09         0.00000E+00
    0.67081E-09         0.48646E-09         0.00000E+00
    0.65950E-09         0.48346E-09         0.00000E+00
    0.64827E-09         0.47877E-09         0.00000E+00
    0.63715E-09         0.47218E-09         0.00000E+00
    0.62620E-09         0.46348E-09         0.00000E+00
    0.61547E-09         0.45243E-09         0.00000E+00
    0.60502E-09         0.43876E-09         0.00000E+00
    0.59490E-09         0.42220E-09         0.00000E+00
    0.58520E-09         0.40246E-09         0.00000E+00
    0.57600E-09         0.37923E-09         0.00000E+00
    0.56738E-09         0.35221E-09         0.00000E+00
    0.55943E-09         0.32110E-09         0.00000E+00
    0.55227E-09         0.28558E-09         0.00000E+00
    0.54599E-09         0.24538E-09         0.00000E+00
    0.54072E-09         0.20025E-09         0.00000E+00
    0.53657E-09         0.14994E-09         0.00000E+00
    0.53367E-09         0.94298E-10         0.00000E+00
    0.53216E-09         0.33178E-10         0.00000E+00
    0.97434E-09         0.22759E-10         0.00000E+00
    0.97340E-09         0.66195E-10         0.00000E+00
    0.97157E-09         0.10679E-09         0.00000E+00
    0.96891E-09         0.14461E-09         0.00000E+00
    0.96548E-09         0.17975E-09         0.00000E+00
    0.96133E-09         0.21233E-09         0.00000E+00
    0.95652E-09         0.24247E-09         0.00000E+00
    0.95110E-09         0.27034E-09         0.00000E+00
    0.94511E-09         0.29607E-09         0.00000E+00
    0.93860E-09         0.31982E-09         0.00000E+00
    0.93160E-09         0.34175E-09         0.00000E+00
    0.92415E-09         0.36200E-09         0.00000E+00
    0.91629E-09         0.38073E-09         0.00000E+00
    0.90804E-09         0.39805E-09         0.00000E+00
    0.89944E-09         0.41410E-09         0.00000E+00
    0.89049E-09         0.42898E-09         0.00000E+00
    0.88124E-09         0.44280E-09         0.00000E+00
    0.87169E-09         0.45563E-09         0.00000E+00
    0.86187E-09         0.46756E-09         0.00000E+00
    0.85179E-09         0.47863E-09         0.00000E+00
    0.84147E-09         0.48890E-09         0.00000E+00
    0.83093E-09         0.49838E-09         0.00000E+00
    0.82017E-09         0.50710E-09         0.00000E+00
    0.80923E-09         0.51506E-09         0.00000E+00
    0.79810E-09         0.52223E-09         0.00000E+00
    0.78680E-09         0.52860E-09         0.00000E+00
    0.77536E-09         0.53411E-09         0.00000E+00
    0.76379E-09         0.53871E-09         0.00000E+00
    0.75211E-09         0.54231E-09         0.00000E+00
    0.74035E-09         0.54481E-09         0.00000E+00
    0.72852E-09         0.54609E-09         0.00000E+00
    0.71666E-09         0.54603E-09         0.00000E+00
    0.70479E-09         0.54445E-09         0.00000E+00
    0.69295E-09         0.54119E-09         0.00000E+00
    0.68119E-09         0.53603E-09         0.00000E+00
    0.66954E-09         0.52875E-09         0.00000E+00
    0.65805E-09         0.51909E-09         0.00000E+00
    0.64679E-09         0.50680E-09         0.00000E+00
    0.63581E-09         0.49157E-09         0.00000E+00
    0.62518E-09         0.47310E-09         0.00000E+00
    0.61498E-09         0.45104E-09         0.00000E+00
    0.60530E-09         0.42508E-09         0.00000E+00
    0.59623E-09         0.39485E-09         0.00000E+00
    0.58786E-09         0.36002E-09         0.00000E+00
    0.58031E-09         0.32024E-09         0.00000E+00
    0.57369E-09         0.27520E-09         0.00000E+00
    0.56813E-09         0.22461E-09         0.00000E+00
    0.56375E-09         0.16821E-09         0.00000E+00
    0.56069E-09         0.10580E-09         0.00000E+00
    0.55910E-09         0.37230E-10         0.00000E+00
    0.10227E-08         0.25198E-10         0.00000E+00
    0.10217E-08         0.73289E-10         0.00000E+00
    0.10198E-08         0.11823E-09         0.00000E+00
    0.10171E-08         0.16010E-09         0.00000E+00
    0.10136E-08         0.19900E-09         0.00000E+00
    0.10093E-08         0.23506E-09         0.00000E+00
    0.10044E-08         0.26844E-09         0.00000E+00
    0.99882E-09         0.29930E-09         0.00000E+00
    0.99268E-09         0.32779E-09         0.00000E+00
    0.98599E-09         0.35411E-09         0.00000E+00
    0.97880E-09         0.37841E-09         0.00000E+00
    0.97114E-09         0.40086E-09         0.00000E+00
    0.96305E-09         0.42162E-09         0.00000E+00
    0.95456E-09         0.44085E-09         0.00000E+00
    0.94570E-09         0.45867E-09         0.00000E+00
    0.93648E-09         0.47521E-09         0.00000E+00
    0.92693E-09         0.49058E-09         0.00000E+00
    0.91708E-09         0.50487E-09         0.00000E+00
    0.90693E-09         0.51817E-09         0.00000E+00
    0.89651E-09         0.53052E-09         0.00000E+00
    0.88583E-09         0.54199E-09         0.00000E+00
    0.87491E-09         0.55261E-09         0.00000E+00
    0.86376E-09         0.56239E-09         0.00000E+00
    0.85240E-09         0.57133E-09         0.00000E+00
    0.84084E-09         0.57941E-09         0.00000E+00
    0.82910E-09         0.58660E-09         0.00000E+00
    0.81719E-09         0.59284E-09         0.00000E+00
    0.80514E-09         0.59808E-09         0.00000E+00
    0.79297E-09         0.60221E-09         0.00000E+00
    0.78069E-09         0.60512E-09         0.00000E+00
    0.76834E-09         0.60669E-09         0.00000E+00
    0.75594E-09         0.60676E-09         0.00000E+00
    0.74352E-09         0.60515E-09         0.00000E+00
    0.73112E-09         0.60165E-09         0.00000E+00
    0.71879E-09         0.59605E-09         0.00000E+00
    0.70657E-09         0.58808E-09         0.00000E+00
    0.69451E-09         0.57747E-09         0.00000E+00
    0.68268E-09         0.56392E-09         0.00000E+00
    0.67113E-09         0.54709E-09         0.00000E+00
    0.65995E-09         0.52663E-09         0.00000E+00
    0.64921E-09         0.50218E-09         0.00000E+00
    0.63901E-09         0.47336E-09         0.00000E+00
    0.62944E-09         0.43978E-09         0.00000E+00
    0.62061E-09         0.40106E-09         0.00000E+00
    0.61264E-09         0.35681E-09         0.00000E+00
    0.60565E-09         0.30668E-09         0.00000E+00
    0.59977E-09         0.25034E-09         0.00000E+00
    0.59515E-09         0.18751E-09         0.00000E+00
    0.59191E-09         0.11795E-09         0.00000E+00
    0.59022E-09         0.41514E-10         0.00000E+00
    0.10757E-08         0.27686E-10         0.00000E+00
    0.10747E-08         0.80525E-10         0.00000E+00
    0.10728E-08         0.12990E-09         0.00000E+00
    0.10700E-08         0.17591E-09         0.00000E+00
    0.10664E-08         0.21865E-09         0.00000E+00
    0.10621E-08         0.25829E-09         0.00000E+00
    0.10571E-08         0.29498E-09         0.00000E+00
    0.10514E-08         0.32891E-09         0.00000E+00
    0.10451E-08         0.36025E-09         0.00000E+00
    0.10383E-08         0.38921E-09         0.00000E+00
    0.10310E-08         0.41596E-09         0.00000E+00
    0.10232E-08         0.44069E-09         0.00000E+00
    0.10149E-08         0.46359E-09         0.00000E+00
    0.10062E-08         0.48480E-09         0.00000E+00
    0.99711E-09         0.50448E-09         0.00000E+00
    0.98766E-09         0.52276E-09         0.00000E+00
    0.97786E-09         0.53977E-09         0.00000E+00
    0.96772E-09         0.55561E-09         0.00000E+00
    0.95728E-09         0.57037E-09         0.00000E+00
    0.94655E-09         0.58410E-09         0.00000E+00
    0.93553E-09         0.59688E-09         0.00000E+00
    0.92426E-09         0.60872E-09         0.00000E+00
    0.91273E-09         0.61965E-09         0.00000E+00
    0.90097E-09         0.62967E-09         0.00000E+00
    0.88900E-09         0.63875E-09         0.00000E+00
    0.87682E-09         0.64685E-09         0.00000E+00
    0.86445E-09         0.65393E-09         0.00000E+00
    0.85193E-09         0.65989E-09         0.00000E+00
    0.83925E-09         0.66464E-09         0.00000E+00
    0.82646E-09         0.66805E-09         0.00000E+00
    0.81357E-09         0.66997E-09         0.00000E+00
    0.80062E-09         0.67024E-09         0.00000E+00
    0.78763E-09         0.66865E-09         0.00000E+00
    0.77466E-09         0.66498E-09         0.00000E+00
    0.76174E-09         0.65898E-09         0.00000E+00
    0.74892E-09         0.65035E-09         0.00000E+00
    0.73626E-09         0.63879E-09         0.00000E+00
    0.72383E-09         0.62396E-09         0.00000E+00
    0.71169E-09         0.60549E-09         0.00000E+00
    0.69991E-09         0.58300E-09         0.00000E+00
    0.68860E-09         0.55607E-09         0.00000E+00
    0.67784E-09         0.52428E-09         0.00000E+00
    0.66775E-09         0.48720E-09         0.00000E+00
    0.65842E-09         0.44439E-09         0.00000E+00
    0.65000E-09         0.39545E-09         0.00000E+00
    0.64261E-09         0.33995E-09         0.00000E+00
    0.63639E-09         0.27755E-09         0.00000E+00
    0.63149E-09         0.20793E-09         0.00000E+00
    0.62806E-09         0.13082E-09         0.00000E+00
    0.62627E-09         0.46053E-10         0.00000E+00
    0.11336E-08         0.30197E-10         0.00000E+00
    0.11326E-08         0.87831E-10         0.00000E+00
    0.11307E-08         0.14170E-09         0.00000E+00
    0.11279E-08         0.19189E-09         0.00000E+00
    0.11243E-08         0.23854E-09         0.00000E+00
    0.11200E-08         0.28181E-09         0.00000E+00
    0.11149E-08         0.32188E-09         0.00000E+00
    0.11092E-08         0.35894E-09         0.00000E+00
    0.11029E-08         0.39321E-09         0.00000E+00
    0.10960E-08         0.42488E-09         0.00000E+00
    0.10885E-08         0.45416E-09         0.00000E+00
    0.10806E-08         0.48126E-09         0.00000E+00
    0.10722E-08         0.50636E-09         0.00000E+00
    0.10634E-08         0.52965E-09         0.00000E+00
    0.10541E-08         0.55128E-09         0.00000E+00
    0.10445E-08         0.57141E-09         0.00000E+00
    0.10345E-08         0.59016E-09         0.00000E+00
    0.10241E-08         0.60765E-09         0.00000E+00
    0.10135E-08         0.62397E-09         0.00000E+00
    0.10025E-08         0.63919E-09         0.00000E+00
    0.99115E-09         0.65338E-09         0.00000E+00
    0.97956E-09         0.66656E-09         0.00000E+00
    0.96770E-09         0.67876E-09         0.00000E+00
    0.95557E-09         0.68996E-09         0.00000E+00
    0.94321E-09         0.70016E-09         0.00000E+00
    0.93062E-09         0.70929E-09         0.00000E+00
    0.91782E-09         0.71731E-09         0.00000E+00
    0.90483E-09         0.72411E-09         0.00000E+00
    0.89167E-09         0.72958E-09         0.00000E+00
    0.87837E-09         0.73359E-09         0.00000E+00
    0.86495E-09         0.73596E-09         0.00000E+00
    0.85145E-09         0.73652E-09         0.00000E+00
    0.83790E-09         0.73504E-09         0.00000E+00
    0.82434E-09         0.73126E-09         0.00000E+00
    0.81082E-09         0.72490E-09         0.00000E+00
    0.79740E-09         0.71565E-09         0.00000E+00
    0.78412E-09         0.70316E-09         0.00000E+00
    0.77107E-09         0.68705E-09         0.00000E+00
    0.75830E-09         0.66692E-09         0.00000E+00
    0.74592E-09         0.64234E-09         0.00000E+00
    0.73401E-09         0.61285E-09         0.00000E+00
    0.72267E-09         0.57798E-09         0.00000E+00
    0.71202E-09         0.53724E-09         0.00000E+00
    0.70218E-09         0.49017E-09         0.00000E+00
    0.69328E-09         0.43629E-09         0.00000E+00
    0.68546E-09         0.37515E-09         0.00000E+00
    0.67888E-09         0.30636E-09         0.00000E+00
    0.67369E-09         0.22956E-09         0.00000E+00
    0.67006E-09         0.14446E-09         0.00000E+00
    0.66816E-09         0.50867E-10         0.00000E+00
    0.11969E-08         0.32697E-10         0.00000E+00
    0.11959E-08         0.95114E-10         0.00000E+00
    0.11940E-08         0.15346E-09         0.00000E+00
    0.11913E-08         0.20785E-09         0.00000E+00
    0.11877E-08         0.25843E-09         0.00000E+00
    0.11834E-08         0.30536E-09         0.00000E+00
    0.11783E-08         0.34884E-09         0.00000E+00
    0.11726E-08         0.38908E-09         0.00000E+00
    0.11663E-08         0.42632E-09         0.00000E+00
    0.11594E-08         0.46077E-09         0.00000E+00
    0.11519E-08         0.49265E-09         0.00000E+00
    0.11440E-08         0.52219E-09         0.00000E+00
    0.11356E-08         0.54959E-09         0.00000E+00
    0.11267E-08         0.57505E-09         0.00000E+00
    0.11173E-08         0.59873E-09         0.00000E+00
    0.11076E-08         0.62081E-09         0.00000E+00
    0.10975E-08         0.64141E-09         0.00000E+00
    0.10870E-08         0.66067E-09         0.00000E+00
    0.10761E-08         0.67867E-09         0.00000E+00
    0.10649E-08         0.69551E-09         0.00000E+00
    0.10534E-08         0.71123E-09         0.00000E+00
    0.10415E-08         0.72589E-09         0.00000E+00
    0.10294E-08         0.73948E-09         0.00000E+00
    0.10170E-08         0.75201E-09         0.00000E+00
    0.10042E-08         0.76345E-09         0.00000E+00
    0.99129E-09         0.77375E-09         0.00000E+00
    0.97809E-09         0.78284E-09         0.00000E+00
    0.96467E-09         0.79060E-09         0.00000E+00
    0.95106E-09         0.79693E-09         0.00000E+00
    0.93728E-09         0.80166E-09         0.00000E+00
    0.92336E-09         0.80460E-09         0.00000E+00
    0.90932E-09         0.80556E-09         0.00000E+00
    0.89522E-09         0.80427E-09         0.00000E+00
    0.88109E-09         0.80046E-09         0.00000E+00
    0.86698E-09         0.79383E-09         0.00000E+00
    0.85295E-09         0.78401E-09         0.00000E+00
    0.83906E-09         0.77062E-09         0.00000E+00
    0.82538E-09         0.75326E-09         0.00000E+00
    0.81199E-09         0.73146E-09         0.00000E+00
    0.79899E-09         0.70475E-09         0.00000E+00
    0.78647E-09         0.67262E-09         0.00000E+00
    0.77454E-09         0.63455E-09         0.00000E+00
    0.76332E-09         0.59002E-09         0.00000E+00
    0.75294E-09         0.53848E-09         0.00000E+00
    0.74355E-09         0.47943E-09         0.00000E+00
    0.73530E-09         0.41236E-09         0.00000E+00
    0.72834E-09         0.33683E-09         0.00000E+00
    0.72286E-09         0.25246E-09         0.00000E+00
    0.71902E-09         0.15891E-09         0.00000E+00
    0.71701E-09         0.55969E-10         0.00000E+00
    0.12660E-08         0.35144E-10         0.00000E+00
    0.12650E-08         0.10225E-09         0.00000E+00
    0.12632E-08         0.16501E-09         0.00000E+00
    0.12605E-08         0.22355E-09         0.00000E+00
    0.12570E-08         0.27801E-09         0.00000E+00
    0.12528E-08         0.32858E-09         0.00000E+00
    0.12479E-08         0.37548E-09         0.00000E+00
    0.12423E-08         0.41893E-09         0.00000E+00
    0.12360E-08         0.45917E-09         0.00000E+00
    0.12292E-08         0.49644E-09         0.00000E+00
    0.12219E-08         0.53099E-09         0.00000E+00
    0.12140E-08         0.56305E-09         0.00000E+00
    0.12056E-08         0.59283E-09         0.00000E+00
    0.11968E-08         0.62056E-09         0.00000E+00
    0.11874E-08         0.64640E-09         0.00000E+00
    0.11777E-08         0.67054E-09         0.00000E+00
    0.11675E-08         0.69312E-09         0.00000E+00
    0.11570E-08         0.71427E-09         0.00000E+00
    0.11460E-08         0.73410E-09         0.00000E+00
    0.11347E-08         0.75269E-09         0.00000E+00
    0.11230E-08         0.77010E-09         0.00000E+00
    0.11110E-08         0.78637E-09         0.00000E+00
    0.10987E-08         0.80151E-09         0.00000E+00
    0.10860E-08         0.81552E-09         0.00000E+00
    0.10730E-08         0.82837E-09         0.00000E+00
    0.10597E-08         0.83998E-09         0.00000E+00
    0.10462E-08         0.85029E-09         0.00000E+00
    0.10324E-08         0.85917E-09         0.00000E+00
    0.10184E-08         0.86650E-09         0.00000E+00
    0.10042E-08         0.87208E-09         0.00000E+00
    0.98980E-09         0.87573E-09         0.00000E+00
    0.97527E-09         0.87721E-09         0.00000E+00
    0.96065E-09         0.87624E-09         0.00000E+00
    0.94598E-09         0.87251E-09         0.00000E+00
    0.93131E-09         0.86569E-09         0.00000E+00
    0.91669E-09         0.85537E-09         0.00000E+00
    0.90221E-09         0.84115E-09         0.00000E+00
    0.88792E-09         0.82255E-09         0.00000E+00
    0.87393E-09         0.79908E-09         0.00000E+00
    0.86031E-09         0.77021E-09         0.00000E+00
    0.84719E-09         0.73539E-09         0.00000E+00
    0.83467E-09         0.69403E-09         0.00000E+00
    0.82289E-09         0.64555E-09         0.00000E+00
    0.81198E-09         0.58937E-09         0.00000E+00
    0.80210E-09         0.52490E-09         0.00000E+00
    0.79341E-09         0.45161E-09         0.00000E+00
    0.78608E-09         0.36901E-09         0.00000E+00
    0.78029E-09         0.27665E-09         0.00000E+00
    0.77624E-09         0.17418E-09         0.00000E+00
    0.77412E-09         0.61366E-10         0.00000E+00
    0.13417E-08         0.37487E-10         0.00000E+00
    0.13408E-08         0.10910E-09         0.00000E+00
    0.13390E-08         0.17612E-09         0.00000E+00
    0.13365E-08         0.23868E-09         0.00000E+00
    0.13331E-08         0.29693E-09         0.00000E+00
    0.13291E-08         0.35108E-09         0.00000E+00
    0.13243E-08         0.40135E-09         0.00000E+00
    0.13190E-08         0.44799E-09         0.00000E+00
    0.13129E-08         0.49125E-09         0.00000E+00
    0.13063E-08         0.53139E-09         0.00000E+00
    0.12992E-08         0.56865E-09         0.00000E+00
    0.12915E-08         0.60330E-09         0.00000E+00
    0.12833E-08         0.63556E-09         0.00000E+00
    0.12746E-08         0.66564E-09         0.00000E+00
    0.12654E-08         0.69376E-09         0.00000E+00
    0.12557E-08         0.72009E-09         0.00000E+00
    0.12457E-08         0.74478E-09         0.00000E+00
    0.12351E-08         0.76797E-09         0.00000E+00
    0.12242E-08         0.78978E-09         0.00000E+00
    0.12129E-08         0.81028E-09         0.00000E+00
    0.12011E-08         0.82954E-09         0.00000E+00
    0.11890E-08         0.84759E-09         0.00000E+00
    0.11766E-08         0.86446E-09         0.00000E+00
    0.11637E-08         0.88012E-09         0.00000E+00
    0.11505E-08         0.89454E-09         0.00000E+00
    0.11370E-08         0.90764E-09         0.00000E+00
    0.11232E-08         0.91934E-09         0.00000E+00
    0.11092E-08         0.92952E-09         0.00000E+00
    0.10948E-08         0.93800E-09         0.00000E+00
    0.10802E-08         0.94461E-09         0.00000E+00
    0.10654E-08         0.94911E-09         0.00000E+00
    0.10505E-08         0.95125E-09         0.00000E+00
    0.10354E-08         0.95073E-09         0.00000E+00
    0.10202E-08         0.94721E-09         0.00000E+00
    0.10050E-08         0.94030E-09         0.00000E+00
    0.98987E-09         0.92957E-09         0.00000E+00
    0.97483E-09         0.91457E-09         0.00000E+00
    0.95998E-09         0.89479E-09         0.00000E+00
    0.94541E-09         0.86967E-09         0.00000E+00
    0.93122E-09         0.83863E-09         0.00000E+00
    0.91753E-09         0.80106E-09         0.00000E+00
    0.90445E-09         0.75632E-09         0.00000E+00
    0.89213E-09         0.70377E-09         0.00000E+00
    0.88072E-09         0.64277E-09         0.00000E+00
    0.87036E-09         0.57267E-09         0.00000E+00
    0.86125E-09         0.49288E-09         0.00000E+00
    0.85356E-09         0.40285E-09         0.00000E+00
    0.84748E-09         0.30211E-09         0.00000E+00
    0.84323E-09         0.19027E-09         0.00000E+00
    0.84099E-09         0.67056E-10         0.00000E+00
    0.14250E-08         0.39667E-10         0.00000E+00
    0.14242E-08         0.11549E-09         0.00000E+00
    0.14226E-08         0.18653E-09         0.00000E+00
    0.14202E-08         0.25291E-09         0.00000E+00
    0.14171E-08         0.31480E-09         0.00000E+00
    0.14133E-08         0.37241E-09         0.00000E+00
    0.14089E-08         0.42598E-09         0.00000E+00
    0.14038E-08         0.47577E-09         0.00000E+00
    0.13981E-08         0.52203E-09         0.00000E+00
    0.13918E-08         0.56504E-09         0.00000E+00
    0.13850E-08         0.60507E-09         0.00000E+00
    0.13776E-08         0.64237E-09         0.00000E+00
    0.13696E-08         0.67719E-09         0.00000E+00
    0.13612E-08         0.70975E-09         0.00000E+00
    0.13523E-08         0.74027E-09         0.00000E+00
    0.13428E-08         0.76892E-09         0.00000E+00
    0.13329E-08         0.79587E-09         0.00000E+00
    0.13226E-08         0.82127E-09         0.00000E+00
    0.13117E-08         0.84521E-09         0.00000E+00
    0.13005E-08         0.86780E-09         0.00000E+00
    0.12888E-08         0.88908E-09         0.00000E+00
    0.12767E-08         0.90911E-09         0.00000E+00
    0.12642E-08         0.92788E-09         0.00000E+00
    0.12513E-08         0.94538E-09         0.00000E+00
    0.12380E-08         0.96156E-09         0.00000E+00
    0.12244E-08         0.97634E-09         0.00000E+00
    0.12104E-08         0.98962E-09         0.00000E+00
    0.11961E-08         0.10013E-08         0.00000E+00
    0.11814E-08         0.10111E-08         0.00000E+00
    0.11666E-08         0.10189E-08         0.00000E+00
    0.11514E-08         0.10244E-08         0.00000E+00
    0.11361E-08         0.10274E-08         0.00000E+00
    0.11206E-08         0.10274E-08         0.00000E+00
    0.11051E-08         0.10242E-08         0.00000E+00
    0.10894E-08         0.10174E-08         0.00000E+00
    0.10738E-08         0.10063E-08         0.00000E+00
    0.10583E-08         0.99064E-09         0.00000E+00
    0.10429E-08         0.96972E-09         0.00000E+00
    0.10279E-08         0.94297E-09         0.00000E+00
    0.10132E-08         0.90976E-09         0.00000E+00
    0.99896E-09         0.86941E-09         0.00000E+00
    0.98538E-09         0.82123E-09         0.00000E+00
    0.97257E-09         0.76450E-09         0.00000E+00
    0.96070E-09         0.69851E-09         0.00000E+00
    0.94992E-09         0.62257E-09         0.00000E+00
    0.94042E-09         0.53602E-09         0.00000E+00
    0.93240E-09         0.43826E-09         0.00000E+00
    0.92606E-09         0.32877E-09         0.00000E+00
    0.92162E-09         0.20713E-09         0.00000E+00
    0.91929E-09         0.73021E-10         0.00000E+00
    0.15175E-08         0.41626E-10         0.00000E+00
    0.15168E-08         0.12127E-09         0.00000E+00
    0.15154E-08         0.19598E-09         0.00000E+00
    0.15132E-08         0.26591E-09         0.00000E+00
    0.15105E-08         0.33122E-09         0.00000E+00
    0.15070E-08         0.39212E-09         0.00000E+00
    0.15029E-08         0.44887E-09         0.00000E+00
    0.14983E-08         0.50173E-09         0.00000E+00
    0.14930E-08         0.55097E-09         0.00000E+00
    0.14871E-08         0.59686E-09         0.00000E+00
    0.14807E-08         0.63969E-09         0.00000E+00
    0.14737E-08         0.67972E-09         0.00000E+00
    0.14661E-08         0.71719E-09         0.00000E+00
    0.14581E-08         0.75234E-09         0.00000E+00
    0.14495E-08         0.78539E-09         0.00000E+00
    0.14403E-08         0.81652E-09         0.00000E+00
    0.14307E-08         0.84590E-09         0.00000E+00
    0.14206E-08         0.87366E-09         0.00000E+00
    0.14100E-08         0.89993E-09         0.00000E+00
    0.13989E-08         0.92479E-09         0.00000E+00
    0.13873E-08         0.94830E-09         0.00000E+00
    0.13753E-08         0.97049E-09         0.00000E+00
    0.13629E-08         0.99136E-09         0.00000E+00
    0.13500E-08         0.10109E-08         0.00000E+00
    0.13366E-08         0.10290E-08         0.00000E+00
    0.13229E-08         0.10457E-08         0.00000E+00
    0.13088E-08         0.10607E-08         0.00000E+00
    0.12944E-08         0.10740E-08         0.00000E+00
    0.12796E-08         0.10853E-08         0.00000E+00
    0.12645E-08         0.10945E-08         0.00000E+00
    0.12491E-08         0.11012E-08         0.00000E+00
    0.12335E-08         0.11051E-08         0.00000E+00
    0.12178E-08         0.11060E-08         0.00000E+00
    0.12018E-08         0.11032E-08         0.00000E+00
    0.11859E-08         0.10965E-08         0.00000E+00
    0.11699E-08         0.10852E-08         0.00000E+00
    0.11539E-08         0.10689E-08         0.00000E+00
    0.11382E-08         0.10469E-08         0.00000E+00
    0.11227E-08         0.10186E-08         0.00000E+00
    0.11076E-08         0.98323E-09         0.00000E+00
    0.10930E-08         0.94008E-09         0.00000E+00
    0.10790E-08         0.88839E-09         0.00000E+00
    0.10658E-08         0.82739E-09         0.00000E+00
    0.10535E-08         0.75629E-09         0.00000E+00
    0.10424E-08         0.67433E-09         0.00000E+00
    0.10326E-08         0.58080E-09         0.00000E+00
    0.10243E-08         0.47504E-09         0.00000E+00
    0.10177E-08         0.35648E-09         0.00000E+00
    0.10131E-08         0.22465E-09         0.00000E+00
    0.10107E-08         0.79226E-10         0.00000E+00
    0.16212E-08         0.43308E-10         0.00000E+00
    0.16206E-08         0.12627E-09         0.00000E+00
    0.16194E-08         0.20426E-09         0.00000E+00
    0.16176E-08         0.27739E-09         0.00000E+00
    0.16151E-08         0.34584E-09         0.00000E+00
    0.16121E-08         0.40984E-09         0.00000E+00
    0.16085E-08         0.46963E-09         0.00000E+00
    0.16043E-08         0.52547E-09         0.00000E+00
    0.15995E-08         0.57764E-09         0.00000E+00
    0.15941E-08         0.62643E-09         0.00000E+00
    0.15881E-08         0.67210E-09         0.00000E+00
    0.15816E-08         0.71492E-09         0.00000E+00
    0.15745E-08         0.75516E-09         0.00000E+00
    0.15668E-08         0.79303E-09         0.00000E+00
    0.15586E-08         0.82876E-09         0.00000E+00
    0.15499E-08         0.86253E-09         0.00000E+00
    0.15406E-08         0.89451E-09         0.00000E+00
    0.15307E-08         0.92483E-09         0.00000E+00
    0.15204E-08         0.95362E-09         0.00000E+00
    0.15095E-08         0.98094E-09         0.00000E+00
    0.14981E-08         0.10069E-08         0.00000E+00
    0.14862E-08         0.10314E-08         0.00000E+00
    0.14739E-08         0.10546E-08         0.00000E+00
    0.14610E-08         0.10763E-08         0.00000E+00
    0.14477E-08         0.10966E-08         0.00000E+00
    0.14340E-08         0.11153E-08         0.00000E+00
    0.14199E-08         0.11323E-08         0.00000E+00
    0.14053E-08         0.11474E-08         0.00000E+00
    0.13904E-08         0.11604E-08         0.00000E+00
    0.13752E-08         0.11711E-08         0.00000E+00
    0.13597E-08         0.11791E-08         0.00000E+00
    0.13439E-08         0.11841E-08         0.00000E+00
    0.13279E-08         0.11858E-08         0.00000E+00
    0.13117E-08         0.11836E-08         0.00000E+00
    0.12955E-08         0.11772E-08         0.00000E+00
    0.12793E-08         0.11658E-08         0.00000E+00
    0.12631E-08         0.11489E-08         0.00000E+00
    0.12470E-08         0.11259E-08         0.00000E+00
    0.12312E-08         0.10960E-08         0.00000E+00
    0.12158E-08         0.10585E-08         0.00000E+00
    0.12009E-08         0.10125E-08         0.00000E+00
    0.11866E-08         0.95729E-09         0.00000E+00
    0.11731E-08         0.89194E-09         0.00000E+00
    0.11606E-08         0.81562E-09         0.00000E+00
    0.11493E-08         0.72752E-09         0.00000E+00
    0.11392E-08         0.62684E-09         0.00000E+00
    0.11307E-08         0.51287E-09         0.00000E+00
    0.11240E-08         0.38499E-09         0.00000E+00
    0.11193E-08         0.24269E-09         0.00000E+00
    0.11169E-08         0.85613E-10         0.00000E+00
    0.17389E-08         0.44680E-10         0.00000E+00
    0.17384E-08         0.13042E-09         0.00000E+00
    0.17374E-08         0.21120E-09         0.00000E+00
    0.17359E-08         0.28717E-09         0.00000E+00
    0.17338E-08         0.35849E-09         0.00000E+00
    0.17312E-08         0.42536E-09         0.00000E+00
    0.17280E-08         0.48805E-09         0.00000E+00
    0.17243E-08         0.54679E-09         0.00000E+00
    0.17200E-08         0.60188E-09         0.00000E+00
    0.17151E-08         0.65357E-09         0.00000E+00
    0.17096E-08         0.70215E-09         0.00000E+00
    0.17035E-08         0.74788E-09         0.00000E+00
    0.16969E-08         0.79100E-09         0.00000E+00
    0.16896E-08         0.83174E-09         0.00000E+00
    0.16818E-08         0.87032E-09         0.00000E+00
    0.16733E-08         0.90691E-09         0.00000E+00
    0.16643E-08         0.94168E-09         0.00000E+00
    0.16547E-08         0.97476E-09         0.00000E+00
    0.16446E-08         0.10063E-08         0.00000E+00
    0.16339E-08         0.10362E-08         0.00000E+00
    0.16226E-08         0.10648E-08         0.00000E+00
    0.16109E-08         0.10919E-08         0.00000E+00
    0.15985E-08         0.11175E-08         0.00000E+00
    0.15857E-08         0.11416E-08         0.00000E+00
    0.15725E-08         0.11642E-08         0.00000E+00
    0.15587E-08         0.11851E-08         0.00000E+00
    0.15445E-08         0.12042E-08         0.00000E+00
    0.15299E-08         0.12212E-08         0.00000E+00
    0.15149E-08         0.12360E-08         0.00000E+00
    0.14996E-08         0.12483E-08         0.00000E+00
    0.14840E-08         0.12577E-08         0.00000E+00
    0.14681E-08         0.12640E-08         0.00000E+00
    0.14519E-08         0.12666E-08         0.00000E+00
    0.14357E-08         0.12650E-08         0.00000E+00
    0.14193E-08         0.12588E-08         0.00000E+00
    0.14029E-08         0.12474E-08         0.00000E+00
    0.13865E-08         0.12300E-08         0.00000E+00
    0.13704E-08         0.12060E-08         0.00000E+00
    0.13544E-08         0.11745E-08         0.00000E+00
    0.13389E-08         0.11348E-08         0.00000E+00
    0.13238E-08         0.10860E-08         0.00000E+00
    0.13094E-08         0.10272E-08         0.00000E+00
    0.12958E-08         0.95746E-09         0.00000E+00
    0.12832E-08         0.87586E-09         0.00000E+00
    0.12717E-08         0.78151E-09         0.00000E+00
    0.12616E-08         0.67358E-09         0.00000E+00
    0.12531E-08         0.55127E-09         0.00000E+00
    0.12463E-08         0.41393E-09         0.00000E+00
    0.12416E-08         0.26100E-09         0.00000E+00
    0.12391E-08         0.92097E-10         0.00000E+00
    0.18740E-08         0.45739E-10         0.00000E+00
    0.18736E-08         0.13370E-09         0.00000E+00
    0.18728E-08         0.21685E-09         0.00000E+00
    0.18716E-08         0.29531E-09         0.00000E+00
    0.18699E-08         0.36923E-09         0.00000E+00
    0.18676E-08         0.43882E-09         0.00000E+00
    0.18649E-08         0.50430E-09         0.00000E+00
    0.18615E-08         0.56592E-09         0.00000E+00
    0.18576E-08         0.62394E-09         0.00000E+00
    0.18531E-08         0.67862E-09         0.00000E+00
    0.18479E-08         0.73022E-09         0.00000E+00
    0.18422E-08         0.77899E-09         0.00000E+00
    0.18358E-08         0.82516E-09         0.00000E+00
    0.18287E-08         0.86896E-09         0.00000E+00
    0.18211E-08         0.91058E-09         0.00000E+00
    0.18128E-08         0.95019E-09         0.00000E+00
    0.18039E-08         0.98795E-09         0.00000E+00
    0.17944E-08         0.10240E-08         0.00000E+00
    0.17843E-08         0.10584E-08         0.00000E+00
    0.17736E-08         0.10912E-08         0.00000E+00
    0.17623E-08         0.11225E-08         0.00000E+00
    0.17504E-08         0.11523E-08         0.00000E+00
    0.17381E-08         0.11805E-08         0.00000E+00
    0.17252E-08         0.12072E-08         0.00000E+00
    0.17118E-08         0.12321E-08         0.00000E+00
    0.16979E-08         0.12553E-08         0.00000E+00
    0.16836E-08         0.12765E-08         0.00000E+00
    0.16688E-08         0.12955E-08         0.00000E+00
    0.16537E-08         0.13122E-08         0.00000E+00
    0.16383E-08         0.13261E-08         0.00000E+00
    0.16225E-08         0.13369E-08         0.00000E+00
    0.16065E-08         0.13443E-08         0.00000E+00
    0.15903E-08         0.13478E-08         0.00000E+00
    0.15739E-08         0.13469E-08         0.00000E+00
    0.15575E-08         0.13410E-08         0.00000E+00
    0.15411E-08         0.13294E-08         0.00000E+00
    0.15247E-08         0.13114E-08         0.00000E+00
    0.15085E-08         0.12863E-08         0.00000E+00
    0.14926E-08         0.12533E-08         0.00000E+00
    0.14771E-08         0.12114E-08         0.00000E+00
    0.14621E-08         0.11597E-08         0.00000E+00
    0.14478E-08         0.10972E-08         0.00000E+00
    0.14343E-08         0.10231E-08         0.00000E+00
    0.14217E-08         0.93613E-09         0.00000E+00
    0.14103E-08         0.83552E-09         0.00000E+00
    0.14003E-08         0.72030E-09         0.00000E+00
    0.13918E-08         0.58964E-09         0.00000E+00
    0.13851E-08         0.44283E-09         0.00000E+00
    0.13805E-08         0.27927E-09         0.00000E+00
    0.13780E-08         0.98563E-10         0.00000E+00
    0.20312E-08         0.46543E-10         0.00000E+00
    0.20309E-08         0.13630E-09         0.00000E+00
    0.20302E-08         0.22150E-09         0.00000E+00
    0.20292E-08         0.30223E-09         0.00000E+00
    0.20276E-08         0.37863E-09         0.00000E+00
    0.20256E-08         0.45088E-09         0.00000E+00
    0.20230E-08         0.51918E-09         0.00000E+00
    0.20198E-08         0.58375E-09         0.00000E+00
    0.20160E-08         0.64483E-09         0.00000E+00
    0.20115E-08         0.70266E-09         0.00000E+00
    0.20064E-08         0.75748E-09         0.00000E+00
    0.20006E-08         0.80951E-09         0.00000E+00
    0.19941E-08         0.85897E-09         0.00000E+00
    0.19869E-08         0.90606E-09         0.00000E+00
    0.19791E-08         0.95095E-09         0.00000E+00
    0.19706E-08         0.99380E-09         0.00000E+00
    0.19614E-08         0.10348E-08         0.00000E+00
    0.19516E-08         0.10739E-08         0.00000E+00
    0.19411E-08         0.11114E-08         0.00000E+00
    0.19300E-08         0.11472E-08         0.00000E+00
    0.19183E-08         0.11814E-08         0.00000E+00
    0.19061E-08         0.12139E-08         0.00000E+00
    0.18932E-08         0.12448E-08         0.00000E+00
    0.18799E-08         0.12740E-08         0.00000E+00
    0.18661E-08         0.13014E-08         0.00000E+00
    0.18518E-08         0.13268E-08         0.00000E+00
    0.18371E-08         0.13501E-08         0.00000E+00
    0.18221E-08         0.13710E-08         0.00000E+00
    0.18067E-08         0.13894E-08         0.00000E+00
    0.17909E-08         0.14048E-08         0.00000E+00
    0.17749E-08         0.14169E-08         0.00000E+00
    0.17588E-08         0.14253E-08         0.00000E+00
    0.17424E-08         0.14296E-08         0.00000E+00
    0.17260E-08         0.14291E-08         0.00000E+00
    0.17096E-08         0.14232E-08         0.00000E+00
    0.16932E-08         0.14113E-08         0.00000E+00
    0.16769E-08         0.13926E-08         0.00000E+00
    0.16608E-08         0.13663E-08         0.00000E+00
    0.16451E-08         0.13315E-08         0.00000E+00
    0.16298E-08         0.12872E-08         0.00000E+00
    0.16151E-08         0.12325E-08         0.00000E+00
    0.16010E-08         0.11664E-08         0.00000E+00
    0.15878E-08         0.10877E-08         0.00000E+00
    0.15756E-08         0.99540E-09         0.00000E+00
    0.15645E-08         0.88853E-09         0.00000E+00
    0.15548E-08         0.76609E-09         0.00000E+00
    0.15466E-08         0.62719E-09         0.00000E+00
    0.15401E-08         0.47106E-09         0.00000E+00
    0.15356E-08         0.29710E-09         0.00000E+00
    0.15332E-08         0.10486E-09         0.00000E+00
    0.22162E-08         0.47242E-10         0.00000E+00
    0.22159E-08         0.13867E-09         0.00000E+00
    0.22152E-08         0.22587E-09         0.00000E+00
    0.22141E-08         0.30892E-09         0.00000E+00
    0.22124E-08         0.38792E-09         0.00000E+00
    0.22102E-08         0.46302E-09         0.00000E+00
    0.22073E-08         0.53438E-09         0.00000E+00
    0.22038E-08         0.60219E-09         0.00000E+00
    0.21995E-08         0.66665E-09         0.00000E+00
    0.21946E-08         0.72797E-09         0.00000E+00
    0.21889E-08         0.78634E-09         0.00000E+00
    0.21824E-08         0.84196E-09         0.00000E+00
    0.21752E-08         0.89503E-09         0.00000E+00
    0.21672E-08         0.94571E-09         0.00000E+00
    0.21585E-08         0.99415E-09         0.00000E+00
    0.21490E-08         0.10405E-08         0.00000E+00
    0.21388E-08         0.10849E-08         0.00000E+00
    0.21279E-08         0.11273E-08         0.00000E+00
    0.21164E-08         0.11680E-08         0.00000E+00
    0.21043E-08         0.12068E-08         0.00000E+00
    0.20915E-08         0.12439E-08         0.00000E+00
    0.20782E-08         0.12793E-08         0.00000E+00
    0.20643E-08         0.13128E-08         0.00000E+00
    0.20500E-08         0.13444E-08         0.00000E+00
    0.20352E-08         0.13740E-08         0.00000E+00
    0.20200E-08         0.14014E-08         0.00000E+00
    0.20045E-08         0.14266E-08         0.00000E+00
    0.19886E-08         0.14491E-08         0.00000E+00
    0.19725E-08         0.14689E-08         0.00000E+00
    0.19562E-08         0.14855E-08         0.00000E+00
    0.19397E-08         0.14985E-08         0.00000E+00
    0.19232E-08         0.15076E-08         0.00000E+00
    0.19065E-08         0.15122E-08         0.00000E+00
    0.18899E-08         0.15117E-08         0.00000E+00
    0.18734E-08         0.15055E-08         0.00000E+00
    0.18570E-08         0.14929E-08         0.00000E+00
    0.18409E-08         0.14731E-08         0.00000E+00
    0.18250E-08         0.14452E-08         0.00000E+00
    0.18096E-08         0.14083E-08         0.00000E+00
    0.17947E-08         0.13614E-08         0.00000E+00
    0.17804E-08         0.13035E-08         0.00000E+00
    0.17669E-08         0.12334E-08         0.00000E+00
    0.17542E-08         0.11501E-08         0.00000E+00
    0.17425E-08         0.10525E-08         0.00000E+00
    0.17320E-08         0.93941E-09         0.00000E+00
    0.17228E-08         0.80988E-09         0.00000E+00
    0.17151E-08         0.66298E-09         0.00000E+00
    0.17090E-08         0.49789E-09         0.00000E+00
    0.17048E-08         0.31398E-09         0.00000E+00
    0.17026E-08         0.11080E-09         0.00000E+00
    0.24359E-08         0.48121E-10         0.00000E+00
    0.24354E-08         0.14162E-09         0.00000E+00
    0.24345E-08         0.23131E-09         0.00000E+00
    0.24328E-08         0.31721E-09         0.00000E+00
    0.24306E-08         0.39939E-09         0.00000E+00
    0.24275E-08         0.47793E-09         0.00000E+00
    0.24237E-08         0.55296E-09         0.00000E+00
    0.24190E-08         0.62462E-09         0.00000E+00
    0.24135E-08         0.69306E-09         0.00000E+00
    0.24071E-08         0.75845E-09         0.00000E+00
    0.23998E-08         0.82093E-09         0.00000E+00
    0.23916E-08         0.88067E-09         0.00000E+00
    0.23825E-08         0.93781E-09         0.00000E+00
    0.23726E-08         0.99249E-09         0.00000E+00
    0.23618E-08         0.10448E-08         0.00000E+00
    0.23502E-08         0.10950E-08         0.00000E+00
    0.23379E-08         0.11429E-08         0.00000E+00
    0.23249E-08         0.11888E-08         0.00000E+00
    0.23111E-08         0.12327E-08         0.00000E+00
    0.22968E-08         0.12746E-08         0.00000E+00
    0.22819E-08         0.13146E-08         0.00000E+00
    0.22664E-08         0.13525E-08         0.00000E+00
    0.22505E-08         0.13883E-08         0.00000E+00
    0.22342E-08         0.14220E-08         0.00000E+00
    0.22175E-08         0.14535E-08         0.00000E+00
    0.22006E-08         0.14826E-08         0.00000E+00
    0.21834E-08         0.15090E-08         0.00000E+00
    0.21661E-08         0.15327E-08         0.00000E+00
    0.21486E-08         0.15532E-08         0.00000E+00
    0.21311E-08         0.15703E-08         0.00000E+00
    0.21136E-08         0.15836E-08         0.00000E+00
    0.20961E-08         0.15926E-08         0.00000E+00
    0.20788E-08         0.15968E-08         0.00000E+00
    0.20617E-08         0.15956E-08         0.00000E+00
    0.20449E-08         0.15884E-08         0.00000E+00
    0.20284E-08         0.15744E-08         0.00000E+00
    0.20122E-08         0.15528E-08         0.00000E+00
    0.19966E-08         0.15227E-08         0.00000E+00
    0.19815E-08         0.14832E-08         0.00000E+00
    0.19671E-08         0.14332E-08         0.00000E+00
    0.19534E-08         0.13716E-08         0.00000E+00
    0.19406E-08         0.12973E-08         0.00000E+00
    0.19286E-08         0.12092E-08         0.00000E+00
    0.19178E-08         0.11061E-08         0.00000E+00
    0.19081E-08         0.98690E-09         0.00000E+00
    0.18996E-08         0.85051E-09         0.00000E+00
    0.18926E-08         0.69598E-09         0.00000E+00
    0.18872E-08         0.52248E-09         0.00000E+00
    0.18834E-08         0.32937E-09         0.00000E+00
    0.18815E-08         0.11618E-09         0.00000E+00
    0.26985E-08         0.49650E-10         0.00000E+00
    0.26977E-08         0.14653E-09         0.00000E+00
    0.26959E-08         0.24002E-09         0.00000E+00
    0.26932E-08         0.33007E-09         0.00000E+00
    0.26895E-08         0.41669E-09         0.00000E+00
    0.26847E-08         0.49991E-09         0.00000E+00
    0.26788E-08         0.57980E-09         0.00000E+00
    0.26717E-08         0.65643E-09         0.00000E+00
    0.26635E-08         0.72990E-09         0.00000E+00
    0.26542E-08         0.80031E-09         0.00000E+00
    0.26437E-08         0.86778E-09         0.00000E+00
    0.26322E-08         0.93240E-09         0.00000E+00
    0.26196E-08         0.99428E-09         0.00000E+00
    0.26061E-08         0.10535E-08         0.00000E+00
    0.25915E-08         0.11102E-08         0.00000E+00
    0.25761E-08         0.11644E-08         0.00000E+00
    0.25599E-08         0.12162E-08         0.00000E+00
    0.25429E-08         0.12657E-08         0.00000E+00
    0.25253E-08         0.13128E-08         0.00000E+00
    0.25071E-08         0.13575E-08         0.00000E+00
    0.24883E-08         0.14000E-08         0.00000E+00
    0.24692E-08         0.14401E-08         0.00000E+00
    0.24496E-08         0.14778E-08         0.00000E+00
    0.24299E-08         0.15130E-08         0.00000E+00
    0.24099E-08         0.15457E-08         0.00000E+00
    0.23898E-08         0.15755E-08         0.00000E+00
    0.23697E-08         0.16025E-08         0.00000E+00
    0.23497E-08         0.16262E-08         0.00000E+00
    0.23298E-08         0.16465E-08         0.00000E+00
    0.23101E-08         0.16631E-08         0.00000E+00
    0.22906E-08         0.16755E-08         0.00000E+00
    0.22716E-08         0.16833E-08         0.00000E+00
    0.22529E-08         0.16860E-08         0.00000E+00
    0.22347E-08         0.16829E-08         0.00000E+00
    0.22170E-08         0.16735E-08         0.00000E+00
    0.22000E-08         0.16570E-08         0.00000E+00
    0.21836E-08         0.16326E-08         0.00000E+00
    0.21680E-08         0.15993E-08         0.00000E+00
    0.21532E-08         0.15562E-08         0.00000E+00
    0.21392E-08         0.15022E-08         0.00000E+00
    0.21261E-08         0.14363E-08         0.00000E+00
    0.21141E-08         0.13573E-08         0.00000E+00
    0.21031E-08         0.12639E-08         0.00000E+00
    0.20932E-08         0.11552E-08         0.00000E+00
    0.20845E-08         0.10298E-08         0.00000E+00
    0.20771E-08         0.88678E-09         0.00000E+00
    0.20710E-08         0.72509E-09         0.00000E+00
    0.20664E-08         0.54393E-09         0.00000E+00
    0.20632E-08         0.34263E-09         0.00000E+00
    0.20616E-08         0.12075E-09         0.00000E+00
    0.30133E-08         0.52552E-10         0.00000E+00
    0.30118E-08         0.15550E-09         0.00000E+00
    0.30087E-08         0.25535E-09         0.00000E+00
    0.30039E-08         0.35200E-09         0.00000E+00
    0.29975E-08         0.44538E-09         0.00000E+00
    0.29895E-08         0.53546E-09         0.00000E+00
    0.29798E-08         0.62222E-09         0.00000E+00
    0.29686E-08         0.70568E-09         0.00000E+00
    0.29557E-08         0.78586E-09         0.00000E+00
    0.29413E-08         0.86280E-09         0.00000E+00
    0.29255E-08         0.93656E-09         0.00000E+00
    0.29083E-08         0.10072E-08         0.00000E+00
    0.28899E-08         0.10748E-08         0.00000E+00
    0.28702E-08         0.11393E-08         0.00000E+00
    0.28494E-08         0.12009E-08         0.00000E+00
    0.28276E-08         0.12596E-08         0.00000E+00
    0.28050E-08         0.13154E-08         0.00000E+00
    0.27816E-08         0.13683E-08         0.00000E+00
    0.27576E-08         0.14185E-08         0.00000E+00
    0.27330E-08         0.14658E-08         0.00000E+00
    0.27081E-08         0.15103E-08         0.00000E+00
    0.26828E-08         0.15519E-08         0.00000E+00
    0.26574E-08         0.15906E-08         0.00000E+00
    0.26320E-08         0.16263E-08         0.00000E+00
    0.26066E-08         0.16590E-08         0.00000E+00
    0.25815E-08         0.16884E-08         0.00000E+00
    0.25566E-08         0.17145E-08         0.00000E+00
    0.25321E-08         0.17369E-08         0.00000E+00
    0.25081E-08         0.17554E-08         0.00000E+00
    0.24847E-08         0.17698E-08         0.00000E+00
    0.24619E-08         0.17797E-08         0.00000E+00
    0.24399E-08         0.17845E-08         0.00000E+00
    0.24188E-08         0.17839E-08         0.00000E+00
    0.23985E-08         0.17773E-08         0.00000E+00
    0.23792E-08         0.17640E-08         0.00000E+00
    0.23609E-08         0.17433E-08         0.00000E+00
    0.23437E-08         0.17143E-08         0.00000E+00
    0.23275E-08         0.16763E-08         0.00000E+00
    0.23126E-08         0.16282E-08         0.00000E+00
    0.22988E-08         0.15690E-08         0.00000E+00
    0.22862E-08         0.14976E-08         0.00000E+00
    0.22749E-08         0.14129E-08         0.00000E+00
    0.22649E-08         0.13137E-08         0.00000E+00
    0.22561E-08         0.11988E-08         0.00000E+00
    0.22485E-08         0.10672E-08         0.00000E+00
    0.22423E-08         0.91767E-09         0.00000E+00
    0.22373E-08         0.74936E-09         0.00000E+00
    0.22337E-08         0.56142E-09         0.00000E+00
    0.22312E-08         0.35320E-09         0.00000E+00
    0.22300E-08         0.12430E-09         0.00000E+00
    0.33905E-08         0.57878E-10         0.00000E+00
    0.33877E-08         0.17155E-09         0.00000E+00
    0.33823E-08         0.28215E-09         0.00000E+00
    0.33742E-08         0.38951E-09         0.00000E+00
    0.33634E-08         0.49345E-09         0.00000E+00
    0.33502E-08         0.59388E-09         0.00000E+00
    0.33345E-08         0.69070E-09         0.00000E+00
    0.33164E-08         0.78385E-09         0.00000E+00
    0.32961E-08         0.87330E-09         0.00000E+00
    0.32738E-08         0.95901E-09         0.00000E+00
    0.32494E-08         0.10410E-08         0.00000E+00
    0.32233E-08         0.11193E-08         0.00000E+00
    0.31956E-08         0.11938E-08         0.00000E+00
    0.31664E-08         0.12647E-08         0.00000E+00
    0.31359E-08         0.13319E-08         0.00000E+00
    0.31043E-08         0.13954E-08         0.00000E+00
    0.30718E-08         0.14554E-08         0.00000E+00
    0.30385E-08         0.15118E-08         0.00000E+00
    0.30046E-08         0.15646E-08         0.00000E+00
    0.29703E-08         0.16138E-08         0.00000E+00
    0.29358E-08         0.16595E-08         0.00000E+00
    0.29013E-08         0.17015E-08         0.00000E+00
    0.28669E-08         0.17400E-08         0.00000E+00
    0.28327E-08         0.17748E-08         0.00000E+00
    0.27991E-08         0.18058E-08         0.00000E+00
    0.27660E-08         0.18329E-08         0.00000E+00
    0.27336E-08         0.18561E-08         0.00000E+00
    0.27021E-08         0.18751E-08         0.00000E+00
    0.26717E-08         0.18896E-08         0.00000E+00
    0.26423E-08         0.18995E-08         0.00000E+00
    0.26142E-08         0.19044E-08         0.00000E+00
    0.25874E-08         0.19038E-08         0.00000E+00
    0.25620E-08         0.18975E-08         0.00000E+00
    0.25381E-08         0.18847E-08         0.00000E+00
    0.25157E-08         0.18650E-08         0.00000E+00
    0.24949E-08         0.18376E-08         0.00000E+00
    0.24758E-08         0.18018E-08         0.00000E+00
    0.24583E-08         0.17568E-08         0.00000E+00
    0.24425E-08         0.17016E-08         0.00000E+00
    0.24283E-08         0.16353E-08         0.00000E+00
    0.24158E-08         0.15567E-08         0.00000E+00
    0.24049E-08         0.14649E-08         0.00000E+00
    0.23955E-08         0.13587E-08         0.00000E+00
    0.23877E-08         0.12369E-08         0.00000E+00
    0.23813E-08         0.10986E-08         0.00000E+00
    0.23763E-08         0.94261E-09         0.00000E+00
    0.23725E-08         0.76811E-09         0.00000E+00
    0.23699E-08         0.57430E-09         0.00000E+00
    0.23683E-08         0.36059E-09         0.00000E+00
    0.23675E-08         0.12662E-09         0.00000E+00
    0.38402E-08         0.67090E-10         0.00000E+00
    0.38356E-08         0.19889E-09         0.00000E+00
    0.38266E-08         0.32714E-09         0.00000E+00
    0.38133E-08         0.45156E-09         0.00000E+00
    0.37960E-08         0.57190E-09         0.00000E+00
    0.37747E-08         0.68798E-09         0.00000E+00
    0.37498E-08         0.79962E-09         0.00000E+00
    0.37215E-08         0.90671E-09         0.00000E+00
    0.36901E-08         0.10091E-08         0.00000E+00
    0.36557E-08         0.11068E-08         0.00000E+00
    0.36187E-08         0.11998E-08         0.00000E+00
    0.35793E-08         0.12879E-08         0.00000E+00
    0.35378E-08         0.13712E-08         0.00000E+00
    0.34945E-08         0.14498E-08         0.00000E+00
    0.34497E-08         0.15235E-08         0.00000E+00
    0.34035E-08         0.15925E-08         0.00000E+00
    0.33564E-08         0.16567E-08         0.00000E+00
    0.33086E-08         0.17162E-08         0.00000E+00
    0.32602E-08         0.17711E-08         0.00000E+00
    0.32117E-08         0.18213E-08         0.00000E+00
    0.31632E-08         0.18669E-08         0.00000E+00
    0.31150E-08         0.19078E-08         0.00000E+00
    0.30673E-08         0.19442E-08         0.00000E+00
    0.30204E-08         0.19759E-08         0.00000E+00
    0.29744E-08         0.20030E-08         0.00000E+00
    0.29295E-08         0.20253E-08         0.00000E+00
    0.28861E-08         0.20429E-08         0.00000E+00
    0.28441E-08         0.20554E-08         0.00000E+00
    0.28038E-08         0.20629E-08         0.00000E+00
    0.27654E-08         0.20651E-08         0.00000E+00
    0.27290E-08         0.20616E-08         0.00000E+00
    0.26946E-08         0.20523E-08         0.00000E+00
    0.26625E-08         0.20367E-08         0.00000E+00
    0.26326E-08         0.20144E-08         0.00000E+00
    0.26051E-08         0.19848E-08         0.00000E+00
    0.25799E-08         0.19474E-08         0.00000E+00
    0.25571E-08         0.19015E-08         0.00000E+00
    0.25368E-08         0.18463E-08         0.00000E+00
    0.25188E-08         0.17811E-08         0.00000E+00
    0.25032E-08         0.17048E-08         0.00000E+00
    0.24898E-08         0.16167E-08         0.00000E+00
    0.24785E-08         0.15156E-08         0.00000E+00
    0.24694E-08         0.14005E-08         0.00000E+00
    0.24621E-08         0.12706E-08         0.00000E+00
    0.24565E-08         0.11246E-08         0.00000E+00
    0.24525E-08         0.96181E-09         0.00000E+00
    0.24498E-08         0.78130E-09         0.00000E+00
    0.24482E-08         0.58240E-09         0.00000E+00
    0.24474E-08         0.36459E-09         0.00000E+00
    0.24471E-08         0.12759E-09         0.00000E+00
    0.43720E-08         0.82144E-10         0.00000E+00
    0.43648E-08         0.24315E-09         0.00000E+00
    0.43505E-08         0.39927E-09         0.00000E+00
    0.43297E-08         0.55012E-09         0.00000E+00
    0.43026E-08         0.69538E-09         0.00000E+00
    0.42698E-08         0.83476E-09         0.00000E+00
    0.42317E-08         0.96807E-09         0.00000E+00
    0.41886E-08         0.10951E-08         0.00000E+00
    0.41410E-08         0.12158E-08         0.00000E+00
    0.40895E-08         0.13299E-08         0.00000E+00
    0.40343E-08         0.14376E-08         0.00000E+00
    0.39760E-08         0.15386E-08         0.00000E+00
    0.39149E-08         0.16331E-08         0.00000E+00
    0.38516E-08         0.17211E-08         0.00000E+00
    0.37864E-08         0.18025E-08         0.00000E+00
    0.37197E-08         0.18775E-08         0.00000E+00
    0.36519E-08         0.19461E-08         0.00000E+00
    0.35835E-08         0.20084E-08         0.00000E+00
    0.35147E-08         0.20644E-08         0.00000E+00
    0.34460E-08         0.21142E-08         0.00000E+00
    0.33777E-08         0.21580E-08         0.00000E+00
    0.33101E-08         0.21957E-08         0.00000E+00
    0.32436E-08         0.22275E-08         0.00000E+00
    0.31784E-08         0.22533E-08         0.00000E+00
    0.31149E-08         0.22733E-08         0.00000E+00
    0.30532E-08         0.22874E-08         0.00000E+00
    0.29937E-08         0.22957E-08         0.00000E+00
    0.29366E-08         0.22980E-08         0.00000E+00
    0.28821E-08         0.22943E-08         0.00000E+00
    0.28303E-08         0.22845E-08         0.00000E+00
    0.27816E-08         0.22684E-08         0.00000E+00
    0.27359E-08         0.22457E-08         0.00000E+00
    0.26934E-08         0.22164E-08         0.00000E+00
    0.26543E-08         0.21799E-08         0.00000E+00
    0.26185E-08         0.21359E-08         0.00000E+00
    0.25862E-08         0.20839E-08         0.00000E+00
    0.25573E-08         0.20234E-08         0.00000E+00
    0.25318E-08         0.19538E-08         0.00000E+00
    0.25096E-08         0.18744E-08         0.00000E+00
    0.24906E-08         0.17845E-08         0.00000E+00
    0.24748E-08         0.16832E-08         0.00000E+00
    0.24619E-08         0.15697E-08         0.00000E+00
    0.24517E-08         0.14432E-08         0.00000E+00
    0.24441E-08         0.13027E-08         0.00000E+00
    0.24386E-08         0.11476E-08         0.00000E+00
    0.24350E-08         0.97687E-09         0.00000E+00
    0.24330E-08         0.78996E-09         0.00000E+00
    0.24321E-08         0.58629E-09         0.00000E+00
    0.24319E-08         0.36546E-09         0.00000E+00
    0.24321E-08         0.12728E-09         0.00000E+00
    0.49931E-08         0.10558E-09         0.00000E+00
    0.49820E-08         0.31162E-09         0.00000E+00
    0.49604E-08         0.51013E-09         0.00000E+00
    0.49290E-08         0.70063E-09         0.00000E+00
    0.48885E-08         0.88273E-09         0.00000E+00
    0.48395E-08         0.10561E-08         0.00000E+00
    0.47829E-08         0.12205E-08         0.00000E+00
    0.47194E-08         0.13758E-08         0.00000E+00
    0.46496E-08         0.15218E-08         0.00000E+00
    0.45742E-08         0.16585E-08         0.00000E+00
    0.44940E-08         0.17859E-08         0.00000E+00
    0.44096E-08         0.19039E-08         0.00000E+00
    0.43217E-08         0.20127E-08         0.00000E+00
    0.42309E-08         0.21124E-08         0.00000E+00
    0.41377E-08         0.22030E-08         0.00000E+00
    0.40429E-08         0.22847E-08         0.00000E+00
    0.39468E-08         0.23577E-08         0.00000E+00
    0.38502E-08         0.24221E-08         0.00000E+00
    0.37535E-08         0.24781E-08         0.00000E+00
    0.36571E-08         0.25258E-08         0.00000E+00
    0.35617E-08         0.25654E-08         0.00000E+00
    0.34675E-08         0.25971E-08         0.00000E+00
    0.33751E-08         0.26210E-08         0.00000E+00
    0.32847E-08         0.26373E-08         0.00000E+00
    0.31969E-08         0.26462E-08         0.00000E+00
    0.31119E-08         0.26477E-08         0.00000E+00
    0.30301E-08         0.26419E-08         0.00000E+00
    0.29518E-08         0.26290E-08         0.00000E+00
    0.28772E-08         0.26089E-08         0.00000E+00
    0.28065E-08         0.25817E-08         0.00000E+00
    0.27401E-08         0.25473E-08         0.00000E+00
    0.26780E-08         0.25056E-08         0.00000E+00
    0.26204E-08         0.24566E-08         0.00000E+00
    0.25675E-08         0.24000E-08         0.00000E+00
    0.25193E-08         0.23357E-08         0.00000E+00
    0.24758E-08         0.22633E-08         0.00000E+00
    0.24370E-08         0.21824E-08         0.00000E+00
    0.24030E-08         0.20928E-08         0.00000E+00
    0.23735E-08         0.19938E-08         0.00000E+00
    0.23484E-08         0.18850E-08         0.00000E+00
    0.23277E-08         0.17657E-08         0.00000E+00
    0.23109E-08         0.16355E-08         0.00000E+00
    0.22978E-08         0.14935E-08         0.00000E+00
    0.22881E-08         0.13393E-08         0.00000E+00
    0.22813E-08         0.11721E-08         0.00000E+00
    0.22771E-08         0.99146E-09         0.00000E+00
    0.22748E-08         0.79682E-09         0.00000E+00
    0.22741E-08         0.58782E-09         0.00000E+00
    0.22742E-08         0.36423E-09         0.00000E+00
    0.22745E-08         0.12598E-09         0.00000E+00
    0.57062E-08         0.14058E-09         0.00000E+00
    0.56899E-08         0.41341E-09         0.00000E+00
    0.56583E-08         0.67420E-09         0.00000E+00
    0.56126E-08         0.92236E-09         0.00000E+00
    0.55538E-08         0.11575E-08         0.00000E+00
    0.54832E-08         0.13792E-08         0.00000E+00
    0.54018E-08         0.15874E-08         0.00000E+00
    0.53108E-08         0.17819E-08         0.00000E+00
    0.52111E-08         0.19627E-08         0.00000E+00
    0.51040E-08         0.21299E-08         0.00000E+00
    0.49904E-08         0.22836E-08         0.00000E+00
    0.48712E-08         0.24239E-08         0.00000E+00
    0.47475E-08         0.25511E-08         0.00000E+00
    0.46201E-08         0.26654E-08         0.00000E+00
    0.44898E-08         0.27671E-08         0.00000E+00
    0.43575E-08         0.28564E-08         0.00000E+00
    0.42240E-08         0.29338E-08         0.00000E+00
    0.40899E-08         0.29995E-08         0.00000E+00
    0.39560E-08         0.30538E-08         0.00000E+00
    0.38230E-08         0.30971E-08         0.00000E+00
    0.36913E-08         0.31296E-08         0.00000E+00
    0.35617E-08         0.31517E-08         0.00000E+00
    0.34347E-08         0.31638E-08         0.00000E+00
    0.33107E-08         0.31660E-08         0.00000E+00
    0.31903E-08         0.31587E-08         0.00000E+00
    0.30739E-08         0.31422E-08         0.00000E+00
    0.29619E-08         0.31166E-08         0.00000E+00
    0.28546E-08         0.30822E-08         0.00000E+00
    0.27525E-08         0.30393E-08         0.00000E+00
    0.26558E-08         0.29879E-08         0.00000E+00
    0.25648E-08         0.29283E-08         0.00000E+00
    0.24797E-08         0.28605E-08         0.00000E+00
    0.24007E-08         0.27846E-08         0.00000E+00
    0.23279E-08         0.27006E-08         0.00000E+00
    0.22615E-08         0.26085E-08         0.00000E+00
    0.22014E-08         0.25082E-08         0.00000E+00
    0.21477E-08         0.23997E-08         0.00000E+00
    0.21004E-08         0.22828E-08         0.00000E+00
    0.20591E-08         0.21572E-08         0.00000E+00
    0.20239E-08         0.20228E-08         0.00000E+00
    0.19945E-08         0.18792E-08         0.00000E+00
    0.19704E-08         0.17261E-08         0.00000E+00
    0.19514E-08         0.15632E-08         0.00000E+00
    0.19370E-08         0.13902E-08         0.00000E+00
    0.19267E-08         0.12066E-08         0.00000E+00
    0.19199E-08         0.10124E-08         0.00000E+00
    0.19159E-08         0.80708E-09         0.00000E+00
    0.19140E-08         0.59066E-09         0.00000E+00
    0.19136E-08         0.36308E-09         0.00000E+00
    0.19138E-08         0.12443E-09         0.00000E+00
    0.65066E-08         0.19100E-09         0.00000E+00
    0.64836E-08         0.55958E-09         0.00000E+00
    0.64390E-08         0.90897E-09         0.00000E+00
    0.63745E-08         0.12386E-08         0.00000E+00
    0.62919E-08         0.15479E-08         0.00000E+00
    0.61929E-08         0.18369E-08         0.00000E+00
    0.60792E-08         0.21053E-08         0.00000E+00
    0.59524E-08         0.23534E-08         0.00000E+00
    0.58140E-08         0.25811E-08         0.00000E+00
    0.56657E-08         0.27890E-08         0.00000E+00
    0.55087E-08         0.29774E-08         0.00000E+00
    0.53446E-08         0.31466E-08         0.00000E+00
    0.51746E-08         0.32972E-08         0.00000E+00
    0.49999E-08         0.34298E-08         0.00000E+00
    0.48217E-08         0.35449E-08         0.00000E+00
    0.46411E-08         0.36430E-08         0.00000E+00
    0.44591E-08         0.37247E-08         0.00000E+00
    0.42768E-08         0.37907E-08         0.00000E+00
    0.40949E-08         0.38414E-08         0.00000E+00
    0.39144E-08         0.38774E-08         0.00000E+00
    0.37360E-08         0.38994E-08         0.00000E+00
    0.35604E-08         0.39077E-08         0.00000E+00
    0.33884E-08         0.39029E-08         0.00000E+00
    0.32207E-08         0.38856E-08         0.00000E+00
    0.30577E-08         0.38562E-08         0.00000E+00
    0.29000E-08         0.38151E-08         0.00000E+00
    0.27482E-08         0.37628E-08         0.00000E+00
    0.26027E-08         0.36997E-08         0.00000E+00
    0.24640E-08         0.36262E-08         0.00000E+00
    0.23323E-08         0.35427E-08         0.00000E+00
    0.22081E-08         0.34496E-08         0.00000E+00
    0.20916E-08         0.33471E-08         0.00000E+00
    0.19831E-08         0.32356E-08         0.00000E+00
    0.18827E-08         0.31153E-08         0.00000E+00
    0.17906E-08         0.29866E-08         0.00000E+00
    0.17067E-08         0.28495E-08         0.00000E+00
    0.16313E-08         0.27043E-08         0.00000E+00
    0.15641E-08         0.25512E-08         0.00000E+00
    0.15050E-08         0.23902E-08         0.00000E+00
    0.14538E-08         0.22216E-08         0.00000E+00
    0.14103E-08         0.20453E-08         0.00000E+00
    0.13741E-08         0.18614E-08         0.00000E+00
    0.13447E-08         0.16699E-08         0.00000E+00
    0.13216E-08         0.14710E-08         0.00000E+00
    0.13042E-08         0.12645E-08         0.00000E+00
    0.12918E-08         0.10507E-08         0.00000E+00
    0.12836E-08         0.82953E-09         0.00000E+00
    0.12789E-08         0.60121E-09         0.00000E+00
    0.12766E-08         0.36592E-09         0.00000E+00
    0.12760E-08         0.12396E-09         0.00000E+00
    0.73792E-08         0.26136E-09         0.00000E+00
    0.73475E-08         0.76300E-09         0.00000E+00
    0.72863E-08         0.12348E-08         0.00000E+00
    0.71980E-08         0.16763E-08         0.00000E+00
    0.70852E-08         0.20870E-08         0.00000E+00
    0.69504E-08         0.24671E-08         0.00000E+00
    0.67958E-08         0.28166E-08         0.00000E+00
    0.66238E-08         0.31361E-08         0.00000E+00
    0.64366E-08         0.34261E-08         0.00000E+00
    0.62363E-08         0.36874E-08         0.00000E+00
    0.60248E-08         0.39208E-08         0.00000E+00
    0.58041E-08         0.41272E-08         0.00000E+00
    0.55760E-08         0.43076E-08         0.00000E+00
    0.53419E-08         0.44629E-08         0.00000E+00
    0.51036E-08         0.45942E-08         0.00000E+00
    0.48625E-08         0.47024E-08         0.00000E+00
    0.46198E-08         0.47885E-08         0.00000E+00
    0.43768E-08         0.48536E-08         0.00000E+00
    0.41347E-08         0.48984E-08         0.00000E+00
    0.38945E-08         0.49240E-08         0.00000E+00
    0.36573E-08         0.49311E-08         0.00000E+00
    0.34238E-08         0.49207E-08         0.00000E+00
    0.31951E-08         0.48935E-08         0.00000E+00
    0.29718E-08         0.48503E-08         0.00000E+00
    0.27547E-08         0.47919E-08         0.00000E+00
    0.25445E-08         0.47189E-08         0.00000E+00
    0.23417E-08         0.46319E-08         0.00000E+00
    0.21469E-08         0.45318E-08         0.00000E+00
    0.19607E-08         0.44191E-08         0.00000E+00
    0.17834E-08         0.42944E-08         0.00000E+00
    0.16155E-08         0.41583E-08         0.00000E+00
    0.14574E-08         0.40115E-08         0.00000E+00
    0.13093E-08         0.38544E-08         0.00000E+00
    0.11715E-08         0.36876E-08         0.00000E+00
    0.10442E-08         0.35118E-08         0.00000E+00
    0.92736E-09         0.33273E-08         0.00000E+00
    0.82117E-09         0.31348E-08         0.00000E+00
    0.72555E-09         0.29348E-08         0.00000E+00
    0.64038E-09         0.27278E-08         0.00000E+00
    0.56548E-09         0.25143E-08         0.00000E+00
    0.50056E-09         0.22947E-08         0.00000E+00
    0.44526E-09         0.20696E-08         0.00000E+00
    0.39909E-09         0.18395E-08         0.00000E+00
    0.36152E-09         0.16048E-08         0.00000E+00
    0.33188E-09         0.13660E-08         0.00000E+00
    0.30945E-09         0.11235E-08         0.00000E+00
    0.29339E-09         0.87788E-09         0.00000E+00
    0.28282E-09         0.62955E-09         0.00000E+00
    0.27677E-09         0.37900E-09         0.00000E+00
    0.27426E-09         0.12673E-09         0.00000E+00
    0.82935E-08         0.35669E-09         0.00000E+00
    0.82512E-08         0.10381E-08         0.00000E+00
    0.81694E-08         0.16746E-08         0.00000E+00
    0.80518E-08         0.22657E-08         0.00000E+00
    0.79019E-08         0.28114E-08         0.00000E+00
    0.77229E-08         0.33120E-08         0.00000E+00
    0.75181E-08         0.37683E-08         0.00000E+00
    0.72908E-08         0.41813E-08         0.00000E+00
    0.70438E-08         0.45521E-08         0.00000E+00
    0.67799E-08         0.48823E-08         0.00000E+00
    0.65019E-08         0.51733E-08         0.00000E+00
    0.62122E-08         0.54267E-08         0.00000E+00
    0.59131E-08         0.56443E-08         0.00000E+00
    0.56068E-08         0.58277E-08         0.00000E+00
    0.52953E-08         0.59786E-08         0.00000E+00
    0.49804E-08         0.60985E-08         0.00000E+00
    0.46638E-08         0.61891E-08         0.00000E+00
    0.43470E-08         0.62519E-08         0.00000E+00
    0.40314E-08         0.62883E-08         0.00000E+00
    0.37185E-08         0.62998E-08         0.00000E+00
    0.34093E-08         0.62876E-08         0.00000E+00
    0.31050E-08         0.62530E-08         0.00000E+00
    0.28066E-08         0.61971E-08         0.00000E+00
    0.25150E-08         0.61212E-08         0.00000E+00
    0.22311E-08         0.60262E-08         0.00000E+00
    0.19556E-08         0.59132E-08         0.00000E+00
    0.16893E-08         0.57831E-08         0.00000E+00
    0.14328E-08         0.56370E-08         0.00000E+00
    0.11867E-08         0.54756E-08         0.00000E+00
    0.95156E-09         0.52998E-08         0.00000E+00
    0.72787E-09         0.51106E-08         0.00000E+00
    0.51605E-09         0.49089E-08         0.00000E+00
    0.31646E-09         0.46953E-08         0.00000E+00
    0.12943E-09         0.44709E-08         0.00000E+00
   -0.44797E-10         0.42364E-08         0.00000E+00
   -0.20604E-09         0.39929E-08         0.00000E+00
   -0.35418E-09         0.37410E-08         0.00000E+00
   -0.48918E-09         0.34818E-08         0.00000E+00
   -0.61108E-09         0.32161E-08         0.00000E+00
   -0.72000E-09         0.29450E-08         0.00000E+00
   -0.81616E-09         0.26693E-08         0.00000E+00
   -0.89985E-09         0.23900E-08         0.00000E+00
   -0.97148E-09         0.21080E-08         0.00000E+00
   -0.10315E-08         0.18244E-08         0.00000E+00
   -0.10806E-08         0.15400E-08         0.00000E+00
   -0.11194E-08         0.12556E-08         0.00000E+00
   -0.11487E-08         0.97232E-09         0.00000E+00
   -0.11692E-08         0.69079E-09         0.00000E+00
   -0.11820E-08         0.41181E-09         0.00000E+00
   -0.11879E-08         0.13607E-09         0.00000E+00
    0.91996E-08         0.48239E-09         0.00000E+00
    0.91445E-08         0.14002E-08         0.00000E+00
    0.90382E-08         0.22524E-08         0.00000E+00
    0.88856E-08         0.30389E-08         0.00000E+00
    0.86912E-08         0.37598E-08         0.00000E+00
    0.84596E-08         0.44164E-08         0.00000E+00
    0.81951E-08         0.50100E-08         0.00000E+00
    0.79019E-08         0.55426E-08         0.00000E+00
    0.75839E-08         0.60162E-08         0.00000E+00
    0.72447E-08         0.64334E-08         0.00000E+00
    0.68878E-08         0.67966E-08         0.00000E+00
    0.65164E-08         0.71087E-08         0.00000E+00
    0.61336E-08         0.73721E-08         0.00000E+00
    0.57419E-08         0.75897E-08         0.00000E+00
    0.53440E-08         0.77639E-08         0.00000E+00
    0.49420E-08         0.78974E-08         0.00000E+00
    0.45382E-08         0.79926E-08         0.00000E+00
    0.41343E-08         0.80517E-08         0.00000E+00
    0.37321E-08         0.80770E-08         0.00000E+00
    0.33332E-08         0.80705E-08         0.00000E+00
    0.29389E-08         0.80340E-08         0.00000E+00
    0.25506E-08         0.79695E-08         0.00000E+00
    0.21694E-08         0.78785E-08         0.00000E+00
    0.17964E-08         0.77627E-08         0.00000E+00
    0.14326E-08         0.76236E-08         0.00000E+00
    0.10787E-08         0.74624E-08         0.00000E+00
    0.73575E-09         0.72805E-08         0.00000E+00
    0.40432E-09         0.70792E-08         0.00000E+00
    0.85124E-10         0.68597E-08         0.00000E+00
   -0.22122E-09         0.66231E-08         0.00000E+00
   -0.51415E-09         0.63705E-08         0.00000E+00
   -0.79317E-09         0.61032E-08         0.00000E+00
   -0.10578E-08         0.58221E-08         0.00000E+00
   -0.13077E-08         0.55286E-08         0.00000E+00
   -0.15424E-08         0.52236E-08         0.00000E+00
   -0.17618E-08         0.49085E-08         0.00000E+00
   -0.19654E-08         0.45844E-08         0.00000E+00
   -0.21533E-08         0.42526E-08         0.00000E+00
   -0.23251E-08         0.39143E-08         0.00000E+00
   -0.24811E-08         0.35710E-08         0.00000E+00
   -0.26211E-08         0.32240E-08         0.00000E+00
   -0.27452E-08         0.28746E-08         0.00000E+00
   -0.28538E-08         0.25244E-08         0.00000E+00
   -0.29470E-08         0.21746E-08         0.00000E+00
   -0.30253E-08         0.18266E-08         0.00000E+00
   -0.30891E-08         0.14818E-08         0.00000E+00
   -0.31389E-08         0.11414E-08         0.00000E+00
   -0.31753E-08         0.80647E-09         0.00000E+00
   -0.31989E-08         0.47801E-09         0.00000E+00
   -0.32104E-08         0.15684E-09         0.00000E+00
    0.10023E-07         0.64390E-09         0.00000E+00
    0.99529E-08         0.18648E-08         0.00000E+00
    0.98182E-08         0.29928E-08         0.00000E+00
    0.96249E-08         0.40279E-08         0.00000E+00
    0.93792E-08         0.49713E-08         0.00000E+00
    0.90868E-08         0.58248E-08         0.00000E+00
    0.87534E-08         0.65910E-08         0.00000E+00
    0.83844E-08         0.72731E-08         0.00000E+00
    0.79846E-08         0.78746E-08         0.00000E+00
    0.75589E-08         0.83994E-08         0.00000E+00
    0.71116E-08         0.88514E-08         0.00000E+00
    0.66468E-08         0.92347E-08         0.00000E+00
    0.61682E-08         0.95535E-08         0.00000E+00
    0.56791E-08         0.98119E-08         0.00000E+00
    0.51827E-08         0.10014E-07         0.00000E+00
    0.46817E-08         0.10163E-07         0.00000E+00
    0.41786E-08         0.10262E-07         0.00000E+00
    0.36756E-08         0.10316E-07         0.00000E+00
    0.31749E-08         0.10327E-07         0.00000E+00
    0.26781E-08         0.10299E-07         0.00000E+00
    0.21869E-08         0.10233E-07         0.00000E+00
    0.17028E-08         0.10133E-07         0.00000E+00
    0.12270E-08         0.10000E-07         0.00000E+00
    0.76066E-09         0.98377E-08         0.00000E+00
    0.30484E-09         0.96470E-08         0.00000E+00
   -0.13953E-09         0.94300E-08         0.00000E+00
   -0.57162E-09         0.91883E-08         0.00000E+00
   -0.99063E-09         0.89236E-08         0.00000E+00
   -0.13959E-08         0.86374E-08         0.00000E+00
   -0.17867E-08         0.83311E-08         0.00000E+00
   -0.21625E-08         0.80060E-08         0.00000E+00
   -0.25226E-08         0.76636E-08         0.00000E+00
   -0.28666E-08         0.73051E-08         0.00000E+00
   -0.31940E-08         0.69319E-08         0.00000E+00
   -0.35043E-08         0.65453E-08         0.00000E+00
   -0.37969E-08         0.61468E-08         0.00000E+00
   -0.40716E-08         0.57378E-08         0.00000E+00
   -0.43279E-08         0.53199E-08         0.00000E+00
   -0.45655E-08         0.48945E-08         0.00000E+00
   -0.47841E-08         0.44633E-08         0.00000E+00
   -0.49834E-08         0.40279E-08         0.00000E+00
   -0.51631E-08         0.35901E-08         0.00000E+00
   -0.53230E-08         0.31516E-08         0.00000E+00
   -0.54632E-08         0.27141E-08         0.00000E+00
   -0.55833E-08         0.22793E-08         0.00000E+00
   -0.56834E-08         0.18488E-08         0.00000E+00
   -0.57635E-08         0.14239E-08         0.00000E+00
   -0.58236E-08         0.10061E-08         0.00000E+00
   -0.58636E-08         0.59650E-09         0.00000E+00
   -0.58836E-08         0.19583E-09         0.00000E+00
    0.10660E-07         0.84634E-09         0.00000E+00
    0.10573E-07         0.24465E-08         0.00000E+00
    0.10406E-07         0.39184E-08         0.00000E+00
    0.10167E-07         0.52628E-08         0.00000E+00
    0.98640E-08         0.64817E-08         0.00000E+00
    0.95036E-08         0.75783E-08         0.00000E+00
    0.90932E-08         0.85565E-08         0.00000E+00
    0.86395E-08         0.94213E-08         0.00000E+00
    0.81489E-08         0.10178E-07         0.00000E+00
    0.76273E-08         0.10833E-07         0.00000E+00
    0.70800E-08         0.11391E-07         0.00000E+00
    0.65122E-08         0.11859E-07         0.00000E+00
    0.59282E-08         0.12242E-07         0.00000E+00
    0.53323E-08         0.12548E-07         0.00000E+00
    0.47280E-08         0.12781E-07         0.00000E+00
    0.41188E-08         0.12946E-07         0.00000E+00
    0.35076E-08         0.13050E-07         0.00000E+00
    0.28970E-08         0.13096E-07         0.00000E+00
    0.22892E-08         0.13090E-07         0.00000E+00
    0.16862E-08         0.13035E-07         0.00000E+00
    0.10899E-08         0.12935E-07         0.00000E+00
    0.50169E-09         0.12793E-07         0.00000E+00
   -0.77018E-10         0.12613E-07         0.00000E+00
   -0.64508E-09         0.12397E-07         0.00000E+00
   -0.12015E-08         0.12149E-07         0.00000E+00
   -0.17453E-08         0.11869E-07         0.00000E+00
   -0.22758E-08         0.11562E-07         0.00000E+00
   -0.27921E-08         0.11227E-07         0.00000E+00
   -0.32938E-08         0.10868E-07         0.00000E+00
   -0.37800E-08         0.10486E-07         0.00000E+00
   -0.42502E-08         0.10082E-07         0.00000E+00
   -0.47039E-08         0.96573E-08         0.00000E+00
   -0.51405E-08         0.92142E-08         0.00000E+00
   -0.55593E-08         0.87537E-08         0.00000E+00
   -0.59598E-08         0.82771E-08         0.00000E+00
   -0.63413E-08         0.77860E-08         0.00000E+00
   -0.67032E-08         0.72816E-08         0.00000E+00
   -0.70448E-08         0.67657E-08         0.00000E+00
   -0.73654E-08         0.62396E-08         0.00000E+00
   -0.76642E-08         0.57051E-08         0.00000E+00
   -0.79404E-08         0.51637E-08         0.00000E+00
   -0.81934E-08         0.46174E-08         0.00000E+00
   -0.84220E-08         0.40678E-08         0.00000E+00
   -0.86257E-08         0.35166E-08         0.00000E+00
   -0.88033E-08         0.29656E-08         0.00000E+00
   -0.89539E-08         0.24163E-08         0.00000E+00
   -0.90766E-08         0.18703E-08         0.00000E+00
   -0.91703E-08         0.13286E-08         0.00000E+00
   -0.92340E-08         0.79238E-09         0.00000E+00
   -0.92664E-08         0.26214E-09         0.00000E+00
    0.10972E-07         0.10943E-08         0.00000E+00
    0.10867E-07         0.31582E-08         0.00000E+00
    0.10666E-07         0.50495E-08         0.00000E+00
    0.10377E-07         0.67698E-08         0.00000E+00
    0.10011E-07         0.83222E-08         0.00000E+00
    0.95763E-08         0.97116E-08         0.00000E+00
    0.90826E-08         0.10944E-07         0.00000E+00
    0.85377E-08         0.12026E-07         0.00000E+00
    0.79496E-08         0.12967E-07         0.00000E+00
    0.73253E-08         0.13773E-07         0.00000E+00
    0.66717E-08         0.14454E-07         0.00000E+00
    0.59948E-08         0.15019E-07         0.00000E+00
    0.53000E-08         0.15476E-07         0.00000E+00
    0.45922E-08         0.15833E-07         0.00000E+00
    0.38759E-08         0.16099E-07         0.00000E+00
    0.31548E-08         0.16280E-07         0.00000E+00
    0.24324E-08         0.16385E-07         0.00000E+00
    0.17114E-08         0.16419E-07         0.00000E+00
    0.99457E-09         0.16390E-07         0.00000E+00
    0.28386E-09         0.16303E-07         0.00000E+00
   -0.41889E-09         0.16162E-07         0.00000E+00
   -0.11122E-08         0.15973E-07         0.00000E+00
   -0.17948E-08         0.15739E-07         0.00000E+00
   -0.24656E-08         0.15465E-07         0.00000E+00
   -0.31239E-08         0.15154E-07         0.00000E+00
   -0.37688E-08         0.14808E-07         0.00000E+00
   -0.43998E-08         0.14430E-07         0.00000E+00
   -0.50165E-08         0.14023E-07         0.00000E+00
   -0.56182E-08         0.13589E-07         0.00000E+00
   -0.62046E-08         0.13128E-07         0.00000E+00
   -0.67752E-08         0.12643E-07         0.00000E+00
   -0.73295E-08         0.12136E-07         0.00000E+00
   -0.78671E-08         0.11606E-07         0.00000E+00
   -0.83872E-08         0.11056E-07         0.00000E+00
   -0.88891E-08         0.10487E-07         0.00000E+00
   -0.93722E-08         0.98991E-08         0.00000E+00
   -0.98354E-08         0.92940E-08         0.00000E+00
   -0.10278E-07         0.86727E-08         0.00000E+00
   -0.10698E-07         0.80362E-08         0.00000E+00
   -0.11094E-07         0.73857E-08         0.00000E+00
   -0.11466E-07         0.67225E-08         0.00000E+00
   -0.11811E-07         0.60477E-08         0.00000E+00
   -0.12127E-07         0.53626E-08         0.00000E+00
   -0.12413E-07         0.46684E-08         0.00000E+00
   -0.12666E-07         0.39663E-08         0.00000E+00
   -0.12884E-07         0.32574E-08         0.00000E+00
   -0.13064E-07         0.25425E-08         0.00000E+00
   -0.13203E-07         0.18224E-08         0.00000E+00
   -0.13299E-07         0.10973E-08         0.00000E+00
   -0.13349E-07         0.36742E-09         0.00000E+00
    0.10785E-07         0.13918E-08         0.00000E+00
    0.10660E-07         0.40112E-08         0.00000E+00
    0.10420E-07         0.64035E-08         0.00000E+00
    0.10078E-07         0.85709E-08         0.00000E+00
    0.96446E-08         0.10518E-07         0.00000E+00
    0.91316E-08         0.12252E-07         0.00000E+00
    0.85498E-08         0.13781E-07         0.00000E+00
    0.79094E-08         0.15116E-07         0.00000E+00
    0.72199E-08         0.16266E-07         0.00000E+00
    0.64901E-08         0.17244E-07         0.00000E+00
    0.57282E-08         0.18061E-07         0.00000E+00
    0.49415E-08         0.18731E-07         0.00000E+00
    0.41365E-08         0.19264E-07         0.00000E+00
    0.33189E-08         0.19672E-07         0.00000E+00
    0.24940E-08         0.19966E-07         0.00000E+00
    0.16660E-08         0.20158E-07         0.00000E+00
    0.83871E-09         0.20256E-07         0.00000E+00
    0.15283E-10         0.20270E-07         0.00000E+00
   -0.80170E-09         0.20209E-07         0.00000E+00
   -0.16101E-08         0.20080E-07         0.00000E+00
   -0.24084E-08         0.19890E-07         0.00000E+00
   -0.31952E-08         0.19645E-07         0.00000E+00
   -0.39696E-08         0.19352E-07         0.00000E+00
   -0.47309E-08         0.19014E-07         0.00000E+00
   -0.54788E-08         0.18636E-07         0.00000E+00
   -0.62129E-08         0.18221E-07         0.00000E+00
   -0.69332E-08         0.17774E-07         0.00000E+00
   -0.76396E-08         0.17295E-07         0.00000E+00
   -0.83321E-08         0.16788E-07         0.00000E+00
   -0.90106E-08         0.16254E-07         0.00000E+00
   -0.96752E-08         0.15694E-07         0.00000E+00
   -0.10326E-07         0.15109E-07         0.00000E+00
   -0.10962E-07         0.14500E-07         0.00000E+00
   -0.11583E-07         0.13868E-07         0.00000E+00
   -0.12188E-07         0.13212E-07         0.00000E+00
   -0.12777E-07         0.12533E-07         0.00000E+00
   -0.13348E-07         0.11831E-07         0.00000E+00
   -0.13900E-07         0.11106E-07         0.00000E+00
   -0.14431E-07         0.10358E-07         0.00000E+00
   -0.14938E-07         0.95857E-08         0.00000E+00
   -0.15420E-07         0.87902E-08         0.00000E+00
   -0.15873E-07         0.79710E-08         0.00000E+00
   -0.16295E-07         0.71279E-08         0.00000E+00
   -0.16681E-07         0.62607E-08         0.00000E+00
   -0.17027E-07         0.53691E-08         0.00000E+00
   -0.17329E-07         0.44527E-08         0.00000E+00
   -0.17581E-07         0.35111E-08         0.00000E+00
   -0.17780E-07         0.25434E-08         0.00000E+00
   -0.17918E-07         0.15487E-08         0.00000E+00
   -0.17991E-07         0.52561E-09         0.00000E+00
    0.98709E-08         0.17436E-08         0.00000E+00
    0.97241E-08         0.50183E-08         0.00000E+00
    0.94432E-08         0.79989E-08         0.00000E+00
    0.90429E-08         0.10688E-07         0.00000E+00
    0.85377E-08         0.13093E-07         0.00000E+00
    0.79415E-08         0.15223E-07         0.00000E+00
    0.72679E-08         0.17088E-07         0.00000E+00
    0.65293E-08         0.18704E-07         0.00000E+00
    0.57376E-08         0.20084E-07         0.00000E+00
    0.49037E-08         0.21244E-07         0.00000E+00
    0.40374E-08         0.22202E-07         0.00000E+00
    0.31475E-08         0.22973E-07         0.00000E+00
    0.22418E-08         0.23575E-07         0.00000E+00
    0.13271E-08         0.24022E-07         0.00000E+00
    0.40922E-09         0.24330E-07         0.00000E+00
   -0.50695E-09         0.24514E-07         0.00000E+00
   -0.14174E-08         0.24588E-07         0.00000E+00
   -0.23189E-08         0.24563E-07         0.00000E+00
   -0.32090E-08         0.24451E-07         0.00000E+00
   -0.40859E-08         0.24264E-07         0.00000E+00
   -0.49484E-08         0.24009E-07         0.00000E+00
   -0.57958E-08         0.23697E-07         0.00000E+00
   -0.66279E-08         0.23333E-07         0.00000E+00
   -0.74448E-08         0.22924E-07         0.00000E+00
   -0.82469E-08         0.22475E-07         0.00000E+00
   -0.90348E-08         0.21992E-07         0.00000E+00
   -0.98093E-08         0.21477E-07         0.00000E+00
   -0.10571E-07         0.20934E-07         0.00000E+00
   -0.11322E-07         0.20364E-07         0.00000E+00
   -0.12061E-07         0.19768E-07         0.00000E+00
   -0.12791E-07         0.19149E-07         0.00000E+00
   -0.13510E-07         0.18505E-07         0.00000E+00
   -0.14221E-07         0.17836E-07         0.00000E+00
   -0.14922E-07         0.17142E-07         0.00000E+00
   -0.15613E-07         0.16421E-07         0.00000E+00
   -0.16293E-07         0.15671E-07         0.00000E+00
   -0.16962E-07         0.14891E-07         0.00000E+00
   -0.17616E-07         0.14079E-07         0.00000E+00
   -0.18254E-07         0.13231E-07         0.00000E+00
   -0.18873E-07         0.12346E-07         0.00000E+00
   -0.19469E-07         0.11420E-07         0.00000E+00
   -0.20038E-07         0.10450E-07         0.00000E+00
   -0.20574E-07         0.94348E-08         0.00000E+00
   -0.21071E-07         0.83696E-08         0.00000E+00
   -0.21523E-07         0.72516E-08         0.00000E+00
   -0.21923E-07         0.60776E-08         0.00000E+00
   -0.22262E-07         0.48442E-08         0.00000E+00
   -0.22531E-07         0.35478E-08         0.00000E+00
   -0.22720E-07         0.21849E-08         0.00000E+00
   -0.22821E-07         0.75159E-09         0.00000E+00
    0.79344E-08         0.21577E-08         0.00000E+00
    0.77621E-08         0.62001E-08         0.00000E+00
    0.74335E-08         0.98644E-08         0.00000E+00
    0.69675E-08         0.13154E-07         0.00000E+00
    0.63826E-08         0.16078E-07         0.00000E+00
    0.56966E-08         0.18648E-07         0.00000E+00
    0.49267E-08         0.20881E-07         0.00000E+00
    0.40888E-08         0.22793E-07         0.00000E+00
    0.31979E-08         0.24407E-07         0.00000E+00
    0.22674E-08         0.25743E-07         0.00000E+00
    0.13094E-08         0.26825E-07         0.00000E+00
    0.33479E-09         0.27674E-07         0.00000E+00
   -0.64733E-09         0.28313E-07         0.00000E+00
   -0.16290E-08         0.28765E-07         0.00000E+00
   -0.26038E-08         0.29050E-07         0.00000E+00
   -0.35665E-08         0.29188E-07         0.00000E+00
   -0.45130E-08         0.29198E-07         0.00000E+00
   -0.54404E-08         0.29097E-07         0.00000E+00
   -0.63468E-08         0.28900E-07         0.00000E+00
   -0.72312E-08         0.28622E-07         0.00000E+00
   -0.80934E-08         0.28275E-07         0.00000E+00
   -0.89338E-08         0.27870E-07         0.00000E+00
   -0.97535E-08         0.27418E-07         0.00000E+00
   -0.10554E-07         0.26925E-07         0.00000E+00
   -0.11337E-07         0.26400E-07         0.00000E+00
   -0.12105E-07         0.25847E-07         0.00000E+00
   -0.12860E-07         0.25270E-07         0.00000E+00
   -0.13604E-07         0.24673E-07         0.00000E+00
   -0.14341E-07         0.24057E-07         0.00000E+00
   -0.15071E-07         0.23424E-07         0.00000E+00
   -0.15797E-07         0.22772E-07         0.00000E+00
   -0.16521E-07         0.22101E-07         0.00000E+00
   -0.17245E-07         0.21408E-07         0.00000E+00
   -0.17968E-07         0.20691E-07         0.00000E+00
   -0.18692E-07         0.19945E-07         0.00000E+00
   -0.19415E-07         0.19166E-07         0.00000E+00
   -0.20137E-07         0.18349E-07         0.00000E+00
   -0.20856E-07         0.17488E-07         0.00000E+00
   -0.21569E-07         0.16577E-07         0.00000E+00
   -0.22272E-07         0.15609E-07         0.00000E+00
   -0.22960E-07         0.14577E-07         0.00000E+00
   -0.23628E-07         0.13472E-07         0.00000E+00
   -0.24266E-07         0.12287E-07         0.00000E+00
   -0.24869E-07         0.11014E-07         0.00000E+00
   -0.25424E-07         0.96450E-08         0.00000E+00
   -0.25922E-07         0.81708E-08         0.00000E+00
   -0.26349E-07         0.65834E-08         0.00000E+00
   -0.26694E-07         0.48741E-08         0.00000E+00
   -0.26939E-07         0.30349E-08         0.00000E+00
   -0.27070E-07         0.10575E-08         0.00000E+00
    0.45697E-08         0.26499E-08         0.00000E+00
    0.43645E-08         0.75959E-08         0.00000E+00
    0.39764E-08         0.12052E-07         0.00000E+00
    0.34312E-08         0.16023E-07         0.00000E+00
    0.27542E-08         0.19519E-07         0.00000E+00
    0.19697E-08         0.22560E-07         0.00000E+00
    0.11005E-08         0.25165E-07         0.00000E+00
    0.16762E-09         0.27362E-07         0.00000E+00
   -0.80965E-09         0.29179E-07         0.00000E+00
   -0.18142E-08         0.30646E-07         0.00000E+00
   -0.28309E-08         0.31795E-07         0.00000E+00
   -0.38471E-08         0.32657E-07         0.00000E+00
   -0.48518E-08         0.33264E-07         0.00000E+00
   -0.58364E-08         0.33646E-07         0.00000E+00
   -0.67941E-08         0.33832E-07         0.00000E+00
   -0.77198E-08         0.33849E-07         0.00000E+00
   -0.86103E-08         0.33723E-07         0.00000E+00
   -0.94637E-08         0.33476E-07         0.00000E+00
   -0.10279E-07         0.33131E-07         0.00000E+00
   -0.11058E-07         0.32706E-07         0.00000E+00
   -0.11801E-07         0.32218E-07         0.00000E+00
   -0.12511E-07         0.31681E-07         0.00000E+00
   -0.13192E-07         0.31108E-07         0.00000E+00
   -0.13846E-07         0.30509E-07         0.00000E+00
   -0.14479E-07         0.29894E-07         0.00000E+00
   -0.15094E-07         0.29267E-07         0.00000E+00
   -0.15696E-07         0.28635E-07         0.00000E+00
   -0.16290E-07         0.28000E-07         0.00000E+00
   -0.16880E-07         0.27363E-07         0.00000E+00
   -0.17471E-07         0.26724E-07         0.00000E+00
   -0.18066E-07         0.26081E-07         0.00000E+00
   -0.18670E-07         0.25431E-07         0.00000E+00
   -0.19285E-07         0.24770E-07         0.00000E+00
   -0.19914E-07         0.24090E-07         0.00000E+00
   -0.20558E-07         0.23384E-07         0.00000E+00
   -0.21218E-07         0.22644E-07         0.00000E+00
   -0.21894E-07         0.21861E-07         0.00000E+00
   -0.22584E-07         0.21021E-07         0.00000E+00
   -0.23285E-07         0.20115E-07         0.00000E+00
   -0.23993E-07         0.19127E-07         0.00000E+00
   -0.24702E-07         0.18045E-07         0.00000E+00
   -0.25405E-07         0.16854E-07         0.00000E+00
   -0.26093E-07         0.15537E-07         0.00000E+00
   -0.26753E-07         0.14079E-07         0.00000E+00
   -0.27374E-07         0.12463E-07         0.00000E+00
   -0.27941E-07         0.10673E-07         0.00000E+00
   -0.28435E-07         0.86928E-08         0.00000E+00
   -0.28839E-07         0.65049E-08         0.00000E+00
   -0.29132E-07         0.40938E-08         0.00000E+00
   -0.29290E-07         0.14441E-08         0.00000E+00
   -0.75695E-09         0.32478E-08         0.00000E+00
   -0.10059E-08         0.92692E-08         0.00000E+00
   -0.14692E-08         0.14636E-07         0.00000E+00
   -0.21076E-08         0.19357E-07         0.00000E+00
   -0.28839E-08         0.23451E-07         0.00000E+00
   -0.37634E-08         0.26948E-07         0.00000E+00
   -0.47144E-08         0.29879E-07         0.00000E+00
   -0.57085E-08         0.32284E-07         0.00000E+00
   -0.67209E-08         0.34206E-07         0.00000E+00
   -0.77301E-08         0.35688E-07         0.00000E+00
   -0.87184E-08         0.36778E-07         0.00000E+00
   -0.96712E-08         0.37519E-07         0.00000E+00
   -0.10577E-07         0.37956E-07         0.00000E+00
   -0.11428E-07         0.38131E-07         0.00000E+00
   -0.12218E-07         0.38085E-07         0.00000E+00
   -0.12944E-07         0.37854E-07         0.00000E+00
   -0.13604E-07         0.37473E-07         0.00000E+00
   -0.14200E-07         0.36973E-07         0.00000E+00
   -0.14734E-07         0.36381E-07         0.00000E+00
   -0.15209E-07         0.35723E-07         0.00000E+00
   -0.15630E-07         0.35021E-07         0.00000E+00
   -0.16002E-07         0.34292E-07         0.00000E+00
   -0.16333E-07         0.33552E-07         0.00000E+00
   -0.16629E-07         0.32815E-07         0.00000E+00
   -0.16896E-07         0.32089E-07         0.00000E+00
   -0.17144E-07         0.31383E-07         0.00000E+00
   -0.17378E-07         0.30702E-07         0.00000E+00
   -0.17607E-07         0.30047E-07         0.00000E+00
   -0.17837E-07         0.29420E-07         0.00000E+00
   -0.18077E-07         0.28818E-07         0.00000E+00
   -0.18331E-07         0.28238E-07         0.00000E+00
   -0.18607E-07         0.27673E-07         0.00000E+00
   -0.18909E-07         0.27115E-07         0.00000E+00
   -0.19243E-07         0.26554E-07         0.00000E+00
   -0.19610E-07         0.25979E-07         0.00000E+00
   -0.20015E-07         0.25374E-07         0.00000E+00
   -0.20458E-07         0.24724E-07         0.00000E+00
   -0.20938E-07         0.24010E-07         0.00000E+00
   -0.21455E-07         0.23214E-07         0.00000E+00
   -0.22004E-07         0.22313E-07         0.00000E+00
   -0.22579E-07         0.21284E-07         0.00000E+00
   -0.23174E-07         0.20103E-07         0.00000E+00
   -0.23778E-07         0.18743E-07         0.00000E+00
   -0.24378E-07         0.17177E-07         0.00000E+00
   -0.24959E-07         0.15378E-07         0.00000E+00
   -0.25505E-07         0.13317E-07         0.00000E+00
   -0.25993E-07         0.10965E-07         0.00000E+00
   -0.26401E-07         0.82938E-08         0.00000E+00
   -0.26703E-07         0.52756E-08         0.00000E+00
   -0.26869E-07         0.18838E-08         0.00000E+00
   -0.84814E-08         0.39786E-08         0.00000E+00
   -0.87770E-08         0.11261E-07         0.00000E+00
   -0.93099E-08         0.17625E-07         0.00000E+00
   -0.10018E-07         0.23098E-07         0.00000E+00
   -0.10844E-07         0.27723E-07         0.00000E+00
   -0.11739E-07         0.31550E-07         0.00000E+00
   -0.12661E-07         0.34639E-07         0.00000E+00
   -0.13573E-07         0.37054E-07         0.00000E+00
   -0.14445E-07         0.38861E-07         0.00000E+00
   -0.15256E-07         0.40130E-07         0.00000E+00
   -0.15986E-07         0.40928E-07         0.00000E+00
   -0.16623E-07         0.41319E-07         0.00000E+00
   -0.17159E-07         0.41366E-07         0.00000E+00
   -0.17589E-07         0.41126E-07         0.00000E+00
   -0.17912E-07         0.40655E-07         0.00000E+00
   -0.18130E-07         0.40000E-07         0.00000E+00
   -0.18245E-07         0.39207E-07         0.00000E+00
   -0.18265E-07         0.38315E-07         0.00000E+00
   -0.18195E-07         0.37359E-07         0.00000E+00
   -0.18045E-07         0.36369E-07         0.00000E+00
   -0.17823E-07         0.35371E-07         0.00000E+00
   -0.17539E-07         0.34386E-07         0.00000E+00
   -0.17204E-07         0.33433E-07         0.00000E+00
   -0.16826E-07         0.32526E-07         0.00000E+00
   -0.16418E-07         0.31676E-07         0.00000E+00
   -0.15989E-07         0.30889E-07         0.00000E+00
   -0.15550E-07         0.30171E-07         0.00000E+00
   -0.15110E-07         0.29523E-07         0.00000E+00
   -0.14680E-07         0.28944E-07         0.00000E+00
   -0.14268E-07         0.28429E-07         0.00000E+00
   -0.13882E-07         0.27973E-07         0.00000E+00
   -0.13532E-07         0.27565E-07         0.00000E+00
   -0.13223E-07         0.27194E-07         0.00000E+00
   -0.12964E-07         0.26845E-07         0.00000E+00
   -0.12759E-07         0.26501E-07         0.00000E+00
   -0.12612E-07         0.26143E-07         0.00000E+00
   -0.12528E-07         0.25747E-07         0.00000E+00
   -0.12508E-07         0.25288E-07         0.00000E+00
   -0.12552E-07         0.24738E-07         0.00000E+00
   -0.12659E-07         0.24067E-07         0.00000E+00
   -0.12825E-07         0.23240E-07         0.00000E+00
   -0.13046E-07         0.22222E-07         0.00000E+00
   -0.13313E-07         0.20975E-07         0.00000E+00
   -0.13616E-07         0.19458E-07         0.00000E+00
   -0.13941E-07         0.17630E-07         0.00000E+00
   -0.14272E-07         0.15447E-07         0.00000E+00
   -0.14590E-07         0.12865E-07         0.00000E+00
   -0.14871E-07         0.98406E-08         0.00000E+00
   -0.15089E-07         0.63294E-08         0.00000E+00
   -0.15215E-07         0.22890E-08         0.00000E+00
   -0.17610E-07         0.47902E-08         0.00000E+00
   -0.17896E-07         0.13362E-07         0.00000E+00
   -0.18378E-07         0.20598E-07         0.00000E+00
   -0.18963E-07         0.26585E-07         0.00000E+00
   -0.19574E-07         0.31423E-07         0.00000E+00
   -0.20152E-07         0.35216E-07         0.00000E+00
   -0.20650E-07         0.38074E-07         0.00000E+00
   -0.21036E-07         0.40105E-07         0.00000E+00
   -0.21284E-07         0.41416E-07         0.00000E+00
   -0.21381E-07         0.42110E-07         0.00000E+00
   -0.21317E-07         0.42283E-07         0.00000E+00
   -0.21092E-07         0.42024E-07         0.00000E+00
   -0.20707E-07         0.41417E-07         0.00000E+00
   -0.20169E-07         0.40535E-07         0.00000E+00
   -0.19486E-07         0.39446E-07         0.00000E+00
   -0.18668E-07         0.38208E-07         0.00000E+00
   -0.17728E-07         0.36875E-07         0.00000E+00
   -0.16677E-07         0.35492E-07         0.00000E+00
   -0.15530E-07         0.34097E-07         0.00000E+00
   -0.14299E-07         0.32723E-07         0.00000E+00
   -0.12997E-07         0.31398E-07         0.00000E+00
   -0.11638E-07         0.30144E-07         0.00000E+00
   -0.10234E-07         0.28978E-07         0.00000E+00
   -0.87980E-08         0.27914E-07         0.00000E+00
   -0.73411E-08         0.26962E-07         0.00000E+00
   -0.58747E-08         0.26127E-07         0.00000E+00
   -0.44095E-08         0.25411E-07         0.00000E+00
   -0.29555E-08         0.24815E-07         0.00000E+00
   -0.15223E-08         0.24333E-07         0.00000E+00
   -0.11891E-09         0.23961E-07         0.00000E+00
    0.12461E-08         0.23688E-07         0.00000E+00
    0.25649E-08         0.23503E-07         0.00000E+00
    0.38299E-08         0.23389E-07         0.00000E+00
    0.50344E-08         0.23330E-07         0.00000E+00
    0.61720E-08         0.23303E-07         0.00000E+00
    0.72372E-08         0.23284E-07         0.00000E+00
    0.82247E-08         0.23246E-07         0.00000E+00
    0.91305E-08         0.23158E-07         0.00000E+00
    0.99511E-08         0.22986E-07         0.00000E+00
    0.10684E-07         0.22691E-07         0.00000E+00
    0.11327E-07         0.22232E-07         0.00000E+00
    0.11881E-07         0.21566E-07         0.00000E+00
    0.12345E-07         0.20643E-07         0.00000E+00
    0.12723E-07         0.19414E-07         0.00000E+00
    0.13019E-07         0.17824E-07         0.00000E+00
    0.13237E-07         0.15818E-07         0.00000E+00
    0.13386E-07         0.13338E-07         0.00000E+00
    0.13476E-07         0.10326E-07         0.00000E+00
    0.13519E-07         0.67211E-08         0.00000E+00
    0.13531E-07         0.24637E-08         0.00000E+00
   -0.20867E-07         0.53078E-08         0.00000E+00
   -0.20902E-07         0.14450E-07         0.00000E+00
   -0.20866E-07         0.21742E-07         0.00000E+00
   -0.20674E-07         0.27402E-07         0.00000E+00
   -0.20270E-07         0.31639E-07         0.00000E+00
   -0.19622E-07         0.34649E-07         0.00000E+00
   -0.18718E-07         0.36613E-07         0.00000E+00
   -0.17558E-07         0.37696E-07         0.00000E+00
   -0.16155E-07         0.38047E-07         0.00000E+00
   -0.14522E-07         0.37800E-07         0.00000E+00
   -0.12681E-07         0.37073E-07         0.00000E+00
   -0.10654E-07         0.35972E-07         0.00000E+00
   -0.84625E-08         0.34588E-07         0.00000E+00
   -0.61289E-08         0.33005E-07         0.00000E+00
   -0.36748E-08         0.31290E-07         0.00000E+00
   -0.11207E-08         0.29505E-07         0.00000E+00
    0.15147E-08         0.27700E-07         0.00000E+00
    0.42136E-08         0.25919E-07         0.00000E+00
    0.69603E-08         0.24198E-07         0.00000E+00
    0.97403E-08         0.22566E-07         0.00000E+00
    0.12541E-07         0.21045E-07         0.00000E+00
    0.15350E-07         0.19655E-07         0.00000E+00
    0.18158E-07         0.18407E-07         0.00000E+00
    0.20957E-07         0.17312E-07         0.00000E+00
    0.23738E-07         0.16375E-07         0.00000E+00
    0.26495E-07         0.15598E-07         0.00000E+00
    0.29221E-07         0.14980E-07         0.00000E+00
    0.31913E-07         0.14518E-07         0.00000E+00
    0.34564E-07         0.14205E-07         0.00000E+00
    0.37172E-07         0.14033E-07         0.00000E+00
    0.39733E-07         0.13989E-07         0.00000E+00
    0.42242E-07         0.14061E-07         0.00000E+00
    0.44697E-07         0.14231E-07         0.00000E+00
    0.47095E-07         0.14480E-07         0.00000E+00
    0.49430E-07         0.14786E-07         0.00000E+00
    0.51701E-07         0.15124E-07         0.00000E+00
    0.53901E-07         0.15465E-07         0.00000E+00
    0.56027E-07         0.15779E-07         0.00000E+00
    0.58074E-07         0.16032E-07         0.00000E+00
    0.60033E-07         0.16185E-07         0.00000E+00
    0.61897E-07         0.16199E-07         0.00000E+00
    0.63658E-07         0.16030E-07         0.00000E+00
    0.65303E-07         0.15631E-07         0.00000E+00
    0.66819E-07         0.14956E-07         0.00000E+00
    0.68189E-07         0.13952E-07         0.00000E+00
    0.69396E-07         0.12565E-07         0.00000E+00
    0.70417E-07         0.10742E-07         0.00000E+00
    0.71227E-07         0.84240E-08         0.00000E+00
    0.71798E-07         0.55528E-08         0.00000E+00
    0.72099E-07         0.20663E-08         0.00000E+00
    0.79175E-08         0.43477E-08         0.00000E+00
    0.87531E-08         0.11404E-07         0.00000E+00
    0.10375E-07         0.16503E-07         0.00000E+00
    0.12707E-07         0.20020E-07         0.00000E+00
    0.15654E-07         0.22266E-07         0.00000E+00
    0.19111E-07         0.23494E-07         0.00000E+00
    0.22979E-07         0.23907E-07         0.00000E+00
    0.27166E-07         0.23671E-07         0.00000E+00
    0.31592E-07         0.22924E-07         0.00000E+00
    0.36188E-07         0.21782E-07         0.00000E+00
    0.40896E-07         0.20346E-07         0.00000E+00
    0.45669E-07         0.18699E-07         0.00000E+00
    0.50467E-07         0.16914E-07         0.00000E+00
    0.55259E-07         0.15054E-07         0.00000E+00
    0.60018E-07         0.13171E-07         0.00000E+00
    0.64727E-07         0.11311E-07         0.00000E+00
    0.69368E-07         0.95093E-08         0.00000E+00
    0.73932E-07         0.77967E-08         0.00000E+00
    0.78410E-07         0.61973E-08         0.00000E+00
    0.82798E-07         0.47294E-08         0.00000E+00
    0.87092E-07         0.34072E-08         0.00000E+00
    0.91293E-07         0.22403E-08         0.00000E+00
    0.95402E-07         0.12350E-08         0.00000E+00
    0.99422E-07         0.39427E-09         0.00000E+00
    0.10336E-06        -0.28148E-09         0.00000E+00
    0.10721E-06        -0.79428E-09         0.00000E+00
    0.11099E-06        -0.11483E-08         0.00000E+00
    0.11469E-06        -0.13496E-08         0.00000E+00
    0.11834E-06        -0.14061E-08         0.00000E+00
    0.12192E-06        -0.13274E-08         0.00000E+00
    0.12546E-06        -0.11250E-08         0.00000E+00
    0.12895E-06        -0.81211E-09         0.00000E+00
    0.13239E-06        -0.40374E-09         0.00000E+00
    0.13580E-06         0.83211E-10         0.00000E+00
    0.13918E-06         0.62991E-09         0.00000E+00
    0.14252E-06         0.12157E-08         0.00000E+00
    0.14583E-06         0.18181E-08         0.00000E+00
    0.14911E-06         0.24132E-08         0.00000E+00
    0.15234E-06         0.29758E-08         0.00000E+00
    0.15554E-06         0.34801E-08         0.00000E+00
    0.15867E-06         0.39005E-08         0.00000E+00
    0.16174E-06         0.42121E-08         0.00000E+00
    0.16470E-06         0.43919E-08         0.00000E+00
    0.16754E-06         0.44197E-08         0.00000E+00
    0.17021E-06         0.42785E-08         0.00000E+00
    0.17266E-06         0.39551E-08         0.00000E+00
    0.17482E-06         0.34394E-08         0.00000E+00
    0.17662E-06         0.27236E-08         0.00000E+00
    0.17794E-06         0.18008E-08         0.00000E+00
    0.17866E-06         0.66600E-09         0.00000E+00
    0.13291E-06         0.17670E-10         0.00000E+00
    0.13529E-06        -0.36560E-09         0.00000E+00
    0.13954E-06        -0.10781E-08         0.00000E+00
    0.14511E-06        -0.19259E-08         0.00000E+00
    0.15158E-06        -0.28355E-08         0.00000E+00
    0.15860E-06        -0.37879E-08         0.00000E+00
    0.16592E-06        -0.47841E-08         0.00000E+00
    0.17337E-06        -0.58281E-08         0.00000E+00
    0.18082E-06        -0.69200E-08         0.00000E+00
    0.18816E-06        -0.80536E-08         0.00000E+00
    0.19533E-06        -0.92171E-08         0.00000E+00
    0.20229E-06        -0.10394E-07         0.00000E+00
    0.20900E-06        -0.11567E-07         0.00000E+00
    0.21546E-06        -0.12717E-07         0.00000E+00
    0.22165E-06        -0.13824E-07         0.00000E+00
    0.22758E-06        -0.14871E-07         0.00000E+00
    0.23325E-06        -0.15844E-07         0.00000E+00
    0.23866E-06        -0.16730E-07         0.00000E+00
    0.24383E-06        -0.17519E-07         0.00000E+00
    0.24877E-06        -0.18202E-07         0.00000E+00
    0.25350E-06        -0.18776E-07         0.00000E+00
    0.25803E-06        -0.19237E-07         0.00000E+00
    0.26238E-06        -0.19585E-07         0.00000E+00
    0.26657E-06        -0.19819E-07         0.00000E+00
    0.27061E-06        -0.19944E-07         0.00000E+00
    0.27452E-06        -0.19961E-07         0.00000E+00
    0.27832E-06        -0.19875E-07         0.00000E+00
    0.28203E-06        -0.19694E-07         0.00000E+00
    0.28566E-06        -0.19422E-07         0.00000E+00
    0.28922E-06        -0.19068E-07         0.00000E+00
    0.29274E-06        -0.18640E-07         0.00000E+00
    0.29622E-06        -0.18147E-07         0.00000E+00
    0.29968E-06        -0.17600E-07         0.00000E+00
    0.30313E-06        -0.17009E-07         0.00000E+00
    0.30658E-06        -0.16386E-07         0.00000E+00
    0.31003E-06        -0.15743E-07         0.00000E+00
    0.31349E-06        -0.15091E-07         0.00000E+00
    0.31697E-06        -0.14441E-07         0.00000E+00
    0.32046E-06        -0.13804E-07         0.00000E+00
    0.32395E-06        -0.13185E-07         0.00000E+00
    0.32745E-06        -0.12586E-07         0.00000E+00
    0.33093E-06        -0.12000E-07         0.00000E+00
    0.33436E-06        -0.11410E-07         0.00000E+00
    0.33772E-06        -0.10786E-07         0.00000E+00
    0.34097E-06        -0.10077E-07         0.00000E+00
    0.34402E-06        -0.92097E-08         0.00000E+00
    0.34680E-06        -0.80843E-08         0.00000E+00
    0.34917E-06        -0.65724E-08         0.00000E+00
    0.35097E-06        -0.45218E-08         0.00000E+00
    0.35199E-06        -0.17704E-08         0.00000E+00
    0.44460E-06        -0.76312E-08         0.00000E+00
    0.44754E-06        -0.19361E-07         0.00000E+00
    0.45235E-06        -0.27387E-07         0.00000E+00
    0.45821E-06        -0.32764E-07         0.00000E+00
    0.46460E-06        -0.36269E-07         0.00000E+00
    0.47120E-06        -0.38468E-07         0.00000E+00
    0.47781E-06        -0.39769E-07         0.00000E+00
    0.48428E-06        -0.40464E-07         0.00000E+00
    0.49054E-06        -0.40758E-07         0.00000E+00
    0.49651E-06        -0.40794E-07         0.00000E+00
    0.50218E-06        -0.40667E-07         0.00000E+00
    0.50752E-06        -0.40441E-07         0.00000E+00
    0.51253E-06        -0.40156E-07         0.00000E+00
    0.51721E-06        -0.39835E-07         0.00000E+00
    0.52158E-06        -0.39493E-07         0.00000E+00
    0.52564E-06        -0.39134E-07         0.00000E+00
    0.52941E-06        -0.38762E-07         0.00000E+00
    0.53291E-06        -0.38375E-07         0.00000E+00
    0.53616E-06        -0.37973E-07         0.00000E+00
    0.53918E-06        -0.37553E-07         0.00000E+00
    0.54198E-06        -0.37115E-07         0.00000E+00
    0.54460E-06        -0.36657E-07         0.00000E+00
    0.54706E-06        -0.36179E-07         0.00000E+00
    0.54936E-06        -0.35681E-07         0.00000E+00
    0.55154E-06        -0.35165E-07         0.00000E+00
    0.55360E-06        -0.34631E-07         0.00000E+00
    0.55558E-06        -0.34082E-07         0.00000E+00
    0.55748E-06        -0.33520E-07         0.00000E+00
    0.55932E-06        -0.32947E-07         0.00000E+00
    0.56112E-06        -0.32366E-07         0.00000E+00
    0.56289E-06        -0.31780E-07         0.00000E+00
    0.56464E-06        -0.31192E-07         0.00000E+00
    0.56639E-06        -0.30604E-07         0.00000E+00
    0.56815E-06        -0.30018E-07         0.00000E+00
    0.56991E-06        -0.29437E-07         0.00000E+00
    0.57169E-06        -0.28861E-07         0.00000E+00
    0.57349E-06        -0.28288E-07         0.00000E+00
    0.57531E-06        -0.27716E-07         0.00000E+00
    0.57715E-06        -0.27137E-07         0.00000E+00
    0.57899E-06        -0.26536E-07         0.00000E+00
    0.58082E-06        -0.25895E-07         0.00000E+00
    0.58265E-06        -0.25180E-07         0.00000E+00
    0.58443E-06        -0.24345E-07         0.00000E+00
    0.58616E-06        -0.23323E-07         0.00000E+00
    0.58782E-06        -0.22016E-07         0.00000E+00
    0.58937E-06        -0.20291E-07         0.00000E+00
    0.59078E-06        -0.17959E-07         0.00000E+00
    0.59202E-06        -0.14759E-07         0.00000E+00
    0.59302E-06        -0.10334E-07         0.00000E+00
    0.59364E-06        -0.41894E-08         0.00000E+00
    0.94082E-06        -0.10008E-07         0.00000E+00
    0.93961E-06        -0.25660E-07         0.00000E+00
    0.93785E-06        -0.36353E-07         0.00000E+00
    0.93593E-06        -0.43462E-07         0.00000E+00
    0.93402E-06        -0.47983E-07         0.00000E+00
    0.93219E-06        -0.50648E-07         0.00000E+00
    0.93047E-06        -0.51998E-07         0.00000E+00
    0.92883E-06        -0.52428E-07         0.00000E+00
    0.92727E-06        -0.52227E-07         0.00000E+00
    0.92575E-06        -0.51606E-07         0.00000E+00
    0.92426E-06        -0.50714E-07         0.00000E+00
    0.92277E-06        -0.49657E-07         0.00000E+00
    0.92127E-06        -0.48508E-07         0.00000E+00
    0.91976E-06        -0.47318E-07         0.00000E+00
    0.91821E-06        -0.46121E-07         0.00000E+00
    0.91664E-06        -0.44938E-07         0.00000E+00
    0.91503E-06        -0.43783E-07         0.00000E+00
    0.91340E-06        -0.42665E-07         0.00000E+00
    0.91173E-06        -0.41589E-07         0.00000E+00
    0.91003E-06        -0.40556E-07         0.00000E+00
    0.90832E-06        -0.39567E-07         0.00000E+00
    0.90658E-06        -0.38623E-07         0.00000E+00
    0.90483E-06        -0.37724E-07         0.00000E+00
    0.90307E-06        -0.36868E-07         0.00000E+00
    0.90131E-06        -0.36054E-07         0.00000E+00
    0.89955E-06        -0.35282E-07         0.00000E+00
    0.89780E-06        -0.34551E-07         0.00000E+00
    0.89606E-06        -0.33860E-07         0.00000E+00
    0.89434E-06        -0.33206E-07         0.00000E+00
    0.89264E-06        -0.32589E-07         0.00000E+00
    0.89096E-06        -0.32005E-07         0.00000E+00
    0.88930E-06        -0.31453E-07         0.00000E+00
    0.88767E-06        -0.30928E-07         0.00000E+00
    0.88606E-06        -0.30424E-07         0.00000E+00
    0.88447E-06        -0.29936E-07         0.00000E+00
    0.88291E-06        -0.29453E-07         0.00000E+00
    0.88136E-06        -0.28964E-07         0.00000E+00
    0.87983E-06        -0.28452E-07         0.00000E+00
    0.87830E-06        -0.27898E-07         0.00000E+00
    0.87675E-06        -0.27273E-07         0.00000E+00
    0.87519E-06        -0.26544E-07         0.00000E+00
    0.87360E-06        -0.25667E-07         0.00000E+00
    0.87196E-06        -0.24588E-07         0.00000E+00
    0.87026E-06        -0.23238E-07         0.00000E+00
    0.86849E-06        -0.21536E-07         0.00000E+00
    0.86666E-06        -0.19380E-07         0.00000E+00
    0.86480E-06        -0.16650E-07         0.00000E+00
    0.86299E-06        -0.13203E-07         0.00000E+00
    0.86139E-06        -0.88606E-08         0.00000E+00
    0.86031E-06        -0.34007E-08         0.00000E+00
    0.13659E-05        -0.39988E-08         0.00000E+00
    0.13629E-05        -0.10811E-07         0.00000E+00
    0.13576E-05        -0.15796E-07         0.00000E+00
    0.13506E-05        -0.19302E-07         0.00000E+00
    0.13424E-05        -0.21647E-07         0.00000E+00
    0.13334E-05        -0.23106E-07         0.00000E+00
    0.13240E-05        -0.23905E-07         0.00000E+00
    0.13144E-05        -0.24221E-07         0.00000E+00
    0.13047E-05        -0.24193E-07         0.00000E+00
    0.12951E-05        -0.23926E-07         0.00000E+00
    0.12856E-05        -0.23498E-07         0.00000E+00
    0.12763E-05        -0.22967E-07         0.00000E+00
    0.12672E-05        -0.22374E-07         0.00000E+00
    0.12584E-05        -0.21750E-07         0.00000E+00
    0.12499E-05        -0.21115E-07         0.00000E+00
    0.12415E-05        -0.20483E-07         0.00000E+00
    0.12335E-05        -0.19864E-07         0.00000E+00
    0.12256E-05        -0.19266E-07         0.00000E+00
    0.12180E-05        -0.18691E-07         0.00000E+00
    0.12107E-05        -0.18143E-07         0.00000E+00
    0.12035E-05        -0.17622E-07         0.00000E+00
    0.11966E-05        -0.17131E-07         0.00000E+00
    0.11898E-05        -0.16668E-07         0.00000E+00
    0.11832E-05        -0.16233E-07         0.00000E+00
    0.11768E-05        -0.15827E-07         0.00000E+00
    0.11706E-05        -0.15447E-07         0.00000E+00
    0.11645E-05        -0.15094E-07         0.00000E+00
    0.11585E-05        -0.14765E-07         0.00000E+00
    0.11526E-05        -0.14461E-07         0.00000E+00
    0.11469E-05        -0.14178E-07         0.00000E+00
    0.11413E-05        -0.13915E-07         0.00000E+00
    0.11358E-05        -0.13670E-07         0.00000E+00
    0.11304E-05        -0.13439E-07         0.00000E+00
    0.11250E-05        -0.13218E-07         0.00000E+00
    0.11198E-05        -0.13002E-07         0.00000E+00
    0.11146E-05        -0.12785E-07         0.00000E+00
    0.11096E-05        -0.12558E-07         0.00000E+00
    0.11046E-05        -0.12311E-07         0.00000E+00
    0.10997E-05        -0.12031E-07         0.00000E+00
    0.10950E-05        -0.11702E-07         0.00000E+00
    0.10904E-05        -0.11305E-07         0.00000E+00
    0.10859E-05        -0.10816E-07         0.00000E+00
    0.10817E-05        -0.10209E-07         0.00000E+00
    0.10778E-05        -0.94530E-08         0.00000E+00
    0.10742E-05        -0.85164E-08         0.00000E+00
    0.10710E-05        -0.73706E-08         0.00000E+00
    0.10684E-05        -0.59969E-08         0.00000E+00
    0.10663E-05        -0.43996E-08         0.00000E+00
    0.10649E-05        -0.26279E-08         0.00000E+00
    0.10642E-05        -0.81155E-09         0.00000E+00
POINT_DATA       5151
VECTORS vDarcyNodal double 
    0.92129E-06         0.00000E+00         0.00000E+00
    0.92011E-06         0.00000E+00         0.00000E+00
    0.91679E-06         0.00000E+00         0.00000E+00
    0.91166E-06         0.00000E+00         0.00000E+00
    0.90534E-06         0.00000E+00         0.00000E+00
    0.89850E-06         0.00000E+00         0.00000E+00
    0.89154E-06         0.00000E+00         0.00000E+00
    0.88458E-06         0.00000E+00         0.00000E+00
    0.87769E-06         0.00000E+00         0.00000E+00
    0.87090E-06         0.00000E+00         0.00000E+00
    0.86424E-06         0.00000E+00         0.00000E+00
    0.85775E-06         0.00000E+00         0.00000E+00
    0.85143E-06         0.00000E+00         0.00000E+00
    0.84529E-06         0.00000E+00         0.00000E+00
    0.83933E-06         0.00000E+00         0.00000E+00
    0.83355E-06         0.00000E+00         0.00000E+00
    0.82796E-06         0.00000E+00         0.00000E+00
    0.82253E-06         0.00000E+00         0.00000E+00
    0.81728E-06         0.00000E+00         0.00000E+00
    0.81218E-06         0.00000E+00         0.00000E+00
    0.80724E-06         0.00000E+00         0.00000E+00
    0.80244E-06         0.00000E+00         0.00000E+00
    0.79777E-06         0.00000E+00         0.00000E+00
    0.79324E-06         0.00000E+00         0.00000E+00
    0.78883E-06         0.00000E+00         0.00000E+00
    0.78453E-06         0.00000E+00         0.00000E+00
    0.78033E-06         0.00000E+00         0.00000E+00
    0.77624E-06         0.00000E+00         0.00000E+00
    0.77224E-06         0.00000E+00         0.00000E+00
    0.76832E-06         0.00000E+00         0.00000E+00
    0.76449E-06         0.00000E+00         0.00000E+00
    0.76073E-06         0.00000E+00         0.00000E+00
    0.75704E-06         0.00000E+00         0.00000E+00
    0.75341E-06         0.00000E+00         0.00000E+00
    0.74985E-06         0.00000E+00         0.00000E+00
    0.74635E-06         0.00000E+00         0.00000E+00
    0.74291E-06         0.00000E+00         0.00000E+00
    0.73954E-06         0.00000E+00         0.00000E+00
    0.73623E-06         0.00000E+00         0.00000E+00
    0.73300E-06         0.00000E+00         0.00000E+00
    0.72987E-06         0.00000E+00         0.00000E+00
    0.72684E-06         0.00000E+00         0.00000E+00
    0.72394E-06         0.00000E+00         0.00000E+00
    0.72121E-06         0.00000E+00         0.00000E+00
    0.71869E-06         0.00000E+00         0.00000E+00
    0.71641E-06         0.00000E+00         0.00000E+00
    0.71445E-06         0.00000E+00         0.00000E+00
    0.71285E-06         0.00000E+00         0.00000E+00
    0.71167E-06         0.00000E+00         0.00000E+00
    0.71097E-06         0.00000E+00         0.00000E+00
    0.71076E-06         0.00000E+00         0.00000E+00
    0.76667E-06         0.58637E-08         0.00000E+00
    0.76597E-06         0.11229E-07         0.00000E+00
    0.76423E-06         0.21126E-07         0.00000E+00
    0.76185E-06         0.28640E-07         0.00000E+00
    0.75907E-06         0.32898E-07         0.00000E+00
    0.75598E-06         0.34507E-07         0.00000E+00
    0.75270E-06         0.34811E-07         0.00000E+00
    0.74929E-06         0.34627E-07         0.00000E+00
    0.74582E-06         0.34208E-07         0.00000E+00
    0.74234E-06         0.33604E-07         0.00000E+00
    0.73886E-06         0.32866E-07         0.00000E+00
    0.73541E-06         0.32037E-07         0.00000E+00
    0.73200E-06         0.31154E-07         0.00000E+00
    0.72863E-06         0.30246E-07         0.00000E+00
    0.72532E-06         0.29334E-07         0.00000E+00
    0.72206E-06         0.28432E-07         0.00000E+00
    0.71885E-06         0.27552E-07         0.00000E+00
    0.71571E-06         0.26701E-07         0.00000E+00
    0.71262E-06         0.25884E-07         0.00000E+00
    0.70958E-06         0.25103E-07         0.00000E+00
    0.70660E-06         0.24360E-07         0.00000E+00
    0.70368E-06         0.23657E-07         0.00000E+00
    0.70081E-06         0.22992E-07         0.00000E+00
    0.69800E-06         0.22367E-07         0.00000E+00
    0.69523E-06         0.21780E-07         0.00000E+00
    0.69252E-06         0.21230E-07         0.00000E+00
    0.68986E-06         0.20716E-07         0.00000E+00
    0.68725E-06         0.20237E-07         0.00000E+00
    0.68469E-06         0.19791E-07         0.00000E+00
    0.68217E-06         0.19376E-07         0.00000E+00
    0.67970E-06         0.18990E-07         0.00000E+00
    0.67727E-06         0.18629E-07         0.00000E+00
    0.67488E-06         0.18290E-07         0.00000E+00
    0.67254E-06         0.17968E-07         0.00000E+00
    0.67023E-06         0.17657E-07         0.00000E+00
    0.66796E-06         0.17349E-07         0.00000E+00
    0.66572E-06         0.17034E-07         0.00000E+00
    0.66353E-06         0.16700E-07         0.00000E+00
    0.66137E-06         0.16332E-07         0.00000E+00
    0.65924E-06         0.15910E-07         0.00000E+00
    0.65716E-06         0.15411E-07         0.00000E+00
    0.65512E-06         0.14806E-07         0.00000E+00
    0.65314E-06         0.14062E-07         0.00000E+00
    0.65122E-06         0.13141E-07         0.00000E+00
    0.64938E-06         0.12002E-07         0.00000E+00
    0.64765E-06         0.10605E-07         0.00000E+00
    0.64605E-06         0.89178E-08         0.00000E+00
    0.64463E-06         0.69320E-08         0.00000E+00
    0.64345E-06         0.46833E-08         0.00000E+00
    0.64262E-06         0.22909E-08         0.00000E+00
    0.64228E-06         0.10805E-08         0.00000E+00
    0.45305E-06         0.70551E-08         0.00000E+00
    0.45346E-06         0.12207E-07         0.00000E+00
    0.45464E-06         0.20554E-07         0.00000E+00
    0.45648E-06         0.25819E-07         0.00000E+00
    0.45874E-06         0.29356E-07         0.00000E+00
    0.46112E-06         0.31832E-07         0.00000E+00
    0.46346E-06         0.33455E-07         0.00000E+00
    0.46571E-06         0.34374E-07         0.00000E+00
    0.46785E-06         0.34774E-07         0.00000E+00
    0.46986E-06         0.34826E-07         0.00000E+00
    0.47173E-06         0.34647E-07         0.00000E+00
    0.47346E-06         0.34315E-07         0.00000E+00
    0.47503E-06         0.33886E-07         0.00000E+00
    0.47645E-06         0.33395E-07         0.00000E+00
    0.47772E-06         0.32867E-07         0.00000E+00
    0.47885E-06         0.32318E-07         0.00000E+00
    0.47983E-06         0.31758E-07         0.00000E+00
    0.48069E-06         0.31193E-07         0.00000E+00
    0.48143E-06         0.30628E-07         0.00000E+00
    0.48206E-06         0.30067E-07         0.00000E+00
    0.48259E-06         0.29510E-07         0.00000E+00
    0.48303E-06         0.28960E-07         0.00000E+00
    0.48340E-06         0.28418E-07         0.00000E+00
    0.48369E-06         0.27885E-07         0.00000E+00
    0.48393E-06         0.27363E-07         0.00000E+00
    0.48411E-06         0.26852E-07         0.00000E+00
    0.48426E-06         0.26354E-07         0.00000E+00
    0.48437E-06         0.25869E-07         0.00000E+00
    0.48446E-06         0.25398E-07         0.00000E+00
    0.48453E-06         0.24943E-07         0.00000E+00
    0.48460E-06         0.24503E-07         0.00000E+00
    0.48465E-06         0.24079E-07         0.00000E+00
    0.48471E-06         0.23670E-07         0.00000E+00
    0.48478E-06         0.23276E-07         0.00000E+00
    0.48485E-06         0.22895E-07         0.00000E+00
    0.48494E-06         0.22524E-07         0.00000E+00
    0.48503E-06         0.22159E-07         0.00000E+00
    0.48513E-06         0.21795E-07         0.00000E+00
    0.48524E-06         0.21421E-07         0.00000E+00
    0.48535E-06         0.21027E-07         0.00000E+00
    0.48546E-06         0.20594E-07         0.00000E+00
    0.48555E-06         0.20101E-07         0.00000E+00
    0.48562E-06         0.19514E-07         0.00000E+00
    0.48566E-06         0.18792E-07         0.00000E+00
    0.48565E-06         0.17875E-07         0.00000E+00
    0.48559E-06         0.16682E-07         0.00000E+00
    0.48547E-06         0.15098E-07         0.00000E+00
    0.48530E-06         0.12957E-07         0.00000E+00
    0.48509E-06         0.10010E-07         0.00000E+00
    0.48490E-06         0.58712E-08         0.00000E+00
    0.48479E-06         0.34457E-08         0.00000E+00
    0.19171E-06         0.17533E-08         0.00000E+00
    0.19265E-06         0.32691E-08         0.00000E+00
    0.19500E-06         0.60038E-08         0.00000E+00
    0.19823E-06         0.81419E-08         0.00000E+00
    0.20203E-06         0.97241E-08         0.00000E+00
    0.20620E-06         0.10895E-07         0.00000E+00
    0.21061E-06         0.11838E-07         0.00000E+00
    0.21512E-06         0.12671E-07         0.00000E+00
    0.21965E-06         0.13447E-07         0.00000E+00
    0.22412E-06         0.14183E-07         0.00000E+00
    0.22848E-06         0.14886E-07         0.00000E+00
    0.23270E-06         0.15559E-07         0.00000E+00
    0.23675E-06         0.16198E-07         0.00000E+00
    0.24063E-06         0.16798E-07         0.00000E+00
    0.24433E-06         0.17355E-07         0.00000E+00
    0.24784E-06         0.17862E-07         0.00000E+00
    0.25117E-06         0.18313E-07         0.00000E+00
    0.25432E-06         0.18706E-07         0.00000E+00
    0.25730E-06         0.19036E-07         0.00000E+00
    0.26012E-06         0.19302E-07         0.00000E+00
    0.26279E-06         0.19503E-07         0.00000E+00
    0.26532E-06         0.19639E-07         0.00000E+00
    0.26772E-06         0.19712E-07         0.00000E+00
    0.27001E-06         0.19724E-07         0.00000E+00
    0.27220E-06         0.19677E-07         0.00000E+00
    0.27429E-06         0.19576E-07         0.00000E+00
    0.27631E-06         0.19422E-07         0.00000E+00
    0.27826E-06         0.19221E-07         0.00000E+00
    0.28015E-06         0.18977E-07         0.00000E+00
    0.28200E-06         0.18695E-07         0.00000E+00
    0.28381E-06         0.18378E-07         0.00000E+00
    0.28560E-06         0.18033E-07         0.00000E+00
    0.28738E-06         0.17665E-07         0.00000E+00
    0.28914E-06         0.17278E-07         0.00000E+00
    0.29090E-06         0.16877E-07         0.00000E+00
    0.29266E-06         0.16469E-07         0.00000E+00
    0.29443E-06         0.16058E-07         0.00000E+00
    0.29621E-06         0.15646E-07         0.00000E+00
    0.29800E-06         0.15236E-07         0.00000E+00
    0.29979E-06         0.14827E-07         0.00000E+00
    0.30158E-06         0.14415E-07         0.00000E+00
    0.30336E-06         0.13986E-07         0.00000E+00
    0.30512E-06         0.13522E-07         0.00000E+00
    0.30685E-06         0.12990E-07         0.00000E+00
    0.30853E-06         0.12339E-07         0.00000E+00
    0.31012E-06         0.11499E-07         0.00000E+00
    0.31160E-06         0.10370E-07         0.00000E+00
    0.31292E-06         0.88204E-08         0.00000E+00
    0.31401E-06         0.66876E-08         0.00000E+00
    0.31479E-06         0.37902E-08         0.00000E+00
    0.31511E-06         0.21272E-08         0.00000E+00
    0.47979E-07        -0.23644E-08         0.00000E+00
    0.48525E-07        -0.42081E-08         0.00000E+00
    0.49998E-07        -0.73011E-08         0.00000E+00
    0.52198E-07        -0.93333E-08         0.00000E+00
    0.54943E-07        -0.10532E-07         0.00000E+00
    0.58081E-07        -0.11085E-07         0.00000E+00
    0.61493E-07        -0.11145E-07         0.00000E+00
    0.65092E-07        -0.10820E-07         0.00000E+00
    0.68810E-07        -0.10188E-07         0.00000E+00
    0.72595E-07        -0.93145E-08         0.00000E+00
    0.76403E-07        -0.82576E-08         0.00000E+00
    0.80202E-07        -0.70706E-08         0.00000E+00
    0.83965E-07        -0.58009E-08         0.00000E+00
    0.87670E-07        -0.44901E-08         0.00000E+00
    0.91304E-07        -0.31736E-08         0.00000E+00
    0.94854E-07        -0.18815E-08         0.00000E+00
    0.98312E-07        -0.63828E-09         0.00000E+00
    0.10167E-06         0.53618E-09         0.00000E+00
    0.10494E-06         0.16265E-08         0.00000E+00
    0.10810E-06         0.26211E-08         0.00000E+00
    0.11117E-06         0.35119E-08         0.00000E+00
    0.11415E-06         0.42934E-08         0.00000E+00
    0.11703E-06         0.49628E-08         0.00000E+00
    0.11983E-06         0.55192E-08         0.00000E+00
    0.12256E-06         0.59635E-08         0.00000E+00
    0.12520E-06         0.62981E-08         0.00000E+00
    0.12779E-06         0.65265E-08         0.00000E+00
    0.13031E-06         0.66533E-08         0.00000E+00
    0.13279E-06         0.66841E-08         0.00000E+00
    0.13521E-06         0.66253E-08         0.00000E+00
    0.13760E-06         0.64843E-08         0.00000E+00
    0.13996E-06         0.62691E-08         0.00000E+00
    0.14230E-06         0.59889E-08         0.00000E+00
    0.14461E-06         0.56533E-08         0.00000E+00
    0.14690E-06         0.52732E-08         0.00000E+00
    0.14919E-06         0.48599E-08         0.00000E+00
    0.15146E-06         0.44256E-08         0.00000E+00
    0.15373E-06         0.39827E-08         0.00000E+00
    0.15599E-06         0.35439E-08         0.00000E+00
    0.15823E-06         0.31210E-08         0.00000E+00
    0.16046E-06         0.27250E-08         0.00000E+00
    0.16266E-06         0.23644E-08         0.00000E+00
    0.16483E-06         0.20448E-08         0.00000E+00
    0.16694E-06         0.17675E-08         0.00000E+00
    0.16897E-06         0.15283E-08         0.00000E+00
    0.17088E-06         0.13177E-08         0.00000E+00
    0.17263E-06         0.11201E-08         0.00000E+00
    0.17417E-06         0.91542E-09         0.00000E+00
    0.17540E-06         0.68051E-09         0.00000E+00
    0.17625E-06         0.38808E-09         0.00000E+00
    0.17657E-06         0.22372E-09         0.00000E+00
   -0.31122E-08        -0.36980E-08         0.00000E+00
   -0.29970E-08        -0.68220E-08         0.00000E+00
   -0.26284E-08        -0.12361E-07         0.00000E+00
   -0.19935E-08        -0.16587E-07         0.00000E+00
   -0.10965E-08        -0.19694E-07         0.00000E+00
    0.47358E-10        -0.21853E-07         0.00000E+00
    0.14148E-08        -0.23215E-07         0.00000E+00
    0.29791E-08        -0.23913E-07         0.00000E+00
    0.47134E-08        -0.24068E-07         0.00000E+00
    0.65928E-08        -0.23783E-07         0.00000E+00
    0.85944E-08        -0.23151E-07         0.00000E+00
    0.10697E-07        -0.22248E-07         0.00000E+00
    0.12882E-07        -0.21144E-07         0.00000E+00
    0.15131E-07        -0.19898E-07         0.00000E+00
    0.17428E-07        -0.18562E-07         0.00000E+00
    0.19760E-07        -0.17181E-07         0.00000E+00
    0.22114E-07        -0.15792E-07         0.00000E+00
    0.24479E-07        -0.14428E-07         0.00000E+00
    0.26845E-07        -0.13114E-07         0.00000E+00
    0.29205E-07        -0.11871E-07         0.00000E+00
    0.31551E-07        -0.10716E-07         0.00000E+00
    0.33878E-07        -0.96609E-08         0.00000E+00
    0.36181E-07        -0.87158E-08         0.00000E+00
    0.38458E-07        -0.78866E-08         0.00000E+00
    0.40706E-07        -0.71768E-08         0.00000E+00
    0.42922E-07        -0.65877E-08         0.00000E+00
    0.45107E-07        -0.61186E-08         0.00000E+00
    0.47258E-07        -0.57667E-08         0.00000E+00
    0.49377E-07        -0.55279E-08         0.00000E+00
    0.51462E-07        -0.53961E-08         0.00000E+00
    0.53515E-07        -0.53640E-08         0.00000E+00
    0.55536E-07        -0.54225E-08         0.00000E+00
    0.57525E-07        -0.55612E-08         0.00000E+00
    0.59482E-07        -0.57678E-08         0.00000E+00
    0.61407E-07        -0.60286E-08         0.00000E+00
    0.63299E-07        -0.63281E-08         0.00000E+00
    0.65157E-07        -0.66490E-08         0.00000E+00
    0.66980E-07        -0.69724E-08         0.00000E+00
    0.68765E-07        -0.72775E-08         0.00000E+00
    0.70507E-07        -0.75419E-08         0.00000E+00
    0.72202E-07        -0.77416E-08         0.00000E+00
    0.73842E-07        -0.78513E-08         0.00000E+00
    0.75416E-07        -0.78441E-08         0.00000E+00
    0.76913E-07        -0.76922E-08         0.00000E+00
    0.78316E-07        -0.73665E-08         0.00000E+00
    0.79603E-07        -0.68367E-08         0.00000E+00
    0.80748E-07        -0.60717E-08         0.00000E+00
    0.81718E-07        -0.50392E-08         0.00000E+00
    0.82476E-07        -0.37060E-08         0.00000E+00
    0.82974E-07        -0.20368E-08         0.00000E+00
    0.83160E-07        -0.11137E-08         0.00000E+00
   -0.11843E-07        -0.35165E-08         0.00000E+00
   -0.11918E-07        -0.66270E-08         0.00000E+00
   -0.12082E-07        -0.12319E-07         0.00000E+00
   -0.12264E-07        -0.16993E-07         0.00000E+00
   -0.12414E-07        -0.20736E-07         0.00000E+00
   -0.12495E-07        -0.23642E-07         0.00000E+00
   -0.12481E-07        -0.25804E-07         0.00000E+00
   -0.12355E-07        -0.27313E-07         0.00000E+00
   -0.12108E-07        -0.28257E-07         0.00000E+00
   -0.11737E-07        -0.28720E-07         0.00000E+00
   -0.11242E-07        -0.28780E-07         0.00000E+00
   -0.10629E-07        -0.28508E-07         0.00000E+00
   -0.99011E-08        -0.27969E-07         0.00000E+00
   -0.90677E-08        -0.27223E-07         0.00000E+00
   -0.81370E-08        -0.26322E-07         0.00000E+00
   -0.71183E-08        -0.25311E-07         0.00000E+00
   -0.60215E-08        -0.24232E-07         0.00000E+00
   -0.48562E-08        -0.23118E-07         0.00000E+00
   -0.36324E-08        -0.22002E-07         0.00000E+00
   -0.23594E-08        -0.20906E-07         0.00000E+00
   -0.10465E-08        -0.19853E-07         0.00000E+00
    0.29764E-09        -0.18860E-07         0.00000E+00
    0.16648E-08        -0.17940E-07         0.00000E+00
    0.30473E-08        -0.17103E-07         0.00000E+00
    0.44380E-08        -0.16357E-07         0.00000E+00
    0.58302E-08        -0.15706E-07         0.00000E+00
    0.72177E-08        -0.15153E-07         0.00000E+00
    0.85950E-08        -0.14697E-07         0.00000E+00
    0.99567E-08        -0.14337E-07         0.00000E+00
    0.11298E-07        -0.14068E-07         0.00000E+00
    0.12614E-07        -0.13885E-07         0.00000E+00
    0.13901E-07        -0.13778E-07         0.00000E+00
    0.15155E-07        -0.13739E-07         0.00000E+00
    0.16372E-07        -0.13755E-07         0.00000E+00
    0.17548E-07        -0.13812E-07         0.00000E+00
    0.18681E-07        -0.13894E-07         0.00000E+00
    0.19766E-07        -0.13982E-07         0.00000E+00
    0.20800E-07        -0.14056E-07         0.00000E+00
    0.21781E-07        -0.14092E-07         0.00000E+00
    0.22706E-07        -0.14065E-07         0.00000E+00
    0.23570E-07        -0.13947E-07         0.00000E+00
    0.24371E-07        -0.13707E-07         0.00000E+00
    0.25106E-07        -0.13313E-07         0.00000E+00
    0.25771E-07        -0.12729E-07         0.00000E+00
    0.26362E-07        -0.11918E-07         0.00000E+00
    0.26875E-07        -0.10842E-07         0.00000E+00
    0.27305E-07        -0.94577E-08         0.00000E+00
    0.27649E-07        -0.77242E-08         0.00000E+00
    0.27900E-07        -0.55975E-08         0.00000E+00
    0.28054E-07        -0.30327E-08         0.00000E+00
    0.28106E-07        -0.16351E-08         0.00000E+00
   -0.79587E-08        -0.29490E-08         0.00000E+00
   -0.80702E-08        -0.56305E-08         0.00000E+00
   -0.83599E-08        -0.10632E-07         0.00000E+00
   -0.87724E-08        -0.14924E-07         0.00000E+00
   -0.92597E-08        -0.18540E-07         0.00000E+00
   -0.97810E-08        -0.21522E-07         0.00000E+00
   -0.10303E-07        -0.23917E-07         0.00000E+00
   -0.10799E-07        -0.25777E-07         0.00000E+00
   -0.11247E-07        -0.27156E-07         0.00000E+00
   -0.11633E-07        -0.28110E-07         0.00000E+00
   -0.11944E-07        -0.28692E-07         0.00000E+00
   -0.12173E-07        -0.28955E-07         0.00000E+00
   -0.12316E-07        -0.28948E-07         0.00000E+00
   -0.12373E-07        -0.28718E-07         0.00000E+00
   -0.12342E-07        -0.28309E-07         0.00000E+00
   -0.12229E-07        -0.27759E-07         0.00000E+00
   -0.12035E-07        -0.27103E-07         0.00000E+00
   -0.11768E-07        -0.26374E-07         0.00000E+00
   -0.11433E-07        -0.25598E-07         0.00000E+00
   -0.11036E-07        -0.24800E-07         0.00000E+00
   -0.10586E-07        -0.24001E-07         0.00000E+00
   -0.10089E-07        -0.23217E-07         0.00000E+00
   -0.95536E-08        -0.22464E-07         0.00000E+00
   -0.89869E-08        -0.21752E-07         0.00000E+00
   -0.83967E-08        -0.21091E-07         0.00000E+00
   -0.77905E-08        -0.20487E-07         0.00000E+00
   -0.71753E-08        -0.19943E-07         0.00000E+00
   -0.65584E-08        -0.19462E-07         0.00000E+00
   -0.59463E-08        -0.19043E-07         0.00000E+00
   -0.53456E-08        -0.18684E-07         0.00000E+00
   -0.47623E-08        -0.18381E-07         0.00000E+00
   -0.42021E-08        -0.18127E-07         0.00000E+00
   -0.36702E-08        -0.17915E-07         0.00000E+00
   -0.31716E-08        -0.17734E-07         0.00000E+00
   -0.27107E-08        -0.17572E-07         0.00000E+00
   -0.22911E-08        -0.17415E-07         0.00000E+00
   -0.19162E-08        -0.17247E-07         0.00000E+00
   -0.15884E-08        -0.17050E-07         0.00000E+00
   -0.13096E-08        -0.16804E-07         0.00000E+00
   -0.10806E-08        -0.16485E-07         0.00000E+00
   -0.90153E-09        -0.16070E-07         0.00000E+00
   -0.77117E-09        -0.15532E-07         0.00000E+00
   -0.68733E-09        -0.14842E-07         0.00000E+00
   -0.64645E-09        -0.13971E-07         0.00000E+00
   -0.64357E-09        -0.12886E-07         0.00000E+00
   -0.67215E-09        -0.11553E-07         0.00000E+00
   -0.72398E-09        -0.99403E-08         0.00000E+00
   -0.78901E-09        -0.80116E-08         0.00000E+00
   -0.85521E-09        -0.57327E-08         0.00000E+00
   -0.90839E-09        -0.30693E-08         0.00000E+00
   -0.93202E-09        -0.16372E-08         0.00000E+00
   -0.25269E-08        -0.24020E-08         0.00000E+00
   -0.26264E-08        -0.46211E-08         0.00000E+00
   -0.28979E-08        -0.88075E-08         0.00000E+00
   -0.33061E-08        -0.12494E-07         0.00000E+00
   -0.38183E-08        -0.15694E-07         0.00000E+00
   -0.44045E-08        -0.18425E-07         0.00000E+00
   -0.50379E-08        -0.20715E-07         0.00000E+00
   -0.56952E-08        -0.22591E-07         0.00000E+00
   -0.63561E-08        -0.24087E-07         0.00000E+00
   -0.70039E-08        -0.25237E-07         0.00000E+00
   -0.76249E-08        -0.26078E-07         0.00000E+00
   -0.82082E-08        -0.26644E-07         0.00000E+00
   -0.87458E-08        -0.26972E-07         0.00000E+00
   -0.92319E-08        -0.27093E-07         0.00000E+00
   -0.96629E-08        -0.27042E-07         0.00000E+00
   -0.10037E-07        -0.26846E-07         0.00000E+00
   -0.10354E-07        -0.26535E-07         0.00000E+00
   -0.10616E-07        -0.26132E-07         0.00000E+00
   -0.10824E-07        -0.25660E-07         0.00000E+00
   -0.10983E-07        -0.25140E-07         0.00000E+00
   -0.11096E-07        -0.24589E-07         0.00000E+00
   -0.11168E-07        -0.24022E-07         0.00000E+00
   -0.11205E-07        -0.23451E-07         0.00000E+00
   -0.11212E-07        -0.22887E-07         0.00000E+00
   -0.11194E-07        -0.22339E-07         0.00000E+00
   -0.11158E-07        -0.21813E-07         0.00000E+00
   -0.11111E-07        -0.21313E-07         0.00000E+00
   -0.11056E-07        -0.20842E-07         0.00000E+00
   -0.11002E-07        -0.20401E-07         0.00000E+00
   -0.10952E-07        -0.19988E-07         0.00000E+00
   -0.10913E-07        -0.19602E-07         0.00000E+00
   -0.10888E-07        -0.19239E-07         0.00000E+00
   -0.10884E-07        -0.18891E-07         0.00000E+00
   -0.10904E-07        -0.18553E-07         0.00000E+00
   -0.10951E-07        -0.18215E-07         0.00000E+00
   -0.11028E-07        -0.17866E-07         0.00000E+00
   -0.11137E-07        -0.17495E-07         0.00000E+00
   -0.11279E-07        -0.17088E-07         0.00000E+00
   -0.11455E-07        -0.16631E-07         0.00000E+00
   -0.11663E-07        -0.16105E-07         0.00000E+00
   -0.11901E-07        -0.15494E-07         0.00000E+00
   -0.12165E-07        -0.14778E-07         0.00000E+00
   -0.12451E-07        -0.13936E-07         0.00000E+00
   -0.12751E-07        -0.12948E-07         0.00000E+00
   -0.13057E-07        -0.11790E-07         0.00000E+00
   -0.13359E-07        -0.10440E-07         0.00000E+00
   -0.13644E-07        -0.88734E-08         0.00000E+00
   -0.13898E-07        -0.70681E-08         0.00000E+00
   -0.14105E-07        -0.50007E-08         0.00000E+00
   -0.14246E-07        -0.26487E-08         0.00000E+00
   -0.14300E-07        -0.13988E-08         0.00000E+00
    0.16917E-08        -0.19546E-08         0.00000E+00
    0.16107E-08        -0.37757E-08         0.00000E+00
    0.13837E-08        -0.72328E-08         0.00000E+00
    0.10330E-08        -0.10322E-07         0.00000E+00
    0.58000E-09        -0.13048E-07         0.00000E+00
    0.45164E-10        -0.15424E-07         0.00000E+00
   -0.55236E-09        -0.17464E-07         0.00000E+00
   -0.11950E-08        -0.19186E-07         0.00000E+00
   -0.18670E-08        -0.20613E-07         0.00000E+00
   -0.25543E-08        -0.21766E-07         0.00000E+00
   -0.32449E-08        -0.22670E-07         0.00000E+00
   -0.39284E-08        -0.23350E-07         0.00000E+00
   -0.45966E-08        -0.23829E-07         0.00000E+00
   -0.52427E-08        -0.24133E-07         0.00000E+00
   -0.58615E-08        -0.24283E-07         0.00000E+00
   -0.64495E-08        -0.24301E-07         0.00000E+00
   -0.70044E-08        -0.24209E-07         0.00000E+00
   -0.75252E-08        -0.24023E-07         0.00000E+00
   -0.80117E-08        -0.23763E-07         0.00000E+00
   -0.84649E-08        -0.23442E-07         0.00000E+00
   -0.88866E-08        -0.23075E-07         0.00000E+00
   -0.92790E-08        -0.22673E-07         0.00000E+00
   -0.96450E-08        -0.22248E-07         0.00000E+00
   -0.99879E-08        -0.21806E-07         0.00000E+00
   -0.10311E-07        -0.21357E-07         0.00000E+00
   -0.10619E-07        -0.20905E-07         0.00000E+00
   -0.10916E-07        -0.20454E-07         0.00000E+00
   -0.11205E-07        -0.20007E-07         0.00000E+00
   -0.11490E-07        -0.19565E-07         0.00000E+00
   -0.11775E-07        -0.19129E-07         0.00000E+00
   -0.12065E-07        -0.18698E-07         0.00000E+00
   -0.12362E-07        -0.18268E-07         0.00000E+00
   -0.12670E-07        -0.17837E-07         0.00000E+00
   -0.12990E-07        -0.17400E-07         0.00000E+00
   -0.13326E-07        -0.16952E-07         0.00000E+00
   -0.13678E-07        -0.16484E-07         0.00000E+00
   -0.14047E-07        -0.15990E-07         0.00000E+00
   -0.14434E-07        -0.15461E-07         0.00000E+00
   -0.14836E-07        -0.14887E-07         0.00000E+00
   -0.15253E-07        -0.14257E-07         0.00000E+00
   -0.15680E-07        -0.13560E-07         0.00000E+00
   -0.16114E-07        -0.12783E-07         0.00000E+00
   -0.16549E-07        -0.11914E-07         0.00000E+00
   -0.16978E-07        -0.10940E-07         0.00000E+00
   -0.17392E-07        -0.98456E-08         0.00000E+00
   -0.17781E-07        -0.86182E-08         0.00000E+00
   -0.18133E-07        -0.72432E-08         0.00000E+00
   -0.18436E-07        -0.57066E-08         0.00000E+00
   -0.18674E-07        -0.39950E-08         0.00000E+00
   -0.18832E-07        -0.20949E-08         0.00000E+00
   -0.18890E-07        -0.10962E-08         0.00000E+00
    0.44946E-08        -0.15917E-08         0.00000E+00
    0.44282E-08        -0.30814E-08         0.00000E+00
    0.42396E-08        -0.59192E-08         0.00000E+00
    0.39438E-08        -0.84755E-08         0.00000E+00
    0.35559E-08        -0.10754E-07         0.00000E+00
    0.30903E-08        -0.12764E-07         0.00000E+00
    0.25607E-08        -0.14514E-07         0.00000E+00
    0.19802E-08        -0.16018E-07         0.00000E+00
    0.13609E-08        -0.17291E-07         0.00000E+00
    0.71352E-09        -0.18348E-07         0.00000E+00
    0.47943E-10        -0.19207E-07         0.00000E+00
   -0.62728E-09        -0.19886E-07         0.00000E+00
   -0.13048E-08        -0.20400E-07         0.00000E+00
   -0.19783E-08        -0.20769E-07         0.00000E+00
   -0.26429E-08        -0.21007E-07         0.00000E+00
   -0.32943E-08        -0.21132E-07         0.00000E+00
   -0.39298E-08        -0.21156E-07         0.00000E+00
   -0.45470E-08        -0.21095E-07         0.00000E+00
   -0.51448E-08        -0.20961E-07         0.00000E+00
   -0.57227E-08        -0.20766E-07         0.00000E+00
   -0.62806E-08        -0.20519E-07         0.00000E+00
   -0.68194E-08        -0.20230E-07         0.00000E+00
   -0.73401E-08        -0.19906E-07         0.00000E+00
   -0.78443E-08        -0.19555E-07         0.00000E+00
   -0.83338E-08        -0.19182E-07         0.00000E+00
   -0.88107E-08        -0.18791E-07         0.00000E+00
   -0.92772E-08        -0.18387E-07         0.00000E+00
   -0.97357E-08        -0.17971E-07         0.00000E+00
   -0.10188E-07        -0.17546E-07         0.00000E+00
   -0.10638E-07        -0.17112E-07         0.00000E+00
   -0.11085E-07        -0.16669E-07         0.00000E+00
   -0.11534E-07        -0.16216E-07         0.00000E+00
   -0.11984E-07        -0.15751E-07         0.00000E+00
   -0.12438E-07        -0.15272E-07         0.00000E+00
   -0.12897E-07        -0.14776E-07         0.00000E+00
   -0.13360E-07        -0.14259E-07         0.00000E+00
   -0.13827E-07        -0.13716E-07         0.00000E+00
   -0.14299E-07        -0.13144E-07         0.00000E+00
   -0.14772E-07        -0.12535E-07         0.00000E+00
   -0.15246E-07        -0.11885E-07         0.00000E+00
   -0.15716E-07        -0.11187E-07         0.00000E+00
   -0.16180E-07        -0.10434E-07         0.00000E+00
   -0.16631E-07        -0.96190E-08         0.00000E+00
   -0.17064E-07        -0.87354E-08         0.00000E+00
   -0.17473E-07        -0.77754E-08         0.00000E+00
   -0.17848E-07        -0.67316E-08         0.00000E+00
   -0.18181E-07        -0.55965E-08         0.00000E+00
   -0.18461E-07        -0.43627E-08         0.00000E+00
   -0.18678E-07        -0.30227E-08         0.00000E+00
   -0.18819E-07        -0.15696E-08         0.00000E+00
   -0.18870E-07        -0.81384E-09         0.00000E+00
    0.61922E-08        -0.12898E-08         0.00000E+00
    0.61365E-08        -0.25002E-08         0.00000E+00
    0.59773E-08        -0.48112E-08         0.00000E+00
    0.57260E-08        -0.69035E-08         0.00000E+00
    0.53937E-08        -0.87805E-08         0.00000E+00
    0.49914E-08        -0.10448E-07         0.00000E+00
    0.45295E-08        -0.11914E-07         0.00000E+00
    0.40180E-08        -0.13187E-07         0.00000E+00
    0.34661E-08        -0.14279E-07         0.00000E+00
    0.28826E-08        -0.15201E-07         0.00000E+00
    0.22751E-08        -0.15966E-07         0.00000E+00
    0.16507E-08        -0.16586E-07         0.00000E+00
    0.10155E-08        -0.17074E-07         0.00000E+00
    0.37488E-09        -0.17442E-07         0.00000E+00
   -0.26659E-09        -0.17703E-07         0.00000E+00
   -0.90511E-09        -0.17867E-07         0.00000E+00
   -0.15376E-08        -0.17945E-07         0.00000E+00
   -0.21617E-08        -0.17948E-07         0.00000E+00
   -0.27755E-08        -0.17884E-07         0.00000E+00
   -0.33778E-08        -0.17763E-07         0.00000E+00
   -0.39680E-08        -0.17591E-07         0.00000E+00
   -0.45455E-08        -0.17376E-07         0.00000E+00
   -0.51107E-08        -0.17123E-07         0.00000E+00
   -0.56637E-08        -0.16838E-07         0.00000E+00
   -0.62052E-08        -0.16525E-07         0.00000E+00
   -0.67361E-08        -0.16187E-07         0.00000E+00
   -0.72572E-08        -0.15828E-07         0.00000E+00
   -0.77698E-08        -0.15451E-07         0.00000E+00
   -0.82747E-08        -0.15055E-07         0.00000E+00
   -0.87730E-08        -0.14644E-07         0.00000E+00
   -0.92658E-08        -0.14217E-07         0.00000E+00
   -0.97537E-08        -0.13774E-07         0.00000E+00
   -0.10238E-07        -0.13315E-07         0.00000E+00
   -0.10718E-07        -0.12839E-07         0.00000E+00
   -0.11194E-07        -0.12345E-07         0.00000E+00
   -0.11667E-07        -0.11831E-07         0.00000E+00
   -0.12135E-07        -0.11296E-07         0.00000E+00
   -0.12598E-07        -0.10736E-07         0.00000E+00
   -0.13054E-07        -0.10151E-07         0.00000E+00
   -0.13501E-07        -0.95361E-08         0.00000E+00
   -0.13937E-07        -0.88899E-08         0.00000E+00
   -0.14357E-07        -0.82090E-08         0.00000E+00
   -0.14760E-07        -0.74905E-08         0.00000E+00
   -0.15139E-07        -0.67312E-08         0.00000E+00
   -0.15491E-07        -0.59278E-08         0.00000E+00
   -0.15809E-07        -0.50772E-08         0.00000E+00
   -0.16087E-07        -0.41760E-08         0.00000E+00
   -0.16318E-07        -0.32208E-08         0.00000E+00
   -0.16494E-07        -0.22084E-08         0.00000E+00
   -0.16606E-07        -0.11353E-08         0.00000E+00
   -0.16647E-07        -0.58315E-09         0.00000E+00
    0.70895E-08        -0.10342E-08         0.00000E+00
    0.70423E-08        -0.20069E-08         0.00000E+00
    0.69070E-08        -0.38670E-08         0.00000E+00
    0.66928E-08        -0.55576E-08         0.00000E+00
    0.64083E-08        -0.70813E-08         0.00000E+00
    0.60624E-08        -0.84424E-08         0.00000E+00
    0.56631E-08        -0.96467E-08         0.00000E+00
    0.52186E-08        -0.10701E-07         0.00000E+00
    0.47362E-08        -0.11614E-07         0.00000E+00
    0.42227E-08        -0.12393E-07         0.00000E+00
    0.36845E-08        -0.13048E-07         0.00000E+00
    0.31273E-08        -0.13588E-07         0.00000E+00
    0.25563E-08        -0.14021E-07         0.00000E+00
    0.19759E-08        -0.14359E-07         0.00000E+00
    0.13902E-08        -0.14607E-07         0.00000E+00
    0.80242E-09        -0.14776E-07         0.00000E+00
    0.21556E-09        -0.14874E-07         0.00000E+00
   -0.36803E-09        -0.14906E-07         0.00000E+00
   -0.94642E-09        -0.14881E-07         0.00000E+00
   -0.15181E-08        -0.14804E-07         0.00000E+00
   -0.20819E-08        -0.14680E-07         0.00000E+00
   -0.26369E-08        -0.14516E-07         0.00000E+00
   -0.31828E-08        -0.14316E-07         0.00000E+00
   -0.37190E-08        -0.14082E-07         0.00000E+00
   -0.42456E-08        -0.13820E-07         0.00000E+00
   -0.47625E-08        -0.13531E-07         0.00000E+00
   -0.52700E-08        -0.13219E-07         0.00000E+00
   -0.57682E-08        -0.12884E-07         0.00000E+00
   -0.62575E-08        -0.12530E-07         0.00000E+00
   -0.67380E-08        -0.12157E-07         0.00000E+00
   -0.72100E-08        -0.11765E-07         0.00000E+00
   -0.76737E-08        -0.11357E-07         0.00000E+00
   -0.81292E-08        -0.10931E-07         0.00000E+00
   -0.85762E-08        -0.10489E-07         0.00000E+00
   -0.90146E-08        -0.10030E-07         0.00000E+00
   -0.94439E-08        -0.95540E-08         0.00000E+00
   -0.98634E-08        -0.90607E-08         0.00000E+00
   -0.10272E-07        -0.85497E-08         0.00000E+00
   -0.10669E-07        -0.80204E-08         0.00000E+00
   -0.11052E-07        -0.74722E-08         0.00000E+00
   -0.11419E-07        -0.69046E-08         0.00000E+00
   -0.11769E-07        -0.63170E-08         0.00000E+00
   -0.12099E-07        -0.57085E-08         0.00000E+00
   -0.12406E-07        -0.50787E-08         0.00000E+00
   -0.12686E-07        -0.44267E-08         0.00000E+00
   -0.12935E-07        -0.37518E-08         0.00000E+00
   -0.13151E-07        -0.30531E-08         0.00000E+00
   -0.13327E-07        -0.23297E-08         0.00000E+00
   -0.13460E-07        -0.15804E-08         0.00000E+00
   -0.13544E-07        -0.80405E-09         0.00000E+00
   -0.13574E-07        -0.40893E-09         0.00000E+00
    0.74158E-08        -0.81751E-09         0.00000E+00
    0.73760E-08        -0.15880E-08         0.00000E+00
    0.72617E-08        -0.30639E-08         0.00000E+00
    0.70804E-08        -0.44101E-08         0.00000E+00
    0.68391E-08        -0.56284E-08         0.00000E+00
    0.65448E-08        -0.67219E-08         0.00000E+00
    0.62043E-08        -0.76948E-08         0.00000E+00
    0.58240E-08        -0.85520E-08         0.00000E+00
    0.54098E-08        -0.92993E-08         0.00000E+00
    0.49673E-08        -0.99430E-08         0.00000E+00
    0.45018E-08        -0.10489E-07         0.00000E+00
    0.40178E-08        -0.10945E-07         0.00000E+00
    0.35198E-08        -0.11317E-07         0.00000E+00
    0.30114E-08        -0.11612E-07         0.00000E+00
    0.24961E-08        -0.11835E-07         0.00000E+00
    0.19768E-08        -0.11994E-07         0.00000E+00
    0.14562E-08        -0.12093E-07         0.00000E+00
    0.93634E-09        -0.12138E-07         0.00000E+00
    0.41922E-09        -0.12134E-07         0.00000E+00
   -0.93624E-10        -0.12086E-07         0.00000E+00
   -0.60089E-09        -0.11997E-07         0.00000E+00
   -0.11015E-08        -0.11871E-07         0.00000E+00
   -0.15947E-08        -0.11713E-07         0.00000E+00
   -0.20797E-08        -0.11524E-07         0.00000E+00
   -0.25561E-08        -0.11307E-07         0.00000E+00
   -0.30234E-08        -0.11065E-07         0.00000E+00
   -0.34814E-08        -0.10800E-07         0.00000E+00
   -0.39299E-08        -0.10513E-07         0.00000E+00
   -0.43686E-08        -0.10207E-07         0.00000E+00
   -0.47974E-08        -0.98810E-08         0.00000E+00
   -0.52161E-08        -0.95379E-08         0.00000E+00
   -0.56245E-08        -0.91782E-08         0.00000E+00
   -0.60224E-08        -0.88026E-08         0.00000E+00
   -0.64094E-08        -0.84118E-08         0.00000E+00
   -0.67852E-08        -0.80066E-08         0.00000E+00
   -0.71491E-08        -0.75874E-08         0.00000E+00
   -0.75006E-08        -0.71549E-08         0.00000E+00
   -0.78390E-08        -0.67095E-08         0.00000E+00
   -0.81632E-08        -0.62518E-08         0.00000E+00
   -0.84722E-08        -0.57824E-08         0.00000E+00
   -0.87648E-08        -0.53018E-08         0.00000E+00
   -0.90396E-08        -0.48107E-08         0.00000E+00
   -0.92949E-08        -0.43095E-08         0.00000E+00
   -0.95291E-08        -0.37990E-08         0.00000E+00
   -0.97401E-08        -0.32797E-08         0.00000E+00
   -0.99258E-08        -0.27522E-08         0.00000E+00
   -0.10084E-07        -0.22168E-08         0.00000E+00
   -0.10212E-07        -0.16739E-08         0.00000E+00
   -0.10307E-07        -0.11235E-08         0.00000E+00
   -0.10367E-07        -0.56561E-09         0.00000E+00
   -0.10387E-07        -0.28473E-09         0.00000E+00
    0.73423E-08        -0.63586E-09         0.00000E+00
    0.73092E-08        -0.12365E-08         0.00000E+00
    0.72141E-08        -0.23891E-08         0.00000E+00
    0.70630E-08        -0.34445E-08         0.00000E+00
    0.68616E-08        -0.44036E-08         0.00000E+00
    0.66155E-08        -0.52687E-08         0.00000E+00
    0.63303E-08        -0.60424E-08         0.00000E+00
    0.60110E-08        -0.67282E-08         0.00000E+00
    0.56625E-08        -0.73303E-08         0.00000E+00
    0.52894E-08        -0.78527E-08         0.00000E+00
    0.48959E-08        -0.83003E-08         0.00000E+00
    0.44858E-08        -0.86776E-08         0.00000E+00
    0.40627E-08        -0.89893E-08         0.00000E+00
    0.36297E-08        -0.92402E-08         0.00000E+00
    0.31898E-08        -0.94346E-08         0.00000E+00
    0.27455E-08        -0.95769E-08         0.00000E+00
    0.22990E-08        -0.96712E-08         0.00000E+00
    0.18522E-08        -0.97213E-08         0.00000E+00
    0.14071E-08        -0.97308E-08         0.00000E+00
    0.96491E-09        -0.97030E-08         0.00000E+00
    0.52709E-09        -0.96409E-08         0.00000E+00
    0.94708E-10        -0.95473E-08         0.00000E+00
   -0.33129E-09        -0.94247E-08         0.00000E+00
   -0.75008E-09        -0.92753E-08         0.00000E+00
   -0.11610E-08        -0.91013E-08         0.00000E+00
   -0.15634E-08        -0.89044E-08         0.00000E+00
   -0.19569E-08        -0.86863E-08         0.00000E+00
   -0.23408E-08        -0.84485E-08         0.00000E+00
   -0.27150E-08        -0.81923E-08         0.00000E+00
   -0.30789E-08        -0.79190E-08         0.00000E+00
   -0.34322E-08        -0.76296E-08         0.00000E+00
   -0.37746E-08        -0.73252E-08         0.00000E+00
   -0.41057E-08        -0.70067E-08         0.00000E+00
   -0.44251E-08        -0.66752E-08         0.00000E+00
   -0.47323E-08        -0.63316E-08         0.00000E+00
   -0.50270E-08        -0.59767E-08         0.00000E+00
   -0.53086E-08        -0.56115E-08         0.00000E+00
   -0.55765E-08        -0.52370E-08         0.00000E+00
   -0.58303E-08        -0.48541E-08         0.00000E+00
   -0.60691E-08        -0.44640E-08         0.00000E+00
   -0.62924E-08        -0.40677E-08         0.00000E+00
   -0.64992E-08        -0.36663E-08         0.00000E+00
   -0.66888E-08        -0.32610E-08         0.00000E+00
   -0.68603E-08        -0.28529E-08         0.00000E+00
   -0.70127E-08        -0.24431E-08         0.00000E+00
   -0.71449E-08        -0.20328E-08         0.00000E+00
   -0.72560E-08        -0.16228E-08         0.00000E+00
   -0.73446E-08        -0.12140E-08         0.00000E+00
   -0.74096E-08        -0.80700E-09         0.00000E+00
   -0.74498E-08        -0.40231E-09         0.00000E+00
   -0.74636E-08        -0.20057E-09         0.00000E+00
    0.70013E-08        -0.48636E-09         0.00000E+00
    0.69743E-08        -0.94707E-09         0.00000E+00
    0.68968E-08        -0.18328E-08         0.00000E+00
    0.67733E-08        -0.26473E-08         0.00000E+00
    0.66086E-08        -0.33911E-08         0.00000E+00
    0.64071E-08        -0.40654E-08         0.00000E+00
    0.61731E-08        -0.46719E-08         0.00000E+00
    0.59108E-08        -0.52130E-08         0.00000E+00
    0.56240E-08        -0.56913E-08         0.00000E+00
    0.53164E-08        -0.61097E-08         0.00000E+00
    0.49914E-08        -0.64713E-08         0.00000E+00
    0.46522E-08        -0.67794E-08         0.00000E+00
    0.43016E-08        -0.70370E-08         0.00000E+00
    0.39423E-08        -0.72475E-08         0.00000E+00
    0.35766E-08        -0.74140E-08         0.00000E+00
    0.32067E-08        -0.75394E-08         0.00000E+00
    0.28346E-08        -0.76267E-08         0.00000E+00
    0.24619E-08        -0.76785E-08         0.00000E+00
    0.20901E-08        -0.76975E-08         0.00000E+00
    0.17208E-08        -0.76859E-08         0.00000E+00
    0.13549E-08        -0.76459E-08         0.00000E+00
    0.99368E-09        -0.75796E-08         0.00000E+00
    0.63800E-09        -0.74888E-08         0.00000E+00
    0.28871E-09        -0.73753E-08         0.00000E+00
   -0.53466E-10        -0.72405E-08         0.00000E+00
   -0.38786E-09        -0.70859E-08         0.00000E+00
   -0.71389E-09        -0.69129E-08         0.00000E+00
   -0.10310E-08        -0.67226E-08         0.00000E+00
   -0.13388E-08        -0.65162E-08         0.00000E+00
   -0.16367E-08        -0.62948E-08         0.00000E+00
   -0.19243E-08        -0.60594E-08         0.00000E+00
   -0.22013E-08        -0.58109E-08         0.00000E+00
   -0.24673E-08        -0.55504E-08         0.00000E+00
   -0.27219E-08        -0.52788E-08         0.00000E+00
   -0.29646E-08        -0.49970E-08         0.00000E+00
   -0.31953E-08        -0.47061E-08         0.00000E+00
   -0.34135E-08        -0.44071E-08         0.00000E+00
   -0.36188E-08        -0.41010E-08         0.00000E+00
   -0.38110E-08        -0.37889E-08         0.00000E+00
   -0.39896E-08        -0.34720E-08         0.00000E+00
   -0.41544E-08        -0.31514E-08         0.00000E+00
   -0.43050E-08        -0.28283E-08         0.00000E+00
   -0.44410E-08        -0.25040E-08         0.00000E+00
   -0.45622E-08        -0.21797E-08         0.00000E+00
   -0.46682E-08        -0.18566E-08         0.00000E+00
   -0.47587E-08        -0.15358E-08         0.00000E+00
   -0.48335E-08        -0.12185E-08         0.00000E+00
   -0.48923E-08        -0.90558E-09         0.00000E+00
   -0.49346E-08        -0.59784E-09         0.00000E+00
   -0.49603E-08        -0.29590E-09         0.00000E+00
   -0.49690E-08        -0.14645E-09         0.00000E+00
    0.64960E-08        -0.36604E-09         0.00000E+00
    0.64745E-08        -0.71390E-09         0.00000E+00
    0.64127E-08        -0.13842E-08         0.00000E+00
    0.63141E-08        -0.20037E-08         0.00000E+00
    0.61824E-08        -0.25725E-08         0.00000E+00
    0.60211E-08        -0.30911E-08         0.00000E+00
    0.58335E-08        -0.35607E-08         0.00000E+00
    0.56229E-08        -0.39826E-08         0.00000E+00
    0.53923E-08        -0.43584E-08         0.00000E+00
    0.51445E-08        -0.46899E-08         0.00000E+00
    0.48824E-08        -0.49793E-08         0.00000E+00
    0.46084E-08        -0.52285E-08         0.00000E+00
    0.43248E-08        -0.54398E-08         0.00000E+00
    0.40338E-08        -0.56152E-08         0.00000E+00
    0.37373E-08        -0.57568E-08         0.00000E+00
    0.34371E-08        -0.58667E-08         0.00000E+00
    0.31348E-08        -0.59469E-08         0.00000E+00
    0.28319E-08        -0.59991E-08         0.00000E+00
    0.25296E-08        -0.60252E-08         0.00000E+00
    0.22292E-08        -0.60268E-08         0.00000E+00
    0.19318E-08        -0.60055E-08         0.00000E+00
    0.16382E-08        -0.59627E-08         0.00000E+00
    0.13494E-08        -0.58998E-08         0.00000E+00
    0.10661E-08        -0.58180E-08         0.00000E+00
    0.78914E-09        -0.57185E-08         0.00000E+00
    0.51906E-09        -0.56023E-08         0.00000E+00
    0.25645E-09        -0.54705E-08         0.00000E+00
    0.18673E-11        -0.53241E-08         0.00000E+00
   -0.24421E-09        -0.51641E-08         0.00000E+00
   -0.48135E-09        -0.49911E-08         0.00000E+00
   -0.70912E-09        -0.48063E-08         0.00000E+00
   -0.92715E-09        -0.46103E-08         0.00000E+00
   -0.11351E-08        -0.44041E-08         0.00000E+00
   -0.13326E-08        -0.41885E-08         0.00000E+00
   -0.15195E-08        -0.39643E-08         0.00000E+00
   -0.16954E-08        -0.37324E-08         0.00000E+00
   -0.18600E-08        -0.34938E-08         0.00000E+00
   -0.20134E-08        -0.32494E-08         0.00000E+00
   -0.21551E-08        -0.30001E-08         0.00000E+00
   -0.22852E-08        -0.27470E-08         0.00000E+00
   -0.24035E-08        -0.24911E-08         0.00000E+00
   -0.25100E-08        -0.22334E-08         0.00000E+00
   -0.26046E-08        -0.19750E-08         0.00000E+00
   -0.26875E-08        -0.17169E-08         0.00000E+00
   -0.27587E-08        -0.14603E-08         0.00000E+00
   -0.28184E-08        -0.12060E-08         0.00000E+00
   -0.28667E-08        -0.95514E-09         0.00000E+00
   -0.29038E-08        -0.70843E-09         0.00000E+00
   -0.29299E-08        -0.46665E-09         0.00000E+00
   -0.29454E-08        -0.23041E-09         0.00000E+00
   -0.29505E-08        -0.11375E-09         0.00000E+00
    0.59057E-08        -0.27153E-09         0.00000E+00
    0.58890E-08        -0.53055E-09         0.00000E+00
    0.58409E-08        -0.10310E-08         0.00000E+00
    0.57641E-08        -0.14963E-08         0.00000E+00
    0.56614E-08        -0.19261E-08         0.00000E+00
    0.55353E-08        -0.23208E-08         0.00000E+00
    0.53884E-08        -0.26807E-08         0.00000E+00
    0.52232E-08        -0.30067E-08         0.00000E+00
    0.50421E-08        -0.32996E-08         0.00000E+00
    0.48473E-08        -0.35605E-08         0.00000E+00
    0.46408E-08        -0.37907E-08         0.00000E+00
    0.44246E-08        -0.39915E-08         0.00000E+00
    0.42006E-08        -0.41641E-08         0.00000E+00
    0.39705E-08        -0.43100E-08         0.00000E+00
    0.37358E-08        -0.44305E-08         0.00000E+00
    0.34979E-08        -0.45269E-08         0.00000E+00
    0.32581E-08        -0.46004E-08         0.00000E+00
    0.30177E-08        -0.46525E-08         0.00000E+00
    0.27778E-08        -0.46841E-08         0.00000E+00
    0.25393E-08        -0.46965E-08         0.00000E+00
    0.23033E-08        -0.46907E-08         0.00000E+00
    0.20704E-08        -0.46677E-08         0.00000E+00
    0.18415E-08        -0.46286E-08         0.00000E+00
    0.16173E-08        -0.45741E-08         0.00000E+00
    0.13984E-08        -0.45051E-08         0.00000E+00
    0.11855E-08        -0.44225E-08         0.00000E+00
    0.97894E-09        -0.43270E-08         0.00000E+00
    0.77933E-09        -0.42193E-08         0.00000E+00
    0.58709E-09        -0.41002E-08         0.00000E+00
    0.40264E-09        -0.39703E-08         0.00000E+00
    0.22633E-09        -0.38304E-08         0.00000E+00
    0.58509E-10        -0.36810E-08         0.00000E+00
   -0.10054E-09        -0.35230E-08         0.00000E+00
   -0.25055E-09        -0.33569E-08         0.00000E+00
   -0.39129E-09        -0.31834E-08         0.00000E+00
   -0.52261E-09        -0.30032E-08         0.00000E+00
   -0.64434E-09        -0.28171E-08         0.00000E+00
   -0.75640E-09        -0.26257E-08         0.00000E+00
   -0.85874E-09        -0.24298E-08         0.00000E+00
   -0.95138E-09        -0.22301E-08         0.00000E+00
   -0.10344E-08        -0.20274E-08         0.00000E+00
   -0.11078E-08        -0.18225E-08         0.00000E+00
   -0.11720E-08        -0.16162E-08         0.00000E+00
   -0.12270E-08        -0.14092E-08         0.00000E+00
   -0.12732E-08        -0.12023E-08         0.00000E+00
   -0.13109E-08        -0.99618E-09         0.00000E+00
   -0.13407E-08        -0.79159E-09         0.00000E+00
   -0.13629E-08        -0.58916E-09         0.00000E+00
   -0.13780E-08        -0.38945E-09         0.00000E+00
   -0.13866E-08        -0.19296E-09         0.00000E+00
   -0.13893E-08        -0.95578E-10         0.00000E+00
    0.52889E-08        -0.19915E-09         0.00000E+00
    0.52763E-08        -0.38997E-09         0.00000E+00
    0.52398E-08        -0.75987E-09         0.00000E+00
    0.51815E-08        -0.11061E-08         0.00000E+00
    0.51033E-08        -0.14283E-08         0.00000E+00
    0.50072E-08        -0.17264E-08         0.00000E+00
    0.48950E-08        -0.20006E-08         0.00000E+00
    0.47686E-08        -0.22511E-08         0.00000E+00
    0.46297E-08        -0.24785E-08         0.00000E+00
    0.44801E-08        -0.26833E-08         0.00000E+00
    0.43213E-08        -0.28662E-08         0.00000E+00
    0.41547E-08        -0.30278E-08         0.00000E+00
    0.39819E-08        -0.31691E-08         0.00000E+00
    0.38041E-08        -0.32907E-08         0.00000E+00
    0.36225E-08        -0.33936E-08         0.00000E+00
    0.34382E-08        -0.34785E-08         0.00000E+00
    0.32524E-08        -0.35462E-08         0.00000E+00
    0.30660E-08        -0.35975E-08         0.00000E+00
    0.28798E-08        -0.36333E-08         0.00000E+00
    0.26947E-08        -0.36541E-08         0.00000E+00
    0.25115E-08        -0.36608E-08         0.00000E+00
    0.23308E-08        -0.36541E-08         0.00000E+00
    0.21533E-08        -0.36345E-08         0.00000E+00
    0.19797E-08        -0.36026E-08         0.00000E+00
    0.18104E-08        -0.35592E-08         0.00000E+00
    0.16460E-08        -0.35048E-08         0.00000E+00
    0.14869E-08        -0.34398E-08         0.00000E+00
    0.13335E-08        -0.33649E-08         0.00000E+00
    0.11863E-08        -0.32806E-08         0.00000E+00
    0.10456E-08        -0.31873E-08         0.00000E+00
    0.91169E-09        -0.30856E-08         0.00000E+00
    0.78488E-09        -0.29760E-08         0.00000E+00
    0.66541E-09        -0.28588E-08         0.00000E+00
    0.55348E-09        -0.27347E-08         0.00000E+00
    0.44925E-09        -0.26040E-08         0.00000E+00
    0.35285E-09        -0.24672E-08         0.00000E+00
    0.26435E-09        -0.23249E-08         0.00000E+00
    0.18378E-09        -0.21774E-08         0.00000E+00
    0.11111E-09        -0.20252E-08         0.00000E+00
    0.46268E-10        -0.18689E-08         0.00000E+00
   -0.10887E-10        -0.17088E-08         0.00000E+00
   -0.60554E-10        -0.15455E-08         0.00000E+00
   -0.10299E-09        -0.13793E-08         0.00000E+00
   -0.13853E-09        -0.12108E-08         0.00000E+00
   -0.16755E-09        -0.10404E-08         0.00000E+00
   -0.19050E-09        -0.86851E-09         0.00000E+00
   -0.20790E-09        -0.69550E-09         0.00000E+00
   -0.22031E-09        -0.52179E-09         0.00000E+00
   -0.22833E-09        -0.34775E-09         0.00000E+00
   -0.23261E-09        -0.17371E-09         0.00000E+00
   -0.23383E-09        -0.86741E-10         0.00000E+00
    0.46865E-08        -0.14518E-09         0.00000E+00
    0.46772E-08        -0.28501E-09         0.00000E+00
    0.46503E-08        -0.55705E-09         0.00000E+00
    0.46072E-08        -0.81363E-09         0.00000E+00
    0.45492E-08        -0.10544E-08         0.00000E+00
    0.44777E-08        -0.12791E-08         0.00000E+00
    0.43942E-08        -0.14878E-08         0.00000E+00
    0.42998E-08        -0.16804E-08         0.00000E+00
    0.41960E-08        -0.18571E-08         0.00000E+00
    0.40838E-08        -0.20182E-08         0.00000E+00
    0.39645E-08        -0.21639E-08         0.00000E+00
    0.38392E-08        -0.22947E-08         0.00000E+00
    0.37089E-08        -0.24109E-08         0.00000E+00
    0.35747E-08        -0.25129E-08         0.00000E+00
    0.34374E-08        -0.26013E-08         0.00000E+00
    0.32979E-08        -0.26765E-08         0.00000E+00
    0.31570E-08        -0.27390E-08         0.00000E+00
    0.30155E-08        -0.27893E-08         0.00000E+00
    0.28741E-08        -0.28278E-08         0.00000E+00
    0.27335E-08        -0.28549E-08         0.00000E+00
    0.25942E-08        -0.28712E-08         0.00000E+00
    0.24569E-08        -0.28771E-08         0.00000E+00
    0.23220E-08        -0.28730E-08         0.00000E+00
    0.21901E-08        -0.28593E-08         0.00000E+00
    0.20617E-08        -0.28365E-08         0.00000E+00
    0.19371E-08        -0.28048E-08         0.00000E+00
    0.18167E-08        -0.27647E-08         0.00000E+00
    0.17010E-08        -0.27165E-08         0.00000E+00
    0.15902E-08        -0.26606E-08         0.00000E+00
    0.14846E-08        -0.25973E-08         0.00000E+00
    0.13845E-08        -0.25268E-08         0.00000E+00
    0.12901E-08        -0.24497E-08         0.00000E+00
    0.12016E-08        -0.23660E-08         0.00000E+00
    0.11192E-08        -0.22761E-08         0.00000E+00
    0.10430E-08        -0.21803E-08         0.00000E+00
    0.97309E-09        -0.20787E-08         0.00000E+00
    0.90948E-09        -0.19717E-08         0.00000E+00
    0.85217E-09        -0.18595E-08         0.00000E+00
    0.80111E-09        -0.17422E-08         0.00000E+00
    0.75619E-09        -0.16201E-08         0.00000E+00
    0.71726E-09        -0.14933E-08         0.00000E+00
    0.68408E-09        -0.13620E-08         0.00000E+00
    0.65640E-09        -0.12263E-08         0.00000E+00
    0.63387E-09        -0.10864E-08         0.00000E+00
    0.61609E-09        -0.94239E-09         0.00000E+00
    0.60263E-09        -0.79440E-09         0.00000E+00
    0.59298E-09        -0.64256E-09         0.00000E+00
    0.58657E-09        -0.48702E-09         0.00000E+00
    0.58282E-09        -0.32793E-09         0.00000E+00
    0.58110E-09        -0.16550E-09         0.00000E+00
    0.58073E-09        -0.83462E-10         0.00000E+00
    0.41246E-08        -0.10606E-09         0.00000E+00
    0.41179E-08        -0.20880E-09         0.00000E+00
    0.40986E-08        -0.40947E-09         0.00000E+00
    0.40676E-08        -0.60035E-09         0.00000E+00
    0.40257E-08        -0.78107E-09         0.00000E+00
    0.39740E-08        -0.95137E-09         0.00000E+00
    0.39134E-08        -0.11111E-08         0.00000E+00
    0.38448E-08        -0.12601E-08         0.00000E+00
    0.37691E-08        -0.13984E-08         0.00000E+00
    0.36871E-08        -0.15261E-08         0.00000E+00
    0.35997E-08        -0.16432E-08         0.00000E+00
    0.35076E-08        -0.17499E-08         0.00000E+00
    0.34117E-08        -0.18464E-08         0.00000E+00
    0.33126E-08        -0.19328E-08         0.00000E+00
    0.32111E-08        -0.20095E-08         0.00000E+00
    0.31078E-08        -0.20766E-08         0.00000E+00
    0.30033E-08        -0.21343E-08         0.00000E+00
    0.28981E-08        -0.21831E-08         0.00000E+00
    0.27929E-08        -0.22231E-08         0.00000E+00
    0.26882E-08        -0.22546E-08         0.00000E+00
    0.25844E-08        -0.22779E-08         0.00000E+00
    0.24820E-08        -0.22932E-08         0.00000E+00
    0.23814E-08        -0.23008E-08         0.00000E+00
    0.22830E-08        -0.23010E-08         0.00000E+00
    0.21872E-08        -0.22940E-08         0.00000E+00
    0.20943E-08        -0.22800E-08         0.00000E+00
    0.20047E-08        -0.22593E-08         0.00000E+00
    0.19186E-08        -0.22321E-08         0.00000E+00
    0.18363E-08        -0.21986E-08         0.00000E+00
    0.17581E-08        -0.21589E-08         0.00000E+00
    0.16842E-08        -0.21132E-08         0.00000E+00
    0.16147E-08        -0.20617E-08         0.00000E+00
    0.15498E-08        -0.20045E-08         0.00000E+00
    0.14897E-08        -0.19416E-08         0.00000E+00
    0.14343E-08        -0.18733E-08         0.00000E+00
    0.13839E-08        -0.17995E-08         0.00000E+00
    0.13383E-08        -0.17202E-08         0.00000E+00
    0.12977E-08        -0.16355E-08         0.00000E+00
    0.12618E-08        -0.15454E-08         0.00000E+00
    0.12307E-08        -0.14496E-08         0.00000E+00
    0.12041E-08        -0.13483E-08         0.00000E+00
    0.11819E-08        -0.12412E-08         0.00000E+00
    0.11637E-08        -0.11283E-08         0.00000E+00
    0.11494E-08        -0.10093E-08         0.00000E+00
    0.11386E-08        -0.88426E-09         0.00000E+00
    0.11307E-08        -0.75292E-09         0.00000E+00
    0.11256E-08        -0.61520E-09         0.00000E+00
    0.11225E-08        -0.47103E-09         0.00000E+00
    0.11210E-08        -0.32037E-09         0.00000E+00
    0.11206E-08        -0.16327E-09         0.00000E+00
    0.11207E-08        -0.83113E-10         0.00000E+00
    0.36177E-08        -0.78567E-10         0.00000E+00
    0.36131E-08        -0.15511E-09         0.00000E+00
    0.35997E-08        -0.30523E-09         0.00000E+00
    0.35780E-08        -0.44924E-09         0.00000E+00
    0.35487E-08        -0.58682E-09         0.00000E+00
    0.35124E-08        -0.71772E-09         0.00000E+00
    0.34696E-08        -0.84172E-09         0.00000E+00
    0.34210E-08        -0.95868E-09         0.00000E+00
    0.33673E-08        -0.10685E-08         0.00000E+00
    0.33088E-08        -0.11711E-08         0.00000E+00
    0.32464E-08        -0.12666E-08         0.00000E+00
    0.31804E-08        -0.13548E-08         0.00000E+00
    0.31114E-08        -0.14359E-08         0.00000E+00
    0.30399E-08        -0.15100E-08         0.00000E+00
    0.29665E-08        -0.15770E-08         0.00000E+00
    0.28916E-08        -0.16373E-08         0.00000E+00
    0.28156E-08        -0.16907E-08         0.00000E+00
    0.27391E-08        -0.17376E-08         0.00000E+00
    0.26623E-08        -0.17781E-08         0.00000E+00
    0.25857E-08        -0.18122E-08         0.00000E+00
    0.25097E-08        -0.18401E-08         0.00000E+00
    0.24346E-08        -0.18621E-08         0.00000E+00
    0.23608E-08        -0.18781E-08         0.00000E+00
    0.22885E-08        -0.18884E-08         0.00000E+00
    0.22181E-08        -0.18931E-08         0.00000E+00
    0.21498E-08        -0.18924E-08         0.00000E+00
    0.20839E-08        -0.18862E-08         0.00000E+00
    0.20206E-08        -0.18748E-08         0.00000E+00
    0.19601E-08        -0.18582E-08         0.00000E+00
    0.19027E-08        -0.18365E-08         0.00000E+00
    0.18484E-08        -0.18097E-08         0.00000E+00
    0.17975E-08        -0.17778E-08         0.00000E+00
    0.17501E-08        -0.17408E-08         0.00000E+00
    0.17062E-08        -0.16987E-08         0.00000E+00
    0.16660E-08        -0.16514E-08         0.00000E+00
    0.16295E-08        -0.15987E-08         0.00000E+00
    0.15966E-08        -0.15407E-08         0.00000E+00
    0.15675E-08        -0.14769E-08         0.00000E+00
    0.15419E-08        -0.14073E-08         0.00000E+00
    0.15199E-08        -0.13315E-08         0.00000E+00
    0.15013E-08        -0.12493E-08         0.00000E+00
    0.14860E-08        -0.11602E-08         0.00000E+00
    0.14736E-08        -0.10641E-08         0.00000E+00
    0.14641E-08        -0.96051E-09         0.00000E+00
    0.14571E-08        -0.84905E-09         0.00000E+00
    0.14523E-08        -0.72941E-09         0.00000E+00
    0.14494E-08        -0.60127E-09         0.00000E+00
    0.14478E-08        -0.46437E-09         0.00000E+00
    0.14473E-08        -0.31853E-09         0.00000E+00
    0.14474E-08        -0.16365E-09         0.00000E+00
    0.14476E-08        -0.83948E-10         0.00000E+00
    0.31721E-08        -0.59889E-10         0.00000E+00
    0.31690E-08        -0.11853E-09         0.00000E+00
    0.31600E-08        -0.23394E-09         0.00000E+00
    0.31454E-08        -0.34550E-09         0.00000E+00
    0.31255E-08        -0.45293E-09         0.00000E+00
    0.31007E-08        -0.55600E-09         0.00000E+00
    0.30714E-08        -0.65453E-09         0.00000E+00
    0.30380E-08        -0.74838E-09         0.00000E+00
    0.30009E-08        -0.83742E-09         0.00000E+00
    0.29603E-08        -0.92157E-09         0.00000E+00
    0.29168E-08        -0.10008E-08         0.00000E+00
    0.28706E-08        -0.10750E-08         0.00000E+00
    0.28221E-08        -0.11442E-08         0.00000E+00
    0.27717E-08        -0.12085E-08         0.00000E+00
    0.27198E-08        -0.12678E-08         0.00000E+00
    0.26665E-08        -0.13222E-08         0.00000E+00
    0.26124E-08        -0.13717E-08         0.00000E+00
    0.25577E-08        -0.14164E-08         0.00000E+00
    0.25026E-08        -0.14564E-08         0.00000E+00
    0.24475E-08        -0.14917E-08         0.00000E+00
    0.23927E-08        -0.15224E-08         0.00000E+00
    0.23384E-08        -0.15485E-08         0.00000E+00
    0.22849E-08        -0.15702E-08         0.00000E+00
    0.22324E-08        -0.15875E-08         0.00000E+00
    0.21812E-08        -0.16004E-08         0.00000E+00
    0.21314E-08        -0.16090E-08         0.00000E+00
    0.20833E-08        -0.16133E-08         0.00000E+00
    0.20370E-08        -0.16133E-08         0.00000E+00
    0.19927E-08        -0.16090E-08         0.00000E+00
    0.19506E-08        -0.16004E-08         0.00000E+00
    0.19108E-08        -0.15874E-08         0.00000E+00
    0.18734E-08        -0.15700E-08         0.00000E+00
    0.18385E-08        -0.15480E-08         0.00000E+00
    0.18062E-08        -0.15212E-08         0.00000E+00
    0.17766E-08        -0.14895E-08         0.00000E+00
    0.17497E-08        -0.14526E-08         0.00000E+00
    0.17255E-08        -0.14102E-08         0.00000E+00
    0.17040E-08        -0.13620E-08         0.00000E+00
    0.16851E-08        -0.13076E-08         0.00000E+00
    0.16688E-08        -0.12466E-08         0.00000E+00
    0.16551E-08        -0.11785E-08         0.00000E+00
    0.16438E-08        -0.11029E-08         0.00000E+00
    0.16346E-08        -0.10191E-08         0.00000E+00
    0.16276E-08        -0.92675E-09         0.00000E+00
    0.16224E-08        -0.82522E-09         0.00000E+00
    0.16188E-08        -0.71404E-09         0.00000E+00
    0.16166E-08        -0.59272E-09         0.00000E+00
    0.16155E-08        -0.46088E-09         0.00000E+00
    0.16151E-08        -0.31821E-09         0.00000E+00
    0.16152E-08        -0.16450E-09         0.00000E+00
    0.16153E-08        -0.84871E-10         0.00000E+00
    0.27880E-08        -0.47680E-10         0.00000E+00
    0.27860E-08        -0.94515E-10         0.00000E+00
    0.27802E-08        -0.18692E-09         0.00000E+00
    0.27707E-08        -0.27670E-09         0.00000E+00
    0.27576E-08        -0.36363E-09         0.00000E+00
    0.27413E-08        -0.44756E-09         0.00000E+00
    0.27219E-08        -0.52834E-09         0.00000E+00
    0.26996E-08        -0.60584E-09         0.00000E+00
    0.26746E-08        -0.67997E-09         0.00000E+00
    0.26472E-08        -0.75067E-09         0.00000E+00
    0.26176E-08        -0.81786E-09         0.00000E+00
    0.25860E-08        -0.88152E-09         0.00000E+00
    0.25527E-08        -0.94161E-09         0.00000E+00
    0.25179E-08        -0.99813E-09         0.00000E+00
    0.24818E-08        -0.10511E-08         0.00000E+00
    0.24446E-08        -0.11005E-08         0.00000E+00
    0.24067E-08        -0.11463E-08         0.00000E+00
    0.23681E-08        -0.11886E-08         0.00000E+00
    0.23292E-08        -0.12274E-08         0.00000E+00
    0.22900E-08        -0.12628E-08         0.00000E+00
    0.22509E-08        -0.12947E-08         0.00000E+00
    0.22120E-08        -0.13231E-08         0.00000E+00
    0.21735E-08        -0.13481E-08         0.00000E+00
    0.21356E-08        -0.13698E-08         0.00000E+00
    0.20985E-08        -0.13880E-08         0.00000E+00
    0.20623E-08        -0.14028E-08         0.00000E+00
    0.20271E-08        -0.14141E-08         0.00000E+00
    0.19932E-08        -0.14220E-08         0.00000E+00
    0.19606E-08        -0.14262E-08         0.00000E+00
    0.19295E-08        -0.14268E-08         0.00000E+00
    0.18999E-08        -0.14236E-08         0.00000E+00
    0.18721E-08        -0.14164E-08         0.00000E+00
    0.18459E-08        -0.14050E-08         0.00000E+00
    0.18216E-08        -0.13892E-08         0.00000E+00
    0.17992E-08        -0.13686E-08         0.00000E+00
    0.17787E-08        -0.13430E-08         0.00000E+00
    0.17601E-08        -0.13120E-08         0.00000E+00
    0.17434E-08        -0.12750E-08         0.00000E+00
    0.17286E-08        -0.12317E-08         0.00000E+00
    0.17157E-08        -0.11815E-08         0.00000E+00
    0.17047E-08        -0.11238E-08         0.00000E+00
    0.16954E-08        -0.10579E-08         0.00000E+00
    0.16878E-08        -0.98336E-09         0.00000E+00
    0.16817E-08        -0.89936E-09         0.00000E+00
    0.16770E-08        -0.80530E-09         0.00000E+00
    0.16736E-08        -0.70056E-09         0.00000E+00
    0.16713E-08        -0.58456E-09         0.00000E+00
    0.16698E-08        -0.45681E-09         0.00000E+00
    0.16691E-08        -0.31690E-09         0.00000E+00
    0.16689E-08        -0.16456E-09         0.00000E+00
    0.16689E-08        -0.85255E-10         0.00000E+00
    0.24618E-08        -0.40046E-10         0.00000E+00
    0.24606E-08        -0.79411E-10         0.00000E+00
    0.24570E-08        -0.15713E-09         0.00000E+00
    0.24511E-08        -0.23276E-09         0.00000E+00
    0.24428E-08        -0.30616E-09         0.00000E+00
    0.24324E-08        -0.37723E-09         0.00000E+00
    0.24199E-08        -0.44586E-09         0.00000E+00
    0.24055E-08        -0.51199E-09         0.00000E+00
    0.23891E-08        -0.57556E-09         0.00000E+00
    0.23710E-08        -0.63653E-09         0.00000E+00
    0.23514E-08        -0.69486E-09         0.00000E+00
    0.23302E-08        -0.75055E-09         0.00000E+00
    0.23077E-08        -0.80357E-09         0.00000E+00
    0.22840E-08        -0.85393E-09         0.00000E+00
    0.22593E-08        -0.90163E-09         0.00000E+00
    0.22337E-08        -0.94667E-09         0.00000E+00
    0.22073E-08        -0.98907E-09         0.00000E+00
    0.21804E-08        -0.10288E-08         0.00000E+00
    0.21530E-08        -0.10660E-08         0.00000E+00
    0.21253E-08        -0.11005E-08         0.00000E+00
    0.20975E-08        -0.11324E-08         0.00000E+00
    0.20697E-08        -0.11617E-08         0.00000E+00
    0.20419E-08        -0.11883E-08         0.00000E+00
    0.20145E-08        -0.12123E-08         0.00000E+00
    0.19874E-08        -0.12336E-08         0.00000E+00
    0.19608E-08        -0.12521E-08         0.00000E+00
    0.19348E-08        -0.12679E-08         0.00000E+00
    0.19096E-08        -0.12807E-08         0.00000E+00
    0.18852E-08        -0.12905E-08         0.00000E+00
    0.18617E-08        -0.12971E-08         0.00000E+00
    0.18393E-08        -0.13003E-08         0.00000E+00
    0.18179E-08        -0.13000E-08         0.00000E+00
    0.17976E-08        -0.12958E-08         0.00000E+00
    0.17786E-08        -0.12875E-08         0.00000E+00
    0.17609E-08        -0.12747E-08         0.00000E+00
    0.17444E-08        -0.12569E-08         0.00000E+00
    0.17293E-08        -0.12338E-08         0.00000E+00
    0.17155E-08        -0.12048E-08         0.00000E+00
    0.17030E-08        -0.11694E-08         0.00000E+00
    0.16919E-08        -0.11270E-08         0.00000E+00
    0.16821E-08        -0.10768E-08         0.00000E+00
    0.16736E-08        -0.10182E-08         0.00000E+00
    0.16664E-08        -0.95050E-09         0.00000E+00
    0.16603E-08        -0.87293E-09         0.00000E+00
    0.16554E-08        -0.78478E-09         0.00000E+00
    0.16515E-08        -0.68535E-09         0.00000E+00
    0.16486E-08        -0.57399E-09         0.00000E+00
    0.16465E-08        -0.45013E-09         0.00000E+00
    0.16452E-08        -0.31332E-09         0.00000E+00
    0.16446E-08        -0.16321E-09         0.00000E+00
    0.16444E-08        -0.84797E-10         0.00000E+00
    0.21879E-08        -0.35507E-10         0.00000E+00
    0.21872E-08        -0.70347E-10         0.00000E+00
    0.21850E-08        -0.13906E-09         0.00000E+00
    0.21814E-08        -0.20580E-09         0.00000E+00
    0.21764E-08        -0.27049E-09         0.00000E+00
    0.21700E-08        -0.33307E-09         0.00000E+00
    0.21622E-08        -0.39351E-09         0.00000E+00
    0.21530E-08        -0.45180E-09         0.00000E+00
    0.21425E-08        -0.50790E-09         0.00000E+00
    0.21308E-08        -0.56184E-09         0.00000E+00
    0.21179E-08        -0.61362E-09         0.00000E+00
    0.21039E-08        -0.66325E-09         0.00000E+00
    0.20888E-08        -0.71075E-09         0.00000E+00
    0.20728E-08        -0.75614E-09         0.00000E+00
    0.20559E-08        -0.79944E-09         0.00000E+00
    0.20383E-08        -0.84067E-09         0.00000E+00
    0.20200E-08        -0.87985E-09         0.00000E+00
    0.20011E-08        -0.91699E-09         0.00000E+00
    0.19818E-08        -0.95210E-09         0.00000E+00
    0.19620E-08        -0.98519E-09         0.00000E+00
    0.19420E-08        -0.10162E-08         0.00000E+00
    0.19218E-08        -0.10453E-08         0.00000E+00
    0.19015E-08        -0.10722E-08         0.00000E+00
    0.18813E-08        -0.10970E-08         0.00000E+00
    0.18611E-08        -0.11197E-08         0.00000E+00
    0.18412E-08        -0.11401E-08         0.00000E+00
    0.18215E-08        -0.11582E-08         0.00000E+00
    0.18022E-08        -0.11738E-08         0.00000E+00
    0.17833E-08        -0.11868E-08         0.00000E+00
    0.17650E-08        -0.11971E-08         0.00000E+00
    0.17472E-08        -0.12043E-08         0.00000E+00
    0.17301E-08        -0.12083E-08         0.00000E+00
    0.17136E-08        -0.12087E-08         0.00000E+00
    0.16980E-08        -0.12052E-08         0.00000E+00
    0.16831E-08        -0.11975E-08         0.00000E+00
    0.16691E-08        -0.11850E-08         0.00000E+00
    0.16559E-08        -0.11673E-08         0.00000E+00
    0.16437E-08        -0.11438E-08         0.00000E+00
    0.16324E-08        -0.11140E-08         0.00000E+00
    0.16220E-08        -0.10770E-08         0.00000E+00
    0.16126E-08        -0.10324E-08         0.00000E+00
    0.16042E-08        -0.97925E-09         0.00000E+00
    0.15967E-08        -0.91687E-09         0.00000E+00
    0.15902E-08        -0.84448E-09         0.00000E+00
    0.15846E-08        -0.76130E-09         0.00000E+00
    0.15800E-08        -0.66660E-09         0.00000E+00
    0.15763E-08        -0.55969E-09         0.00000E+00
    0.15735E-08        -0.43997E-09         0.00000E+00
    0.15715E-08        -0.30694E-09         0.00000E+00
    0.15704E-08        -0.16022E-09         0.00000E+00
    0.15700E-08        -0.83408E-10         0.00000E+00
    0.19593E-08        -0.32947E-10         0.00000E+00
    0.19589E-08        -0.65157E-10         0.00000E+00
    0.19577E-08        -0.12854E-09         0.00000E+00
    0.19556E-08        -0.18981E-09         0.00000E+00
    0.19526E-08        -0.24897E-09         0.00000E+00
    0.19487E-08        -0.30600E-09         0.00000E+00
    0.19439E-08        -0.36092E-09         0.00000E+00
    0.19381E-08        -0.41376E-09         0.00000E+00
    0.19314E-08        -0.46456E-09         0.00000E+00
    0.19238E-08        -0.51335E-09         0.00000E+00
    0.19153E-08        -0.56020E-09         0.00000E+00
    0.19059E-08        -0.60514E-09         0.00000E+00
    0.18957E-08        -0.64825E-09         0.00000E+00
    0.18848E-08        -0.68955E-09         0.00000E+00
    0.18731E-08        -0.72910E-09         0.00000E+00
    0.18607E-08        -0.76694E-09         0.00000E+00
    0.18477E-08        -0.80311E-09         0.00000E+00
    0.18342E-08        -0.83762E-09         0.00000E+00
    0.18202E-08        -0.87050E-09         0.00000E+00
    0.18057E-08        -0.90175E-09         0.00000E+00
    0.17909E-08        -0.93138E-09         0.00000E+00
    0.17758E-08        -0.95936E-09         0.00000E+00
    0.17605E-08        -0.98567E-09         0.00000E+00
    0.17450E-08        -0.10103E-08         0.00000E+00
    0.17295E-08        -0.10331E-08         0.00000E+00
    0.17139E-08        -0.10540E-08         0.00000E+00
    0.16984E-08        -0.10729E-08         0.00000E+00
    0.16829E-08        -0.10898E-08         0.00000E+00
    0.16676E-08        -0.11043E-08         0.00000E+00
    0.16526E-08        -0.11164E-08         0.00000E+00
    0.16378E-08        -0.11258E-08         0.00000E+00
    0.16233E-08        -0.11322E-08         0.00000E+00
    0.16092E-08        -0.11353E-08         0.00000E+00
    0.15955E-08        -0.11348E-08         0.00000E+00
    0.15823E-08        -0.11302E-08         0.00000E+00
    0.15697E-08        -0.11210E-08         0.00000E+00
    0.15575E-08        -0.11069E-08         0.00000E+00
    0.15460E-08        -0.10871E-08         0.00000E+00
    0.15351E-08        -0.10611E-08         0.00000E+00
    0.15249E-08        -0.10281E-08         0.00000E+00
    0.15154E-08        -0.98759E-09         0.00000E+00
    0.15066E-08        -0.93867E-09         0.00000E+00
    0.14986E-08        -0.88060E-09         0.00000E+00
    0.14914E-08        -0.81259E-09         0.00000E+00
    0.14851E-08        -0.73387E-09         0.00000E+00
    0.14797E-08        -0.64368E-09         0.00000E+00
    0.14751E-08        -0.54133E-09         0.00000E+00
    0.14716E-08        -0.42620E-09         0.00000E+00
    0.14690E-08        -0.29777E-09         0.00000E+00
    0.14674E-08        -0.15565E-09         0.00000E+00
    0.14669E-08        -0.81130E-10         0.00000E+00
    0.17694E-08        -0.31549E-10         0.00000E+00
    0.17692E-08        -0.62258E-10         0.00000E+00
    0.17685E-08        -0.12251E-09         0.00000E+00
    0.17672E-08        -0.18042E-09         0.00000E+00
    0.17654E-08        -0.23601E-09         0.00000E+00
    0.17630E-08        -0.28934E-09         0.00000E+00
    0.17599E-08        -0.34044E-09         0.00000E+00
    0.17561E-08        -0.38940E-09         0.00000E+00
    0.17516E-08        -0.43630E-09         0.00000E+00
    0.17465E-08        -0.48122E-09         0.00000E+00
    0.17407E-08        -0.52425E-09         0.00000E+00
    0.17341E-08        -0.56547E-09         0.00000E+00
    0.17269E-08        -0.60498E-09         0.00000E+00
    0.17191E-08        -0.64285E-09         0.00000E+00
    0.17106E-08        -0.67914E-09         0.00000E+00
    0.17015E-08        -0.71394E-09         0.00000E+00
    0.16919E-08        -0.74727E-09         0.00000E+00
    0.16817E-08        -0.77920E-09         0.00000E+00
    0.16710E-08        -0.80975E-09         0.00000E+00
    0.16599E-08        -0.83893E-09         0.00000E+00
    0.16484E-08        -0.86675E-09         0.00000E+00
    0.16365E-08        -0.89320E-09         0.00000E+00
    0.16244E-08        -0.91825E-09         0.00000E+00
    0.16119E-08        -0.94186E-09         0.00000E+00
    0.15992E-08        -0.96396E-09         0.00000E+00
    0.15864E-08        -0.98445E-09         0.00000E+00
    0.15734E-08        -0.10032E-08         0.00000E+00
    0.15604E-08        -0.10202E-08         0.00000E+00
    0.15473E-08        -0.10351E-08         0.00000E+00
    0.15342E-08        -0.10478E-08         0.00000E+00
    0.15212E-08        -0.10580E-08         0.00000E+00
    0.15083E-08        -0.10655E-08         0.00000E+00
    0.14956E-08        -0.10699E-08         0.00000E+00
    0.14830E-08        -0.10709E-08         0.00000E+00
    0.14707E-08        -0.10681E-08         0.00000E+00
    0.14587E-08        -0.10610E-08         0.00000E+00
    0.14470E-08        -0.10490E-08         0.00000E+00
    0.14357E-08        -0.10317E-08         0.00000E+00
    0.14248E-08        -0.10084E-08         0.00000E+00
    0.14144E-08        -0.97834E-09         0.00000E+00
    0.14045E-08        -0.94095E-09         0.00000E+00
    0.13953E-08        -0.89544E-09         0.00000E+00
    0.13867E-08        -0.84103E-09         0.00000E+00
    0.13788E-08        -0.77696E-09         0.00000E+00
    0.13717E-08        -0.70244E-09         0.00000E+00
    0.13655E-08        -0.61675E-09         0.00000E+00
    0.13603E-08        -0.51920E-09         0.00000E+00
    0.13560E-08        -0.40915E-09         0.00000E+00
    0.13529E-08        -0.28611E-09         0.00000E+00
    0.13510E-08        -0.14968E-09         0.00000E+00
    0.13503E-08        -0.78081E-10         0.00000E+00
    0.16114E-08        -0.30744E-10         0.00000E+00
    0.16113E-08        -0.60540E-10         0.00000E+00
    0.16108E-08        -0.11882E-09         0.00000E+00
    0.16100E-08        -0.17451E-09         0.00000E+00
    0.16088E-08        -0.22766E-09         0.00000E+00
    0.16070E-08        -0.27834E-09         0.00000E+00
    0.16048E-08        -0.32664E-09         0.00000E+00
    0.16021E-08        -0.37268E-09         0.00000E+00
    0.15989E-08        -0.41657E-09         0.00000E+00
    0.15950E-08        -0.45842E-09         0.00000E+00
    0.15907E-08        -0.49837E-09         0.00000E+00
    0.15857E-08        -0.53652E-09         0.00000E+00
    0.15802E-08        -0.57299E-09         0.00000E+00
    0.15740E-08        -0.60789E-09         0.00000E+00
    0.15674E-08        -0.64130E-09         0.00000E+00
    0.15602E-08        -0.67332E-09         0.00000E+00
    0.15525E-08        -0.70401E-09         0.00000E+00
    0.15442E-08        -0.73343E-09         0.00000E+00
    0.15355E-08        -0.76162E-09         0.00000E+00
    0.15264E-08        -0.78862E-09         0.00000E+00
    0.15168E-08        -0.81444E-09         0.00000E+00
    0.15068E-08        -0.83907E-09         0.00000E+00
    0.14965E-08        -0.86248E-09         0.00000E+00
    0.14858E-08        -0.88465E-09         0.00000E+00
    0.14749E-08        -0.90550E-09         0.00000E+00
    0.14636E-08        -0.92494E-09         0.00000E+00
    0.14522E-08        -0.94288E-09         0.00000E+00
    0.14405E-08        -0.95916E-09         0.00000E+00
    0.14287E-08        -0.97363E-09         0.00000E+00
    0.14168E-08        -0.98608E-09         0.00000E+00
    0.14048E-08        -0.99628E-09         0.00000E+00
    0.13927E-08        -0.10039E-08         0.00000E+00
    0.13807E-08        -0.10088E-08         0.00000E+00
    0.13687E-08        -0.10104E-08         0.00000E+00
    0.13567E-08        -0.10084E-08         0.00000E+00
    0.13449E-08        -0.10024E-08         0.00000E+00
    0.13333E-08        -0.99180E-09         0.00000E+00
    0.13220E-08        -0.97608E-09         0.00000E+00
    0.13109E-08        -0.95465E-09         0.00000E+00
    0.13002E-08        -0.92685E-09         0.00000E+00
    0.12900E-08        -0.89201E-09         0.00000E+00
    0.12802E-08        -0.84940E-09         0.00000E+00
    0.12711E-08        -0.79827E-09         0.00000E+00
    0.12626E-08        -0.73789E-09         0.00000E+00
    0.12549E-08        -0.66750E-09         0.00000E+00
    0.12481E-08        -0.58639E-09         0.00000E+00
    0.12422E-08        -0.49389E-09         0.00000E+00
    0.12375E-08        -0.38940E-09         0.00000E+00
    0.12339E-08        -0.27243E-09         0.00000E+00
    0.12317E-08        -0.14259E-09         0.00000E+00
    0.12309E-08        -0.74414E-10         0.00000E+00
    0.14797E-08        -0.30152E-10         0.00000E+00
    0.14795E-08        -0.59261E-10         0.00000E+00
    0.14791E-08        -0.11605E-09         0.00000E+00
    0.14784E-08        -0.17002E-09         0.00000E+00
    0.14774E-08        -0.22123E-09         0.00000E+00
    0.14759E-08        -0.26980E-09         0.00000E+00
    0.14740E-08        -0.31584E-09         0.00000E+00
    0.14717E-08        -0.35948E-09         0.00000E+00
    0.14689E-08        -0.40087E-09         0.00000E+00
    0.14657E-08        -0.44015E-09         0.00000E+00
    0.14619E-08        -0.47747E-09         0.00000E+00
    0.14576E-08        -0.51297E-09         0.00000E+00
    0.14529E-08        -0.54679E-09         0.00000E+00
    0.14476E-08        -0.57905E-09         0.00000E+00
    0.14418E-08        -0.60986E-09         0.00000E+00
    0.14356E-08        -0.63932E-09         0.00000E+00
    0.14288E-08        -0.66753E-09         0.00000E+00
    0.14216E-08        -0.69455E-09         0.00000E+00
    0.14139E-08        -0.72045E-09         0.00000E+00
    0.14057E-08        -0.74525E-09         0.00000E+00
    0.13972E-08        -0.76898E-09         0.00000E+00
    0.13882E-08        -0.79164E-09         0.00000E+00
    0.13788E-08        -0.81322E-09         0.00000E+00
    0.13691E-08        -0.83369E-09         0.00000E+00
    0.13591E-08        -0.85298E-09         0.00000E+00
    0.13487E-08        -0.87101E-09         0.00000E+00
    0.13380E-08        -0.88769E-09         0.00000E+00
    0.13271E-08        -0.90287E-09         0.00000E+00
    0.13160E-08        -0.91640E-09         0.00000E+00
    0.13046E-08        -0.92808E-09         0.00000E+00
    0.12931E-08        -0.93770E-09         0.00000E+00
    0.12815E-08        -0.94498E-09         0.00000E+00
    0.12697E-08        -0.94962E-09         0.00000E+00
    0.12580E-08        -0.95127E-09         0.00000E+00
    0.12462E-08        -0.94956E-09         0.00000E+00
    0.12344E-08        -0.94404E-09         0.00000E+00
    0.12228E-08        -0.93423E-09         0.00000E+00
    0.12113E-08        -0.91961E-09         0.00000E+00
    0.12000E-08        -0.89960E-09         0.00000E+00
    0.11890E-08        -0.87359E-09         0.00000E+00
    0.11784E-08        -0.84092E-09         0.00000E+00
    0.11683E-08        -0.80091E-09         0.00000E+00
    0.11587E-08        -0.75286E-09         0.00000E+00
    0.11497E-08        -0.69605E-09         0.00000E+00
    0.11415E-08        -0.62977E-09         0.00000E+00
    0.11342E-08        -0.55335E-09         0.00000E+00
    0.11279E-08        -0.46615E-09         0.00000E+00
    0.11228E-08        -0.36761E-09         0.00000E+00
    0.11189E-08        -0.25723E-09         0.00000E+00
    0.11165E-08        -0.13466E-09         0.00000E+00
    0.11157E-08        -0.70289E-10         0.00000E+00
    0.13690E-08        -0.29535E-10         0.00000E+00
    0.13689E-08        -0.57958E-10         0.00000E+00
    0.13684E-08        -0.11329E-09         0.00000E+00
    0.13677E-08        -0.16562E-09         0.00000E+00
    0.13665E-08        -0.21504E-09         0.00000E+00
    0.13650E-08        -0.26168E-09         0.00000E+00
    0.13631E-08        -0.30567E-09         0.00000E+00
    0.13608E-08        -0.34716E-09         0.00000E+00
    0.13581E-08        -0.38631E-09         0.00000E+00
    0.13549E-08        -0.42329E-09         0.00000E+00
    0.13512E-08        -0.45826E-09         0.00000E+00
    0.13471E-08        -0.49138E-09         0.00000E+00
    0.13426E-08        -0.52279E-09         0.00000E+00
    0.13375E-08        -0.55265E-09         0.00000E+00
    0.13320E-08        -0.58107E-09         0.00000E+00
    0.13261E-08        -0.60817E-09         0.00000E+00
    0.13197E-08        -0.63405E-09         0.00000E+00
    0.13128E-08        -0.65880E-09         0.00000E+00
    0.13055E-08        -0.68247E-09         0.00000E+00
    0.12978E-08        -0.70511E-09         0.00000E+00
    0.12897E-08        -0.72677E-09         0.00000E+00
    0.12811E-08        -0.74744E-09         0.00000E+00
    0.12722E-08        -0.76711E-09         0.00000E+00
    0.12629E-08        -0.78577E-09         0.00000E+00
    0.12533E-08        -0.80336E-09         0.00000E+00
    0.12433E-08        -0.81980E-09         0.00000E+00
    0.12330E-08        -0.83500E-09         0.00000E+00
    0.12224E-08        -0.84884E-09         0.00000E+00
    0.12116E-08        -0.86117E-09         0.00000E+00
    0.12005E-08        -0.87180E-09         0.00000E+00
    0.11892E-08        -0.88051E-09         0.00000E+00
    0.11777E-08        -0.88707E-09         0.00000E+00
    0.11661E-08        -0.89119E-09         0.00000E+00
    0.11544E-08        -0.89253E-09         0.00000E+00
    0.11426E-08        -0.89074E-09         0.00000E+00
    0.11308E-08        -0.88540E-09         0.00000E+00
    0.11191E-08        -0.87606E-09         0.00000E+00
    0.11074E-08        -0.86223E-09         0.00000E+00
    0.10960E-08        -0.84337E-09         0.00000E+00
    0.10848E-08        -0.81889E-09         0.00000E+00
    0.10739E-08        -0.78819E-09         0.00000E+00
    0.10635E-08        -0.75062E-09         0.00000E+00
    0.10536E-08        -0.70553E-09         0.00000E+00
    0.10443E-08        -0.65225E-09         0.00000E+00
    0.10358E-08        -0.59011E-09         0.00000E+00
    0.10282E-08        -0.51848E-09         0.00000E+00
    0.10217E-08        -0.43676E-09         0.00000E+00
    0.10163E-08        -0.34442E-09         0.00000E+00
    0.10122E-08        -0.24101E-09         0.00000E+00
    0.10097E-08        -0.12617E-09         0.00000E+00
    0.10088E-08        -0.65856E-10         0.00000E+00
    0.12753E-08        -0.28760E-10         0.00000E+00
    0.12751E-08        -0.56369E-10         0.00000E+00
    0.12745E-08        -0.11001E-09         0.00000E+00
    0.12736E-08        -0.16056E-09         0.00000E+00
    0.12723E-08        -0.20811E-09         0.00000E+00
    0.12706E-08        -0.25280E-09         0.00000E+00
    0.12685E-08        -0.29476E-09         0.00000E+00
    0.12660E-08        -0.33416E-09         0.00000E+00
    0.12630E-08        -0.37118E-09         0.00000E+00
    0.12596E-08        -0.40598E-09         0.00000E+00
    0.12558E-08        -0.43874E-09         0.00000E+00
    0.12515E-08        -0.46963E-09         0.00000E+00
    0.12468E-08        -0.49881E-09         0.00000E+00
    0.12417E-08        -0.52643E-09         0.00000E+00
    0.12361E-08        -0.55263E-09         0.00000E+00
    0.12301E-08        -0.57752E-09         0.00000E+00
    0.12237E-08        -0.60122E-09         0.00000E+00
    0.12169E-08        -0.62382E-09         0.00000E+00
    0.12096E-08        -0.64538E-09         0.00000E+00
    0.12020E-08        -0.66596E-09         0.00000E+00
    0.11939E-08        -0.68561E-09         0.00000E+00
    0.11855E-08        -0.70432E-09         0.00000E+00
    0.11767E-08        -0.72212E-09         0.00000E+00
    0.11675E-08        -0.73896E-09         0.00000E+00
    0.11579E-08        -0.75482E-09         0.00000E+00
    0.11481E-08        -0.76962E-09         0.00000E+00
    0.11379E-08        -0.78328E-09         0.00000E+00
    0.11274E-08        -0.79568E-09         0.00000E+00
    0.11167E-08        -0.80669E-09         0.00000E+00
    0.11057E-08        -0.81614E-09         0.00000E+00
    0.10944E-08        -0.82382E-09         0.00000E+00
    0.10830E-08        -0.82950E-09         0.00000E+00
    0.10714E-08        -0.83293E-09         0.00000E+00
    0.10597E-08        -0.83380E-09         0.00000E+00
    0.10479E-08        -0.83176E-09         0.00000E+00
    0.10361E-08        -0.82643E-09         0.00000E+00
    0.10243E-08        -0.81740E-09         0.00000E+00
    0.10126E-08        -0.80421E-09         0.00000E+00
    0.10011E-08        -0.78635E-09         0.00000E+00
    0.98977E-09        -0.76328E-09         0.00000E+00
    0.97878E-09        -0.73445E-09         0.00000E+00
    0.96821E-09        -0.69925E-09         0.00000E+00
    0.95816E-09        -0.65707E-09         0.00000E+00
    0.94874E-09        -0.60730E-09         0.00000E+00
    0.94010E-09        -0.54932E-09         0.00000E+00
    0.93235E-09        -0.48255E-09         0.00000E+00
    0.92565E-09        -0.40642E-09         0.00000E+00
    0.92015E-09        -0.32044E-09         0.00000E+00
    0.91600E-09        -0.22419E-09         0.00000E+00
    0.91338E-09        -0.11735E-09         0.00000E+00
    0.91245E-09        -0.61249E-10         0.00000E+00
    0.11950E-08        -0.27769E-10         0.00000E+00
    0.11948E-08        -0.54373E-10         0.00000E+00
    0.11941E-08        -0.10600E-09         0.00000E+00
    0.11930E-08        -0.15449E-09         0.00000E+00
    0.11915E-08        -0.19997E-09         0.00000E+00
    0.11895E-08        -0.24256E-09         0.00000E+00
    0.11871E-08        -0.28241E-09         0.00000E+00
    0.11842E-08        -0.31968E-09         0.00000E+00
    0.11809E-08        -0.35457E-09         0.00000E+00
    0.11772E-08        -0.38723E-09         0.00000E+00
    0.11731E-08        -0.41786E-09         0.00000E+00
    0.11685E-08        -0.44662E-09         0.00000E+00
    0.11635E-08        -0.47367E-09         0.00000E+00
    0.11581E-08        -0.49918E-09         0.00000E+00
    0.11523E-08        -0.52329E-09         0.00000E+00
    0.11461E-08        -0.54611E-09         0.00000E+00
    0.11395E-08        -0.56776E-09         0.00000E+00
    0.11325E-08        -0.58833E-09         0.00000E+00
    0.11251E-08        -0.60791E-09         0.00000E+00
    0.11173E-08        -0.62654E-09         0.00000E+00
    0.11091E-08        -0.64427E-09         0.00000E+00
    0.11006E-08        -0.66113E-09         0.00000E+00
    0.10917E-08        -0.67712E-09         0.00000E+00
    0.10825E-08        -0.69222E-09         0.00000E+00
    0.10729E-08        -0.70639E-09         0.00000E+00
    0.10631E-08        -0.71959E-09         0.00000E+00
    0.10529E-08        -0.73172E-09         0.00000E+00
    0.10424E-08        -0.74270E-09         0.00000E+00
    0.10317E-08        -0.75239E-09         0.00000E+00
    0.10207E-08        -0.76063E-09         0.00000E+00
    0.10095E-08        -0.76725E-09         0.00000E+00
    0.99810E-09        -0.77203E-09         0.00000E+00
    0.98654E-09        -0.77473E-09         0.00000E+00
    0.97486E-09        -0.77507E-09         0.00000E+00
    0.96309E-09        -0.77273E-09         0.00000E+00
    0.95129E-09        -0.76737E-09         0.00000E+00
    0.93952E-09        -0.75859E-09         0.00000E+00
    0.92782E-09        -0.74598E-09         0.00000E+00
    0.91628E-09        -0.72907E-09         0.00000E+00
    0.90497E-09        -0.70737E-09         0.00000E+00
    0.89397E-09        -0.68037E-09         0.00000E+00
    0.88339E-09        -0.64750E-09         0.00000E+00
    0.87332E-09        -0.60822E-09         0.00000E+00
    0.86390E-09        -0.56196E-09         0.00000E+00
    0.85523E-09        -0.50814E-09         0.00000E+00
    0.84747E-09        -0.44623E-09         0.00000E+00
    0.84075E-09        -0.37573E-09         0.00000E+00
    0.83522E-09        -0.29617E-09         0.00000E+00
    0.83106E-09        -0.20717E-09         0.00000E+00
    0.82843E-09        -0.10842E-09         0.00000E+00
    0.82750E-09        -0.56576E-10         0.00000E+00
    0.11256E-08        -0.26547E-10         0.00000E+00
    0.11253E-08        -0.51944E-10         0.00000E+00
    0.11245E-08        -0.10117E-09         0.00000E+00
    0.11232E-08        -0.14731E-09         0.00000E+00
    0.11214E-08        -0.19047E-09         0.00000E+00
    0.11192E-08        -0.23077E-09         0.00000E+00
    0.11164E-08        -0.26838E-09         0.00000E+00
    0.11132E-08        -0.30345E-09         0.00000E+00
    0.11096E-08        -0.33615E-09         0.00000E+00
    0.11055E-08        -0.36668E-09         0.00000E+00
    0.11010E-08        -0.39519E-09         0.00000E+00
    0.10961E-08        -0.42188E-09         0.00000E+00
    0.10908E-08        -0.44689E-09         0.00000E+00
    0.10850E-08        -0.47038E-09         0.00000E+00
    0.10789E-08        -0.49249E-09         0.00000E+00
    0.10724E-08        -0.51335E-09         0.00000E+00
    0.10655E-08        -0.53308E-09         0.00000E+00
    0.10583E-08        -0.55176E-09         0.00000E+00
    0.10507E-08        -0.56947E-09         0.00000E+00
    0.10427E-08        -0.58628E-09         0.00000E+00
    0.10344E-08        -0.60222E-09         0.00000E+00
    0.10257E-08        -0.61734E-09         0.00000E+00
    0.10167E-08        -0.63163E-09         0.00000E+00
    0.10074E-08        -0.64508E-09         0.00000E+00
    0.99776E-09        -0.65767E-09         0.00000E+00
    0.98783E-09        -0.66935E-09         0.00000E+00
    0.97762E-09        -0.68004E-09         0.00000E+00
    0.96713E-09        -0.68966E-09         0.00000E+00
    0.95640E-09        -0.69809E-09         0.00000E+00
    0.94543E-09        -0.70519E-09         0.00000E+00
    0.93426E-09        -0.71079E-09         0.00000E+00
    0.92291E-09        -0.71471E-09         0.00000E+00
    0.91140E-09        -0.71671E-09         0.00000E+00
    0.89979E-09        -0.71655E-09         0.00000E+00
    0.88810E-09        -0.71394E-09         0.00000E+00
    0.87639E-09        -0.70855E-09         0.00000E+00
    0.86470E-09        -0.70004E-09         0.00000E+00
    0.85310E-09        -0.68802E-09         0.00000E+00
    0.84166E-09        -0.67207E-09         0.00000E+00
    0.83045E-09        -0.65174E-09         0.00000E+00
    0.81956E-09        -0.62656E-09         0.00000E+00
    0.80909E-09        -0.59602E-09         0.00000E+00
    0.79913E-09        -0.55962E-09         0.00000E+00
    0.78980E-09        -0.51684E-09         0.00000E+00
    0.78122E-09        -0.46717E-09         0.00000E+00
    0.77354E-09        -0.41011E-09         0.00000E+00
    0.76690E-09        -0.34520E-09         0.00000E+00
    0.76144E-09        -0.27202E-09         0.00000E+00
    0.75732E-09        -0.19022E-09         0.00000E+00
    0.75472E-09        -0.99525E-10         0.00000E+00
    0.75380E-09        -0.51924E-10         0.00000E+00
    0.10649E-08        -0.25113E-10         0.00000E+00
    0.10646E-08        -0.49111E-10         0.00000E+00
    0.10637E-08        -0.95590E-10         0.00000E+00
    0.10622E-08        -0.13908E-09         0.00000E+00
    0.10602E-08        -0.17967E-09         0.00000E+00
    0.10577E-08        -0.21751E-09         0.00000E+00
    0.10547E-08        -0.25273E-09         0.00000E+00
    0.10512E-08        -0.28549E-09         0.00000E+00
    0.10472E-08        -0.31597E-09         0.00000E+00
    0.10428E-08        -0.34432E-09         0.00000E+00
    0.10379E-08        -0.37074E-09         0.00000E+00
    0.10327E-08        -0.39537E-09         0.00000E+00
    0.10270E-08        -0.41839E-09         0.00000E+00
    0.10210E-08        -0.43994E-09         0.00000E+00
    0.10146E-08        -0.46015E-09         0.00000E+00
    0.10078E-08        -0.47916E-09         0.00000E+00
    0.10006E-08        -0.49707E-09         0.00000E+00
    0.99314E-09        -0.51397E-09         0.00000E+00
    0.98530E-09        -0.52994E-09         0.00000E+00
    0.97714E-09        -0.54505E-09         0.00000E+00
    0.96865E-09        -0.55934E-09         0.00000E+00
    0.95985E-09        -0.57284E-09         0.00000E+00
    0.95073E-09        -0.58555E-09         0.00000E+00
    0.94133E-09        -0.59748E-09         0.00000E+00
    0.93163E-09        -0.60861E-09         0.00000E+00
    0.92167E-09        -0.61888E-09         0.00000E+00
    0.91144E-09        -0.62824E-09         0.00000E+00
    0.90096E-09        -0.63661E-09         0.00000E+00
    0.89025E-09        -0.64388E-09         0.00000E+00
    0.87934E-09        -0.64994E-09         0.00000E+00
    0.86824E-09        -0.65462E-09         0.00000E+00
    0.85697E-09        -0.65775E-09         0.00000E+00
    0.84558E-09        -0.65914E-09         0.00000E+00
    0.83409E-09        -0.65855E-09         0.00000E+00
    0.82254E-09        -0.65572E-09         0.00000E+00
    0.81098E-09        -0.65037E-09         0.00000E+00
    0.79946E-09        -0.64218E-09         0.00000E+00
    0.78805E-09        -0.63079E-09         0.00000E+00
    0.77679E-09        -0.61582E-09         0.00000E+00
    0.76577E-09        -0.59688E-09         0.00000E+00
    0.75508E-09        -0.57353E-09         0.00000E+00
    0.74480E-09        -0.54531E-09         0.00000E+00
    0.73503E-09        -0.51178E-09         0.00000E+00
    0.72589E-09        -0.47245E-09         0.00000E+00
    0.71750E-09        -0.42687E-09         0.00000E+00
    0.70998E-09        -0.37459E-09         0.00000E+00
    0.70347E-09        -0.31519E-09         0.00000E+00
    0.69814E-09        -0.24829E-09         0.00000E+00
    0.69411E-09        -0.17358E-09         0.00000E+00
    0.69157E-09        -0.90794E-10         0.00000E+00
    0.69067E-09        -0.47357E-10         0.00000E+00
    0.10114E-08        -0.23499E-10         0.00000E+00
    0.10111E-08        -0.45936E-10         0.00000E+00
    0.10101E-08        -0.89366E-10         0.00000E+00
    0.10085E-08        -0.12995E-09         0.00000E+00
    0.10063E-08        -0.16778E-09         0.00000E+00
    0.10036E-08        -0.20298E-09         0.00000E+00
    0.10003E-08        -0.23568E-09         0.00000E+00
    0.99652E-09        -0.26605E-09         0.00000E+00
    0.99228E-09        -0.29423E-09         0.00000E+00
    0.98759E-09        -0.32040E-09         0.00000E+00
    0.98246E-09        -0.34471E-09         0.00000E+00
    0.97693E-09        -0.36732E-09         0.00000E+00
    0.97100E-09        -0.38839E-09         0.00000E+00
    0.96470E-09        -0.40806E-09         0.00000E+00
    0.95803E-09        -0.42645E-09         0.00000E+00
    0.95101E-09        -0.44369E-09         0.00000E+00
    0.94365E-09        -0.45989E-09         0.00000E+00
    0.93596E-09        -0.47512E-09         0.00000E+00
    0.92795E-09        -0.48947E-09         0.00000E+00
    0.91964E-09        -0.50300E-09         0.00000E+00
    0.91102E-09        -0.51576E-09         0.00000E+00
    0.90212E-09        -0.52776E-09         0.00000E+00
    0.89293E-09        -0.53904E-09         0.00000E+00
    0.88347E-09        -0.54957E-09         0.00000E+00
    0.87375E-09        -0.55936E-09         0.00000E+00
    0.86379E-09        -0.56836E-09         0.00000E+00
    0.85358E-09        -0.57651E-09         0.00000E+00
    0.84315E-09        -0.58375E-09         0.00000E+00
    0.83252E-09        -0.58998E-09         0.00000E+00
    0.82170E-09        -0.59510E-09         0.00000E+00
    0.81072E-09        -0.59896E-09         0.00000E+00
    0.79960E-09        -0.60142E-09         0.00000E+00
    0.78837E-09        -0.60229E-09         0.00000E+00
    0.77706E-09        -0.60136E-09         0.00000E+00
    0.76572E-09        -0.59841E-09         0.00000E+00
    0.75437E-09        -0.59317E-09         0.00000E+00
    0.74309E-09        -0.58535E-09         0.00000E+00
    0.73191E-09        -0.57465E-09         0.00000E+00
    0.72091E-09        -0.56072E-09         0.00000E+00
    0.71015E-09        -0.54319E-09         0.00000E+00
    0.69972E-09        -0.52168E-09         0.00000E+00
    0.68970E-09        -0.49578E-09         0.00000E+00
    0.68020E-09        -0.46508E-09         0.00000E+00
    0.67131E-09        -0.42916E-09         0.00000E+00
    0.66315E-09        -0.38760E-09         0.00000E+00
    0.65585E-09        -0.34001E-09         0.00000E+00
    0.64954E-09        -0.28599E-09         0.00000E+00
    0.64436E-09        -0.22522E-09         0.00000E+00
    0.64046E-09        -0.15740E-09         0.00000E+00
    0.63800E-09        -0.82307E-10         0.00000E+00
    0.63713E-09        -0.42920E-10         0.00000E+00
    0.96399E-09        -0.21743E-10         0.00000E+00
    0.96363E-09        -0.42493E-10         0.00000E+00
    0.96257E-09        -0.82638E-10         0.00000E+00
    0.96086E-09        -0.12011E-09         0.00000E+00
    0.95854E-09        -0.15501E-09         0.00000E+00
    0.95563E-09        -0.18745E-09         0.00000E+00
    0.95218E-09        -0.21754E-09         0.00000E+00
    0.94822E-09        -0.24544E-09         0.00000E+00
    0.94377E-09        -0.27128E-09         0.00000E+00
    0.93887E-09        -0.29524E-09         0.00000E+00
    0.93353E-09        -0.31745E-09         0.00000E+00
    0.92779E-09        -0.33806E-09         0.00000E+00
    0.92166E-09        -0.35722E-09         0.00000E+00
    0.91516E-09        -0.37506E-09         0.00000E+00
    0.90831E-09        -0.39171E-09         0.00000E+00
    0.90113E-09        -0.40726E-09         0.00000E+00
    0.89362E-09        -0.42183E-09         0.00000E+00
    0.88580E-09        -0.43550E-09         0.00000E+00
    0.87768E-09        -0.44834E-09         0.00000E+00
    0.86928E-09        -0.46040E-09         0.00000E+00
    0.86060E-09        -0.47174E-09         0.00000E+00
    0.85165E-09        -0.48237E-09         0.00000E+00
    0.84244E-09        -0.49233E-09         0.00000E+00
    0.83298E-09        -0.50160E-09         0.00000E+00
    0.82329E-09        -0.51017E-09         0.00000E+00
    0.81337E-09        -0.51801E-09         0.00000E+00
    0.80324E-09        -0.52509E-09         0.00000E+00
    0.79291E-09        -0.53132E-09         0.00000E+00
    0.78240E-09        -0.53664E-09         0.00000E+00
    0.77173E-09        -0.54094E-09         0.00000E+00
    0.76092E-09        -0.54410E-09         0.00000E+00
    0.74999E-09        -0.54599E-09         0.00000E+00
    0.73897E-09        -0.54644E-09         0.00000E+00
    0.72789E-09        -0.54528E-09         0.00000E+00
    0.71679E-09        -0.54228E-09         0.00000E+00
    0.70572E-09        -0.53723E-09         0.00000E+00
    0.69471E-09        -0.52986E-09         0.00000E+00
    0.68383E-09        -0.51990E-09         0.00000E+00
    0.67313E-09        -0.50703E-09         0.00000E+00
    0.66268E-09        -0.49094E-09         0.00000E+00
    0.65255E-09        -0.47128E-09         0.00000E+00
    0.64284E-09        -0.44769E-09         0.00000E+00
    0.63364E-09        -0.41979E-09         0.00000E+00
    0.62504E-09        -0.38721E-09         0.00000E+00
    0.61715E-09        -0.34958E-09         0.00000E+00
    0.61010E-09        -0.30654E-09         0.00000E+00
    0.60402E-09        -0.25775E-09         0.00000E+00
    0.59902E-09        -0.20292E-09         0.00000E+00
    0.59527E-09        -0.14177E-09         0.00000E+00
    0.59290E-09        -0.74117E-10         0.00000E+00
    0.59206E-09        -0.38640E-10         0.00000E+00
    0.92179E-09        -0.19886E-10         0.00000E+00
    0.92142E-09        -0.38856E-10         0.00000E+00
    0.92031E-09        -0.75547E-10         0.00000E+00
    0.91853E-09        -0.10978E-09         0.00000E+00
    0.91611E-09        -0.14162E-09         0.00000E+00
    0.91310E-09        -0.17120E-09         0.00000E+00
    0.90952E-09        -0.19861E-09         0.00000E+00
    0.90543E-09        -0.22399E-09         0.00000E+00
    0.90084E-09        -0.24747E-09         0.00000E+00
    0.89580E-09        -0.26921E-09         0.00000E+00
    0.89032E-09        -0.28933E-09         0.00000E+00
    0.88445E-09        -0.30796E-09         0.00000E+00
    0.87819E-09        -0.32526E-09         0.00000E+00
    0.87157E-09        -0.34132E-09         0.00000E+00
    0.86462E-09        -0.35628E-09         0.00000E+00
    0.85734E-09        -0.37022E-09         0.00000E+00
    0.84975E-09        -0.38325E-09         0.00000E+00
    0.84187E-09        -0.39544E-09         0.00000E+00
    0.83370E-09        -0.40686E-09         0.00000E+00
    0.82527E-09        -0.41756E-09         0.00000E+00
    0.81658E-09        -0.42759E-09         0.00000E+00
    0.80764E-09        -0.43696E-09         0.00000E+00
    0.79847E-09        -0.44571E-09         0.00000E+00
    0.78907E-09        -0.45383E-09         0.00000E+00
    0.77945E-09        -0.46130E-09         0.00000E+00
    0.76963E-09        -0.46811E-09         0.00000E+00
    0.75962E-09        -0.47422E-09         0.00000E+00
    0.74944E-09        -0.47956E-09         0.00000E+00
    0.73910E-09        -0.48408E-09         0.00000E+00
    0.72861E-09        -0.48767E-09         0.00000E+00
    0.71801E-09        -0.49025E-09         0.00000E+00
    0.70731E-09        -0.49167E-09         0.00000E+00
    0.69654E-09        -0.49181E-09         0.00000E+00
    0.68573E-09        -0.49050E-09         0.00000E+00
    0.67491E-09        -0.48755E-09         0.00000E+00
    0.66414E-09        -0.48276E-09         0.00000E+00
    0.65344E-09        -0.47590E-09         0.00000E+00
    0.64288E-09        -0.46673E-09         0.00000E+00
    0.63251E-09        -0.45497E-09         0.00000E+00
    0.62239E-09        -0.44033E-09         0.00000E+00
    0.61261E-09        -0.42252E-09         0.00000E+00
    0.60323E-09        -0.40120E-09         0.00000E+00
    0.59435E-09        -0.37605E-09         0.00000E+00
    0.58606E-09        -0.34674E-09         0.00000E+00
    0.57846E-09        -0.31293E-09         0.00000E+00
    0.57168E-09        -0.27431E-09         0.00000E+00
    0.56583E-09        -0.23058E-09         0.00000E+00
    0.56103E-09        -0.18148E-09         0.00000E+00
    0.55742E-09        -0.12676E-09         0.00000E+00
    0.55515E-09        -0.66252E-10         0.00000E+00
    0.55434E-09        -0.34532E-10         0.00000E+00
    0.88427E-09        -0.17964E-10         0.00000E+00
    0.88388E-09        -0.35095E-10         0.00000E+00
    0.88275E-09        -0.68223E-10         0.00000E+00
    0.88092E-09        -0.99113E-10         0.00000E+00
    0.87845E-09        -0.12784E-09         0.00000E+00
    0.87537E-09        -0.15449E-09         0.00000E+00
    0.87172E-09        -0.17918E-09         0.00000E+00
    0.86755E-09        -0.20202E-09         0.00000E+00
    0.86289E-09        -0.22314E-09         0.00000E+00
    0.85777E-09        -0.24265E-09         0.00000E+00
    0.85222E-09        -0.26070E-09         0.00000E+00
    0.84628E-09        -0.27739E-09         0.00000E+00
    0.83996E-09        -0.29285E-09         0.00000E+00
    0.83329E-09        -0.30719E-09         0.00000E+00
    0.82629E-09        -0.32052E-09         0.00000E+00
    0.81898E-09        -0.33292E-09         0.00000E+00
    0.81138E-09        -0.34448E-09         0.00000E+00
    0.80349E-09        -0.35527E-09         0.00000E+00
    0.79534E-09        -0.36536E-09         0.00000E+00
    0.78694E-09        -0.37478E-09         0.00000E+00
    0.77829E-09        -0.38359E-09         0.00000E+00
    0.76942E-09        -0.39181E-09         0.00000E+00
    0.76033E-09        -0.39945E-09         0.00000E+00
    0.75103E-09        -0.40652E-09         0.00000E+00
    0.74154E-09        -0.41300E-09         0.00000E+00
    0.73186E-09        -0.41888E-09         0.00000E+00
    0.72201E-09        -0.42413E-09         0.00000E+00
    0.71201E-09        -0.42869E-09         0.00000E+00
    0.70186E-09        -0.43250E-09         0.00000E+00
    0.69160E-09        -0.43549E-09         0.00000E+00
    0.68123E-09        -0.43757E-09         0.00000E+00
    0.67079E-09        -0.43863E-09         0.00000E+00
    0.66029E-09        -0.43854E-09         0.00000E+00
    0.64977E-09        -0.43716E-09         0.00000E+00
    0.63926E-09        -0.43433E-09         0.00000E+00
    0.62880E-09        -0.42987E-09         0.00000E+00
    0.61843E-09        -0.42358E-09         0.00000E+00
    0.60820E-09        -0.41524E-09         0.00000E+00
    0.59817E-09        -0.40461E-09         0.00000E+00
    0.58840E-09        -0.39144E-09         0.00000E+00
    0.57896E-09        -0.37545E-09         0.00000E+00
    0.56992E-09        -0.35638E-09         0.00000E+00
    0.56137E-09        -0.33393E-09         0.00000E+00
    0.55339E-09        -0.30779E-09         0.00000E+00
    0.54609E-09        -0.27770E-09         0.00000E+00
    0.53957E-09        -0.24336E-09         0.00000E+00
    0.53396E-09        -0.20451E-09         0.00000E+00
    0.52936E-09        -0.16091E-09         0.00000E+00
    0.52590E-09        -0.11237E-09         0.00000E+00
    0.52372E-09        -0.58717E-10         0.00000E+00
    0.52295E-09        -0.30599E-10         0.00000E+00
    0.85102E-09        -0.16006E-10         0.00000E+00
    0.85063E-09        -0.31267E-10         0.00000E+00
    0.84949E-09        -0.60775E-10         0.00000E+00
    0.84764E-09        -0.88280E-10         0.00000E+00
    0.84515E-09        -0.11385E-09         0.00000E+00
    0.84204E-09        -0.13756E-09         0.00000E+00
    0.83836E-09        -0.15952E-09         0.00000E+00
    0.83416E-09        -0.17981E-09         0.00000E+00
    0.82947E-09        -0.19856E-09         0.00000E+00
    0.82433E-09        -0.21588E-09         0.00000E+00
    0.81877E-09        -0.23187E-09         0.00000E+00
    0.81281E-09        -0.24665E-09         0.00000E+00
    0.80648E-09        -0.26032E-09         0.00000E+00
    0.79982E-09        -0.27298E-09         0.00000E+00
    0.79283E-09        -0.28473E-09         0.00000E+00
    0.78555E-09        -0.29565E-09         0.00000E+00
    0.77798E-09        -0.30580E-09         0.00000E+00
    0.77014E-09        -0.31527E-09         0.00000E+00
    0.76205E-09        -0.32409E-09         0.00000E+00
    0.75372E-09        -0.33232E-09         0.00000E+00
    0.74517E-09        -0.34000E-09         0.00000E+00
    0.73640E-09        -0.34714E-09         0.00000E+00
    0.72743E-09        -0.35376E-09         0.00000E+00
    0.71827E-09        -0.35986E-09         0.00000E+00
    0.70893E-09        -0.36545E-09         0.00000E+00
    0.69942E-09        -0.37049E-09         0.00000E+00
    0.68976E-09        -0.37497E-09         0.00000E+00
    0.67996E-09        -0.37883E-09         0.00000E+00
    0.67004E-09        -0.38204E-09         0.00000E+00
    0.66002E-09        -0.38452E-09         0.00000E+00
    0.64990E-09        -0.38619E-09         0.00000E+00
    0.63973E-09        -0.38696E-09         0.00000E+00
    0.62951E-09        -0.38672E-09         0.00000E+00
    0.61929E-09        -0.38534E-09         0.00000E+00
    0.60909E-09        -0.38269E-09         0.00000E+00
    0.59895E-09        -0.37861E-09         0.00000E+00
    0.58891E-09        -0.37293E-09         0.00000E+00
    0.57901E-09        -0.36545E-09         0.00000E+00
    0.56932E-09        -0.35597E-09         0.00000E+00
    0.55989E-09        -0.34426E-09         0.00000E+00
    0.55078E-09        -0.33009E-09         0.00000E+00
    0.54207E-09        -0.31322E-09         0.00000E+00
    0.53384E-09        -0.29340E-09         0.00000E+00
    0.52617E-09        -0.27036E-09         0.00000E+00
    0.51915E-09        -0.24386E-09         0.00000E+00
    0.51290E-09        -0.21365E-09         0.00000E+00
    0.50750E-09        -0.17950E-09         0.00000E+00
    0.50309E-09        -0.14120E-09         0.00000E+00
    0.49978E-09        -0.98582E-10         0.00000E+00
    0.49769E-09        -0.51504E-10         0.00000E+00
    0.49696E-09        -0.26836E-10         0.00000E+00
    0.82182E-09        -0.14037E-10         0.00000E+00
    0.82142E-09        -0.27419E-10         0.00000E+00
    0.82028E-09        -0.53290E-10         0.00000E+00
    0.81843E-09        -0.77401E-10         0.00000E+00
    0.81594E-09        -0.99808E-10         0.00000E+00
    0.81283E-09        -0.12058E-09         0.00000E+00
    0.80916E-09        -0.13981E-09         0.00000E+00
    0.80497E-09        -0.15757E-09         0.00000E+00
    0.80029E-09        -0.17398E-09         0.00000E+00
    0.79516E-09        -0.18911E-09         0.00000E+00
    0.78962E-09        -0.20308E-09         0.00000E+00
    0.78369E-09        -0.21598E-09         0.00000E+00
    0.77741E-09        -0.22790E-09         0.00000E+00
    0.77079E-09        -0.23893E-09         0.00000E+00
    0.76385E-09        -0.24915E-09         0.00000E+00
    0.75663E-09        -0.25864E-09         0.00000E+00
    0.74913E-09        -0.26745E-09         0.00000E+00
    0.74138E-09        -0.27564E-09         0.00000E+00
    0.73339E-09        -0.28327E-09         0.00000E+00
    0.72517E-09        -0.29037E-09         0.00000E+00
    0.71673E-09        -0.29698E-09         0.00000E+00
    0.70810E-09        -0.30312E-09         0.00000E+00
    0.69928E-09        -0.30879E-09         0.00000E+00
    0.69027E-09        -0.31401E-09         0.00000E+00
    0.68111E-09        -0.31877E-09         0.00000E+00
    0.67179E-09        -0.32305E-09         0.00000E+00
    0.66233E-09        -0.32684E-09         0.00000E+00
    0.65275E-09        -0.33009E-09         0.00000E+00
    0.64306E-09        -0.33276E-09         0.00000E+00
    0.63328E-09        -0.33479E-09         0.00000E+00
    0.62342E-09        -0.33613E-09         0.00000E+00
    0.61351E-09        -0.33668E-09         0.00000E+00
    0.60358E-09        -0.33635E-09         0.00000E+00
    0.59365E-09        -0.33503E-09         0.00000E+00
    0.58375E-09        -0.33262E-09         0.00000E+00
    0.57392E-09        -0.32896E-09         0.00000E+00
    0.56419E-09        -0.32392E-09         0.00000E+00
    0.55462E-09        -0.31732E-09         0.00000E+00
    0.54525E-09        -0.30899E-09         0.00000E+00
    0.53614E-09        -0.29874E-09         0.00000E+00
    0.52736E-09        -0.28637E-09         0.00000E+00
    0.51896E-09        -0.27166E-09         0.00000E+00
    0.51102E-09        -0.25440E-09         0.00000E+00
    0.50364E-09        -0.23437E-09         0.00000E+00
    0.49689E-09        -0.21134E-09         0.00000E+00
    0.49087E-09        -0.18512E-09         0.00000E+00
    0.48569E-09        -0.15550E-09         0.00000E+00
    0.48146E-09        -0.12230E-09         0.00000E+00
    0.47828E-09        -0.85370E-10         0.00000E+00
    0.47628E-09        -0.44594E-10         0.00000E+00
    0.47557E-09        -0.23232E-10         0.00000E+00
    0.79649E-09        -0.12074E-10         0.00000E+00
    0.79610E-09        -0.23583E-10         0.00000E+00
    0.79496E-09        -0.45832E-10         0.00000E+00
    0.79313E-09        -0.66564E-10         0.00000E+00
    0.79065E-09        -0.85828E-10         0.00000E+00
    0.78756E-09        -0.10368E-09         0.00000E+00
    0.78392E-09        -0.12020E-09         0.00000E+00
    0.77976E-09        -0.13546E-09         0.00000E+00
    0.77512E-09        -0.14954E-09         0.00000E+00
    0.77004E-09        -0.16253E-09         0.00000E+00
    0.76455E-09        -0.17452E-09         0.00000E+00
    0.75868E-09        -0.18557E-09         0.00000E+00
    0.75246E-09        -0.19578E-09         0.00000E+00
    0.74591E-09        -0.20522E-09         0.00000E+00
    0.73906E-09        -0.21395E-09         0.00000E+00
    0.73192E-09        -0.22205E-09         0.00000E+00
    0.72452E-09        -0.22956E-09         0.00000E+00
    0.71688E-09        -0.23654E-09         0.00000E+00
    0.70900E-09        -0.24303E-09         0.00000E+00
    0.70091E-09        -0.24906E-09         0.00000E+00
    0.69261E-09        -0.25466E-09         0.00000E+00
    0.68413E-09        -0.25985E-09         0.00000E+00
    0.67546E-09        -0.26464E-09         0.00000E+00
    0.66663E-09        -0.26903E-09         0.00000E+00
    0.65765E-09        -0.27303E-09         0.00000E+00
    0.64852E-09        -0.27662E-09         0.00000E+00
    0.63927E-09        -0.27977E-09         0.00000E+00
    0.62990E-09        -0.28247E-09         0.00000E+00
    0.62044E-09        -0.28467E-09         0.00000E+00
    0.61089E-09        -0.28632E-09         0.00000E+00
    0.60129E-09        -0.28737E-09         0.00000E+00
    0.59164E-09        -0.28775E-09         0.00000E+00
    0.58197E-09        -0.28739E-09         0.00000E+00
    0.57232E-09        -0.28618E-09         0.00000E+00
    0.56270E-09        -0.28404E-09         0.00000E+00
    0.55316E-09        -0.28083E-09         0.00000E+00
    0.54373E-09        -0.27645E-09         0.00000E+00
    0.53445E-09        -0.27075E-09         0.00000E+00
    0.52538E-09        -0.26357E-09         0.00000E+00
    0.51657E-09        -0.25477E-09         0.00000E+00
    0.50807E-09        -0.24416E-09         0.00000E+00
    0.49996E-09        -0.23156E-09         0.00000E+00
    0.49230E-09        -0.21680E-09         0.00000E+00
    0.48517E-09        -0.19969E-09         0.00000E+00
    0.47867E-09        -0.18004E-09         0.00000E+00
    0.47287E-09        -0.15767E-09         0.00000E+00
    0.46788E-09        -0.13242E-09         0.00000E+00
    0.46380E-09        -0.10413E-09         0.00000E+00
    0.46075E-09        -0.72680E-10         0.00000E+00
    0.45882E-09        -0.37961E-10         0.00000E+00
    0.45814E-09        -0.19774E-10         0.00000E+00
    0.77495E-09        -0.10128E-10         0.00000E+00
    0.77456E-09        -0.19782E-10         0.00000E+00
    0.77344E-09        -0.38443E-10         0.00000E+00
    0.77162E-09        -0.55829E-10         0.00000E+00
    0.76917E-09        -0.71981E-10         0.00000E+00
    0.76612E-09        -0.86950E-10         0.00000E+00
    0.76252E-09        -0.10079E-09         0.00000E+00
    0.75841E-09        -0.11358E-09         0.00000E+00
    0.75382E-09        -0.12537E-09         0.00000E+00
    0.74880E-09        -0.13625E-09         0.00000E+00
    0.74338E-09        -0.14627E-09         0.00000E+00
    0.73758E-09        -0.15552E-09         0.00000E+00
    0.73144E-09        -0.16405E-09         0.00000E+00
    0.72498E-09        -0.17194E-09         0.00000E+00
    0.71822E-09        -0.17923E-09         0.00000E+00
    0.71119E-09        -0.18597E-09         0.00000E+00
    0.70390E-09        -0.19223E-09         0.00000E+00
    0.69637E-09        -0.19804E-09         0.00000E+00
    0.68862E-09        -0.20343E-09         0.00000E+00
    0.68066E-09        -0.20843E-09         0.00000E+00
    0.67251E-09        -0.21307E-09         0.00000E+00
    0.66417E-09        -0.21736E-09         0.00000E+00
    0.65567E-09        -0.22132E-09         0.00000E+00
    0.64700E-09        -0.22494E-09         0.00000E+00
    0.63820E-09        -0.22822E-09         0.00000E+00
    0.62926E-09        -0.23116E-09         0.00000E+00
    0.62020E-09        -0.23374E-09         0.00000E+00
    0.61104E-09        -0.23593E-09         0.00000E+00
    0.60179E-09        -0.23771E-09         0.00000E+00
    0.59247E-09        -0.23903E-09         0.00000E+00
    0.58309E-09        -0.23985E-09         0.00000E+00
    0.57368E-09        -0.24011E-09         0.00000E+00
    0.56426E-09        -0.23974E-09         0.00000E+00
    0.55485E-09        -0.23867E-09         0.00000E+00
    0.54549E-09        -0.23683E-09         0.00000E+00
    0.53621E-09        -0.23410E-09         0.00000E+00
    0.52705E-09        -0.23040E-09         0.00000E+00
    0.51804E-09        -0.22559E-09         0.00000E+00
    0.50923E-09        -0.21957E-09         0.00000E+00
    0.50068E-09        -0.21219E-09         0.00000E+00
    0.49245E-09        -0.20331E-09         0.00000E+00
    0.48458E-09        -0.19279E-09         0.00000E+00
    0.47716E-09        -0.18047E-09         0.00000E+00
    0.47027E-09        -0.16620E-09         0.00000E+00
    0.46397E-09        -0.14982E-09         0.00000E+00
    0.45837E-09        -0.13119E-09         0.00000E+00
    0.45355E-09        -0.11017E-09         0.00000E+00
    0.44961E-09        -0.86622E-10         0.00000E+00
    0.44665E-09        -0.60452E-10         0.00000E+00
    0.44479E-09        -0.31572E-10         0.00000E+00
    0.44414E-09        -0.16445E-10         0.00000E+00
    0.75715E-09        -0.82063E-11         0.00000E+00
    0.75677E-09        -0.16028E-10         0.00000E+00
    0.75566E-09        -0.31145E-10         0.00000E+00
    0.75387E-09        -0.45227E-10         0.00000E+00
    0.75145E-09        -0.58307E-10         0.00000E+00
    0.74844E-09        -0.70425E-10         0.00000E+00
    0.74488E-09        -0.81631E-10         0.00000E+00
    0.74082E-09        -0.91976E-10         0.00000E+00
    0.73630E-09        -0.10152E-09         0.00000E+00
    0.73134E-09        -0.11031E-09         0.00000E+00
    0.72599E-09        -0.11841E-09         0.00000E+00
    0.72028E-09        -0.12588E-09         0.00000E+00
    0.71422E-09        -0.13277E-09         0.00000E+00
    0.70785E-09        -0.13913E-09         0.00000E+00
    0.70119E-09        -0.14501E-09         0.00000E+00
    0.69426E-09        -0.15044E-09         0.00000E+00
    0.68708E-09        -0.15548E-09         0.00000E+00
    0.67967E-09        -0.16015E-09         0.00000E+00
    0.67204E-09        -0.16448E-09         0.00000E+00
    0.66421E-09        -0.16849E-09         0.00000E+00
    0.65619E-09        -0.17221E-09         0.00000E+00
    0.64799E-09        -0.17564E-09         0.00000E+00
    0.63964E-09        -0.17880E-09         0.00000E+00
    0.63113E-09        -0.18169E-09         0.00000E+00
    0.62249E-09        -0.18430E-09         0.00000E+00
    0.61372E-09        -0.18663E-09         0.00000E+00
    0.60484E-09        -0.18867E-09         0.00000E+00
    0.59586E-09        -0.19040E-09         0.00000E+00
    0.58680E-09        -0.19179E-09         0.00000E+00
    0.57767E-09        -0.19282E-09         0.00000E+00
    0.56850E-09        -0.19343E-09         0.00000E+00
    0.55930E-09        -0.19360E-09         0.00000E+00
    0.55009E-09        -0.19326E-09         0.00000E+00
    0.54090E-09        -0.19236E-09         0.00000E+00
    0.53177E-09        -0.19084E-09         0.00000E+00
    0.52271E-09        -0.18860E-09         0.00000E+00
    0.51378E-09        -0.18558E-09         0.00000E+00
    0.50500E-09        -0.18168E-09         0.00000E+00
    0.49642E-09        -0.17680E-09         0.00000E+00
    0.48810E-09        -0.17083E-09         0.00000E+00
    0.48008E-09        -0.16366E-09         0.00000E+00
    0.47243E-09        -0.15516E-09         0.00000E+00
    0.46522E-09        -0.14523E-09         0.00000E+00
    0.45852E-09        -0.13373E-09         0.00000E+00
    0.45240E-09        -0.12054E-09         0.00000E+00
    0.44696E-09        -0.10554E-09         0.00000E+00
    0.44228E-09        -0.88616E-10         0.00000E+00
    0.43845E-09        -0.69673E-10         0.00000E+00
    0.43559E-09        -0.48621E-10         0.00000E+00
    0.43379E-09        -0.25391E-10         0.00000E+00
    0.43315E-09        -0.13225E-10         0.00000E+00
    0.74308E-09        -0.63103E-11         0.00000E+00
    0.74271E-09        -0.12323E-10         0.00000E+00
    0.74161E-09        -0.23944E-10         0.00000E+00
    0.73984E-09        -0.34765E-10         0.00000E+00
    0.73745E-09        -0.44813E-10         0.00000E+00
    0.73448E-09        -0.54119E-10         0.00000E+00
    0.73097E-09        -0.62722E-10         0.00000E+00
    0.72696E-09        -0.70660E-10         0.00000E+00
    0.72249E-09        -0.77978E-10         0.00000E+00
    0.71760E-09        -0.84720E-10         0.00000E+00
    0.71232E-09        -0.90930E-10         0.00000E+00
    0.70668E-09        -0.96650E-10         0.00000E+00
    0.70070E-09        -0.10192E-09         0.00000E+00
    0.69441E-09        -0.10679E-09         0.00000E+00
    0.68784E-09        -0.11128E-09         0.00000E+00
    0.68101E-09        -0.11543E-09         0.00000E+00
    0.67393E-09        -0.11927E-09         0.00000E+00
    0.66662E-09        -0.12283E-09         0.00000E+00
    0.65910E-09        -0.12613E-09         0.00000E+00
    0.65138E-09        -0.12918E-09         0.00000E+00
    0.64348E-09        -0.13200E-09         0.00000E+00
    0.63541E-09        -0.13461E-09         0.00000E+00
    0.62718E-09        -0.13700E-09         0.00000E+00
    0.61881E-09        -0.13918E-09         0.00000E+00
    0.61030E-09        -0.14116E-09         0.00000E+00
    0.60168E-09        -0.14292E-09         0.00000E+00
    0.59295E-09        -0.14445E-09         0.00000E+00
    0.58413E-09        -0.14574E-09         0.00000E+00
    0.57523E-09        -0.14678E-09         0.00000E+00
    0.56626E-09        -0.14753E-09         0.00000E+00
    0.55726E-09        -0.14797E-09         0.00000E+00
    0.54823E-09        -0.14807E-09         0.00000E+00
    0.53920E-09        -0.14778E-09         0.00000E+00
    0.53020E-09        -0.14707E-09         0.00000E+00
    0.52125E-09        -0.14588E-09         0.00000E+00
    0.51238E-09        -0.14414E-09         0.00000E+00
    0.50363E-09        -0.14181E-09         0.00000E+00
    0.49504E-09        -0.13881E-09         0.00000E+00
    0.48665E-09        -0.13506E-09         0.00000E+00
    0.47851E-09        -0.13048E-09         0.00000E+00
    0.47067E-09        -0.12499E-09         0.00000E+00
    0.46320E-09        -0.11849E-09         0.00000E+00
    0.45615E-09        -0.11089E-09         0.00000E+00
    0.44961E-09        -0.10210E-09         0.00000E+00
    0.44364E-09        -0.92027E-10         0.00000E+00
    0.43833E-09        -0.80571E-10         0.00000E+00
    0.43376E-09        -0.67650E-10         0.00000E+00
    0.43003E-09        -0.53188E-10         0.00000E+00
    0.42724E-09        -0.37117E-10         0.00000E+00
    0.42548E-09        -0.19384E-10         0.00000E+00
    0.42486E-09        -0.10096E-10         0.00000E+00
    0.73274E-09        -0.44380E-11         0.00000E+00
    0.73237E-09        -0.86650E-11         0.00000E+00
    0.73129E-09        -0.16832E-10         0.00000E+00
    0.72954E-09        -0.24432E-10         0.00000E+00
    0.72717E-09        -0.31484E-10         0.00000E+00
    0.72423E-09        -0.38012E-10         0.00000E+00
    0.72076E-09        -0.44042E-10         0.00000E+00
    0.71680E-09        -0.49603E-10         0.00000E+00
    0.71238E-09        -0.54726E-10         0.00000E+00
    0.70754E-09        -0.59441E-10         0.00000E+00
    0.70232E-09        -0.63781E-10         0.00000E+00
    0.69673E-09        -0.67776E-10         0.00000E+00
    0.69082E-09        -0.71454E-10         0.00000E+00
    0.68460E-09        -0.74845E-10         0.00000E+00
    0.67811E-09        -0.77972E-10         0.00000E+00
    0.67135E-09        -0.80860E-10         0.00000E+00
    0.66435E-09        -0.83530E-10         0.00000E+00
    0.65712E-09        -0.86000E-10         0.00000E+00
    0.64969E-09        -0.88284E-10         0.00000E+00
    0.64206E-09        -0.90398E-10         0.00000E+00
    0.63425E-09        -0.92350E-10         0.00000E+00
    0.62628E-09        -0.94149E-10         0.00000E+00
    0.61815E-09        -0.95798E-10         0.00000E+00
    0.60989E-09        -0.97301E-10         0.00000E+00
    0.60149E-09        -0.98657E-10         0.00000E+00
    0.59298E-09        -0.99861E-10         0.00000E+00
    0.58437E-09        -0.10091E-09         0.00000E+00
    0.57567E-09        -0.10179E-09         0.00000E+00
    0.56689E-09        -0.10249E-09         0.00000E+00
    0.55806E-09        -0.10299E-09         0.00000E+00
    0.54918E-09        -0.10328E-09         0.00000E+00
    0.54029E-09        -0.10332E-09         0.00000E+00
    0.53140E-09        -0.10310E-09         0.00000E+00
    0.52254E-09        -0.10259E-09         0.00000E+00
    0.51373E-09        -0.10174E-09         0.00000E+00
    0.50500E-09        -0.10051E-09         0.00000E+00
    0.49639E-09        -0.98873E-10         0.00000E+00
    0.48794E-09        -0.96766E-10         0.00000E+00
    0.47970E-09        -0.94141E-10         0.00000E+00
    0.47170E-09        -0.90941E-10         0.00000E+00
    0.46400E-09        -0.87106E-10         0.00000E+00
    0.45666E-09        -0.82572E-10         0.00000E+00
    0.44974E-09        -0.77275E-10         0.00000E+00
    0.44331E-09        -0.71148E-10         0.00000E+00
    0.43745E-09        -0.64126E-10         0.00000E+00
    0.43224E-09        -0.56145E-10         0.00000E+00
    0.42776E-09        -0.47143E-10         0.00000E+00
    0.42410E-09        -0.37067E-10         0.00000E+00
    0.42137E-09        -0.25870E-10         0.00000E+00
    0.41964E-09        -0.13512E-10         0.00000E+00
    0.41904E-09        -0.70386E-11         0.00000E+00
    0.72614E-09        -0.25846E-11         0.00000E+00
    0.72578E-09        -0.50434E-11         0.00000E+00
    0.72470E-09        -0.97902E-11         0.00000E+00
    0.72297E-09        -0.14201E-10         0.00000E+00
    0.72062E-09        -0.18286E-10         0.00000E+00
    0.71770E-09        -0.22062E-10         0.00000E+00
    0.71426E-09        -0.25543E-10         0.00000E+00
    0.71033E-09        -0.28748E-10         0.00000E+00
    0.70594E-09        -0.31695E-10         0.00000E+00
    0.70114E-09        -0.34403E-10         0.00000E+00
    0.69596E-09        -0.36891E-10         0.00000E+00
    0.69042E-09        -0.39176E-10         0.00000E+00
    0.68455E-09        -0.41277E-10         0.00000E+00
    0.67838E-09        -0.43209E-10         0.00000E+00
    0.67193E-09        -0.44987E-10         0.00000E+00
    0.66522E-09        -0.46626E-10         0.00000E+00
    0.65828E-09        -0.48138E-10         0.00000E+00
    0.65111E-09        -0.49534E-10         0.00000E+00
    0.64373E-09        -0.50822E-10         0.00000E+00
    0.63617E-09        -0.52011E-10         0.00000E+00
    0.62842E-09        -0.53107E-10         0.00000E+00
    0.62052E-09        -0.54115E-10         0.00000E+00
    0.61246E-09        -0.55037E-10         0.00000E+00
    0.60426E-09        -0.55874E-10         0.00000E+00
    0.59594E-09        -0.56627E-10         0.00000E+00
    0.58751E-09        -0.57293E-10         0.00000E+00
    0.57897E-09        -0.57870E-10         0.00000E+00
    0.57035E-09        -0.58351E-10         0.00000E+00
    0.56166E-09        -0.58730E-10         0.00000E+00
    0.55291E-09        -0.58997E-10         0.00000E+00
    0.54413E-09        -0.59142E-10         0.00000E+00
    0.53533E-09        -0.59150E-10         0.00000E+00
    0.52653E-09        -0.59008E-10         0.00000E+00
    0.51776E-09        -0.58697E-10         0.00000E+00
    0.50904E-09        -0.58197E-10         0.00000E+00
    0.50041E-09        -0.57485E-10         0.00000E+00
    0.49190E-09        -0.56537E-10         0.00000E+00
    0.48355E-09        -0.55324E-10         0.00000E+00
    0.47540E-09        -0.53818E-10         0.00000E+00
    0.46750E-09        -0.51985E-10         0.00000E+00
    0.45989E-09        -0.49791E-10         0.00000E+00
    0.45264E-09        -0.47200E-10         0.00000E+00
    0.44581E-09        -0.44174E-10         0.00000E+00
    0.43946E-09        -0.40676E-10         0.00000E+00
    0.43368E-09        -0.36667E-10         0.00000E+00
    0.42853E-09        -0.32110E-10         0.00000E+00
    0.42411E-09        -0.26969E-10         0.00000E+00
    0.42051E-09        -0.21211E-10         0.00000E+00
    0.41780E-09        -0.14809E-10         0.00000E+00
    0.41611E-09        -0.77377E-11         0.00000E+00
    0.41551E-09        -0.40324E-11         0.00000E+00
    0.72331E-09        -0.74300E-12         0.00000E+00
    0.72295E-09        -0.14447E-11         0.00000E+00
    0.72188E-09        -0.27926E-11         0.00000E+00
    0.72015E-09        -0.40319E-11         0.00000E+00
    0.71781E-09        -0.51678E-11         0.00000E+00
    0.71491E-09        -0.62061E-11         0.00000E+00
    0.71147E-09        -0.71529E-11         0.00000E+00
    0.70755E-09        -0.80147E-11         0.00000E+00
    0.70318E-09        -0.87978E-11         0.00000E+00
    0.69840E-09        -0.95089E-11         0.00000E+00
    0.69323E-09        -0.10154E-10         0.00000E+00
    0.68771E-09        -0.10739E-10         0.00000E+00
    0.68186E-09        -0.11270E-10         0.00000E+00
    0.67572E-09        -0.11753E-10         0.00000E+00
    0.66929E-09        -0.12191E-10         0.00000E+00
    0.66260E-09        -0.12589E-10         0.00000E+00
    0.65568E-09        -0.12951E-10         0.00000E+00
    0.64854E-09        -0.13282E-10         0.00000E+00
    0.64119E-09        -0.13582E-10         0.00000E+00
    0.63365E-09        -0.13856E-10         0.00000E+00
    0.62593E-09        -0.14105E-10         0.00000E+00
    0.61806E-09        -0.14330E-10         0.00000E+00
    0.61003E-09        -0.14533E-10         0.00000E+00
    0.60187E-09        -0.14715E-10         0.00000E+00
    0.59358E-09        -0.14875E-10         0.00000E+00
    0.58518E-09        -0.15013E-10         0.00000E+00
    0.57668E-09        -0.15130E-10         0.00000E+00
    0.56810E-09        -0.15223E-10         0.00000E+00
    0.55945E-09        -0.15290E-10         0.00000E+00
    0.55074E-09        -0.15331E-10         0.00000E+00
    0.54200E-09        -0.15342E-10         0.00000E+00
    0.53324E-09        -0.15321E-10         0.00000E+00
    0.52449E-09        -0.15262E-10         0.00000E+00
    0.51576E-09        -0.15163E-10         0.00000E+00
    0.50710E-09        -0.15018E-10         0.00000E+00
    0.49852E-09        -0.14821E-10         0.00000E+00
    0.49006E-09        -0.14567E-10         0.00000E+00
    0.48175E-09        -0.14249E-10         0.00000E+00
    0.47365E-09        -0.13858E-10         0.00000E+00
    0.46579E-09        -0.13386E-10         0.00000E+00
    0.45824E-09        -0.12825E-10         0.00000E+00
    0.45103E-09        -0.12164E-10         0.00000E+00
    0.44425E-09        -0.11394E-10         0.00000E+00
    0.43795E-09        -0.10503E-10         0.00000E+00
    0.43220E-09        -0.94819E-11         0.00000E+00
    0.42709E-09        -0.83181E-11         0.00000E+00
    0.42270E-09        -0.70008E-11         0.00000E+00
    0.41912E-09        -0.55195E-11         0.00000E+00
    0.41644E-09        -0.38639E-11         0.00000E+00
    0.41475E-09        -0.20249E-11         0.00000E+00
    0.41416E-09        -0.10585E-11         0.00000E+00
    0.72428E-09         0.10955E-11         0.00000E+00
    0.72391E-09         0.21482E-11         0.00000E+00
    0.72284E-09         0.41942E-11         0.00000E+00
    0.72111E-09         0.61218E-11         0.00000E+00
    0.71877E-09         0.79322E-11         0.00000E+00
    0.71586E-09         0.96283E-11         0.00000E+00
    0.71242E-09         0.11214E-10         0.00000E+00
    0.70850E-09         0.12694E-10         0.00000E+00
    0.70412E-09         0.14073E-10         0.00000E+00
    0.69933E-09         0.15358E-10         0.00000E+00
    0.69416E-09         0.16554E-10         0.00000E+00
    0.68863E-09         0.17667E-10         0.00000E+00
    0.68277E-09         0.18704E-10         0.00000E+00
    0.67661E-09         0.19670E-10         0.00000E+00
    0.67018E-09         0.20572E-10         0.00000E+00
    0.66348E-09         0.21412E-10         0.00000E+00
    0.65655E-09         0.22197E-10         0.00000E+00
    0.64939E-09         0.22930E-10         0.00000E+00
    0.64203E-09         0.23615E-10         0.00000E+00
    0.63448E-09         0.24254E-10         0.00000E+00
    0.62676E-09         0.24849E-10         0.00000E+00
    0.61887E-09         0.25402E-10         0.00000E+00
    0.61083E-09         0.25913E-10         0.00000E+00
    0.60266E-09         0.26383E-10         0.00000E+00
    0.59436E-09         0.26811E-10         0.00000E+00
    0.58595E-09         0.27196E-10         0.00000E+00
    0.57745E-09         0.27534E-10         0.00000E+00
    0.56886E-09         0.27825E-10         0.00000E+00
    0.56020E-09         0.28062E-10         0.00000E+00
    0.55149E-09         0.28242E-10         0.00000E+00
    0.54274E-09         0.28359E-10         0.00000E+00
    0.53398E-09         0.28406E-10         0.00000E+00
    0.52522E-09         0.28376E-10         0.00000E+00
    0.51649E-09         0.28258E-10         0.00000E+00
    0.50782E-09         0.28044E-10         0.00000E+00
    0.49924E-09         0.27721E-10         0.00000E+00
    0.49078E-09         0.27278E-10         0.00000E+00
    0.48248E-09         0.26701E-10         0.00000E+00
    0.47438E-09         0.25975E-10         0.00000E+00
    0.46652E-09         0.25085E-10         0.00000E+00
    0.45897E-09         0.24015E-10         0.00000E+00
    0.45177E-09         0.22748E-10         0.00000E+00
    0.44498E-09         0.21268E-10         0.00000E+00
    0.43868E-09         0.19557E-10         0.00000E+00
    0.43294E-09         0.17599E-10         0.00000E+00
    0.42784E-09         0.15380E-10         0.00000E+00
    0.42345E-09         0.12887E-10         0.00000E+00
    0.41987E-09         0.10108E-10         0.00000E+00
    0.41720E-09         0.70348E-11         0.00000E+00
    0.41551E-09         0.36633E-11         0.00000E+00
    0.41492E-09         0.19025E-11         0.00000E+00
    0.72908E-09         0.29409E-11         0.00000E+00
    0.72871E-09         0.57548E-11         0.00000E+00
    0.72763E-09         0.11208E-10         0.00000E+00
    0.72589E-09         0.16315E-10         0.00000E+00
    0.72353E-09         0.21084E-10         0.00000E+00
    0.72060E-09         0.25526E-10         0.00000E+00
    0.71714E-09         0.29654E-10         0.00000E+00
    0.71319E-09         0.33486E-10         0.00000E+00
    0.70879E-09         0.37037E-10         0.00000E+00
    0.70396E-09         0.40326E-10         0.00000E+00
    0.69875E-09         0.43371E-10         0.00000E+00
    0.69318E-09         0.46191E-10         0.00000E+00
    0.68729E-09         0.48803E-10         0.00000E+00
    0.68109E-09         0.51224E-10         0.00000E+00
    0.67460E-09         0.53470E-10         0.00000E+00
    0.66786E-09         0.55554E-10         0.00000E+00
    0.66088E-09         0.57491E-10         0.00000E+00
    0.65368E-09         0.59291E-10         0.00000E+00
    0.64627E-09         0.60964E-10         0.00000E+00
    0.63867E-09         0.62517E-10         0.00000E+00
    0.63089E-09         0.63958E-10         0.00000E+00
    0.62295E-09         0.65291E-10         0.00000E+00
    0.61486E-09         0.66518E-10         0.00000E+00
    0.60663E-09         0.67640E-10         0.00000E+00
    0.59828E-09         0.68656E-10         0.00000E+00
    0.58981E-09         0.69563E-10         0.00000E+00
    0.58125E-09         0.70356E-10         0.00000E+00
    0.57260E-09         0.71028E-10         0.00000E+00
    0.56389E-09         0.71569E-10         0.00000E+00
    0.55512E-09         0.71968E-10         0.00000E+00
    0.54632E-09         0.72211E-10         0.00000E+00
    0.53750E-09         0.72280E-10         0.00000E+00
    0.52869E-09         0.72156E-10         0.00000E+00
    0.51991E-09         0.71818E-10         0.00000E+00
    0.51119E-09         0.71240E-10         0.00000E+00
    0.50255E-09         0.70393E-10         0.00000E+00
    0.49404E-09         0.69247E-10         0.00000E+00
    0.48569E-09         0.67769E-10         0.00000E+00
    0.47754E-09         0.65920E-10         0.00000E+00
    0.46964E-09         0.63662E-10         0.00000E+00
    0.46204E-09         0.60954E-10         0.00000E+00
    0.45480E-09         0.57752E-10         0.00000E+00
    0.44798E-09         0.54012E-10         0.00000E+00
    0.44164E-09         0.49691E-10         0.00000E+00
    0.43587E-09         0.44745E-10         0.00000E+00
    0.43074E-09         0.39134E-10         0.00000E+00
    0.42633E-09         0.32820E-10         0.00000E+00
    0.42273E-09         0.25769E-10         0.00000E+00
    0.42004E-09         0.17957E-10         0.00000E+00
    0.41834E-09         0.93635E-11         0.00000E+00
    0.41775E-09         0.48695E-11         0.00000E+00
    0.73775E-09         0.48040E-11         0.00000E+00
    0.73738E-09         0.93958E-11         0.00000E+00
    0.73628E-09         0.18289E-10         0.00000E+00
    0.73452E-09         0.26606E-10         0.00000E+00
    0.73213E-09         0.34362E-10         0.00000E+00
    0.72917E-09         0.41576E-10         0.00000E+00
    0.72567E-09         0.48272E-10         0.00000E+00
    0.72166E-09         0.54478E-10         0.00000E+00
    0.71720E-09         0.60222E-10         0.00000E+00
    0.71232E-09         0.65535E-10         0.00000E+00
    0.70704E-09         0.70447E-10         0.00000E+00
    0.70141E-09         0.74990E-10         0.00000E+00
    0.69544E-09         0.79192E-10         0.00000E+00
    0.68916E-09         0.83081E-10         0.00000E+00
    0.68260E-09         0.86684E-10         0.00000E+00
    0.67577E-09         0.90024E-10         0.00000E+00
    0.66871E-09         0.93123E-10         0.00000E+00
    0.66141E-09         0.95999E-10         0.00000E+00
    0.65391E-09         0.98669E-10         0.00000E+00
    0.64622E-09         0.10115E-09         0.00000E+00
    0.63834E-09         0.10344E-09         0.00000E+00
    0.63031E-09         0.10556E-09         0.00000E+00
    0.62212E-09         0.10751E-09         0.00000E+00
    0.61379E-09         0.10929E-09         0.00000E+00
    0.60533E-09         0.11089E-09         0.00000E+00
    0.59677E-09         0.11233E-09         0.00000E+00
    0.58810E-09         0.11358E-09         0.00000E+00
    0.57935E-09         0.11463E-09         0.00000E+00
    0.57053E-09         0.11548E-09         0.00000E+00
    0.56165E-09         0.11610E-09         0.00000E+00
    0.55274E-09         0.11646E-09         0.00000E+00
    0.54382E-09         0.11655E-09         0.00000E+00
    0.53490E-09         0.11634E-09         0.00000E+00
    0.52601E-09         0.11577E-09         0.00000E+00
    0.51719E-09         0.11483E-09         0.00000E+00
    0.50845E-09         0.11345E-09         0.00000E+00
    0.49984E-09         0.11159E-09         0.00000E+00
    0.49138E-09         0.10920E-09         0.00000E+00
    0.48314E-09         0.10622E-09         0.00000E+00
    0.47514E-09         0.10258E-09         0.00000E+00
    0.46745E-09         0.98218E-10         0.00000E+00
    0.46013E-09         0.93063E-10         0.00000E+00
    0.45322E-09         0.87043E-10         0.00000E+00
    0.44681E-09         0.80088E-10         0.00000E+00
    0.44097E-09         0.72127E-10         0.00000E+00
    0.43578E-09         0.63093E-10         0.00000E+00
    0.43132E-09         0.52924E-10         0.00000E+00
    0.42768E-09         0.41566E-10         0.00000E+00
    0.42495E-09         0.28973E-10         0.00000E+00
    0.42324E-09         0.15112E-10         0.00000E+00
    0.42264E-09         0.78617E-11         0.00000E+00
    0.75034E-09         0.66958E-11         0.00000E+00
    0.74996E-09         0.13093E-10         0.00000E+00
    0.74884E-09         0.25479E-10         0.00000E+00
    0.74705E-09         0.37055E-10         0.00000E+00
    0.74462E-09         0.47843E-10         0.00000E+00
    0.74160E-09         0.57872E-10         0.00000E+00
    0.73804E-09         0.67175E-10         0.00000E+00
    0.73396E-09         0.75791E-10         0.00000E+00
    0.72942E-09         0.83761E-10         0.00000E+00
    0.72445E-09         0.91128E-10         0.00000E+00
    0.71908E-09         0.97935E-10         0.00000E+00
    0.71334E-09         0.10423E-09         0.00000E+00
    0.70726E-09         0.11004E-09         0.00000E+00
    0.70087E-09         0.11542E-09         0.00000E+00
    0.69420E-09         0.12040E-09         0.00000E+00
    0.68725E-09         0.12501E-09         0.00000E+00
    0.68006E-09         0.12929E-09         0.00000E+00
    0.67264E-09         0.13326E-09         0.00000E+00
    0.66500E-09         0.13694E-09         0.00000E+00
    0.65717E-09         0.14036E-09         0.00000E+00
    0.64916E-09         0.14351E-09         0.00000E+00
    0.64098E-09         0.14643E-09         0.00000E+00
    0.63264E-09         0.14911E-09         0.00000E+00
    0.62417E-09         0.15156E-09         0.00000E+00
    0.61556E-09         0.15377E-09         0.00000E+00
    0.60684E-09         0.15573E-09         0.00000E+00
    0.59802E-09         0.15745E-09         0.00000E+00
    0.58912E-09         0.15889E-09         0.00000E+00
    0.58014E-09         0.16005E-09         0.00000E+00
    0.57111E-09         0.16089E-09         0.00000E+00
    0.56204E-09         0.16138E-09         0.00000E+00
    0.55296E-09         0.16149E-09         0.00000E+00
    0.54388E-09         0.16118E-09         0.00000E+00
    0.53483E-09         0.16039E-09         0.00000E+00
    0.52585E-09         0.15906E-09         0.00000E+00
    0.51696E-09         0.15715E-09         0.00000E+00
    0.50819E-09         0.15457E-09         0.00000E+00
    0.49959E-09         0.15126E-09         0.00000E+00
    0.49119E-09         0.14712E-09         0.00000E+00
    0.48305E-09         0.14208E-09         0.00000E+00
    0.47523E-09         0.13604E-09         0.00000E+00
    0.46777E-09         0.12890E-09         0.00000E+00
    0.46074E-09         0.12057E-09         0.00000E+00
    0.45422E-09         0.11094E-09         0.00000E+00
    0.44827E-09         0.99919E-10         0.00000E+00
    0.44298E-09         0.87411E-10         0.00000E+00
    0.43844E-09         0.73329E-10         0.00000E+00
    0.43474E-09         0.57598E-10         0.00000E+00
    0.43196E-09         0.40153E-10         0.00000E+00
    0.43022E-09         0.20947E-10         0.00000E+00
    0.42960E-09         0.10899E-10         0.00000E+00
    0.76689E-09         0.86274E-11         0.00000E+00
    0.76650E-09         0.16868E-10         0.00000E+00
    0.76536E-09         0.32819E-10         0.00000E+00
    0.76353E-09         0.47723E-10         0.00000E+00
    0.76104E-09         0.61606E-10         0.00000E+00
    0.75795E-09         0.74508E-10         0.00000E+00
    0.75430E-09         0.86470E-10         0.00000E+00
    0.75013E-09         0.97545E-10         0.00000E+00
    0.74549E-09         0.10779E-09         0.00000E+00
    0.74040E-09         0.11725E-09         0.00000E+00
    0.73491E-09         0.12599E-09         0.00000E+00
    0.72904E-09         0.13406E-09         0.00000E+00
    0.72282E-09         0.14152E-09         0.00000E+00
    0.71629E-09         0.14842E-09         0.00000E+00
    0.70945E-09         0.15481E-09         0.00000E+00
    0.70235E-09         0.16072E-09         0.00000E+00
    0.69499E-09         0.16620E-09         0.00000E+00
    0.68740E-09         0.17128E-09         0.00000E+00
    0.67959E-09         0.17599E-09         0.00000E+00
    0.67158E-09         0.18036E-09         0.00000E+00
    0.66339E-09         0.18440E-09         0.00000E+00
    0.65502E-09         0.18813E-09         0.00000E+00
    0.64649E-09         0.19156E-09         0.00000E+00
    0.63782E-09         0.19469E-09         0.00000E+00
    0.62902E-09         0.19751E-09         0.00000E+00
    0.62010E-09         0.20002E-09         0.00000E+00
    0.61108E-09         0.20221E-09         0.00000E+00
    0.60197E-09         0.20405E-09         0.00000E+00
    0.59278E-09         0.20553E-09         0.00000E+00
    0.58354E-09         0.20660E-09         0.00000E+00
    0.57427E-09         0.20722E-09         0.00000E+00
    0.56497E-09         0.20735E-09         0.00000E+00
    0.55568E-09         0.20694E-09         0.00000E+00
    0.54643E-09         0.20592E-09         0.00000E+00
    0.53723E-09         0.20422E-09         0.00000E+00
    0.52813E-09         0.20176E-09         0.00000E+00
    0.51915E-09         0.19845E-09         0.00000E+00
    0.51035E-09         0.19419E-09         0.00000E+00
    0.50175E-09         0.18888E-09         0.00000E+00
    0.49342E-09         0.18241E-09         0.00000E+00
    0.48541E-09         0.17465E-09         0.00000E+00
    0.47777E-09         0.16549E-09         0.00000E+00
    0.47058E-09         0.15480E-09         0.00000E+00
    0.46390E-09         0.14244E-09         0.00000E+00
    0.45781E-09         0.12829E-09         0.00000E+00
    0.45239E-09         0.11224E-09         0.00000E+00
    0.44774E-09         0.94165E-10         0.00000E+00
    0.44395E-09         0.73969E-10         0.00000E+00
    0.44111E-09         0.51570E-10         0.00000E+00
    0.43932E-09         0.26905E-10         0.00000E+00
    0.43869E-09         0.14000E-10         0.00000E+00
    0.78747E-09         0.10610E-10         0.00000E+00
    0.78706E-09         0.20742E-10         0.00000E+00
    0.78589E-09         0.40351E-10         0.00000E+00
    0.78400E-09         0.58667E-10         0.00000E+00
    0.78145E-09         0.75726E-10         0.00000E+00
    0.77827E-09         0.91572E-10         0.00000E+00
    0.77452E-09         0.10626E-09         0.00000E+00
    0.77024E-09         0.11986E-09         0.00000E+00
    0.76546E-09         0.13243E-09         0.00000E+00
    0.76024E-09         0.14403E-09         0.00000E+00
    0.75459E-09         0.15475E-09         0.00000E+00
    0.74856E-09         0.16466E-09         0.00000E+00
    0.74217E-09         0.17380E-09         0.00000E+00
    0.73546E-09         0.18226E-09         0.00000E+00
    0.72844E-09         0.19008E-09         0.00000E+00
    0.72114E-09         0.19732E-09         0.00000E+00
    0.71358E-09         0.20404E-09         0.00000E+00
    0.70578E-09         0.21026E-09         0.00000E+00
    0.69776E-09         0.21603E-09         0.00000E+00
    0.68953E-09         0.22138E-09         0.00000E+00
    0.68111E-09         0.22633E-09         0.00000E+00
    0.67251E-09         0.23089E-09         0.00000E+00
    0.66375E-09         0.23509E-09         0.00000E+00
    0.65484E-09         0.23891E-09         0.00000E+00
    0.64580E-09         0.24237E-09         0.00000E+00
    0.63663E-09         0.24544E-09         0.00000E+00
    0.62736E-09         0.24812E-09         0.00000E+00
    0.61799E-09         0.25038E-09         0.00000E+00
    0.60855E-09         0.25218E-09         0.00000E+00
    0.59905E-09         0.25348E-09         0.00000E+00
    0.58951E-09         0.25425E-09         0.00000E+00
    0.57995E-09         0.25441E-09         0.00000E+00
    0.57040E-09         0.25390E-09         0.00000E+00
    0.56087E-09         0.25264E-09         0.00000E+00
    0.55141E-09         0.25056E-09         0.00000E+00
    0.54205E-09         0.24754E-09         0.00000E+00
    0.53282E-09         0.24347E-09         0.00000E+00
    0.52375E-09         0.23825E-09         0.00000E+00
    0.51491E-09         0.23174E-09         0.00000E+00
    0.50634E-09         0.22381E-09         0.00000E+00
    0.49809E-09         0.21430E-09         0.00000E+00
    0.49022E-09         0.20306E-09         0.00000E+00
    0.48282E-09         0.18994E-09         0.00000E+00
    0.47594E-09         0.17479E-09         0.00000E+00
    0.46967E-09         0.15744E-09         0.00000E+00
    0.46409E-09         0.13774E-09         0.00000E+00
    0.45930E-09         0.11556E-09         0.00000E+00
    0.45539E-09         0.90784E-10         0.00000E+00
    0.45246E-09         0.63297E-10         0.00000E+00
    0.45062E-09         0.33025E-10         0.00000E+00
    0.44997E-09         0.17185E-10         0.00000E+00
    0.81211E-09         0.12652E-10         0.00000E+00
    0.81170E-09         0.24733E-10         0.00000E+00
    0.81049E-09         0.48111E-10         0.00000E+00
    0.80854E-09         0.69942E-10         0.00000E+00
    0.80590E-09         0.90269E-10         0.00000E+00
    0.80263E-09         0.10915E-09         0.00000E+00
    0.79876E-09         0.12664E-09         0.00000E+00
    0.79434E-09         0.14283E-09         0.00000E+00
    0.78941E-09         0.15780E-09         0.00000E+00
    0.78402E-09         0.17161E-09         0.00000E+00
    0.77820E-09         0.18437E-09         0.00000E+00
    0.77198E-09         0.19615E-09         0.00000E+00
    0.76540E-09         0.20703E-09         0.00000E+00
    0.75847E-09         0.21709E-09         0.00000E+00
    0.75123E-09         0.22639E-09         0.00000E+00
    0.74371E-09         0.23501E-09         0.00000E+00
    0.73591E-09         0.24299E-09         0.00000E+00
    0.72787E-09         0.25039E-09         0.00000E+00
    0.71960E-09         0.25725E-09         0.00000E+00
    0.71111E-09         0.26361E-09         0.00000E+00
    0.70243E-09         0.26949E-09         0.00000E+00
    0.69356E-09         0.27492E-09         0.00000E+00
    0.68452E-09         0.27991E-09         0.00000E+00
    0.67533E-09         0.28446E-09         0.00000E+00
    0.66600E-09         0.28857E-09         0.00000E+00
    0.65654E-09         0.29223E-09         0.00000E+00
    0.64697E-09         0.29541E-09         0.00000E+00
    0.63730E-09         0.29810E-09         0.00000E+00
    0.62755E-09         0.30025E-09         0.00000E+00
    0.61774E-09         0.30180E-09         0.00000E+00
    0.60788E-09         0.30271E-09         0.00000E+00
    0.59801E-09         0.30291E-09         0.00000E+00
    0.58814E-09         0.30231E-09         0.00000E+00
    0.57830E-09         0.30082E-09         0.00000E+00
    0.56852E-09         0.29834E-09         0.00000E+00
    0.55884E-09         0.29475E-09         0.00000E+00
    0.54930E-09         0.28992E-09         0.00000E+00
    0.53993E-09         0.28372E-09         0.00000E+00
    0.53078E-09         0.27597E-09         0.00000E+00
    0.52191E-09         0.26653E-09         0.00000E+00
    0.51337E-09         0.25521E-09         0.00000E+00
    0.50524E-09         0.24184E-09         0.00000E+00
    0.49757E-09         0.22623E-09         0.00000E+00
    0.49045E-09         0.20818E-09         0.00000E+00
    0.48396E-09         0.18753E-09         0.00000E+00
    0.47819E-09         0.16408E-09         0.00000E+00
    0.47323E-09         0.13767E-09         0.00000E+00
    0.46918E-09         0.10815E-09         0.00000E+00
    0.46615E-09         0.75410E-10         0.00000E+00
    0.46424E-09         0.39348E-10         0.00000E+00
    0.46357E-09         0.20477E-10         0.00000E+00
    0.84089E-09         0.14763E-10         0.00000E+00
    0.84046E-09         0.28857E-10         0.00000E+00
    0.83921E-09         0.56130E-10         0.00000E+00
    0.83719E-09         0.81592E-10         0.00000E+00
    0.83447E-09         0.10530E-09         0.00000E+00
    0.83108E-09         0.12731E-09         0.00000E+00
    0.82708E-09         0.14770E-09         0.00000E+00
    0.82251E-09         0.16657E-09         0.00000E+00
    0.81742E-09         0.18400E-09         0.00000E+00
    0.81184E-09         0.20010E-09         0.00000E+00
    0.80582E-09         0.21496E-09         0.00000E+00
    0.79940E-09         0.22868E-09         0.00000E+00
    0.79259E-09         0.24135E-09         0.00000E+00
    0.78543E-09         0.25306E-09         0.00000E+00
    0.77795E-09         0.26389E-09         0.00000E+00
    0.77017E-09         0.27393E-09         0.00000E+00
    0.76211E-09         0.28322E-09         0.00000E+00
    0.75379E-09         0.29184E-09         0.00000E+00
    0.74523E-09         0.29983E-09         0.00000E+00
    0.73646E-09         0.30724E-09         0.00000E+00
    0.72747E-09         0.31409E-09         0.00000E+00
    0.71830E-09         0.32042E-09         0.00000E+00
    0.70895E-09         0.32623E-09         0.00000E+00
    0.69943E-09         0.33154E-09         0.00000E+00
    0.68977E-09         0.33633E-09         0.00000E+00
    0.67997E-09         0.34060E-09         0.00000E+00
    0.67006E-09         0.34433E-09         0.00000E+00
    0.66004E-09         0.34747E-09         0.00000E+00
    0.64994E-09         0.34998E-09         0.00000E+00
    0.63977E-09         0.35180E-09         0.00000E+00
    0.62956E-09         0.35288E-09         0.00000E+00
    0.61932E-09         0.35312E-09         0.00000E+00
    0.60908E-09         0.35244E-09         0.00000E+00
    0.59887E-09         0.35072E-09         0.00000E+00
    0.58873E-09         0.34785E-09         0.00000E+00
    0.57868E-09         0.34368E-09         0.00000E+00
    0.56876E-09         0.33806E-09         0.00000E+00
    0.55903E-09         0.33084E-09         0.00000E+00
    0.54953E-09         0.32183E-09         0.00000E+00
    0.54031E-09         0.31083E-09         0.00000E+00
    0.53144E-09         0.29765E-09         0.00000E+00
    0.52298E-09         0.28207E-09         0.00000E+00
    0.51501E-09         0.26387E-09         0.00000E+00
    0.50761E-09         0.24284E-09         0.00000E+00
    0.50085E-09         0.21876E-09         0.00000E+00
    0.49485E-09         0.19141E-09         0.00000E+00
    0.48968E-09         0.16061E-09         0.00000E+00
    0.48547E-09         0.12619E-09         0.00000E+00
    0.48231E-09         0.87991E-10         0.00000E+00
    0.48033E-09         0.45915E-10         0.00000E+00
    0.47963E-09         0.23896E-10         0.00000E+00
    0.87386E-09         0.16949E-10         0.00000E+00
    0.87341E-09         0.33128E-10         0.00000E+00
    0.87212E-09         0.64431E-10         0.00000E+00
    0.87003E-09         0.93652E-10         0.00000E+00
    0.86721E-09         0.12085E-09         0.00000E+00
    0.86370E-09         0.14610E-09         0.00000E+00
    0.85956E-09         0.16949E-09         0.00000E+00
    0.85483E-09         0.19113E-09         0.00000E+00
    0.84956E-09         0.21112E-09         0.00000E+00
    0.84379E-09         0.22958E-09         0.00000E+00
    0.83756E-09         0.24661E-09         0.00000E+00
    0.83091E-09         0.26234E-09         0.00000E+00
    0.82386E-09         0.27686E-09         0.00000E+00
    0.81645E-09         0.29029E-09         0.00000E+00
    0.80870E-09         0.30271E-09         0.00000E+00
    0.80065E-09         0.31421E-09         0.00000E+00
    0.79230E-09         0.32487E-09         0.00000E+00
    0.78368E-09         0.33475E-09         0.00000E+00
    0.77482E-09         0.34392E-09         0.00000E+00
    0.76572E-09         0.35242E-09         0.00000E+00
    0.75641E-09         0.36029E-09         0.00000E+00
    0.74690E-09         0.36756E-09         0.00000E+00
    0.73720E-09         0.37424E-09         0.00000E+00
    0.72733E-09         0.38034E-09         0.00000E+00
    0.71730E-09         0.38586E-09         0.00000E+00
    0.70713E-09         0.39078E-09         0.00000E+00
    0.69684E-09         0.39507E-09         0.00000E+00
    0.68643E-09         0.39869E-09         0.00000E+00
    0.67594E-09         0.40160E-09         0.00000E+00
    0.66536E-09         0.40372E-09         0.00000E+00
    0.65474E-09         0.40499E-09         0.00000E+00
    0.64409E-09         0.40529E-09         0.00000E+00
    0.63344E-09         0.40454E-09         0.00000E+00
    0.62281E-09         0.40260E-09         0.00000E+00
    0.61224E-09         0.39932E-09         0.00000E+00
    0.60177E-09         0.39457E-09         0.00000E+00
    0.59144E-09         0.38815E-09         0.00000E+00
    0.58129E-09         0.37989E-09         0.00000E+00
    0.57138E-09         0.36957E-09         0.00000E+00
    0.56177E-09         0.35697E-09         0.00000E+00
    0.55251E-09         0.34186E-09         0.00000E+00
    0.54368E-09         0.32399E-09         0.00000E+00
    0.53536E-09         0.30311E-09         0.00000E+00
    0.52762E-09         0.27897E-09         0.00000E+00
    0.52057E-09         0.25132E-09         0.00000E+00
    0.51429E-09         0.21992E-09         0.00000E+00
    0.50889E-09         0.18455E-09         0.00000E+00
    0.50449E-09         0.14500E-09         0.00000E+00
    0.50118E-09         0.10112E-09         0.00000E+00
    0.49911E-09         0.52770E-10         0.00000E+00
    0.49838E-09         0.27465E-10         0.00000E+00
    0.91110E-09         0.19213E-10         0.00000E+00
    0.91064E-09         0.37550E-10         0.00000E+00
    0.90930E-09         0.73027E-10         0.00000E+00
    0.90714E-09         0.10614E-09         0.00000E+00
    0.90422E-09         0.13695E-09         0.00000E+00
    0.90059E-09         0.16555E-09         0.00000E+00
    0.89630E-09         0.19205E-09         0.00000E+00
    0.89141E-09         0.21655E-09         0.00000E+00
    0.88596E-09         0.23919E-09         0.00000E+00
    0.87999E-09         0.26009E-09         0.00000E+00
    0.87354E-09         0.27939E-09         0.00000E+00
    0.86665E-09         0.29719E-09         0.00000E+00
    0.85936E-09         0.31364E-09         0.00000E+00
    0.85169E-09         0.32885E-09         0.00000E+00
    0.84366E-09         0.34292E-09         0.00000E+00
    0.83532E-09         0.35595E-09         0.00000E+00
    0.82667E-09         0.36803E-09         0.00000E+00
    0.81774E-09         0.37923E-09         0.00000E+00
    0.80855E-09         0.38963E-09         0.00000E+00
    0.79911E-09         0.39928E-09         0.00000E+00
    0.78945E-09         0.40822E-09         0.00000E+00
    0.77958E-09         0.41648E-09         0.00000E+00
    0.76951E-09         0.42408E-09         0.00000E+00
    0.75925E-09         0.43102E-09         0.00000E+00
    0.74883E-09         0.43731E-09         0.00000E+00
    0.73826E-09         0.44292E-09         0.00000E+00
    0.72755E-09         0.44783E-09         0.00000E+00
    0.71672E-09         0.45198E-09         0.00000E+00
    0.70579E-09         0.45532E-09         0.00000E+00
    0.69478E-09         0.45777E-09         0.00000E+00
    0.68371E-09         0.45925E-09         0.00000E+00
    0.67260E-09         0.45965E-09         0.00000E+00
    0.66149E-09         0.45884E-09         0.00000E+00
    0.65040E-09         0.45669E-09         0.00000E+00
    0.63936E-09         0.45303E-09         0.00000E+00
    0.62842E-09         0.44768E-09         0.00000E+00
    0.61762E-09         0.44045E-09         0.00000E+00
    0.60701E-09         0.43112E-09         0.00000E+00
    0.59664E-09         0.41946E-09         0.00000E+00
    0.58658E-09         0.40520E-09         0.00000E+00
    0.57688E-09         0.38809E-09         0.00000E+00
    0.56764E-09         0.36784E-09         0.00000E+00
    0.55891E-09         0.34417E-09         0.00000E+00
    0.55080E-09         0.31679E-09         0.00000E+00
    0.54340E-09         0.28542E-09         0.00000E+00
    0.53682E-09         0.24979E-09         0.00000E+00
    0.53115E-09         0.20963E-09         0.00000E+00
    0.52653E-09         0.16472E-09         0.00000E+00
    0.52306E-09         0.11488E-09         0.00000E+00
    0.52088E-09         0.59956E-10         0.00000E+00
    0.52011E-09         0.31208E-10         0.00000E+00
    0.95269E-09         0.21553E-10         0.00000E+00
    0.95221E-09         0.42122E-10         0.00000E+00
    0.95083E-09         0.81914E-10         0.00000E+00
    0.94861E-09         0.11905E-09         0.00000E+00
    0.94559E-09         0.15360E-09         0.00000E+00
    0.94184E-09         0.18567E-09         0.00000E+00
    0.93742E-09         0.21538E-09         0.00000E+00
    0.93237E-09         0.24285E-09         0.00000E+00
    0.92674E-09         0.26823E-09         0.00000E+00
    0.92057E-09         0.29166E-09         0.00000E+00
    0.91391E-09         0.31329E-09         0.00000E+00
    0.90679E-09         0.33326E-09         0.00000E+00
    0.89925E-09         0.35171E-09         0.00000E+00
    0.89132E-09         0.36877E-09         0.00000E+00
    0.88302E-09         0.38456E-09         0.00000E+00
    0.87438E-09         0.39919E-09         0.00000E+00
    0.86543E-09         0.41275E-09         0.00000E+00
    0.85618E-09         0.42535E-09         0.00000E+00
    0.84666E-09         0.43704E-09         0.00000E+00
    0.83688E-09         0.44790E-09         0.00000E+00
    0.82686E-09         0.45797E-09         0.00000E+00
    0.81661E-09         0.46728E-09         0.00000E+00
    0.80615E-09         0.47586E-09         0.00000E+00
    0.79550E-09         0.48371E-09         0.00000E+00
    0.78467E-09         0.49082E-09         0.00000E+00
    0.77367E-09         0.49718E-09         0.00000E+00
    0.76252E-09         0.50276E-09         0.00000E+00
    0.75124E-09         0.50749E-09         0.00000E+00
    0.73985E-09         0.51131E-09         0.00000E+00
    0.72837E-09         0.51414E-09         0.00000E+00
    0.71681E-09         0.51588E-09         0.00000E+00
    0.70521E-09         0.51640E-09         0.00000E+00
    0.69360E-09         0.51557E-09         0.00000E+00
    0.68200E-09         0.51323E-09         0.00000E+00
    0.67046E-09         0.50919E-09         0.00000E+00
    0.65900E-09         0.50326E-09         0.00000E+00
    0.64769E-09         0.49521E-09         0.00000E+00
    0.63657E-09         0.48479E-09         0.00000E+00
    0.62569E-09         0.47173E-09         0.00000E+00
    0.61513E-09         0.45577E-09         0.00000E+00
    0.60495E-09         0.43658E-09         0.00000E+00
    0.59524E-09         0.41386E-09         0.00000E+00
    0.58607E-09         0.38728E-09         0.00000E+00
    0.57754E-09         0.35652E-09         0.00000E+00
    0.56975E-09         0.32125E-09         0.00000E+00
    0.56282E-09         0.28118E-09         0.00000E+00
    0.55686E-09         0.23600E-09         0.00000E+00
    0.55199E-09         0.18547E-09         0.00000E+00
    0.54833E-09         0.12936E-09         0.00000E+00
    0.54603E-09         0.67520E-10         0.00000E+00
    0.54522E-09         0.35149E-10         0.00000E+00
    0.99874E-09         0.23964E-10         0.00000E+00
    0.99826E-09         0.46832E-10         0.00000E+00
    0.99684E-09         0.91070E-10         0.00000E+00
    0.99455E-09         0.13235E-09         0.00000E+00
    0.99145E-09         0.17076E-09         0.00000E+00
    0.98760E-09         0.20640E-09         0.00000E+00
    0.98305E-09         0.23942E-09         0.00000E+00
    0.97786E-09         0.26996E-09         0.00000E+00
    0.97207E-09         0.29817E-09         0.00000E+00
    0.96572E-09         0.32423E-09         0.00000E+00
    0.95886E-09         0.34828E-09         0.00000E+00
    0.95153E-09         0.37049E-09         0.00000E+00
    0.94376E-09         0.39102E-09         0.00000E+00
    0.93558E-09         0.41001E-09         0.00000E+00
    0.92702E-09         0.42759E-09         0.00000E+00
    0.91811E-09         0.44390E-09         0.00000E+00
    0.90886E-09         0.45903E-09         0.00000E+00
    0.89931E-09         0.47309E-09         0.00000E+00
    0.88946E-09         0.48615E-09         0.00000E+00
    0.87934E-09         0.49829E-09         0.00000E+00
    0.86896E-09         0.50956E-09         0.00000E+00
    0.85834E-09         0.52000E-09         0.00000E+00
    0.84750E-09         0.52963E-09         0.00000E+00
    0.83644E-09         0.53845E-09         0.00000E+00
    0.82518E-09         0.54647E-09         0.00000E+00
    0.81375E-09         0.55365E-09         0.00000E+00
    0.80215E-09         0.55996E-09         0.00000E+00
    0.79040E-09         0.56533E-09         0.00000E+00
    0.77853E-09         0.56970E-09         0.00000E+00
    0.76655E-09         0.57297E-09         0.00000E+00
    0.75449E-09         0.57502E-09         0.00000E+00
    0.74237E-09         0.57572E-09         0.00000E+00
    0.73022E-09         0.57491E-09         0.00000E+00
    0.71809E-09         0.57241E-09         0.00000E+00
    0.70599E-09         0.56802E-09         0.00000E+00
    0.69399E-09         0.56151E-09         0.00000E+00
    0.68212E-09         0.55263E-09         0.00000E+00
    0.67045E-09         0.54111E-09         0.00000E+00
    0.65902E-09         0.52664E-09         0.00000E+00
    0.64792E-09         0.50890E-09         0.00000E+00
    0.63721E-09         0.48756E-09         0.00000E+00
    0.62698E-09         0.46227E-09         0.00000E+00
    0.61733E-09         0.43265E-09         0.00000E+00
    0.60834E-09         0.39835E-09         0.00000E+00
    0.60013E-09         0.35901E-09         0.00000E+00
    0.59282E-09         0.31427E-09         0.00000E+00
    0.58652E-09         0.26381E-09         0.00000E+00
    0.58138E-09         0.20735E-09         0.00000E+00
    0.57752E-09         0.14465E-09         0.00000E+00
    0.57509E-09         0.75507E-10         0.00000E+00
    0.57423E-09         0.39311E-10         0.00000E+00
    0.10494E-08         0.26433E-10         0.00000E+00
    0.10489E-08         0.51656E-10         0.00000E+00
    0.10475E-08         0.10045E-09         0.00000E+00
    0.10451E-08         0.14598E-09         0.00000E+00
    0.10420E-08         0.18834E-09         0.00000E+00
    0.10380E-08         0.22766E-09         0.00000E+00
    0.10334E-08         0.26408E-09         0.00000E+00
    0.10281E-08         0.29778E-09         0.00000E+00
    0.10222E-08         0.32891E-09         0.00000E+00
    0.10157E-08         0.35767E-09         0.00000E+00
    0.10086E-08         0.38423E-09         0.00000E+00
    0.10011E-08         0.40877E-09         0.00000E+00
    0.99317E-09         0.43146E-09         0.00000E+00
    0.98478E-09         0.45246E-09         0.00000E+00
    0.97599E-09         0.47192E-09         0.00000E+00
    0.96682E-09         0.48998E-09         0.00000E+00
    0.95731E-09         0.50676E-09         0.00000E+00
    0.94748E-09         0.52237E-09         0.00000E+00
    0.93733E-09         0.53689E-09         0.00000E+00
    0.92689E-09         0.55040E-09         0.00000E+00
    0.91617E-09         0.56296E-09         0.00000E+00
    0.90519E-09         0.57461E-09         0.00000E+00
    0.89397E-09         0.58537E-09         0.00000E+00
    0.88252E-09         0.59526E-09         0.00000E+00
    0.87085E-09         0.60426E-09         0.00000E+00
    0.85898E-09         0.61235E-09         0.00000E+00
    0.84693E-09         0.61948E-09         0.00000E+00
    0.83472E-09         0.62558E-09         0.00000E+00
    0.82235E-09         0.63058E-09         0.00000E+00
    0.80987E-09         0.63436E-09         0.00000E+00
    0.79728E-09         0.63679E-09         0.00000E+00
    0.78462E-09         0.63773E-09         0.00000E+00
    0.77193E-09         0.63699E-09         0.00000E+00
    0.75923E-09         0.63439E-09         0.00000E+00
    0.74656E-09         0.62968E-09         0.00000E+00
    0.73397E-09         0.62262E-09         0.00000E+00
    0.72152E-09         0.61292E-09         0.00000E+00
    0.70926E-09         0.60028E-09         0.00000E+00
    0.69725E-09         0.58437E-09         0.00000E+00
    0.68557E-09         0.56481E-09         0.00000E+00
    0.67430E-09         0.54125E-09         0.00000E+00
    0.66352E-09         0.51328E-09         0.00000E+00
    0.65334E-09         0.48050E-09         0.00000E+00
    0.64385E-09         0.44249E-09         0.00000E+00
    0.63519E-09         0.39886E-09         0.00000E+00
    0.62746E-09         0.34922E-09         0.00000E+00
    0.62080E-09         0.29320E-09         0.00000E+00
    0.61536E-09         0.23049E-09         0.00000E+00
    0.61127E-09         0.16081E-09         0.00000E+00
    0.60870E-09         0.83960E-10         0.00000E+00
    0.60779E-09         0.43717E-10         0.00000E+00
    0.11049E-08         0.28939E-10         0.00000E+00
    0.11044E-08         0.56555E-10         0.00000E+00
    0.11029E-08         0.10998E-09         0.00000E+00
    0.11006E-08         0.15983E-09         0.00000E+00
    0.10974E-08         0.20622E-09         0.00000E+00
    0.10934E-08         0.24929E-09         0.00000E+00
    0.10887E-08         0.28919E-09         0.00000E+00
    0.10833E-08         0.32612E-09         0.00000E+00
    0.10773E-08         0.36025E-09         0.00000E+00
    0.10707E-08         0.39179E-09         0.00000E+00
    0.10636E-08         0.42094E-09         0.00000E+00
    0.10559E-08         0.44788E-09         0.00000E+00
    0.10478E-08         0.47282E-09         0.00000E+00
    0.10393E-08         0.49592E-09         0.00000E+00
    0.10303E-08         0.51735E-09         0.00000E+00
    0.10209E-08         0.53726E-09         0.00000E+00
    0.10112E-08         0.55578E-09         0.00000E+00
    0.10011E-08         0.57302E-09         0.00000E+00
    0.99073E-09         0.58909E-09         0.00000E+00
    0.98001E-09         0.60407E-09         0.00000E+00
    0.96899E-09         0.61802E-09         0.00000E+00
    0.95769E-09         0.63099E-09         0.00000E+00
    0.94612E-09         0.64300E-09         0.00000E+00
    0.93430E-09         0.65405E-09         0.00000E+00
    0.92224E-09         0.66415E-09         0.00000E+00
    0.90996E-09         0.67325E-09         0.00000E+00
    0.89747E-09         0.68130E-09         0.00000E+00
    0.88480E-09         0.68823E-09         0.00000E+00
    0.87195E-09         0.69395E-09         0.00000E+00
    0.85897E-09         0.69833E-09         0.00000E+00
    0.84586E-09         0.70123E-09         0.00000E+00
    0.83266E-09         0.70249E-09         0.00000E+00
    0.81940E-09         0.70190E-09         0.00000E+00
    0.80613E-09         0.69925E-09         0.00000E+00
    0.79287E-09         0.69428E-09         0.00000E+00
    0.77969E-09         0.68671E-09         0.00000E+00
    0.76663E-09         0.67621E-09         0.00000E+00
    0.75376E-09         0.66246E-09         0.00000E+00
    0.74114E-09         0.64508E-09         0.00000E+00
    0.72885E-09         0.62367E-09         0.00000E+00
    0.71698E-09         0.59781E-09         0.00000E+00
    0.70563E-09         0.56707E-09         0.00000E+00
    0.69489E-09         0.53098E-09         0.00000E+00
    0.68488E-09         0.48910E-09         0.00000E+00
    0.67572E-09         0.44098E-09         0.00000E+00
    0.66755E-09         0.38618E-09         0.00000E+00
    0.66051E-09         0.32430E-09         0.00000E+00
    0.65475E-09         0.25499E-09         0.00000E+00
    0.65043E-09         0.17794E-09         0.00000E+00
    0.64770E-09         0.92918E-10         0.00000E+00
    0.64674E-09         0.48390E-10         0.00000E+00
    0.11655E-08         0.31454E-10         0.00000E+00
    0.11650E-08         0.61473E-10         0.00000E+00
    0.11635E-08         0.11955E-09         0.00000E+00
    0.11612E-08         0.17376E-09         0.00000E+00
    0.11580E-08         0.22421E-09         0.00000E+00
    0.11540E-08         0.27107E-09         0.00000E+00
    0.11493E-08         0.31450E-09         0.00000E+00
    0.11439E-08         0.35471E-09         0.00000E+00
    0.11379E-08         0.39190E-09         0.00000E+00
    0.11313E-08         0.42629E-09         0.00000E+00
    0.11241E-08         0.45810E-09         0.00000E+00
    0.11164E-08         0.48753E-09         0.00000E+00
    0.11082E-08         0.51480E-09         0.00000E+00
    0.10996E-08         0.54009E-09         0.00000E+00
    0.10905E-08         0.56358E-09         0.00000E+00
    0.10810E-08         0.58543E-09         0.00000E+00
    0.10711E-08         0.60579E-09         0.00000E+00
    0.10609E-08         0.62479E-09         0.00000E+00
    0.10503E-08         0.64252E-09         0.00000E+00
    0.10393E-08         0.65909E-09         0.00000E+00
    0.10280E-08         0.67454E-09         0.00000E+00
    0.10165E-08         0.68895E-09         0.00000E+00
    0.10046E-08         0.70232E-09         0.00000E+00
    0.99247E-09         0.71466E-09         0.00000E+00
    0.98006E-09         0.72597E-09         0.00000E+00
    0.96740E-09         0.73620E-09         0.00000E+00
    0.95451E-09         0.74530E-09         0.00000E+00
    0.94140E-09         0.75318E-09         0.00000E+00
    0.92810E-09         0.75974E-09         0.00000E+00
    0.91463E-09         0.76484E-09         0.00000E+00
    0.90102E-09         0.76832E-09         0.00000E+00
    0.88729E-09         0.77000E-09         0.00000E+00
    0.87348E-09         0.76965E-09         0.00000E+00
    0.85964E-09         0.76704E-09         0.00000E+00
    0.84579E-09         0.76187E-09         0.00000E+00
    0.83201E-09         0.75384E-09         0.00000E+00
    0.81834E-09         0.74259E-09         0.00000E+00
    0.80484E-09         0.72774E-09         0.00000E+00
    0.79160E-09         0.70889E-09         0.00000E+00
    0.77870E-09         0.68559E-09         0.00000E+00
    0.76621E-09         0.65738E-09         0.00000E+00
    0.75426E-09         0.62376E-09         0.00000E+00
    0.74295E-09         0.58424E-09         0.00000E+00
    0.73239E-09         0.53831E-09         0.00000E+00
    0.72273E-09         0.48548E-09         0.00000E+00
    0.71410E-09         0.42526E-09         0.00000E+00
    0.70666E-09         0.35721E-09         0.00000E+00
    0.70056E-09         0.28093E-09         0.00000E+00
    0.69598E-09         0.19608E-09         0.00000E+00
    0.69309E-09         0.10241E-09         0.00000E+00
    0.69207E-09         0.53344E-10         0.00000E+00
    0.12317E-08         0.33940E-10         0.00000E+00
    0.12312E-08         0.66338E-10         0.00000E+00
    0.12298E-08         0.12903E-09         0.00000E+00
    0.12274E-08         0.18756E-09         0.00000E+00
    0.12243E-08         0.24207E-09         0.00000E+00
    0.12204E-08         0.29272E-09         0.00000E+00
    0.12157E-08         0.33969E-09         0.00000E+00
    0.12104E-08         0.38321E-09         0.00000E+00
    0.12045E-08         0.42350E-09         0.00000E+00
    0.11979E-08         0.46079E-09         0.00000E+00
    0.11907E-08         0.49532E-09         0.00000E+00
    0.11831E-08         0.52731E-09         0.00000E+00
    0.11749E-08         0.55699E-09         0.00000E+00
    0.11663E-08         0.58456E-09         0.00000E+00
    0.11572E-08         0.61021E-09         0.00000E+00
    0.11476E-08         0.63411E-09         0.00000E+00
    0.11377E-08         0.65643E-09         0.00000E+00
    0.11273E-08         0.67729E-09         0.00000E+00
    0.11166E-08         0.69682E-09         0.00000E+00
    0.11055E-08         0.71510E-09         0.00000E+00
    0.10941E-08         0.73220E-09         0.00000E+00
    0.10823E-08         0.74817E-09         0.00000E+00
    0.10702E-08         0.76305E-09         0.00000E+00
    0.10578E-08         0.77683E-09         0.00000E+00
    0.10451E-08         0.78950E-09         0.00000E+00
    0.10321E-08         0.80101E-09         0.00000E+00
    0.10189E-08         0.81129E-09         0.00000E+00
    0.10054E-08         0.82026E-09         0.00000E+00
    0.99169E-09         0.82780E-09         0.00000E+00
    0.97778E-09         0.83375E-09         0.00000E+00
    0.96369E-09         0.83794E-09         0.00000E+00
    0.94946E-09         0.84016E-09         0.00000E+00
    0.93513E-09         0.84017E-09         0.00000E+00
    0.92074E-09         0.83769E-09         0.00000E+00
    0.90633E-09         0.83242E-09         0.00000E+00
    0.89196E-09         0.82399E-09         0.00000E+00
    0.87768E-09         0.81204E-09         0.00000E+00
    0.86358E-09         0.79614E-09         0.00000E+00
    0.84972E-09         0.77582E-09         0.00000E+00
    0.83620E-09         0.75061E-09         0.00000E+00
    0.82310E-09         0.71999E-09         0.00000E+00
    0.81055E-09         0.68341E-09         0.00000E+00
    0.79866E-09         0.64033E-09         0.00000E+00
    0.78755E-09         0.59019E-09         0.00000E+00
    0.77737E-09         0.53243E-09         0.00000E+00
    0.76828E-09         0.46653E-09         0.00000E+00
    0.76043E-09         0.39198E-09         0.00000E+00
    0.75399E-09         0.30836E-09         0.00000E+00
    0.74916E-09         0.21528E-09         0.00000E+00
    0.74610E-09         0.11247E-09         0.00000E+00
    0.74502E-09         0.58593E-10         0.00000E+00
    0.13041E-08         0.36349E-10         0.00000E+00
    0.13036E-08         0.71058E-10         0.00000E+00
    0.13022E-08         0.13824E-09         0.00000E+00
    0.13000E-08         0.20100E-09         0.00000E+00
    0.12970E-08         0.25949E-09         0.00000E+00
    0.12932E-08         0.31387E-09         0.00000E+00
    0.12887E-08         0.36437E-09         0.00000E+00
    0.12835E-08         0.41119E-09         0.00000E+00
    0.12777E-08         0.45459E-09         0.00000E+00
    0.12713E-08         0.49482E-09         0.00000E+00
    0.12643E-08         0.53211E-09         0.00000E+00
    0.12568E-08         0.56673E-09         0.00000E+00
    0.12487E-08         0.59890E-09         0.00000E+00
    0.12402E-08         0.62883E-09         0.00000E+00
    0.12311E-08         0.65675E-09         0.00000E+00
    0.12217E-08         0.68283E-09         0.00000E+00
    0.12118E-08         0.70723E-09         0.00000E+00
    0.12014E-08         0.73009E-09         0.00000E+00
    0.11907E-08         0.75155E-09         0.00000E+00
    0.11796E-08         0.77169E-09         0.00000E+00
    0.11680E-08         0.79058E-09         0.00000E+00
    0.11561E-08         0.80829E-09         0.00000E+00
    0.11439E-08         0.82483E-09         0.00000E+00
    0.11313E-08         0.84020E-09         0.00000E+00
    0.11184E-08         0.85439E-09         0.00000E+00
    0.11052E-08         0.86734E-09         0.00000E+00
    0.10916E-08         0.87898E-09         0.00000E+00
    0.10778E-08         0.88920E-09         0.00000E+00
    0.10638E-08         0.89787E-09         0.00000E+00
    0.10495E-08         0.90483E-09         0.00000E+00
    0.10349E-08         0.90988E-09         0.00000E+00
    0.10203E-08         0.91278E-09         0.00000E+00
    0.10055E-08         0.91328E-09         0.00000E+00
    0.99056E-09         0.91106E-09         0.00000E+00
    0.97562E-09         0.90578E-09         0.00000E+00
    0.96070E-09         0.89706E-09         0.00000E+00
    0.94586E-09         0.88447E-09         0.00000E+00
    0.93117E-09         0.86756E-09         0.00000E+00
    0.91673E-09         0.84580E-09         0.00000E+00
    0.90261E-09         0.81868E-09         0.00000E+00
    0.88893E-09         0.78561E-09         0.00000E+00
    0.87579E-09         0.74600E-09         0.00000E+00
    0.86333E-09         0.69925E-09         0.00000E+00
    0.85169E-09         0.64473E-09         0.00000E+00
    0.84101E-09         0.58184E-09         0.00000E+00
    0.83146E-09         0.50999E-09         0.00000E+00
    0.82320E-09         0.42863E-09         0.00000E+00
    0.81643E-09         0.33729E-09         0.00000E+00
    0.81134E-09         0.23555E-09         0.00000E+00
    0.80812E-09         0.12308E-09         0.00000E+00
    0.80699E-09         0.64139E-10         0.00000E+00
    0.13836E-08         0.38625E-10         0.00000E+00
    0.13831E-08         0.75527E-10         0.00000E+00
    0.13818E-08         0.14698E-09         0.00000E+00
    0.13798E-08         0.21380E-09         0.00000E+00
    0.13769E-08         0.27612E-09         0.00000E+00
    0.13733E-08         0.33414E-09         0.00000E+00
    0.13691E-08         0.38807E-09         0.00000E+00
    0.13641E-08         0.43816E-09         0.00000E+00
    0.13586E-08         0.48465E-09         0.00000E+00
    0.13524E-08         0.52782E-09         0.00000E+00
    0.13457E-08         0.56793E-09         0.00000E+00
    0.13384E-08         0.60522E-09         0.00000E+00
    0.13306E-08         0.63996E-09         0.00000E+00
    0.13223E-08         0.67237E-09         0.00000E+00
    0.13135E-08         0.70266E-09         0.00000E+00
    0.13042E-08         0.73103E-09         0.00000E+00
    0.12944E-08         0.75764E-09         0.00000E+00
    0.12842E-08         0.78266E-09         0.00000E+00
    0.12735E-08         0.80620E-09         0.00000E+00
    0.12624E-08         0.82837E-09         0.00000E+00
    0.12509E-08         0.84923E-09         0.00000E+00
    0.12390E-08         0.86884E-09         0.00000E+00
    0.12267E-08         0.88722E-09         0.00000E+00
    0.12140E-08         0.90437E-09         0.00000E+00
    0.12010E-08         0.92026E-09         0.00000E+00
    0.11876E-08         0.93484E-09         0.00000E+00
    0.11738E-08         0.94801E-09         0.00000E+00
    0.11598E-08         0.95966E-09         0.00000E+00
    0.11454E-08         0.96964E-09         0.00000E+00
    0.11308E-08         0.97777E-09         0.00000E+00
    0.11160E-08         0.98384E-09         0.00000E+00
    0.11009E-08         0.98758E-09         0.00000E+00
    0.10857E-08         0.98871E-09         0.00000E+00
    0.10703E-08         0.98688E-09         0.00000E+00
    0.10549E-08         0.98172E-09         0.00000E+00
    0.10395E-08         0.97281E-09         0.00000E+00
    0.10242E-08         0.95967E-09         0.00000E+00
    0.10090E-08         0.94180E-09         0.00000E+00
    0.99397E-09         0.91865E-09         0.00000E+00
    0.97931E-09         0.88962E-09         0.00000E+00
    0.96508E-09         0.85408E-09         0.00000E+00
    0.95141E-09         0.81138E-09         0.00000E+00
    0.93843E-09         0.76085E-09         0.00000E+00
    0.92628E-09         0.70181E-09         0.00000E+00
    0.91513E-09         0.63359E-09         0.00000E+00
    0.90515E-09         0.55555E-09         0.00000E+00
    0.89652E-09         0.46709E-09         0.00000E+00
    0.88944E-09         0.36767E-09         0.00000E+00
    0.88411E-09         0.25684E-09         0.00000E+00
    0.88074E-09         0.13425E-09         0.00000E+00
    0.87954E-09         0.69973E-10         0.00000E+00
    0.14715E-08         0.40709E-10         0.00000E+00
    0.14711E-08         0.79632E-10         0.00000E+00
    0.14699E-08         0.15504E-09         0.00000E+00
    0.14680E-08         0.22564E-09         0.00000E+00
    0.14654E-08         0.29159E-09         0.00000E+00
    0.14621E-08         0.35307E-09         0.00000E+00
    0.14582E-08         0.41032E-09         0.00000E+00
    0.14536E-08         0.46359E-09         0.00000E+00
    0.14484E-08         0.51314E-09         0.00000E+00
    0.14426E-08         0.55925E-09         0.00000E+00
    0.14363E-08         0.60218E-09         0.00000E+00
    0.14294E-08         0.64221E-09         0.00000E+00
    0.14219E-08         0.67960E-09         0.00000E+00
    0.14139E-08         0.71457E-09         0.00000E+00
    0.14054E-08         0.74736E-09         0.00000E+00
    0.13963E-08         0.77816E-09         0.00000E+00
    0.13868E-08         0.80715E-09         0.00000E+00
    0.13768E-08         0.83448E-09         0.00000E+00
    0.13663E-08         0.86027E-09         0.00000E+00
    0.13554E-08         0.88464E-09         0.00000E+00
    0.13440E-08         0.90765E-09         0.00000E+00
    0.13321E-08         0.92935E-09         0.00000E+00
    0.13199E-08         0.94977E-09         0.00000E+00
    0.13072E-08         0.96889E-09         0.00000E+00
    0.12941E-08         0.98667E-09         0.00000E+00
    0.12806E-08         0.10031E-08         0.00000E+00
    0.12667E-08         0.10180E-08         0.00000E+00
    0.12525E-08         0.10312E-08         0.00000E+00
    0.12379E-08         0.10427E-08         0.00000E+00
    0.12231E-08         0.10522E-08         0.00000E+00
    0.12080E-08         0.10594E-08         0.00000E+00
    0.11926E-08         0.10642E-08         0.00000E+00
    0.11771E-08         0.10661E-08         0.00000E+00
    0.11613E-08         0.10648E-08         0.00000E+00
    0.11456E-08         0.10599E-08         0.00000E+00
    0.11297E-08         0.10509E-08         0.00000E+00
    0.11139E-08         0.10373E-08         0.00000E+00
    0.10983E-08         0.10185E-08         0.00000E+00
    0.10828E-08         0.99404E-09         0.00000E+00
    0.10677E-08         0.96312E-09         0.00000E+00
    0.10530E-08         0.92510E-09         0.00000E+00
    0.10389E-08         0.87926E-09         0.00000E+00
    0.10255E-08         0.82488E-09         0.00000E+00
    0.10129E-08         0.76119E-09         0.00000E+00
    0.10013E-08         0.68748E-09         0.00000E+00
    0.99097E-09         0.60303E-09         0.00000E+00
    0.98202E-09         0.50719E-09         0.00000E+00
    0.97466E-09         0.39937E-09         0.00000E+00
    0.96912E-09         0.27907E-09         0.00000E+00
    0.96561E-09         0.14590E-09         0.00000E+00
    0.96437E-09         0.76069E-10         0.00000E+00
    0.15695E-08         0.42542E-10         0.00000E+00
    0.15692E-08         0.83261E-10         0.00000E+00
    0.15682E-08         0.16221E-09         0.00000E+00
    0.15665E-08         0.23625E-09         0.00000E+00
    0.15643E-08         0.30554E-09         0.00000E+00
    0.15613E-08         0.37027E-09         0.00000E+00
    0.15578E-08         0.43067E-09         0.00000E+00
    0.15536E-08         0.48701E-09         0.00000E+00
    0.15489E-08         0.53956E-09         0.00000E+00
    0.15436E-08         0.58858E-09         0.00000E+00
    0.15376E-08         0.63437E-09         0.00000E+00
    0.15312E-08         0.67719E-09         0.00000E+00
    0.15241E-08         0.71731E-09         0.00000E+00
    0.15165E-08         0.75496E-09         0.00000E+00
    0.15084E-08         0.79037E-09         0.00000E+00
    0.14997E-08         0.82375E-09         0.00000E+00
    0.14905E-08         0.85527E-09         0.00000E+00
    0.14808E-08         0.88508E-09         0.00000E+00
    0.14706E-08         0.91332E-09         0.00000E+00
    0.14598E-08         0.94008E-09         0.00000E+00
    0.14486E-08         0.96544E-09         0.00000E+00
    0.14369E-08         0.98943E-09         0.00000E+00
    0.14247E-08         0.10121E-08         0.00000E+00
    0.14120E-08         0.10334E-08         0.00000E+00
    0.13990E-08         0.10532E-08         0.00000E+00
    0.13854E-08         0.10716E-08         0.00000E+00
    0.13715E-08         0.10884E-08         0.00000E+00
    0.13572E-08         0.11035E-08         0.00000E+00
    0.13425E-08         0.11167E-08         0.00000E+00
    0.13275E-08         0.11277E-08         0.00000E+00
    0.13122E-08         0.11363E-08         0.00000E+00
    0.12966E-08         0.11422E-08         0.00000E+00
    0.12808E-08         0.11450E-08         0.00000E+00
    0.12648E-08         0.11444E-08         0.00000E+00
    0.12487E-08         0.11398E-08         0.00000E+00
    0.12326E-08         0.11308E-08         0.00000E+00
    0.12165E-08         0.11169E-08         0.00000E+00
    0.12005E-08         0.10973E-08         0.00000E+00
    0.11847E-08         0.10715E-08         0.00000E+00
    0.11692E-08         0.10387E-08         0.00000E+00
    0.11542E-08         0.99822E-09         0.00000E+00
    0.11397E-08         0.94921E-09         0.00000E+00
    0.11259E-08         0.89090E-09         0.00000E+00
    0.11130E-08         0.82248E-09         0.00000E+00
    0.11011E-08         0.74313E-09         0.00000E+00
    0.10905E-08         0.65210E-09         0.00000E+00
    0.10813E-08         0.54865E-09         0.00000E+00
    0.10737E-08         0.43216E-09         0.00000E+00
    0.10680E-08         0.30207E-09         0.00000E+00
    0.10644E-08         0.15798E-09         0.00000E+00
    0.10631E-08         0.82383E-10         0.00000E+00
    0.16802E-08         0.44075E-10         0.00000E+00
    0.16799E-08         0.86322E-10         0.00000E+00
    0.16791E-08         0.16832E-09         0.00000E+00
    0.16777E-08         0.24539E-09         0.00000E+00
    0.16757E-08         0.31769E-09         0.00000E+00
    0.16732E-08         0.38542E-09         0.00000E+00
    0.16701E-08         0.44880E-09         0.00000E+00
    0.16664E-08         0.50809E-09         0.00000E+00
    0.16622E-08         0.56356E-09         0.00000E+00
    0.16573E-08         0.61549E-09         0.00000E+00
    0.16519E-08         0.66416E-09         0.00000E+00
    0.16459E-08         0.70983E-09         0.00000E+00
    0.16393E-08         0.75278E-09         0.00000E+00
    0.16321E-08         0.79323E-09         0.00000E+00
    0.16244E-08         0.83142E-09         0.00000E+00
    0.16161E-08         0.86754E-09         0.00000E+00
    0.16072E-08         0.90177E-09         0.00000E+00
    0.15977E-08         0.93426E-09         0.00000E+00
    0.15878E-08         0.96513E-09         0.00000E+00
    0.15772E-08         0.99448E-09         0.00000E+00
    0.15662E-08         0.10224E-08         0.00000E+00
    0.15546E-08         0.10488E-08         0.00000E+00
    0.15425E-08         0.10739E-08         0.00000E+00
    0.15299E-08         0.10976E-08         0.00000E+00
    0.15169E-08         0.11197E-08         0.00000E+00
    0.15033E-08         0.11403E-08         0.00000E+00
    0.14894E-08         0.11592E-08         0.00000E+00
    0.14750E-08         0.11762E-08         0.00000E+00
    0.14602E-08         0.11912E-08         0.00000E+00
    0.14451E-08         0.12038E-08         0.00000E+00
    0.14297E-08         0.12139E-08         0.00000E+00
    0.14139E-08         0.12211E-08         0.00000E+00
    0.13980E-08         0.12250E-08         0.00000E+00
    0.13818E-08         0.12251E-08         0.00000E+00
    0.13656E-08         0.12210E-08         0.00000E+00
    0.13492E-08         0.12121E-08         0.00000E+00
    0.13329E-08         0.11978E-08         0.00000E+00
    0.13167E-08         0.11775E-08         0.00000E+00
    0.13007E-08         0.11504E-08         0.00000E+00
    0.12850E-08         0.11158E-08         0.00000E+00
    0.12697E-08         0.10728E-08         0.00000E+00
    0.12550E-08         0.10206E-08         0.00000E+00
    0.12410E-08         0.95832E-09         0.00000E+00
    0.12279E-08         0.88508E-09         0.00000E+00
    0.12159E-08         0.80001E-09         0.00000E+00
    0.12051E-08         0.70226E-09         0.00000E+00
    0.11957E-08         0.59105E-09         0.00000E+00
    0.11881E-08         0.46570E-09         0.00000E+00
    0.11823E-08         0.32561E-09         0.00000E+00
    0.11786E-08         0.17033E-09         0.00000E+00
    0.11773E-08         0.88843E-10         0.00000E+00
    0.18065E-08         0.45285E-10         0.00000E+00
    0.18063E-08         0.88775E-10         0.00000E+00
    0.18057E-08         0.17330E-09         0.00000E+00
    0.18045E-08         0.25298E-09         0.00000E+00
    0.18029E-08         0.32796E-09         0.00000E+00
    0.18008E-08         0.39843E-09         0.00000E+00
    0.17981E-08         0.46462E-09         0.00000E+00
    0.17948E-08         0.52676E-09         0.00000E+00
    0.17910E-08         0.58511E-09         0.00000E+00
    0.17866E-08         0.63996E-09         0.00000E+00
    0.17816E-08         0.69157E-09         0.00000E+00
    0.17760E-08         0.74020E-09         0.00000E+00
    0.17697E-08         0.78610E-09         0.00000E+00
    0.17629E-08         0.82951E-09         0.00000E+00
    0.17555E-08         0.87064E-09         0.00000E+00
    0.17474E-08         0.90969E-09         0.00000E+00
    0.17388E-08         0.94682E-09         0.00000E+00
    0.17295E-08         0.98218E-09         0.00000E+00
    0.17197E-08         0.10159E-08         0.00000E+00
    0.17092E-08         0.10480E-08         0.00000E+00
    0.16982E-08         0.10786E-08         0.00000E+00
    0.16867E-08         0.11078E-08         0.00000E+00
    0.16746E-08         0.11354E-08         0.00000E+00
    0.16620E-08         0.11616E-08         0.00000E+00
    0.16489E-08         0.11861E-08         0.00000E+00
    0.16353E-08         0.12090E-08         0.00000E+00
    0.16213E-08         0.12301E-08         0.00000E+00
    0.16068E-08         0.12492E-08         0.00000E+00
    0.15919E-08         0.12661E-08         0.00000E+00
    0.15767E-08         0.12805E-08         0.00000E+00
    0.15612E-08         0.12921E-08         0.00000E+00
    0.15453E-08         0.13006E-08         0.00000E+00
    0.15292E-08         0.13056E-08         0.00000E+00
    0.15130E-08         0.13065E-08         0.00000E+00
    0.14966E-08         0.13029E-08         0.00000E+00
    0.14802E-08         0.12941E-08         0.00000E+00
    0.14638E-08         0.12795E-08         0.00000E+00
    0.14475E-08         0.12584E-08         0.00000E+00
    0.14314E-08         0.12301E-08         0.00000E+00
    0.14157E-08         0.11936E-08         0.00000E+00
    0.14003E-08         0.11480E-08         0.00000E+00
    0.13856E-08         0.10926E-08         0.00000E+00
    0.13716E-08         0.10263E-08         0.00000E+00
    0.13585E-08         0.94823E-09         0.00000E+00
    0.13464E-08         0.85737E-09         0.00000E+00
    0.13356E-08         0.75284E-09         0.00000E+00
    0.13263E-08         0.63380E-09         0.00000E+00
    0.13186E-08         0.49951E-09         0.00000E+00
    0.13128E-08         0.34933E-09         0.00000E+00
    0.13092E-08         0.18277E-09         0.00000E+00
    0.13079E-08         0.95351E-10         0.00000E+00
    0.19527E-08         0.46192E-10         0.00000E+00
    0.19525E-08         0.90664E-10         0.00000E+00
    0.19520E-08         0.17725E-09         0.00000E+00
    0.19511E-08         0.25918E-09         0.00000E+00
    0.19497E-08         0.33658E-09         0.00000E+00
    0.19478E-08         0.40962E-09         0.00000E+00
    0.19454E-08         0.47851E-09         0.00000E+00
    0.19424E-08         0.54347E-09         0.00000E+00
    0.19389E-08         0.60475E-09         0.00000E+00
    0.19347E-08         0.66260E-09         0.00000E+00
    0.19299E-08         0.71727E-09         0.00000E+00
    0.19244E-08         0.76901E-09         0.00000E+00
    0.19183E-08         0.81805E-09         0.00000E+00
    0.19116E-08         0.86461E-09         0.00000E+00
    0.19041E-08         0.90890E-09         0.00000E+00
    0.18961E-08         0.95108E-09         0.00000E+00
    0.18873E-08         0.99132E-09         0.00000E+00
    0.18780E-08         0.10297E-08         0.00000E+00
    0.18680E-08         0.10665E-08         0.00000E+00
    0.18574E-08         0.11016E-08         0.00000E+00
    0.18462E-08         0.11351E-08         0.00000E+00
    0.18344E-08         0.11670E-08         0.00000E+00
    0.18221E-08         0.11974E-08         0.00000E+00
    0.18092E-08         0.12261E-08         0.00000E+00
    0.17959E-08         0.12532E-08         0.00000E+00
    0.17820E-08         0.12784E-08         0.00000E+00
    0.17677E-08         0.13017E-08         0.00000E+00
    0.17530E-08         0.13229E-08         0.00000E+00
    0.17379E-08         0.13416E-08         0.00000E+00
    0.17225E-08         0.13578E-08         0.00000E+00
    0.17067E-08         0.13709E-08         0.00000E+00
    0.16907E-08         0.13807E-08         0.00000E+00
    0.16745E-08         0.13866E-08         0.00000E+00
    0.16582E-08         0.13883E-08         0.00000E+00
    0.16418E-08         0.13850E-08         0.00000E+00
    0.16253E-08         0.13763E-08         0.00000E+00
    0.16089E-08         0.13613E-08         0.00000E+00
    0.15927E-08         0.13393E-08         0.00000E+00
    0.15767E-08         0.13096E-08         0.00000E+00
    0.15611E-08         0.12711E-08         0.00000E+00
    0.15459E-08         0.12230E-08         0.00000E+00
    0.15313E-08         0.11643E-08         0.00000E+00
    0.15175E-08         0.10940E-08         0.00000E+00
    0.15046E-08         0.10110E-08         0.00000E+00
    0.14927E-08         0.91428E-09         0.00000E+00
    0.14821E-08         0.80298E-09         0.00000E+00
    0.14730E-08         0.67614E-09         0.00000E+00
    0.14654E-08         0.53296E-09         0.00000E+00
    0.14598E-08         0.37277E-09         0.00000E+00
    0.14562E-08         0.19506E-09         0.00000E+00
    0.14550E-08         0.10177E-09         0.00000E+00
    0.21238E-08         0.46893E-10         0.00000E+00
    0.21236E-08         0.92181E-10         0.00000E+00
    0.21232E-08         0.18055E-09         0.00000E+00
    0.21223E-08         0.26455E-09         0.00000E+00
    0.21209E-08         0.34428E-09         0.00000E+00
    0.21191E-08         0.41989E-09         0.00000E+00
    0.21167E-08         0.49155E-09         0.00000E+00
    0.21136E-08         0.55946E-09         0.00000E+00
    0.21099E-08         0.62383E-09         0.00000E+00
    0.21056E-08         0.68490E-09         0.00000E+00
    0.21005E-08         0.74288E-09         0.00000E+00
    0.20947E-08         0.79798E-09         0.00000E+00
    0.20882E-08         0.85043E-09         0.00000E+00
    0.20810E-08         0.90041E-09         0.00000E+00
    0.20731E-08         0.94810E-09         0.00000E+00
    0.20645E-08         0.99367E-09         0.00000E+00
    0.20551E-08         0.10372E-08         0.00000E+00
    0.20451E-08         0.10789E-08         0.00000E+00
    0.20344E-08         0.11188E-08         0.00000E+00
    0.20231E-08         0.11570E-08         0.00000E+00
    0.20112E-08         0.11935E-08         0.00000E+00
    0.19986E-08         0.12283E-08         0.00000E+00
    0.19856E-08         0.12614E-08         0.00000E+00
    0.19720E-08         0.12927E-08         0.00000E+00
    0.19579E-08         0.13222E-08         0.00000E+00
    0.19434E-08         0.13498E-08         0.00000E+00
    0.19285E-08         0.13752E-08         0.00000E+00
    0.19132E-08         0.13982E-08         0.00000E+00
    0.18975E-08         0.14187E-08         0.00000E+00
    0.18816E-08         0.14364E-08         0.00000E+00
    0.18655E-08         0.14508E-08         0.00000E+00
    0.18492E-08         0.14616E-08         0.00000E+00
    0.18327E-08         0.14683E-08         0.00000E+00
    0.18162E-08         0.14704E-08         0.00000E+00
    0.17997E-08         0.14673E-08         0.00000E+00
    0.17832E-08         0.14582E-08         0.00000E+00
    0.17669E-08         0.14426E-08         0.00000E+00
    0.17508E-08         0.14196E-08         0.00000E+00
    0.17351E-08         0.13882E-08         0.00000E+00
    0.17197E-08         0.13476E-08         0.00000E+00
    0.17049E-08         0.12967E-08         0.00000E+00
    0.16907E-08         0.12346E-08         0.00000E+00
    0.16772E-08         0.11601E-08         0.00000E+00
    0.16648E-08         0.10721E-08         0.00000E+00
    0.16533E-08         0.96965E-09         0.00000E+00
    0.16432E-08         0.85164E-09         0.00000E+00
    0.16344E-08         0.71714E-09         0.00000E+00
    0.16272E-08         0.56529E-09         0.00000E+00
    0.16219E-08         0.39539E-09         0.00000E+00
    0.16185E-08         0.20689E-09         0.00000E+00
    0.16173E-08         0.10794E-09         0.00000E+00
    0.23261E-08         0.47591E-10         0.00000E+00
    0.23260E-08         0.93727E-10         0.00000E+00
    0.23254E-08         0.18399E-09         0.00000E+00
    0.23243E-08         0.27024E-09         0.00000E+00
    0.23226E-08         0.35257E-09         0.00000E+00
    0.23203E-08         0.43106E-09         0.00000E+00
    0.23174E-08         0.50586E-09         0.00000E+00
    0.23136E-08         0.57711E-09         0.00000E+00
    0.23091E-08         0.64501E-09         0.00000E+00
    0.23039E-08         0.70972E-09         0.00000E+00
    0.22978E-08         0.77143E-09         0.00000E+00
    0.22909E-08         0.83032E-09         0.00000E+00
    0.22831E-08         0.88656E-09         0.00000E+00
    0.22746E-08         0.94033E-09         0.00000E+00
    0.22652E-08         0.99176E-09         0.00000E+00
    0.22551E-08         0.10410E-08         0.00000E+00
    0.22442E-08         0.10881E-08         0.00000E+00
    0.22326E-08         0.11333E-08         0.00000E+00
    0.22203E-08         0.11765E-08         0.00000E+00
    0.22073E-08         0.12178E-08         0.00000E+00
    0.21937E-08         0.12573E-08         0.00000E+00
    0.21796E-08         0.12949E-08         0.00000E+00
    0.21650E-08         0.13306E-08         0.00000E+00
    0.21499E-08         0.13644E-08         0.00000E+00
    0.21343E-08         0.13961E-08         0.00000E+00
    0.21184E-08         0.14257E-08         0.00000E+00
    0.21022E-08         0.14528E-08         0.00000E+00
    0.20857E-08         0.14775E-08         0.00000E+00
    0.20690E-08         0.14993E-08         0.00000E+00
    0.20521E-08         0.15180E-08         0.00000E+00
    0.20352E-08         0.15332E-08         0.00000E+00
    0.20181E-08         0.15445E-08         0.00000E+00
    0.20011E-08         0.15514E-08         0.00000E+00
    0.19842E-08         0.15534E-08         0.00000E+00
    0.19674E-08         0.15499E-08         0.00000E+00
    0.19508E-08         0.15401E-08         0.00000E+00
    0.19345E-08         0.15233E-08         0.00000E+00
    0.19186E-08         0.14987E-08         0.00000E+00
    0.19031E-08         0.14653E-08         0.00000E+00
    0.18881E-08         0.14221E-08         0.00000E+00
    0.18737E-08         0.13682E-08         0.00000E+00
    0.18601E-08         0.13023E-08         0.00000E+00
    0.18473E-08         0.12235E-08         0.00000E+00
    0.18355E-08         0.11305E-08         0.00000E+00
    0.18248E-08         0.10222E-08         0.00000E+00
    0.18153E-08         0.89765E-09         0.00000E+00
    0.18072E-08         0.75573E-09         0.00000E+00
    0.18006E-08         0.59559E-09         0.00000E+00
    0.17956E-08         0.41649E-09         0.00000E+00
    0.17926E-08         0.21789E-09         0.00000E+00
    0.17915E-08         0.11366E-09         0.00000E+00
    0.25674E-08         0.48650E-10         0.00000E+00
    0.25671E-08         0.96013E-10         0.00000E+00
    0.25661E-08         0.18894E-09         0.00000E+00
    0.25643E-08         0.27828E-09         0.00000E+00
    0.25618E-08         0.36403E-09         0.00000E+00
    0.25583E-08         0.44626E-09         0.00000E+00
    0.25539E-08         0.52503E-09         0.00000E+00
    0.25485E-08         0.60047E-09         0.00000E+00
    0.25422E-08         0.67268E-09         0.00000E+00
    0.25348E-08         0.74179E-09         0.00000E+00
    0.25264E-08         0.80795E-09         0.00000E+00
    0.25171E-08         0.87128E-09         0.00000E+00
    0.25067E-08         0.93191E-09         0.00000E+00
    0.24954E-08         0.98997E-09         0.00000E+00
    0.24832E-08         0.10456E-08         0.00000E+00
    0.24701E-08         0.10988E-08         0.00000E+00
    0.24562E-08         0.11498E-08         0.00000E+00
    0.24416E-08         0.11985E-08         0.00000E+00
    0.24262E-08         0.12451E-08         0.00000E+00
    0.24102E-08         0.12896E-08         0.00000E+00
    0.23936E-08         0.13319E-08         0.00000E+00
    0.23766E-08         0.13721E-08         0.00000E+00
    0.23590E-08         0.14102E-08         0.00000E+00
    0.23411E-08         0.14460E-08         0.00000E+00
    0.23229E-08         0.14794E-08         0.00000E+00
    0.23045E-08         0.15104E-08         0.00000E+00
    0.22859E-08         0.15388E-08         0.00000E+00
    0.22672E-08         0.15642E-08         0.00000E+00
    0.22485E-08         0.15866E-08         0.00000E+00
    0.22298E-08         0.16056E-08         0.00000E+00
    0.22113E-08         0.16207E-08         0.00000E+00
    0.21929E-08         0.16317E-08         0.00000E+00
    0.21748E-08         0.16380E-08         0.00000E+00
    0.21569E-08         0.16390E-08         0.00000E+00
    0.21395E-08         0.16341E-08         0.00000E+00
    0.21224E-08         0.16227E-08         0.00000E+00
    0.21059E-08         0.16039E-08         0.00000E+00
    0.20900E-08         0.15769E-08         0.00000E+00
    0.20747E-08         0.15407E-08         0.00000E+00
    0.20601E-08         0.14943E-08         0.00000E+00
    0.20463E-08         0.14366E-08         0.00000E+00
    0.20333E-08         0.13666E-08         0.00000E+00
    0.20213E-08         0.12831E-08         0.00000E+00
    0.20104E-08         0.11849E-08         0.00000E+00
    0.20006E-08         0.10708E-08         0.00000E+00
    0.19920E-08         0.93976E-09         0.00000E+00
    0.19847E-08         0.79076E-09         0.00000E+00
    0.19789E-08         0.62287E-09         0.00000E+00
    0.19746E-08         0.43535E-09         0.00000E+00
    0.19720E-08         0.22765E-09         0.00000E+00
    0.19711E-08         0.11870E-09         0.00000E+00
    0.28562E-08         0.50649E-10         0.00000E+00
    0.28556E-08         0.10017E-09         0.00000E+00
    0.28538E-08         0.19761E-09         0.00000E+00
    0.28508E-08         0.29181E-09         0.00000E+00
    0.28464E-08         0.38273E-09         0.00000E+00
    0.28406E-08         0.47034E-09         0.00000E+00
    0.28335E-08         0.55468E-09         0.00000E+00
    0.28250E-08         0.63576E-09         0.00000E+00
    0.28152E-08         0.71365E-09         0.00000E+00
    0.28040E-08         0.78842E-09         0.00000E+00
    0.27915E-08         0.86014E-09         0.00000E+00
    0.27778E-08         0.92890E-09         0.00000E+00
    0.27628E-08         0.99477E-09         0.00000E+00
    0.27467E-08         0.10578E-08         0.00000E+00
    0.27295E-08         0.11182E-08         0.00000E+00
    0.27114E-08         0.11758E-08         0.00000E+00
    0.26924E-08         0.12309E-08         0.00000E+00
    0.26725E-08         0.12834E-08         0.00000E+00
    0.26520E-08         0.13333E-08         0.00000E+00
    0.26309E-08         0.13807E-08         0.00000E+00
    0.26092E-08         0.14256E-08         0.00000E+00
    0.25872E-08         0.14680E-08         0.00000E+00
    0.25648E-08         0.15078E-08         0.00000E+00
    0.25423E-08         0.15449E-08         0.00000E+00
    0.25196E-08         0.15793E-08         0.00000E+00
    0.24969E-08         0.16108E-08         0.00000E+00
    0.24744E-08         0.16392E-08         0.00000E+00
    0.24520E-08         0.16644E-08         0.00000E+00
    0.24298E-08         0.16862E-08         0.00000E+00
    0.24080E-08         0.17041E-08         0.00000E+00
    0.23867E-08         0.17179E-08         0.00000E+00
    0.23659E-08         0.17271E-08         0.00000E+00
    0.23456E-08         0.17313E-08         0.00000E+00
    0.23260E-08         0.17299E-08         0.00000E+00
    0.23072E-08         0.17224E-08         0.00000E+00
    0.22891E-08         0.17079E-08         0.00000E+00
    0.22718E-08         0.16857E-08         0.00000E+00
    0.22555E-08         0.16550E-08         0.00000E+00
    0.22401E-08         0.16148E-08         0.00000E+00
    0.22257E-08         0.15641E-08         0.00000E+00
    0.22123E-08         0.15019E-08         0.00000E+00
    0.22001E-08         0.14269E-08         0.00000E+00
    0.21889E-08         0.13381E-08         0.00000E+00
    0.21790E-08         0.12343E-08         0.00000E+00
    0.21703E-08         0.11142E-08         0.00000E+00
    0.21628E-08         0.97683E-09         0.00000E+00
    0.21566E-08         0.82111E-09         0.00000E+00
    0.21518E-08         0.64616E-09         0.00000E+00
    0.21483E-08         0.45121E-09         0.00000E+00
    0.21462E-08         0.23574E-09         0.00000E+00
    0.21454E-08         0.12281E-09         0.00000E+00
    0.32024E-08         0.54455E-10         0.00000E+00
    0.32014E-08         0.10788E-09         0.00000E+00
    0.31982E-08         0.21324E-09         0.00000E+00
    0.31928E-08         0.31554E-09         0.00000E+00
    0.31853E-08         0.41466E-09         0.00000E+00
    0.31757E-08         0.51050E-09         0.00000E+00
    0.31640E-08         0.60301E-09         0.00000E+00
    0.31503E-08         0.69214E-09         0.00000E+00
    0.31347E-08         0.77788E-09         0.00000E+00
    0.31172E-08         0.86024E-09         0.00000E+00
    0.30979E-08         0.93922E-09         0.00000E+00
    0.30770E-08         0.10149E-08         0.00000E+00
    0.30546E-08         0.10872E-08         0.00000E+00
    0.30308E-08         0.11562E-08         0.00000E+00
    0.30057E-08         0.12220E-08         0.00000E+00
    0.29796E-08         0.12846E-08         0.00000E+00
    0.29524E-08         0.13441E-08         0.00000E+00
    0.29244E-08         0.14003E-08         0.00000E+00
    0.28957E-08         0.14535E-08         0.00000E+00
    0.28665E-08         0.15035E-08         0.00000E+00
    0.28369E-08         0.15504E-08         0.00000E+00
    0.28070E-08         0.15942E-08         0.00000E+00
    0.27771E-08         0.16347E-08         0.00000E+00
    0.27472E-08         0.16721E-08         0.00000E+00
    0.27175E-08         0.17061E-08         0.00000E+00
    0.26882E-08         0.17366E-08         0.00000E+00
    0.26593E-08         0.17636E-08         0.00000E+00
    0.26309E-08         0.17869E-08         0.00000E+00
    0.26033E-08         0.18062E-08         0.00000E+00
    0.25765E-08         0.18212E-08         0.00000E+00
    0.25505E-08         0.18316E-08         0.00000E+00
    0.25256E-08         0.18371E-08         0.00000E+00
    0.25017E-08         0.18372E-08         0.00000E+00
    0.24790E-08         0.18313E-08         0.00000E+00
    0.24575E-08         0.18189E-08         0.00000E+00
    0.24373E-08         0.17994E-08         0.00000E+00
    0.24185E-08         0.17719E-08         0.00000E+00
    0.24010E-08         0.17356E-08         0.00000E+00
    0.23849E-08         0.16896E-08         0.00000E+00
    0.23702E-08         0.16330E-08         0.00000E+00
    0.23569E-08         0.15647E-08         0.00000E+00
    0.23451E-08         0.14835E-08         0.00000E+00
    0.23347E-08         0.13884E-08         0.00000E+00
    0.23257E-08         0.12782E-08         0.00000E+00
    0.23181E-08         0.11518E-08         0.00000E+00
    0.23118E-08         0.10080E-08         0.00000E+00
    0.23068E-08         0.84592E-09         0.00000E+00
    0.23031E-08         0.66462E-09         0.00000E+00
    0.23005E-08         0.46340E-09         0.00000E+00
    0.22990E-08         0.24176E-09         0.00000E+00
    0.22985E-08         0.12579E-09         0.00000E+00
    0.36163E-08         0.61302E-10         0.00000E+00
    0.36144E-08         0.12154E-09         0.00000E+00
    0.36089E-08         0.24046E-09         0.00000E+00
    0.36000E-08         0.35612E-09         0.00000E+00
    0.35875E-08         0.46830E-09         0.00000E+00
    0.35719E-08         0.57683E-09         0.00000E+00
    0.35530E-08         0.68158E-09         0.00000E+00
    0.35312E-08         0.78242E-09         0.00000E+00
    0.35067E-08         0.87927E-09         0.00000E+00
    0.34795E-08         0.97207E-09         0.00000E+00
    0.34499E-08         0.10608E-08         0.00000E+00
    0.34182E-08         0.11454E-08         0.00000E+00
    0.33845E-08         0.12259E-08         0.00000E+00
    0.33490E-08         0.13023E-08         0.00000E+00
    0.33119E-08         0.13745E-08         0.00000E+00
    0.32736E-08         0.14427E-08         0.00000E+00
    0.32342E-08         0.15068E-08         0.00000E+00
    0.31940E-08         0.15668E-08         0.00000E+00
    0.31531E-08         0.16229E-08         0.00000E+00
    0.31118E-08         0.16749E-08         0.00000E+00
    0.30703E-08         0.17229E-08         0.00000E+00
    0.30288E-08         0.17668E-08         0.00000E+00
    0.29875E-08         0.18068E-08         0.00000E+00
    0.29467E-08         0.18427E-08         0.00000E+00
    0.29064E-08         0.18745E-08         0.00000E+00
    0.28670E-08         0.19021E-08         0.00000E+00
    0.28285E-08         0.19254E-08         0.00000E+00
    0.27912E-08         0.19443E-08         0.00000E+00
    0.27551E-08         0.19585E-08         0.00000E+00
    0.27204E-08         0.19679E-08         0.00000E+00
    0.26873E-08         0.19723E-08         0.00000E+00
    0.26559E-08         0.19711E-08         0.00000E+00
    0.26262E-08         0.19641E-08         0.00000E+00
    0.25983E-08         0.19509E-08         0.00000E+00
    0.25724E-08         0.19308E-08         0.00000E+00
    0.25484E-08         0.19032E-08         0.00000E+00
    0.25264E-08         0.18676E-08         0.00000E+00
    0.25065E-08         0.18230E-08         0.00000E+00
    0.24886E-08         0.17688E-08         0.00000E+00
    0.24727E-08         0.17038E-08         0.00000E+00
    0.24588E-08         0.16273E-08         0.00000E+00
    0.24468E-08         0.15381E-08         0.00000E+00
    0.24366E-08         0.14351E-08         0.00000E+00
    0.24283E-08         0.13173E-08         0.00000E+00
    0.24215E-08         0.11837E-08         0.00000E+00
    0.24163E-08         0.10332E-08         0.00000E+00
    0.24125E-08         0.86480E-09         0.00000E+00
    0.24098E-08         0.67779E-09         0.00000E+00
    0.24082E-08         0.47149E-09         0.00000E+00
    0.24074E-08         0.24545E-09         0.00000E+00
    0.24072E-08         0.12745E-09         0.00000E+00
    0.41076E-08         0.72877E-10         0.00000E+00
    0.41046E-08         0.14443E-09         0.00000E+00
    0.40958E-08         0.28556E-09         0.00000E+00
    0.40813E-08         0.42258E-09         0.00000E+00
    0.40616E-08         0.55516E-09         0.00000E+00
    0.40369E-08         0.68305E-09         0.00000E+00
    0.40076E-08         0.80603E-09         0.00000E+00
    0.39739E-08         0.92392E-09         0.00000E+00
    0.39362E-08         0.10366E-08         0.00000E+00
    0.38949E-08         0.11439E-08         0.00000E+00
    0.38503E-08         0.12458E-08         0.00000E+00
    0.38027E-08         0.13423E-08         0.00000E+00
    0.37526E-08         0.14333E-08         0.00000E+00
    0.37002E-08         0.15188E-08         0.00000E+00
    0.36459E-08         0.15988E-08         0.00000E+00
    0.35901E-08         0.16733E-08         0.00000E+00
    0.35331E-08         0.17424E-08         0.00000E+00
    0.34752E-08         0.18061E-08         0.00000E+00
    0.34168E-08         0.18645E-08         0.00000E+00
    0.33582E-08         0.19175E-08         0.00000E+00
    0.32996E-08         0.19653E-08         0.00000E+00
    0.32414E-08         0.20079E-08         0.00000E+00
    0.31838E-08         0.20453E-08         0.00000E+00
    0.31271E-08         0.20774E-08         0.00000E+00
    0.30716E-08         0.21044E-08         0.00000E+00
    0.30176E-08         0.21263E-08         0.00000E+00
    0.29652E-08         0.21428E-08         0.00000E+00
    0.29146E-08         0.21540E-08         0.00000E+00
    0.28661E-08         0.21598E-08         0.00000E+00
    0.28198E-08         0.21600E-08         0.00000E+00
    0.27759E-08         0.21545E-08         0.00000E+00
    0.27346E-08         0.21429E-08         0.00000E+00
    0.26959E-08         0.21249E-08         0.00000E+00
    0.26600E-08         0.21003E-08         0.00000E+00
    0.26269E-08         0.20685E-08         0.00000E+00
    0.25967E-08         0.20290E-08         0.00000E+00
    0.25694E-08         0.19814E-08         0.00000E+00
    0.25450E-08         0.19248E-08         0.00000E+00
    0.25235E-08         0.18587E-08         0.00000E+00
    0.25049E-08         0.17821E-08         0.00000E+00
    0.24889E-08         0.16942E-08         0.00000E+00
    0.24756E-08         0.15942E-08         0.00000E+00
    0.24648E-08         0.14810E-08         0.00000E+00
    0.24563E-08         0.13538E-08         0.00000E+00
    0.24499E-08         0.12115E-08         0.00000E+00
    0.24453E-08         0.10533E-08         0.00000E+00
    0.24423E-08         0.87831E-09         0.00000E+00
    0.24405E-08         0.68591E-09         0.00000E+00
    0.24397E-08         0.47550E-09         0.00000E+00
    0.24396E-08         0.24674E-09         0.00000E+00
    0.24396E-08         0.12774E-09         0.00000E+00
    0.46849E-08         0.91411E-10         0.00000E+00
    0.46802E-08         0.18086E-09         0.00000E+00
    0.46666E-08         0.35685E-09         0.00000E+00
    0.46444E-08         0.52681E-09         0.00000E+00
    0.46143E-08         0.69034E-09         0.00000E+00
    0.45768E-08         0.84709E-09         0.00000E+00
    0.45325E-08         0.99680E-09         0.00000E+00
    0.44820E-08         0.11393E-08         0.00000E+00
    0.44259E-08         0.12743E-08         0.00000E+00
    0.43647E-08         0.14018E-08         0.00000E+00
    0.42990E-08         0.15217E-08         0.00000E+00
    0.42293E-08         0.16339E-08         0.00000E+00
    0.41563E-08         0.17385E-08         0.00000E+00
    0.40804E-08         0.18355E-08         0.00000E+00
    0.40021E-08         0.19248E-08         0.00000E+00
    0.39220E-08         0.20067E-08         0.00000E+00
    0.38406E-08         0.20812E-08         0.00000E+00
    0.37582E-08         0.21483E-08         0.00000E+00
    0.36755E-08         0.22083E-08         0.00000E+00
    0.35927E-08         0.22611E-08         0.00000E+00
    0.35104E-08         0.23069E-08         0.00000E+00
    0.34290E-08         0.23458E-08         0.00000E+00
    0.33487E-08         0.23779E-08         0.00000E+00
    0.32700E-08         0.24034E-08         0.00000E+00
    0.31932E-08         0.24222E-08         0.00000E+00
    0.31186E-08         0.24345E-08         0.00000E+00
    0.30465E-08         0.24403E-08         0.00000E+00
    0.29773E-08         0.24396E-08         0.00000E+00
    0.29111E-08         0.24324E-08         0.00000E+00
    0.28482E-08         0.24187E-08         0.00000E+00
    0.27887E-08         0.23983E-08         0.00000E+00
    0.27329E-08         0.23712E-08         0.00000E+00
    0.26810E-08         0.23372E-08         0.00000E+00
    0.26329E-08         0.22960E-08         0.00000E+00
    0.25889E-08         0.22473E-08         0.00000E+00
    0.25489E-08         0.21908E-08         0.00000E+00
    0.25131E-08         0.21260E-08         0.00000E+00
    0.24813E-08         0.20524E-08         0.00000E+00
    0.24535E-08         0.19696E-08         0.00000E+00
    0.24296E-08         0.18768E-08         0.00000E+00
    0.24095E-08         0.17734E-08         0.00000E+00
    0.23930E-08         0.16587E-08         0.00000E+00
    0.23798E-08         0.15318E-08         0.00000E+00
    0.23697E-08         0.13921E-08         0.00000E+00
    0.23624E-08         0.12388E-08         0.00000E+00
    0.23575E-08         0.10712E-08         0.00000E+00
    0.23546E-08         0.88852E-09         0.00000E+00
    0.23532E-08         0.69035E-09         0.00000E+00
    0.23529E-08         0.47625E-09         0.00000E+00
    0.23532E-08         0.24600E-09         0.00000E+00
    0.23534E-08         0.12681E-09         0.00000E+00
    0.53531E-08         0.11975E-09         0.00000E+00
    0.53461E-08         0.23634E-09         0.00000E+00
    0.53258E-08         0.46489E-09         0.00000E+00
    0.52930E-08         0.68395E-09         0.00000E+00
    0.52486E-08         0.89303E-09         0.00000E+00
    0.51937E-08         0.10917E-08         0.00000E+00
    0.51291E-08         0.12798E-08         0.00000E+00
    0.50557E-08         0.14570E-08         0.00000E+00
    0.49744E-08         0.16233E-08         0.00000E+00
    0.48863E-08         0.17785E-08         0.00000E+00
    0.47920E-08         0.19227E-08         0.00000E+00
    0.46924E-08         0.20559E-08         0.00000E+00
    0.45884E-08         0.21781E-08         0.00000E+00
    0.44808E-08         0.22897E-08         0.00000E+00
    0.43702E-08         0.23906E-08         0.00000E+00
    0.42573E-08         0.24810E-08         0.00000E+00
    0.41430E-08         0.25613E-08         0.00000E+00
    0.40278E-08         0.26315E-08         0.00000E+00
    0.39123E-08         0.26919E-08         0.00000E+00
    0.37972E-08         0.27428E-08         0.00000E+00
    0.36829E-08         0.27843E-08         0.00000E+00
    0.35701E-08         0.28167E-08         0.00000E+00
    0.34591E-08         0.28402E-08         0.00000E+00
    0.33506E-08         0.28550E-08         0.00000E+00
    0.32449E-08         0.28613E-08         0.00000E+00
    0.31424E-08         0.28594E-08         0.00000E+00
    0.30435E-08         0.28493E-08         0.00000E+00
    0.29485E-08         0.28313E-08         0.00000E+00
    0.28579E-08         0.28055E-08         0.00000E+00
    0.27718E-08         0.27719E-08         0.00000E+00
    0.26905E-08         0.27306E-08         0.00000E+00
    0.26143E-08         0.26816E-08         0.00000E+00
    0.25434E-08         0.26250E-08         0.00000E+00
    0.24778E-08         0.25606E-08         0.00000E+00
    0.24177E-08         0.24884E-08         0.00000E+00
    0.23631E-08         0.24082E-08         0.00000E+00
    0.23141E-08         0.23198E-08         0.00000E+00
    0.22707E-08         0.22228E-08         0.00000E+00
    0.22327E-08         0.21170E-08         0.00000E+00
    0.22000E-08         0.20020E-08         0.00000E+00
    0.21724E-08         0.18773E-08         0.00000E+00
    0.21497E-08         0.17426E-08         0.00000E+00
    0.21316E-08         0.15972E-08         0.00000E+00
    0.21177E-08         0.14407E-08         0.00000E+00
    0.21075E-08         0.12726E-08         0.00000E+00
    0.21006E-08         0.10924E-08         0.00000E+00
    0.20964E-08         0.89976E-09         0.00000E+00
    0.20943E-08         0.69428E-09         0.00000E+00
    0.20938E-08         0.47579E-09         0.00000E+00
    0.20940E-08         0.24421E-09         0.00000E+00
    0.20943E-08         0.12515E-09         0.00000E+00
    0.61114E-08         0.16141E-09         0.00000E+00
    0.61014E-08         0.31766E-09         0.00000E+00
    0.60721E-08         0.62272E-09         0.00000E+00
    0.60252E-08         0.91261E-09         0.00000E+00
    0.59619E-08         0.11868E-08         0.00000E+00
    0.58838E-08         0.14450E-08         0.00000E+00
    0.57923E-08         0.16868E-08         0.00000E+00
    0.56887E-08         0.19123E-08         0.00000E+00
    0.55744E-08         0.21214E-08         0.00000E+00
    0.54508E-08         0.23142E-08         0.00000E+00
    0.53189E-08         0.24908E-08         0.00000E+00
    0.51802E-08         0.26516E-08         0.00000E+00
    0.50356E-08         0.27968E-08         0.00000E+00
    0.48864E-08         0.29268E-08         0.00000E+00
    0.47335E-08         0.30419E-08         0.00000E+00
    0.45780E-08         0.31425E-08         0.00000E+00
    0.44206E-08         0.32290E-08         0.00000E+00
    0.42625E-08         0.33018E-08         0.00000E+00
    0.41042E-08         0.33614E-08         0.00000E+00
    0.39467E-08         0.34081E-08         0.00000E+00
    0.37906E-08         0.34424E-08         0.00000E+00
    0.36367E-08         0.34647E-08         0.00000E+00
    0.34855E-08         0.34754E-08         0.00000E+00
    0.33376E-08         0.34748E-08         0.00000E+00
    0.31937E-08         0.34634E-08         0.00000E+00
    0.30542E-08         0.34415E-08         0.00000E+00
    0.29197E-08         0.34094E-08         0.00000E+00
    0.27904E-08         0.33675E-08         0.00000E+00
    0.26669E-08         0.33161E-08         0.00000E+00
    0.25496E-08         0.32554E-08         0.00000E+00
    0.24386E-08         0.31856E-08         0.00000E+00
    0.23343E-08         0.31071E-08         0.00000E+00
    0.22370E-08         0.30200E-08         0.00000E+00
    0.21468E-08         0.29245E-08         0.00000E+00
    0.20638E-08         0.28206E-08         0.00000E+00
    0.19882E-08         0.27085E-08         0.00000E+00
    0.19200E-08         0.25882E-08         0.00000E+00
    0.18590E-08         0.24597E-08         0.00000E+00
    0.18054E-08         0.23230E-08         0.00000E+00
    0.17588E-08         0.21780E-08         0.00000E+00
    0.17190E-08         0.20247E-08         0.00000E+00
    0.16858E-08         0.18628E-08         0.00000E+00
    0.16587E-08         0.16922E-08         0.00000E+00
    0.16374E-08         0.15127E-08         0.00000E+00
    0.16212E-08         0.13242E-08         0.00000E+00
    0.16097E-08         0.11266E-08         0.00000E+00
    0.16020E-08         0.91968E-09         0.00000E+00
    0.15975E-08         0.70346E-09         0.00000E+00
    0.15954E-08         0.47795E-09         0.00000E+00
    0.15948E-08         0.24331E-09         0.00000E+00
    0.15949E-08         0.12372E-09         0.00000E+00
    0.69499E-08         0.22060E-09         0.00000E+00
    0.69359E-08         0.43293E-09         0.00000E+00
    0.68952E-08         0.84584E-09         0.00000E+00
    0.68300E-08         0.12349E-08         0.00000E+00
    0.67425E-08         0.15997E-08         0.00000E+00
    0.66347E-08         0.19399E-08         0.00000E+00
    0.65086E-08         0.22554E-08         0.00000E+00
    0.63664E-08         0.25464E-08         0.00000E+00
    0.62098E-08         0.28131E-08         0.00000E+00
    0.60408E-08         0.30560E-08         0.00000E+00
    0.58611E-08         0.32755E-08         0.00000E+00
    0.56724E-08         0.34723E-08         0.00000E+00
    0.54763E-08         0.36470E-08         0.00000E+00
    0.52742E-08         0.38003E-08         0.00000E+00
    0.50676E-08         0.39328E-08         0.00000E+00
    0.48577E-08         0.40454E-08         0.00000E+00
    0.46458E-08         0.41388E-08         0.00000E+00
    0.44331E-08         0.42136E-08         0.00000E+00
    0.42205E-08         0.42707E-08         0.00000E+00
    0.40091E-08         0.43108E-08         0.00000E+00
    0.37998E-08         0.43344E-08         0.00000E+00
    0.35934E-08         0.43424E-08         0.00000E+00
    0.33908E-08         0.43353E-08         0.00000E+00
    0.31927E-08         0.43137E-08         0.00000E+00
    0.29998E-08         0.42784E-08         0.00000E+00
    0.28126E-08         0.42297E-08         0.00000E+00
    0.26319E-08         0.41684E-08         0.00000E+00
    0.24580E-08         0.40950E-08         0.00000E+00
    0.22916E-08         0.40099E-08         0.00000E+00
    0.21330E-08         0.39136E-08         0.00000E+00
    0.19827E-08         0.38067E-08         0.00000E+00
    0.18410E-08         0.36896E-08         0.00000E+00
    0.17081E-08         0.35627E-08         0.00000E+00
    0.15843E-08         0.34265E-08         0.00000E+00
    0.14699E-08         0.32813E-08         0.00000E+00
    0.13648E-08         0.31276E-08         0.00000E+00
    0.12693E-08         0.29656E-08         0.00000E+00
    0.11832E-08         0.27958E-08         0.00000E+00
    0.11064E-08         0.26184E-08         0.00000E+00
    0.10389E-08         0.24338E-08         0.00000E+00
    0.98039E-09         0.22422E-08         0.00000E+00
    0.93051E-09         0.20439E-08         0.00000E+00
    0.88886E-09         0.18391E-08         0.00000E+00
    0.85495E-09         0.16282E-08         0.00000E+00
    0.82819E-09         0.14113E-08         0.00000E+00
    0.80790E-09         0.11886E-08         0.00000E+00
    0.79334E-09         0.96055E-09         0.00000E+00
    0.78367E-09         0.72728E-09         0.00000E+00
    0.77800E-09         0.48917E-09         0.00000E+00
    0.77538E-09         0.24657E-09         0.00000E+00
    0.77483E-09         0.12420E-09         0.00000E+00
    0.78459E-08         0.30212E-09         0.00000E+00
    0.78268E-08         0.59143E-09         0.00000E+00
    0.77718E-08         0.11520E-08         0.00000E+00
    0.76839E-08         0.16762E-08         0.00000E+00
    0.75660E-08         0.21636E-08         0.00000E+00
    0.74211E-08         0.26142E-08         0.00000E+00
    0.72521E-08         0.30283E-08         0.00000E+00
    0.70618E-08         0.34063E-08         0.00000E+00
    0.68528E-08         0.37491E-08         0.00000E+00
    0.66276E-08         0.40576E-08         0.00000E+00
    0.63886E-08         0.43327E-08         0.00000E+00
    0.61381E-08         0.45758E-08         0.00000E+00
    0.58782E-08         0.47879E-08         0.00000E+00
    0.56109E-08         0.49703E-08         0.00000E+00
    0.53379E-08         0.51243E-08         0.00000E+00
    0.50610E-08         0.52512E-08         0.00000E+00
    0.47818E-08         0.53522E-08         0.00000E+00
    0.45017E-08         0.54285E-08         0.00000E+00
    0.42221E-08         0.54813E-08         0.00000E+00
    0.39441E-08         0.55116E-08         0.00000E+00
    0.36689E-08         0.55207E-08         0.00000E+00
    0.33976E-08         0.55095E-08         0.00000E+00
    0.31312E-08         0.54790E-08         0.00000E+00
    0.28705E-08         0.54302E-08         0.00000E+00
    0.26163E-08         0.53639E-08         0.00000E+00
    0.23694E-08         0.52810E-08         0.00000E+00
    0.21306E-08         0.51824E-08         0.00000E+00
    0.19003E-08         0.50688E-08         0.00000E+00
    0.16793E-08         0.49410E-08         0.00000E+00
    0.14680E-08         0.47999E-08         0.00000E+00
    0.12669E-08         0.46460E-08         0.00000E+00
    0.10765E-08         0.44802E-08         0.00000E+00
    0.89699E-09         0.43031E-08         0.00000E+00
    0.72880E-09         0.41155E-08         0.00000E+00
    0.57215E-09         0.39181E-08         0.00000E+00
    0.42721E-09         0.37115E-08         0.00000E+00
    0.29411E-09         0.34966E-08         0.00000E+00
    0.17288E-09         0.32739E-08         0.00000E+00
    0.63484E-10         0.30442E-08         0.00000E+00
   -0.34186E-10         0.28083E-08         0.00000E+00
   -0.12034E-09         0.25668E-08         0.00000E+00
   -0.19526E-09         0.23204E-08         0.00000E+00
   -0.25933E-09         0.20699E-08         0.00000E+00
   -0.31305E-09         0.18161E-08         0.00000E+00
   -0.35697E-09         0.15595E-08         0.00000E+00
   -0.39177E-09         0.13008E-08         0.00000E+00
   -0.41820E-09         0.10408E-08         0.00000E+00
   -0.43709E-09         0.78015E-09         0.00000E+00
   -0.44933E-09         0.51939E-09         0.00000E+00
   -0.45590E-09         0.25916E-09         0.00000E+00
   -0.45776E-09         0.12925E-09         0.00000E+00
    0.87592E-08         0.41126E-09         0.00000E+00
    0.87340E-08         0.80335E-09         0.00000E+00
    0.86616E-08         0.15607E-08         0.00000E+00
    0.85460E-08         0.22641E-08         0.00000E+00
    0.83914E-08         0.29134E-08         0.00000E+00
    0.82017E-08         0.35092E-08         0.00000E+00
    0.79808E-08         0.40520E-08         0.00000E+00
    0.77325E-08         0.45432E-08         0.00000E+00
    0.74602E-08         0.49842E-08         0.00000E+00
    0.71674E-08         0.53768E-08         0.00000E+00
    0.68572E-08         0.57228E-08         0.00000E+00
    0.65325E-08         0.60243E-08         0.00000E+00
    0.61961E-08         0.62832E-08         0.00000E+00
    0.58506E-08         0.65018E-08         0.00000E+00
    0.54982E-08         0.66820E-08         0.00000E+00
    0.51411E-08         0.68258E-08         0.00000E+00
    0.47813E-08         0.69354E-08         0.00000E+00
    0.44206E-08         0.70125E-08         0.00000E+00
    0.40606E-08         0.70589E-08         0.00000E+00
    0.37029E-08         0.70764E-08         0.00000E+00
    0.33487E-08         0.70666E-08         0.00000E+00
    0.29995E-08         0.70310E-08         0.00000E+00
    0.26561E-08         0.69711E-08         0.00000E+00
    0.23199E-08         0.68881E-08         0.00000E+00
    0.19915E-08         0.67835E-08         0.00000E+00
    0.16721E-08         0.66584E-08         0.00000E+00
    0.13622E-08         0.65140E-08         0.00000E+00
    0.10628E-08         0.63513E-08         0.00000E+00
    0.77432E-09         0.61715E-08         0.00000E+00
    0.49749E-09         0.59755E-08         0.00000E+00
    0.23284E-09         0.57645E-08         0.00000E+00
   -0.19131E-10         0.55393E-08         0.00000E+00
   -0.25799E-09         0.53010E-08         0.00000E+00
   -0.48336E-09         0.50507E-08         0.00000E+00
   -0.69490E-09         0.47892E-08         0.00000E+00
   -0.89234E-09         0.45178E-08         0.00000E+00
   -0.10755E-08         0.42373E-08         0.00000E+00
   -0.12441E-08         0.39489E-08         0.00000E+00
   -0.13983E-08         0.36537E-08         0.00000E+00
   -0.15379E-08         0.33529E-08         0.00000E+00
   -0.16631E-08         0.30475E-08         0.00000E+00
   -0.17741E-08         0.27389E-08         0.00000E+00
   -0.18710E-08         0.24281E-08         0.00000E+00
   -0.19543E-08         0.21164E-08         0.00000E+00
   -0.20243E-08         0.18049E-08         0.00000E+00
   -0.20816E-08         0.14948E-08         0.00000E+00
   -0.21269E-08         0.11871E-08         0.00000E+00
   -0.21607E-08         0.88296E-09         0.00000E+00
   -0.21838E-08         0.58322E-09         0.00000E+00
   -0.21971E-08         0.28872E-09         0.00000E+00
   -0.22012E-08         0.14288E-09         0.00000E+00
    0.96275E-08         0.55352E-09         0.00000E+00
    0.95952E-08         0.10793E-08         0.00000E+00
    0.95022E-08         0.20920E-08         0.00000E+00
    0.93542E-08         0.30272E-08         0.00000E+00
    0.91564E-08         0.38853E-08         0.00000E+00
    0.89141E-08         0.46671E-08         0.00000E+00
    0.86324E-08         0.53744E-08         0.00000E+00
    0.83162E-08         0.60094E-08         0.00000E+00
    0.79701E-08         0.65745E-08         0.00000E+00
    0.75984E-08         0.70728E-08         0.00000E+00
    0.72052E-08         0.75072E-08         0.00000E+00
    0.67942E-08         0.78810E-08         0.00000E+00
    0.63690E-08         0.81976E-08         0.00000E+00
    0.59328E-08         0.84600E-08         0.00000E+00
    0.54883E-08         0.86717E-08         0.00000E+00
    0.50384E-08         0.88356E-08         0.00000E+00
    0.45853E-08         0.89547E-08         0.00000E+00
    0.41314E-08         0.90319E-08         0.00000E+00
    0.36785E-08         0.90699E-08         0.00000E+00
    0.32285E-08         0.90711E-08         0.00000E+00
    0.27828E-08         0.90379E-08         0.00000E+00
    0.23430E-08         0.89725E-08         0.00000E+00
    0.19104E-08         0.88770E-08         0.00000E+00
    0.14860E-08         0.87531E-08         0.00000E+00
    0.10710E-08         0.86028E-08         0.00000E+00
    0.66636E-09         0.84275E-08         0.00000E+00
    0.27285E-09         0.82289E-08         0.00000E+00
   -0.10872E-09         0.80084E-08         0.00000E+00
   -0.47760E-09         0.77674E-08         0.00000E+00
   -0.83315E-09         0.75072E-08         0.00000E+00
   -0.11748E-08         0.72291E-08         0.00000E+00
   -0.15019E-08         0.69344E-08         0.00000E+00
   -0.18139E-08         0.66243E-08         0.00000E+00
   -0.21105E-08         0.63000E-08         0.00000E+00
   -0.23912E-08         0.59630E-08         0.00000E+00
   -0.26555E-08         0.56144E-08         0.00000E+00
   -0.29032E-08         0.52556E-08         0.00000E+00
   -0.31339E-08         0.48881E-08         0.00000E+00
   -0.33473E-08         0.45132E-08         0.00000E+00
   -0.35434E-08         0.41325E-08         0.00000E+00
   -0.37218E-08         0.37475E-08         0.00000E+00
   -0.38826E-08         0.33597E-08         0.00000E+00
   -0.40257E-08         0.29709E-08         0.00000E+00
   -0.41511E-08         0.25826E-08         0.00000E+00
   -0.42591E-08         0.21963E-08         0.00000E+00
   -0.43496E-08         0.18137E-08         0.00000E+00
   -0.44230E-08         0.14361E-08         0.00000E+00
   -0.44795E-08         0.10649E-08         0.00000E+00
   -0.45194E-08         0.70126E-09         0.00000E+00
   -0.45431E-08         0.34613E-09         0.00000E+00
   -0.45509E-08         0.17080E-09         0.00000E+00
    0.10362E-07         0.73427E-09         0.00000E+00
    0.10321E-07         0.14295E-08         0.00000E+00
    0.10205E-07         0.27656E-08         0.00000E+00
    0.10020E-07         0.39935E-08         0.00000E+00
    0.97726E-08         0.51139E-08         0.00000E+00
    0.94705E-08         0.61290E-08         0.00000E+00
    0.91199E-08         0.70414E-08         0.00000E+00
    0.87268E-08         0.78548E-08         0.00000E+00
    0.82971E-08         0.85733E-08         0.00000E+00
    0.78364E-08         0.92012E-08         0.00000E+00
    0.73498E-08         0.97435E-08         0.00000E+00
    0.68419E-08         0.10205E-07         0.00000E+00
    0.63171E-08         0.10591E-07         0.00000E+00
    0.57793E-08         0.10905E-07         0.00000E+00
    0.52321E-08         0.11154E-07         0.00000E+00
    0.46787E-08         0.11341E-07         0.00000E+00
    0.41219E-08         0.11470E-07         0.00000E+00
    0.35643E-08         0.11547E-07         0.00000E+00
    0.30083E-08         0.11574E-07         0.00000E+00
    0.24558E-08         0.11555E-07         0.00000E+00
    0.19086E-08         0.11494E-07         0.00000E+00
    0.13683E-08         0.11393E-07         0.00000E+00
    0.83624E-09         0.11256E-07         0.00000E+00
    0.31374E-09         0.11085E-07         0.00000E+00
   -0.19816E-09         0.10882E-07         0.00000E+00
   -0.69848E-09         0.10649E-07         0.00000E+00
   -0.11864E-08         0.10389E-07         0.00000E+00
   -0.16610E-08         0.10104E-07         0.00000E+00
   -0.21218E-08         0.97936E-08         0.00000E+00
   -0.25679E-08         0.94613E-08         0.00000E+00
   -0.29988E-08         0.91080E-08         0.00000E+00
   -0.34139E-08         0.87352E-08         0.00000E+00
   -0.38126E-08         0.83444E-08         0.00000E+00
   -0.41945E-08         0.79369E-08         0.00000E+00
   -0.45588E-08         0.75142E-08         0.00000E+00
   -0.49052E-08         0.70777E-08         0.00000E+00
   -0.52330E-08         0.66291E-08         0.00000E+00
   -0.55418E-08         0.61697E-08         0.00000E+00
   -0.58309E-08         0.57012E-08         0.00000E+00
   -0.61000E-08         0.52253E-08         0.00000E+00
   -0.63483E-08         0.47437E-08         0.00000E+00
   -0.65755E-08         0.42583E-08         0.00000E+00
   -0.67809E-08         0.37708E-08         0.00000E+00
   -0.69642E-08         0.32832E-08         0.00000E+00
   -0.71247E-08         0.27971E-08         0.00000E+00
   -0.72619E-08         0.23144E-08         0.00000E+00
   -0.73754E-08         0.18366E-08         0.00000E+00
   -0.74647E-08         0.13652E-08         0.00000E+00
   -0.75292E-08         0.90138E-09         0.00000E+00
   -0.75684E-08         0.44620E-09         0.00000E+00
   -0.75816E-08         0.22086E-09         0.00000E+00
    0.10841E-07         0.95840E-09         0.00000E+00
    0.10791E-07         0.18634E-08         0.00000E+00
    0.10649E-07         0.35993E-08         0.00000E+00
    0.10423E-07         0.51878E-08         0.00000E+00
    0.10121E-07         0.66306E-08         0.00000E+00
    0.97533E-08         0.79310E-08         0.00000E+00
    0.93266E-08         0.90934E-08         0.00000E+00
    0.88491E-08         0.10123E-07         0.00000E+00
    0.83281E-08         0.11026E-07         0.00000E+00
    0.77704E-08         0.11809E-07         0.00000E+00
    0.71823E-08         0.12480E-07         0.00000E+00
    0.65695E-08         0.13044E-07         0.00000E+00
    0.59374E-08         0.13511E-07         0.00000E+00
    0.52907E-08         0.13885E-07         0.00000E+00
    0.46337E-08         0.14175E-07         0.00000E+00
    0.39702E-08         0.14387E-07         0.00000E+00
    0.33035E-08         0.14526E-07         0.00000E+00
    0.26365E-08         0.14600E-07         0.00000E+00
    0.19719E-08         0.14613E-07         0.00000E+00
    0.13118E-08         0.14570E-07         0.00000E+00
    0.65824E-09         0.14475E-07         0.00000E+00
    0.12749E-10         0.14334E-07         0.00000E+00
   -0.62324E-09         0.14150E-07         0.00000E+00
   -0.12485E-08         0.13925E-07         0.00000E+00
   -0.18621E-08         0.13664E-07         0.00000E+00
   -0.24632E-08         0.13369E-07         0.00000E+00
   -0.30509E-08         0.13042E-07         0.00000E+00
   -0.36247E-08         0.12685E-07         0.00000E+00
   -0.41839E-08         0.12302E-07         0.00000E+00
   -0.47280E-08         0.11892E-07         0.00000E+00
   -0.52565E-08         0.11459E-07         0.00000E+00
   -0.57689E-08         0.11004E-07         0.00000E+00
   -0.62646E-08         0.10527E-07         0.00000E+00
   -0.67430E-08         0.10031E-07         0.00000E+00
   -0.72035E-08         0.95166E-08         0.00000E+00
   -0.76454E-08         0.89853E-08         0.00000E+00
   -0.80680E-08         0.84385E-08         0.00000E+00
   -0.84705E-08         0.78776E-08         0.00000E+00
   -0.88519E-08         0.73041E-08         0.00000E+00
   -0.92112E-08         0.67194E-08         0.00000E+00
   -0.95474E-08         0.61251E-08         0.00000E+00
   -0.98591E-08         0.55228E-08         0.00000E+00
   -0.10145E-07         0.49143E-08         0.00000E+00
   -0.10404E-07         0.43012E-08         0.00000E+00
   -0.10635E-07         0.36851E-08         0.00000E+00
   -0.10835E-07         0.30676E-08         0.00000E+00
   -0.11003E-07         0.24501E-08         0.00000E+00
   -0.11137E-07         0.18338E-08         0.00000E+00
   -0.11236E-07         0.12196E-08         0.00000E+00
   -0.11297E-07         0.60832E-09         0.00000E+00
   -0.11318E-07         0.30342E-09         0.00000E+00
    0.10908E-07         0.12301E-08         0.00000E+00
    0.10849E-07         0.23891E-08         0.00000E+00
    0.10678E-07         0.46083E-08         0.00000E+00
    0.10407E-07         0.66315E-08         0.00000E+00
    0.10047E-07         0.84613E-08         0.00000E+00
    0.96080E-08         0.10103E-07         0.00000E+00
    0.90999E-08         0.11562E-07         0.00000E+00
    0.85325E-08         0.12847E-07         0.00000E+00
    0.79146E-08         0.13967E-07         0.00000E+00
    0.72548E-08         0.14930E-07         0.00000E+00
    0.65607E-08         0.15748E-07         0.00000E+00
    0.58393E-08         0.16429E-07         0.00000E+00
    0.50970E-08         0.16985E-07         0.00000E+00
    0.43394E-08         0.17424E-07         0.00000E+00
    0.35717E-08         0.17757E-07         0.00000E+00
    0.27981E-08         0.17992E-07         0.00000E+00
    0.20226E-08         0.18139E-07         0.00000E+00
    0.12484E-08         0.18204E-07         0.00000E+00
    0.47830E-09         0.18197E-07         0.00000E+00
   -0.28543E-09         0.18123E-07         0.00000E+00
   -0.10409E-08         0.17989E-07         0.00000E+00
   -0.17864E-08         0.17801E-07         0.00000E+00
   -0.25209E-08         0.17562E-07         0.00000E+00
   -0.32434E-08         0.17279E-07         0.00000E+00
   -0.39531E-08         0.16955E-07         0.00000E+00
   -0.46495E-08         0.16593E-07         0.00000E+00
   -0.53322E-08         0.16197E-07         0.00000E+00
   -0.60008E-08         0.15768E-07         0.00000E+00
   -0.66552E-08         0.15310E-07         0.00000E+00
   -0.72951E-08         0.14824E-07         0.00000E+00
   -0.79202E-08         0.14312E-07         0.00000E+00
   -0.85302E-08         0.13775E-07         0.00000E+00
   -0.91249E-08         0.13215E-07         0.00000E+00
   -0.97037E-08         0.12631E-07         0.00000E+00
   -0.10266E-07         0.12026E-07         0.00000E+00
   -0.10811E-07         0.11401E-07         0.00000E+00
   -0.11338E-07         0.10755E-07         0.00000E+00
   -0.11845E-07         0.10089E-07         0.00000E+00
   -0.12332E-07         0.94048E-08         0.00000E+00
   -0.12796E-07         0.87026E-08         0.00000E+00
   -0.13236E-07         0.79831E-08         0.00000E+00
   -0.13650E-07         0.72473E-08         0.00000E+00
   -0.14034E-07         0.64959E-08         0.00000E+00
   -0.14388E-07         0.57298E-08         0.00000E+00
   -0.14706E-07         0.49496E-08         0.00000E+00
   -0.14987E-07         0.41561E-08         0.00000E+00
   -0.15226E-07         0.33499E-08         0.00000E+00
   -0.15419E-07         0.25312E-08         0.00000E+00
   -0.15564E-07         0.17001E-08         0.00000E+00
   -0.15654E-07         0.85645E-09         0.00000E+00
   -0.15685E-07         0.43142E-09         0.00000E+00
    0.10363E-07         0.15535E-08         0.00000E+00
    0.10293E-07         0.30140E-08         0.00000E+00
    0.10091E-07         0.58064E-08         0.00000E+00
    0.97721E-08         0.83429E-08         0.00000E+00
    0.93486E-08         0.10628E-07         0.00000E+00
    0.88336E-08         0.12668E-07         0.00000E+00
    0.82395E-08         0.14471E-07         0.00000E+00
    0.75781E-08         0.16050E-07         0.00000E+00
    0.68605E-08         0.17414E-07         0.00000E+00
    0.60970E-08         0.18579E-07         0.00000E+00
    0.52969E-08         0.19557E-07         0.00000E+00
    0.44688E-08         0.20363E-07         0.00000E+00
    0.36202E-08         0.21010E-07         0.00000E+00
    0.27580E-08         0.21512E-07         0.00000E+00
    0.18880E-08         0.21881E-07         0.00000E+00
    0.10152E-08         0.22132E-07         0.00000E+00
    0.14384E-09         0.22275E-07         0.00000E+00
   -0.72253E-09         0.22322E-07         0.00000E+00
   -0.15811E-08         0.22282E-07         0.00000E+00
   -0.24296E-08         0.22165E-07         0.00000E+00
   -0.32664E-08         0.21980E-07         0.00000E+00
   -0.40904E-08         0.21735E-07         0.00000E+00
   -0.49006E-08         0.21434E-07         0.00000E+00
   -0.56968E-08         0.21086E-07         0.00000E+00
   -0.64788E-08         0.20694E-07         0.00000E+00
   -0.72468E-08         0.20264E-07         0.00000E+00
   -0.80009E-08         0.19798E-07         0.00000E+00
   -0.87416E-08         0.19300E-07         0.00000E+00
   -0.94693E-08         0.18773E-07         0.00000E+00
   -0.10184E-07         0.18217E-07         0.00000E+00
   -0.10887E-07         0.17635E-07         0.00000E+00
   -0.11578E-07         0.17027E-07         0.00000E+00
   -0.12258E-07         0.16394E-07         0.00000E+00
   -0.12925E-07         0.15736E-07         0.00000E+00
   -0.13579E-07         0.15053E-07         0.00000E+00
   -0.14221E-07         0.14345E-07         0.00000E+00
   -0.14849E-07         0.13610E-07         0.00000E+00
   -0.15461E-07         0.12848E-07         0.00000E+00
   -0.16055E-07         0.12059E-07         0.00000E+00
   -0.16630E-07         0.11241E-07         0.00000E+00
   -0.17182E-07         0.10393E-07         0.00000E+00
   -0.17708E-07         0.95139E-08         0.00000E+00
   -0.18204E-07         0.86030E-08         0.00000E+00
   -0.18665E-07         0.76588E-08         0.00000E+00
   -0.19087E-07         0.66802E-08         0.00000E+00
   -0.19463E-07         0.56657E-08         0.00000E+00
   -0.19788E-07         0.46140E-08         0.00000E+00
   -0.20055E-07         0.35233E-08         0.00000E+00
   -0.20256E-07         0.23919E-08         0.00000E+00
   -0.20383E-07         0.12178E-08         0.00000E+00
   -0.20428E-07         0.61980E-09         0.00000E+00
    0.89441E-08         0.19338E-08         0.00000E+00
    0.88613E-08         0.37480E-08         0.00000E+00
    0.86249E-08         0.72108E-08         0.00000E+00
    0.82518E-08         0.10344E-07         0.00000E+00
    0.77586E-08         0.13154E-07         0.00000E+00
    0.71616E-08         0.15648E-07         0.00000E+00
    0.64765E-08         0.17840E-07         0.00000E+00
    0.57180E-08         0.19742E-07         0.00000E+00
    0.49001E-08         0.21373E-07         0.00000E+00
    0.40354E-08         0.22749E-07         0.00000E+00
    0.31357E-08         0.23889E-07         0.00000E+00
    0.22112E-08         0.24813E-07         0.00000E+00
    0.12711E-08         0.25538E-07         0.00000E+00
    0.32336E-09         0.26085E-07         0.00000E+00
   -0.62531E-09         0.26471E-07         0.00000E+00
   -0.15693E-08         0.26713E-07         0.00000E+00
   -0.25041E-08         0.26827E-07         0.00000E+00
   -0.34263E-08         0.26829E-07         0.00000E+00
   -0.43331E-08         0.26732E-07         0.00000E+00
   -0.52228E-08         0.26550E-07         0.00000E+00
   -0.60944E-08         0.26293E-07         0.00000E+00
   -0.69475E-08         0.25972E-07         0.00000E+00
   -0.77822E-08         0.25595E-07         0.00000E+00
   -0.85992E-08         0.25170E-07         0.00000E+00
   -0.93995E-08         0.24705E-07         0.00000E+00
   -0.10184E-07         0.24204E-07         0.00000E+00
   -0.10955E-07         0.23671E-07         0.00000E+00
   -0.11714E-07         0.23111E-07         0.00000E+00
   -0.12462E-07         0.22525E-07         0.00000E+00
   -0.13201E-07         0.21915E-07         0.00000E+00
   -0.13932E-07         0.21282E-07         0.00000E+00
   -0.14656E-07         0.20626E-07         0.00000E+00
   -0.15375E-07         0.19946E-07         0.00000E+00
   -0.16090E-07         0.19241E-07         0.00000E+00
   -0.16800E-07         0.18509E-07         0.00000E+00
   -0.17505E-07         0.17747E-07         0.00000E+00
   -0.18204E-07         0.16952E-07         0.00000E+00
   -0.18895E-07         0.16121E-07         0.00000E+00
   -0.19577E-07         0.15251E-07         0.00000E+00
   -0.20247E-07         0.14336E-07         0.00000E+00
   -0.20899E-07         0.13372E-07         0.00000E+00
   -0.21531E-07         0.12356E-07         0.00000E+00
   -0.22135E-07         0.11282E-07         0.00000E+00
   -0.22705E-07         0.10146E-07         0.00000E+00
   -0.23234E-07         0.89410E-08         0.00000E+00
   -0.23713E-07         0.76635E-08         0.00000E+00
   -0.24132E-07         0.63078E-08         0.00000E+00
   -0.24479E-07         0.48687E-08         0.00000E+00
   -0.24745E-07         0.33407E-08         0.00000E+00
   -0.24915E-07         0.17186E-08         0.00000E+00
   -0.24976E-07         0.88339E-09         0.00000E+00
    0.63013E-08         0.23816E-08         0.00000E+00
    0.62029E-08         0.46098E-08         0.00000E+00
    0.59237E-08         0.88536E-08         0.00000E+00
    0.54862E-08         0.12674E-07         0.00000E+00
    0.49125E-08         0.16079E-07         0.00000E+00
    0.42243E-08         0.19078E-07         0.00000E+00
    0.34420E-08         0.21689E-07         0.00000E+00
    0.25851E-08         0.23932E-07         0.00000E+00
    0.16713E-08         0.25827E-07         0.00000E+00
    0.71690E-09         0.27401E-07         0.00000E+00
   -0.26370E-09         0.28679E-07         0.00000E+00
   -0.12578E-08         0.29686E-07         0.00000E+00
   -0.22545E-08         0.30449E-07         0.00000E+00
   -0.32446E-08         0.30994E-07         0.00000E+00
   -0.42208E-08         0.31345E-07         0.00000E+00
   -0.51771E-08         0.31526E-07         0.00000E+00
   -0.61092E-08         0.31560E-07         0.00000E+00
   -0.70141E-08         0.31466E-07         0.00000E+00
   -0.78900E-08         0.31265E-07         0.00000E+00
   -0.87362E-08         0.30972E-07         0.00000E+00
   -0.95530E-08         0.30604E-07         0.00000E+00
   -0.10342E-07         0.30174E-07         0.00000E+00
   -0.11104E-07         0.29693E-07         0.00000E+00
   -0.11842E-07         0.29173E-07         0.00000E+00
   -0.12558E-07         0.28620E-07         0.00000E+00
   -0.13257E-07         0.28043E-07         0.00000E+00
   -0.13941E-07         0.27446E-07         0.00000E+00
   -0.14614E-07         0.26833E-07         0.00000E+00
   -0.15280E-07         0.26206E-07         0.00000E+00
   -0.15941E-07         0.25566E-07         0.00000E+00
   -0.16601E-07         0.24914E-07         0.00000E+00
   -0.17263E-07         0.24247E-07         0.00000E+00
   -0.17929E-07         0.23563E-07         0.00000E+00
   -0.18601E-07         0.22858E-07         0.00000E+00
   -0.19281E-07         0.22127E-07         0.00000E+00
   -0.19969E-07         0.21364E-07         0.00000E+00
   -0.20665E-07         0.20563E-07         0.00000E+00
   -0.21367E-07         0.19716E-07         0.00000E+00
   -0.22073E-07         0.18815E-07         0.00000E+00
   -0.22781E-07         0.17851E-07         0.00000E+00
   -0.23484E-07         0.16813E-07         0.00000E+00
   -0.24178E-07         0.15692E-07         0.00000E+00
   -0.24855E-07         0.14477E-07         0.00000E+00
   -0.25504E-07         0.13156E-07         0.00000E+00
   -0.26117E-07         0.11718E-07         0.00000E+00
   -0.26681E-07         0.10152E-07         0.00000E+00
   -0.27182E-07         0.84464E-08         0.00000E+00
   -0.27603E-07         0.65888E-08         0.00000E+00
   -0.27930E-07         0.45683E-08         0.00000E+00
   -0.28141E-07         0.23737E-08         0.00000E+00
   -0.28219E-07         0.12315E-08         0.00000E+00
    0.19662E-08         0.29182E-08         0.00000E+00
    0.18466E-08         0.56361E-08         0.00000E+00
    0.15120E-08         0.10794E-07         0.00000E+00
    0.99522E-09         0.15400E-07         0.00000E+00
    0.32841E-09         0.19463E-07         0.00000E+00
   -0.45802E-09         0.23001E-07         0.00000E+00
   -0.13356E-08         0.26036E-07         0.00000E+00
   -0.22783E-08         0.28596E-07         0.00000E+00
   -0.32626E-08         0.30714E-07         0.00000E+00
   -0.42679E-08         0.32424E-07         0.00000E+00
   -0.52764E-08         0.33762E-07         0.00000E+00
   -0.62729E-08         0.34766E-07         0.00000E+00
   -0.72453E-08         0.35473E-07         0.00000E+00
   -0.81837E-08         0.35917E-07         0.00000E+00
   -0.90807E-08         0.36133E-07         0.00000E+00
   -0.99313E-08         0.36155E-07         0.00000E+00
   -0.10732E-07         0.36012E-07         0.00000E+00
   -0.11482E-07         0.35733E-07         0.00000E+00
   -0.12182E-07         0.35343E-07         0.00000E+00
   -0.12832E-07         0.34865E-07         0.00000E+00
   -0.13435E-07         0.34320E-07         0.00000E+00
   -0.13996E-07         0.33725E-07         0.00000E+00
   -0.14518E-07         0.33096E-07         0.00000E+00
   -0.15007E-07         0.32445E-07         0.00000E+00
   -0.15468E-07         0.31783E-07         0.00000E+00
   -0.15907E-07         0.31118E-07         0.00000E+00
   -0.16330E-07         0.30457E-07         0.00000E+00
   -0.16744E-07         0.29802E-07         0.00000E+00
   -0.17153E-07         0.29157E-07         0.00000E+00
   -0.17564E-07         0.28521E-07         0.00000E+00
   -0.17983E-07         0.27892E-07         0.00000E+00
   -0.18415E-07         0.27266E-07         0.00000E+00
   -0.18863E-07         0.26638E-07         0.00000E+00
   -0.19332E-07         0.26002E-07         0.00000E+00
   -0.19825E-07         0.25347E-07         0.00000E+00
   -0.20344E-07         0.24665E-07         0.00000E+00
   -0.20890E-07         0.23942E-07         0.00000E+00
   -0.21462E-07         0.23165E-07         0.00000E+00
   -0.22060E-07         0.22321E-07         0.00000E+00
   -0.22680E-07         0.21391E-07         0.00000E+00
   -0.23317E-07         0.20359E-07         0.00000E+00
   -0.23965E-07         0.19207E-07         0.00000E+00
   -0.24614E-07         0.17914E-07         0.00000E+00
   -0.25256E-07         0.16460E-07         0.00000E+00
   -0.25875E-07         0.14824E-07         0.00000E+00
   -0.26458E-07         0.12984E-07         0.00000E+00
   -0.26987E-07         0.10920E-07         0.00000E+00
   -0.27441E-07         0.86090E-08         0.00000E+00
   -0.27799E-07         0.60305E-08         0.00000E+00
   -0.28036E-07         0.31642E-08         0.00000E+00
   -0.28123E-07         0.16567E-08         0.00000E+00
   -0.45461E-08         0.35774E-08         0.00000E+00
   -0.46923E-08         0.68809E-08         0.00000E+00
   -0.50906E-08         0.13111E-07         0.00000E+00
   -0.56884E-08         0.18592E-07         0.00000E+00
   -0.64368E-08         0.23345E-07         0.00000E+00
   -0.72911E-08         0.27398E-07         0.00000E+00
   -0.82116E-08         0.30791E-07         0.00000E+00
   -0.91636E-08         0.33567E-07         0.00000E+00
   -0.10118E-07         0.35776E-07         0.00000E+00
   -0.11049E-07         0.37470E-07         0.00000E+00
   -0.11937E-07         0.38704E-07         0.00000E+00
   -0.12767E-07         0.39530E-07         0.00000E+00
   -0.13527E-07         0.40003E-07         0.00000E+00
   -0.14209E-07         0.40171E-07         0.00000E+00
   -0.14808E-07         0.40083E-07         0.00000E+00
   -0.15322E-07         0.39784E-07         0.00000E+00
   -0.15751E-07         0.39315E-07         0.00000E+00
   -0.16098E-07         0.38712E-07         0.00000E+00
   -0.16367E-07         0.38011E-07         0.00000E+00
   -0.16562E-07         0.37240E-07         0.00000E+00
   -0.16691E-07         0.36425E-07         0.00000E+00
   -0.16761E-07         0.35588E-07         0.00000E+00
   -0.16780E-07         0.34749E-07         0.00000E+00
   -0.16756E-07         0.33923E-07         0.00000E+00
   -0.16699E-07         0.33121E-07         0.00000E+00
   -0.16616E-07         0.32355E-07         0.00000E+00
   -0.16517E-07         0.31628E-07         0.00000E+00
   -0.16411E-07         0.30946E-07         0.00000E+00
   -0.16306E-07         0.30310E-07         0.00000E+00
   -0.16211E-07         0.29717E-07         0.00000E+00
   -0.16133E-07         0.29164E-07         0.00000E+00
   -0.16080E-07         0.28645E-07         0.00000E+00
   -0.16059E-07         0.28150E-07         0.00000E+00
   -0.16074E-07         0.27668E-07         0.00000E+00
   -0.16132E-07         0.27186E-07         0.00000E+00
   -0.16237E-07         0.26688E-07         0.00000E+00
   -0.16391E-07         0.26156E-07         0.00000E+00
   -0.16595E-07         0.25568E-07         0.00000E+00
   -0.16851E-07         0.24903E-07         0.00000E+00
   -0.17156E-07         0.24135E-07         0.00000E+00
   -0.17507E-07         0.23237E-07         0.00000E+00
   -0.17898E-07         0.22180E-07         0.00000E+00
   -0.18322E-07         0.20932E-07         0.00000E+00
   -0.18769E-07         0.19460E-07         0.00000E+00
   -0.19225E-07         0.17732E-07         0.00000E+00
   -0.19675E-07         0.15711E-07         0.00000E+00
   -0.20101E-07         0.13362E-07         0.00000E+00
   -0.20481E-07         0.10650E-07         0.00000E+00
   -0.20791E-07         0.75389E-08         0.00000E+00
   -0.21001E-07         0.39952E-08         0.00000E+00
   -0.21082E-07         0.21110E-08         0.00000E+00
   -0.12964E-07         0.43798E-08         0.00000E+00
   -0.13127E-07         0.83585E-08         0.00000E+00
   -0.13547E-07         0.15775E-07         0.00000E+00
   -0.14141E-07         0.22131E-07         0.00000E+00
   -0.14839E-07         0.27476E-07         0.00000E+00
   -0.15579E-07         0.31875E-07         0.00000E+00
   -0.16312E-07         0.35398E-07         0.00000E+00
   -0.16999E-07         0.38126E-07         0.00000E+00
   -0.17609E-07         0.40139E-07         0.00000E+00
   -0.18120E-07         0.41522E-07         0.00000E+00
   -0.18516E-07         0.42355E-07         0.00000E+00
   -0.18787E-07         0.42716E-07         0.00000E+00
   -0.18928E-07         0.42682E-07         0.00000E+00
   -0.18938E-07         0.42321E-07         0.00000E+00
   -0.18820E-07         0.41698E-07         0.00000E+00
   -0.18578E-07         0.40871E-07         0.00000E+00
   -0.18220E-07         0.39893E-07         0.00000E+00
   -0.17753E-07         0.38810E-07         0.00000E+00
   -0.17189E-07         0.37663E-07         0.00000E+00
   -0.16536E-07         0.36488E-07         0.00000E+00
   -0.15807E-07         0.35315E-07         0.00000E+00
   -0.15013E-07         0.34169E-07         0.00000E+00
   -0.14164E-07         0.33070E-07         0.00000E+00
   -0.13273E-07         0.32037E-07         0.00000E+00
   -0.12351E-07         0.31080E-07         0.00000E+00
   -0.11408E-07         0.30210E-07         0.00000E+00
   -0.10456E-07         0.29432E-07         0.00000E+00
   -0.95038E-08         0.28748E-07         0.00000E+00
   -0.85621E-08         0.28157E-07         0.00000E+00
   -0.76400E-08         0.27656E-07         0.00000E+00
   -0.67464E-08         0.27237E-07         0.00000E+00
   -0.58896E-08         0.26892E-07         0.00000E+00
   -0.50772E-08         0.26609E-07         0.00000E+00
   -0.43163E-08         0.26371E-07         0.00000E+00
   -0.36132E-08         0.26160E-07         0.00000E+00
   -0.29735E-08         0.25956E-07         0.00000E+00
   -0.24018E-08         0.25734E-07         0.00000E+00
   -0.19016E-08         0.25467E-07         0.00000E+00
   -0.14757E-08         0.25123E-07         0.00000E+00
   -0.11251E-08         0.24670E-07         0.00000E+00
   -0.84993E-09         0.24070E-07         0.00000E+00
   -0.64836E-09         0.23283E-07         0.00000E+00
   -0.51703E-09         0.22266E-07         0.00000E+00
   -0.45061E-09         0.20973E-07         0.00000E+00
   -0.44164E-09         0.19357E-07         0.00000E+00
   -0.48038E-09         0.17366E-07         0.00000E+00
   -0.55454E-09         0.14950E-07         0.00000E+00
   -0.64913E-09         0.12056E-07         0.00000E+00
   -0.74619E-09         0.86311E-08         0.00000E+00
   -0.82453E-09         0.46232E-08         0.00000E+00
   -0.85946E-09         0.24671E-08         0.00000E+00
   -0.19187E-07         0.52005E-08         0.00000E+00
   -0.19290E-07         0.97932E-08         0.00000E+00
   -0.19508E-07         0.18184E-07         0.00000E+00
   -0.19737E-07         0.25052E-07         0.00000E+00
   -0.19900E-07         0.30532E-07         0.00000E+00
   -0.19943E-07         0.34764E-07         0.00000E+00
   -0.19830E-07         0.37892E-07         0.00000E+00
   -0.19538E-07         0.40053E-07         0.00000E+00
   -0.19056E-07         0.41382E-07         0.00000E+00
   -0.18382E-07         0.42004E-07         0.00000E+00
   -0.17520E-07         0.42038E-07         0.00000E+00
   -0.16478E-07         0.41591E-07         0.00000E+00
   -0.15268E-07         0.40759E-07         0.00000E+00
   -0.13902E-07         0.39630E-07         0.00000E+00
   -0.12396E-07         0.38282E-07         0.00000E+00
   -0.10765E-07         0.36783E-07         0.00000E+00
   -0.90242E-08         0.35191E-07         0.00000E+00
   -0.71891E-08         0.33557E-07         0.00000E+00
   -0.52746E-08         0.31926E-07         0.00000E+00
   -0.32949E-08         0.30332E-07         0.00000E+00
   -0.12634E-08         0.28807E-07         0.00000E+00
    0.80717E-09         0.27374E-07         0.00000E+00
    0.29050E-08         0.26052E-07         0.00000E+00
    0.50192E-08         0.24856E-07         0.00000E+00
    0.71397E-08         0.23796E-07         0.00000E+00
    0.92571E-08         0.22878E-07         0.00000E+00
    0.11363E-07         0.22106E-07         0.00000E+00
    0.13449E-07         0.21478E-07         0.00000E+00
    0.15508E-07         0.20991E-07         0.00000E+00
    0.17534E-07         0.20639E-07         0.00000E+00
    0.19520E-07         0.20412E-07         0.00000E+00
    0.21459E-07         0.20299E-07         0.00000E+00
    0.23348E-07         0.20283E-07         0.00000E+00
    0.25179E-07         0.20348E-07         0.00000E+00
    0.26949E-07         0.20472E-07         0.00000E+00
    0.28653E-07         0.20631E-07         0.00000E+00
    0.30285E-07         0.20796E-07         0.00000E+00
    0.31841E-07         0.20938E-07         0.00000E+00
    0.33317E-07         0.21021E-07         0.00000E+00
    0.34708E-07         0.21006E-07         0.00000E+00
    0.36009E-07         0.20853E-07         0.00000E+00
    0.37216E-07         0.20515E-07         0.00000E+00
    0.38323E-07         0.19943E-07         0.00000E+00
    0.39325E-07         0.19083E-07         0.00000E+00
    0.40217E-07         0.17881E-07         0.00000E+00
    0.40991E-07         0.16275E-07         0.00000E+00
    0.41642E-07         0.14206E-07         0.00000E+00
    0.42161E-07         0.11608E-07         0.00000E+00
    0.42541E-07         0.84159E-08         0.00000E+00
    0.42775E-07         0.45616E-08         0.00000E+00
    0.42854E-07         0.24603E-08         0.00000E+00
   -0.65709E-08         0.54151E-08         0.00000E+00
   -0.63789E-08         0.99648E-08         0.00000E+00
   -0.57697E-08         0.18008E-07         0.00000E+00
   -0.47219E-08         0.24092E-07         0.00000E+00
   -0.32454E-08         0.28510E-07         0.00000E+00
   -0.13708E-08         0.31524E-07         0.00000E+00
    0.86020E-09         0.33371E-07         0.00000E+00
    0.34015E-08         0.34257E-07         0.00000E+00
    0.62066E-08         0.34362E-07         0.00000E+00
    0.92313E-08         0.33843E-07         0.00000E+00
    0.12435E-07         0.32834E-07         0.00000E+00
    0.15780E-07         0.31454E-07         0.00000E+00
    0.19235E-07         0.29801E-07         0.00000E+00
    0.22770E-07         0.27963E-07         0.00000E+00
    0.26360E-07         0.26012E-07         0.00000E+00
    0.29984E-07         0.24012E-07         0.00000E+00
    0.33622E-07         0.22014E-07         0.00000E+00
    0.37261E-07         0.20062E-07         0.00000E+00
    0.40885E-07         0.18192E-07         0.00000E+00
    0.44485E-07         0.16432E-07         0.00000E+00
    0.48053E-07         0.14805E-07         0.00000E+00
    0.51580E-07         0.13326E-07         0.00000E+00
    0.55063E-07         0.12010E-07         0.00000E+00
    0.58498E-07         0.10863E-07         0.00000E+00
    0.61881E-07         0.98913E-08         0.00000E+00
    0.65212E-07         0.90949E-08         0.00000E+00
    0.68491E-07         0.84726E-08         0.00000E+00
    0.71717E-07         0.80206E-08         0.00000E+00
    0.74890E-07         0.77323E-08         0.00000E+00
    0.78012E-07         0.75990E-08         0.00000E+00
    0.81084E-07         0.76098E-08         0.00000E+00
    0.84107E-07         0.77513E-08         0.00000E+00
    0.87082E-07         0.80081E-08         0.00000E+00
    0.90009E-07         0.83623E-08         0.00000E+00
    0.92888E-07         0.87936E-08         0.00000E+00
    0.95719E-07         0.92789E-08         0.00000E+00
    0.98501E-07         0.97927E-08         0.00000E+00
    0.10123E-06         0.10307E-07         0.00000E+00
    0.10390E-06         0.10790E-07         0.00000E+00
    0.10651E-06         0.11210E-07         0.00000E+00
    0.10906E-06         0.11530E-07         0.00000E+00
    0.11152E-06         0.11713E-07         0.00000E+00
    0.11388E-06         0.11718E-07         0.00000E+00
    0.11613E-06         0.11504E-07         0.00000E+00
    0.11823E-06         0.11027E-07         0.00000E+00
    0.12017E-06         0.10242E-07         0.00000E+00
    0.12189E-06         0.91015E-08         0.00000E+00
    0.12335E-06         0.75579E-08         0.00000E+00
    0.12449E-06         0.55610E-08         0.00000E+00
    0.12524E-06         0.30576E-08         0.00000E+00
    0.12552E-06         0.16724E-08         0.00000E+00
    0.69979E-07         0.32802E-08         0.00000E+00
    0.70845E-07         0.57871E-08         0.00000E+00
    0.73199E-07         0.98990E-08         0.00000E+00
    0.76716E-07         0.12430E-07         0.00000E+00
    0.81105E-07         0.13777E-07         0.00000E+00
    0.86125E-07         0.14237E-07         0.00000E+00
    0.91581E-07         0.14030E-07         0.00000E+00
    0.97320E-07         0.13321E-07         0.00000E+00
    0.10322E-06         0.12233E-07         0.00000E+00
    0.10919E-06         0.10863E-07         0.00000E+00
    0.11516E-06         0.92935E-08         0.00000E+00
    0.12107E-06         0.75904E-08         0.00000E+00
    0.12689E-06         0.58113E-08         0.00000E+00
    0.13258E-06         0.40050E-08         0.00000E+00
    0.13814E-06         0.22130E-08         0.00000E+00
    0.14354E-06         0.47032E-09         0.00000E+00
    0.14877E-06        -0.11940E-08         0.00000E+00
    0.15384E-06        -0.27563E-08         0.00000E+00
    0.15875E-06        -0.41982E-08         0.00000E+00
    0.16349E-06        -0.55055E-08         0.00000E+00
    0.16808E-06        -0.66680E-08         0.00000E+00
    0.17251E-06        -0.76789E-08         0.00000E+00
    0.17681E-06        -0.85347E-08         0.00000E+00
    0.18097E-06        -0.92342E-08         0.00000E+00
    0.18502E-06        -0.97785E-08         0.00000E+00
    0.18895E-06        -0.10171E-07         0.00000E+00
    0.19278E-06        -0.10415E-07         0.00000E+00
    0.19653E-06        -0.10518E-07         0.00000E+00
    0.20020E-06        -0.10488E-07         0.00000E+00
    0.20380E-06        -0.10332E-07         0.00000E+00
    0.20735E-06        -0.10062E-07         0.00000E+00
    0.21085E-06        -0.96884E-08         0.00000E+00
    0.21432E-06        -0.92240E-08         0.00000E+00
    0.21776E-06        -0.86829E-08         0.00000E+00
    0.22118E-06        -0.80804E-08         0.00000E+00
    0.22458E-06        -0.74333E-08         0.00000E+00
    0.22797E-06        -0.67589E-08         0.00000E+00
    0.23135E-06        -0.60756E-08         0.00000E+00
    0.23472E-06        -0.54015E-08         0.00000E+00
    0.23808E-06        -0.47544E-08         0.00000E+00
    0.24141E-06        -0.41498E-08         0.00000E+00
    0.24471E-06        -0.36005E-08         0.00000E+00
    0.24795E-06        -0.31142E-08         0.00000E+00
    0.25111E-06        -0.26924E-08         0.00000E+00
    0.25415E-06        -0.23287E-08         0.00000E+00
    0.25702E-06        -0.20081E-08         0.00000E+00
    0.25966E-06        -0.17070E-08         0.00000E+00
    0.26196E-06        -0.13949E-08         0.00000E+00
    0.26382E-06        -0.10366E-08         0.00000E+00
    0.26509E-06        -0.59083E-09         0.00000E+00
    0.26557E-06        -0.34037E-09         0.00000E+00
    0.28799E-06        -0.32448E-08         0.00000E+00
    0.28952E-06        -0.61350E-08         0.00000E+00
    0.29332E-06        -0.11343E-07         0.00000E+00
    0.29858E-06        -0.15434E-07         0.00000E+00
    0.30475E-06        -0.18538E-07         0.00000E+00
    0.31143E-06        -0.20860E-07         0.00000E+00
    0.31837E-06        -0.22602E-07         0.00000E+00
    0.32537E-06        -0.23933E-07         0.00000E+00
    0.33229E-06        -0.24981E-07         0.00000E+00
    0.33906E-06        -0.25837E-07         0.00000E+00
    0.34561E-06        -0.26564E-07         0.00000E+00
    0.35190E-06        -0.27202E-07         0.00000E+00
    0.35791E-06        -0.27773E-07         0.00000E+00
    0.36362E-06        -0.28289E-07         0.00000E+00
    0.36905E-06        -0.28753E-07         0.00000E+00
    0.37418E-06        -0.29165E-07         0.00000E+00
    0.37903E-06        -0.29522E-07         0.00000E+00
    0.38362E-06        -0.29818E-07         0.00000E+00
    0.38795E-06        -0.30050E-07         0.00000E+00
    0.39204E-06        -0.30215E-07         0.00000E+00
    0.39591E-06        -0.30310E-07         0.00000E+00
    0.39958E-06        -0.30334E-07         0.00000E+00
    0.40306E-06        -0.30287E-07         0.00000E+00
    0.40638E-06        -0.30170E-07         0.00000E+00
    0.40955E-06        -0.29985E-07         0.00000E+00
    0.41260E-06        -0.29734E-07         0.00000E+00
    0.41553E-06        -0.29421E-07         0.00000E+00
    0.41837E-06        -0.29051E-07         0.00000E+00
    0.42114E-06        -0.28628E-07         0.00000E+00
    0.42384E-06        -0.28158E-07         0.00000E+00
    0.42650E-06        -0.27646E-07         0.00000E+00
    0.42913E-06        -0.27099E-07         0.00000E+00
    0.43174E-06        -0.26523E-07         0.00000E+00
    0.43434E-06        -0.25926E-07         0.00000E+00
    0.43694E-06        -0.25315E-07         0.00000E+00
    0.43955E-06        -0.24695E-07         0.00000E+00
    0.44217E-06        -0.24074E-07         0.00000E+00
    0.44481E-06        -0.23457E-07         0.00000E+00
    0.44747E-06        -0.22844E-07         0.00000E+00
    0.45014E-06        -0.22235E-07         0.00000E+00
    0.45281E-06        -0.21621E-07         0.00000E+00
    0.45547E-06        -0.20985E-07         0.00000E+00
    0.45810E-06        -0.20296E-07         0.00000E+00
    0.46069E-06        -0.19504E-07         0.00000E+00
    0.46320E-06        -0.18534E-07         0.00000E+00
    0.46559E-06        -0.17279E-07         0.00000E+00
    0.46780E-06        -0.15587E-07         0.00000E+00
    0.46978E-06        -0.13262E-07         0.00000E+00
    0.47141E-06        -0.10058E-07         0.00000E+00
    0.47258E-06        -0.57014E-08         0.00000E+00
    0.47306E-06        -0.32005E-08         0.00000E+00
    0.69247E-06        -0.12018E-07         0.00000E+00
    0.69295E-06        -0.20858E-07         0.00000E+00
    0.69421E-06        -0.35406E-07         0.00000E+00
    0.69600E-06        -0.44717E-07         0.00000E+00
    0.69814E-06        -0.50495E-07         0.00000E+00
    0.70048E-06        -0.53877E-07         0.00000E+00
    0.70292E-06        -0.55635E-07         0.00000E+00
    0.70536E-06        -0.56300E-07         0.00000E+00
    0.70776E-06        -0.56242E-07         0.00000E+00
    0.71005E-06        -0.55715E-07         0.00000E+00
    0.71221E-06        -0.54896E-07         0.00000E+00
    0.71422E-06        -0.53906E-07         0.00000E+00
    0.71607E-06        -0.52823E-07         0.00000E+00
    0.71774E-06        -0.51702E-07         0.00000E+00
    0.71923E-06        -0.50574E-07         0.00000E+00
    0.72056E-06        -0.49461E-07         0.00000E+00
    0.72172E-06        -0.48374E-07         0.00000E+00
    0.72272E-06        -0.47319E-07         0.00000E+00
    0.72358E-06        -0.46297E-07         0.00000E+00
    0.72430E-06        -0.45311E-07         0.00000E+00
    0.72490E-06        -0.44357E-07         0.00000E+00
    0.72539E-06        -0.43437E-07         0.00000E+00
    0.72579E-06        -0.42548E-07         0.00000E+00
    0.72610E-06        -0.41690E-07         0.00000E+00
    0.72633E-06        -0.40862E-07         0.00000E+00
    0.72651E-06        -0.40063E-07         0.00000E+00
    0.72664E-06        -0.39293E-07         0.00000E+00
    0.72674E-06        -0.38552E-07         0.00000E+00
    0.72680E-06        -0.37840E-07         0.00000E+00
    0.72686E-06        -0.37156E-07         0.00000E+00
    0.72690E-06        -0.36501E-07         0.00000E+00
    0.72695E-06        -0.35873E-07         0.00000E+00
    0.72700E-06        -0.35272E-07         0.00000E+00
    0.72706E-06        -0.34695E-07         0.00000E+00
    0.72714E-06        -0.34140E-07         0.00000E+00
    0.72724E-06        -0.33602E-07         0.00000E+00
    0.72736E-06        -0.33075E-07         0.00000E+00
    0.72750E-06        -0.32548E-07         0.00000E+00
    0.72764E-06        -0.32009E-07         0.00000E+00
    0.72780E-06        -0.31438E-07         0.00000E+00
    0.72794E-06        -0.30810E-07         0.00000E+00
    0.72807E-06        -0.30090E-07         0.00000E+00
    0.72817E-06        -0.29230E-07         0.00000E+00
    0.72822E-06        -0.28164E-07         0.00000E+00
    0.72820E-06        -0.26805E-07         0.00000E+00
    0.72811E-06        -0.25029E-07         0.00000E+00
    0.72792E-06        -0.22663E-07         0.00000E+00
    0.72766E-06        -0.19456E-07         0.00000E+00
    0.72735E-06        -0.15036E-07         0.00000E+00
    0.72706E-06        -0.88218E-08         0.00000E+00
    0.72690E-06        -0.51783E-08         0.00000E+00
    0.11539E-05        -0.79976E-08         0.00000E+00
    0.11527E-05        -0.14810E-07         0.00000E+00
    0.11498E-05        -0.26607E-07         0.00000E+00
    0.11457E-05        -0.35098E-07         0.00000E+00
    0.11408E-05        -0.40949E-07         0.00000E+00
    0.11356E-05        -0.44754E-07         0.00000E+00
    0.11301E-05        -0.47011E-07         0.00000E+00
    0.11244E-05        -0.48125E-07         0.00000E+00
    0.11188E-05        -0.48413E-07         0.00000E+00
    0.11132E-05        -0.48118E-07         0.00000E+00
    0.11077E-05        -0.47424E-07         0.00000E+00
    0.11022E-05        -0.46465E-07         0.00000E+00
    0.10969E-05        -0.45342E-07         0.00000E+00
    0.10916E-05        -0.44124E-07         0.00000E+00
    0.10865E-05        -0.42865E-07         0.00000E+00
    0.10815E-05        -0.41597E-07         0.00000E+00
    0.10766E-05        -0.40347E-07         0.00000E+00
    0.10719E-05        -0.39130E-07         0.00000E+00
    0.10672E-05        -0.37956E-07         0.00000E+00
    0.10626E-05        -0.36834E-07         0.00000E+00
    0.10581E-05        -0.35765E-07         0.00000E+00
    0.10537E-05        -0.34753E-07         0.00000E+00
    0.10494E-05        -0.33799E-07         0.00000E+00
    0.10452E-05        -0.32901E-07         0.00000E+00
    0.10411E-05        -0.32060E-07         0.00000E+00
    0.10370E-05        -0.31274E-07         0.00000E+00
    0.10331E-05        -0.30541E-07         0.00000E+00
    0.10292E-05        -0.29859E-07         0.00000E+00
    0.10254E-05        -0.29226E-07         0.00000E+00
    0.10216E-05        -0.28639E-07         0.00000E+00
    0.10179E-05        -0.28094E-07         0.00000E+00
    0.10143E-05        -0.27586E-07         0.00000E+00
    0.10108E-05        -0.27109E-07         0.00000E+00
    0.10073E-05        -0.26657E-07         0.00000E+00
    0.10038E-05        -0.26220E-07         0.00000E+00
    0.10004E-05        -0.25787E-07         0.00000E+00
    0.99710E-06        -0.25342E-07         0.00000E+00
    0.99382E-06        -0.24868E-07         0.00000E+00
    0.99059E-06        -0.24341E-07         0.00000E+00
    0.98742E-06        -0.23733E-07         0.00000E+00
    0.98430E-06        -0.23007E-07         0.00000E+00
    0.98126E-06        -0.22122E-07         0.00000E+00
    0.97829E-06        -0.21026E-07         0.00000E+00
    0.97541E-06        -0.19662E-07         0.00000E+00
    0.97265E-06        -0.17969E-07         0.00000E+00
    0.97005E-06        -0.15887E-07         0.00000E+00
    0.96765E-06        -0.13368E-07         0.00000E+00
    0.96552E-06        -0.10396E-07         0.00000E+00
    0.96376E-06        -0.70275E-08         0.00000E+00
    0.96251E-06        -0.34395E-08         0.00000E+00
    0.96199E-06        -0.16231E-08         0.00000E+00
    0.13667E-05         0.00000E+00         0.00000E+00
    0.13651E-05         0.00000E+00         0.00000E+00
    0.13607E-05         0.00000E+00         0.00000E+00
    0.13544E-05         0.00000E+00         0.00000E+00
    0.13467E-05         0.00000E+00         0.00000E+00
    0.13381E-05         0.00000E+00         0.00000E+00
    0.13288E-05         0.00000E+00         0.00000E+00
    0.13192E-05         0.00000E+00         0.00000E+00
    0.13096E-05         0.00000E+00         0.00000E+00
    0.12999E-05        -0.37253E-19         0.00000E+00
    0.12903E-05         0.00000E+00         0.00000E+00
    0.12809E-05         0.36322E-19         0.00000E+00
    0.12717E-05         0.00000E+00         0.00000E+00
    0.12628E-05         0.00000E+00         0.00000E+00
    0.12541E-05         0.00000E+00         0.00000E+00
    0.12456E-05         0.00000E+00         0.00000E+00
    0.12374E-05         0.00000E+00         0.00000E+00
    0.12295E-05         0.35390E-19         0.00000E+00
    0.12218E-05         0.00000E+00         0.00000E+00
    0.12143E-05        -0.34459E-19         0.00000E+00
    0.12070E-05         0.00000E+00         0.00000E+00
    0.12000E-05         0.00000E+00         0.00000E+00
    0.11931E-05         0.00000E+00         0.00000E+00
    0.11865E-05         0.00000E+00         0.00000E+00
    0.11800E-05         0.00000E+00         0.00000E+00
    0.11737E-05         0.00000E+00         0.00000E+00
    0.11675E-05         0.00000E+00         0.00000E+00
    0.11614E-05         0.00000E+00         0.00000E+00
    0.11555E-05         0.00000E+00         0.00000E+00
    0.11498E-05         0.00000E+00         0.00000E+00
    0.11441E-05         0.00000E+00         0.00000E+00
    0.11385E-05         0.00000E+00         0.00000E+00
    0.11330E-05         0.00000E+00         0.00000E+00
    0.11277E-05         0.00000E+00         0.00000E+00
    0.11224E-05         0.00000E+00         0.00000E+00
    0.11172E-05         0.00000E+00         0.00000E+00
    0.11121E-05         0.00000E+00         0.00000E+00
    0.11070E-05         0.00000E+00         0.00000E+00
    0.11021E-05         0.00000E+00         0.00000E+00
    0.10973E-05        -0.32596E-19         0.00000E+00
    0.10926E-05        -0.30734E-19         0.00000E+00
    0.10881E-05         0.30734E-19         0.00000E+00
    0.10838E-05         0.30734E-19         0.00000E+00
    0.10797E-05         0.00000E+00         0.00000E+00
    0.10759E-05         0.00000E+00         0.00000E+00
    0.10725E-05         0.00000E+00         0.00000E+00
    0.10696E-05         0.00000E+00         0.00000E+00
    0.10672E-05         0.30734E-19         0.00000E+00
    0.10654E-05         0.93132E-21         0.00000E+00
    0.10643E-05         0.00000E+00         0.00000E+00
    0.10640E-05         0.61467E-19         0.00000E+00
CELL_DATA       5000
TENSORS stressef double 
    0.21220E+08        -0.79000E+06         0.00000E+00
   -0.79000E+06         0.15736E+08         0.00000E+00
    0.00000E+00         0.00000E+00         0.10519E+08
 
    0.20266E+08        -0.10586E+07         0.00000E+00
   -0.10586E+07         0.15416E+08         0.00000E+00
    0.00000E+00         0.00000E+00         0.92477E+07
 
    0.19430E+08        -0.12272E+07         0.00000E+00
   -0.12272E+07         0.15067E+08         0.00000E+00
    0.00000E+00         0.00000E+00         0.81260E+07
 
    0.18676E+08        -0.13334E+07         0.00000E+00
   -0.13334E+07         0.14686E+08         0.00000E+00
    0.00000E+00         0.00000E+00         0.71972E+07
 
    0.17871E+08        -0.13859E+07         0.00000E+00
   -0.13859E+07         0.14257E+08         0.00000E+00
    0.00000E+00         0.00000E+00         0.65528E+07
 
    0.17085E+08        -0.13624E+07         0.00000E+00
   -0.13624E+07         0.13828E+08         0.00000E+00
    0.00000E+00         0.00000E+00         0.61825E+07
 
    0.16396E+08        -0.12887E+07         0.00000E+00
   -0.12887E+07         0.13414E+08         0.00000E+00
    0.00000E+00         0.00000E+00         0.59620E+07
 
    0.15858E+08        -0.12045E+07         0.00000E+00
   -0.12045E+07         0.13016E+08         0.00000E+00
    0.00000E+00         0.00000E+00         0.57749E+07
 
    0.15431E+08        -0.11191E+07         0.00000E+00
   -0.11191E+07         0.12639E+08         0.00000E+00
    0.00000E+00         0.00000E+00         0.56141E+07
 
    0.15088E+08        -0.10371E+07         0.00000E+00
   -0.10371E+07         0.12284E+08         0.00000E+00
    0.00000E+00         0.00000E+00         0.54743E+07
 
    0.14809E+08        -0.96018E+06         0.00000E+00
   -0.96018E+06         0.11950E+08         0.00000E+00
    0.00000E+00         0.00000E+00         0.53518E+07
 
    0.14579E+08        -0.88908E+06         0.00000E+00
   -0.88908E+06         0.11638E+08         0.00000E+00
    0.00000E+00         0.00000E+00         0.52435E+07
 
    0.14389E+08        -0.82378E+06         0.00000E+00
   -0.82378E+06         0.11347E+08         0.00000E+00
    0.00000E+00         0.00000E+00         0.51471E+07
 
    0.14229E+08        -0.76398E+06         0.00000E+00
   -0.76398E+06         0.11075E+08         0.00000E+00
    0.00000E+00         0.00000E+00         0.50608E+07
 
    0.14093E+08        -0.70927E+06         0.00000E+00
   -0.70927E+06         0.10821E+08         0.00000E+00
    0.00000E+00         0.00000E+00         0.49830E+07
 
    0.13977E+08        -0.65920E+06         0.00000E+00
   -0.65920E+06         0.10585E+08         0.00000E+00
    0.00000E+00         0.00000E+00         0.49124E+07
 
    0.13876E+08        -0.61330E+06         0.00000E+00
   -0.61330E+06         0.10364E+08         0.00000E+00
    0.00000E+00         0.00000E+00         0.48481E+07
 
    0.13787E+08        -0.57113E+06         0.00000E+00
   -0.57113E+06         0.10159E+08         0.00000E+00
    0.00000E+00         0.00000E+00         0.47891E+07
 
    0.13707E+08        -0.53231E+06         0.00000E+00
   -0.53231E+06         0.99668E+07         0.00000E+00
    0.00000E+00         0.00000E+00         0.47348E+07
 
    0.13634E+08        -0.49646E+06         0.00000E+00
   -0.49646E+06         0.97880E+07         0.00000E+00
    0.00000E+00         0.00000E+00         0.46844E+07
 
    0.13566E+08        -0.46324E+06         0.00000E+00
   -0.46324E+06         0.96211E+07         0.00000E+00
    0.00000E+00         0.00000E+00         0.46374E+07
 
    0.13501E+08        -0.43235E+06         0.00000E+00
   -0.43235E+06         0.94656E+07         0.00000E+00
    0.00000E+00         0.00000E+00         0.45934E+07
 
    0.13439E+08        -0.40350E+06         0.00000E+00
   -0.40350E+06         0.93208E+07         0.00000E+00
    0.00000E+00         0.00000E+00         0.45519E+07
 
    0.13377E+08        -0.37643E+06         0.00000E+00
   -0.37643E+06         0.91859E+07         0.00000E+00
    0.00000E+00         0.00000E+00         0.45125E+07
 
    0.13314E+08        -0.35089E+06         0.00000E+00
   -0.35089E+06         0.90605E+07         0.00000E+00
    0.00000E+00         0.00000E+00         0.44748E+07
 
    0.13249E+08        -0.32665E+06         0.00000E+00
   -0.32665E+06         0.89442E+07         0.00000E+00
    0.00000E+00         0.00000E+00         0.44386E+07
 
    0.13181E+08        -0.30347E+06         0.00000E+00
   -0.30347E+06         0.88366E+07         0.00000E+00
    0.00000E+00         0.00000E+00         0.44035E+07
 
    0.13109E+08        -0.28112E+06         0.00000E+00
   -0.28112E+06         0.87374E+07         0.00000E+00
    0.00000E+00         0.00000E+00         0.43692E+07
 
    0.13031E+08        -0.25937E+06         0.00000E+00
   -0.25937E+06         0.86464E+07         0.00000E+00
    0.00000E+00         0.00000E+00         0.43355E+07
 
    0.12947E+08        -0.23797E+06         0.00000E+00
   -0.23797E+06         0.85634E+07         0.00000E+00
    0.00000E+00         0.00000E+00         0.43021E+07
 
    0.12855E+08        -0.21666E+06         0.00000E+00
   -0.21666E+06         0.84885E+07         0.00000E+00
    0.00000E+00         0.00000E+00         0.42686E+07
 
    0.12752E+08        -0.19514E+06         0.00000E+00
   -0.19514E+06         0.84217E+07         0.00000E+00
    0.00000E+00         0.00000E+00         0.42348E+07
 
    0.12639E+08        -0.17310E+06         0.00000E+00
   -0.17310E+06         0.83632E+07         0.00000E+00
    0.00000E+00         0.00000E+00         0.42005E+07
 
    0.12512E+08        -0.15015E+06         0.00000E+00
   -0.15015E+06         0.83133E+07         0.00000E+00
    0.00000E+00         0.00000E+00         0.41651E+07
 
    0.12370E+08        -0.12585E+06         0.00000E+00
   -0.12585E+06         0.82726E+07         0.00000E+00
    0.00000E+00         0.00000E+00         0.41285E+07
 
    0.12210E+08        -0.99663E+05         0.00000E+00
   -0.99663E+05         0.82415E+07         0.00000E+00
    0.00000E+00         0.00000E+00         0.40902E+07
 
    0.12028E+08        -0.70938E+05         0.00000E+00
   -0.70938E+05         0.82211E+07         0.00000E+00
    0.00000E+00         0.00000E+00         0.40498E+07
 
    0.11821E+08        -0.38854E+05         0.00000E+00
   -0.38854E+05         0.82124E+07         0.00000E+00
    0.00000E+00         0.00000E+00         0.40067E+07
 
    0.11585E+08        -0.23727E+04         0.00000E+00
   -0.23727E+04         0.82168E+07         0.00000E+00
    0.00000E+00         0.00000E+00         0.39604E+07
 
    0.11314E+08         0.39849E+05         0.00000E+00
    0.39849E+05         0.82364E+07         0.00000E+00
    0.00000E+00         0.00000E+00         0.39101E+07
 
    0.11002E+08         0.89576E+05         0.00000E+00
    0.89576E+05         0.82734E+07         0.00000E+00
    0.00000E+00         0.00000E+00         0.38550E+07
 
    0.10640E+08         0.14917E+06         0.00000E+00
    0.14917E+06         0.83309E+07         0.00000E+00
    0.00000E+00         0.00000E+00         0.37941E+07
 
    0.10218E+08         0.22186E+06         0.00000E+00
    0.22186E+06         0.84131E+07         0.00000E+00
    0.00000E+00         0.00000E+00         0.37261E+07
 
    0.97220E+07         0.31213E+06         0.00000E+00
    0.31213E+06         0.85250E+07         0.00000E+00
    0.00000E+00         0.00000E+00         0.36494E+07
 
    0.91357E+07         0.42641E+06         0.00000E+00
    0.42641E+06         0.86737E+07         0.00000E+00
    0.00000E+00         0.00000E+00         0.35619E+07
 
    0.84356E+07         0.57414E+06         0.00000E+00
    0.57414E+06         0.88682E+07         0.00000E+00
    0.00000E+00         0.00000E+00         0.34608E+07
 
    0.75902E+07         0.76968E+06         0.00000E+00
    0.76968E+06         0.91212E+07         0.00000E+00
    0.00000E+00         0.00000E+00         0.33423E+07
 
    0.65549E+07         0.10357E+07         0.00000E+00
    0.10357E+07         0.94495E+07         0.00000E+00
    0.00000E+00         0.00000E+00         0.32009E+07
 
    0.52644E+07         0.14097E+07         0.00000E+00
    0.14097E+07         0.98771E+07         0.00000E+00
    0.00000E+00         0.00000E+00         0.30283E+07
 
    0.36172E+07         0.19575E+07         0.00000E+00
    0.19575E+07         0.10437E+08         0.00000E+00
    0.00000E+00         0.00000E+00         0.28109E+07
 
    0.10244E+08        -0.40909E+06         0.00000E+00
   -0.40909E+06         0.74489E+07         0.00000E+00
    0.00000E+00         0.00000E+00         0.35385E+07
 
    0.10334E+08        -0.11219E+07         0.00000E+00
   -0.11219E+07         0.77040E+07         0.00000E+00
    0.00000E+00         0.00000E+00         0.36076E+07
 
    0.10196E+08        -0.16320E+07         0.00000E+00
   -0.16320E+07         0.78856E+07         0.00000E+00
    0.00000E+00         0.00000E+00         0.36163E+07
 
    0.99444E+07        -0.19970E+07         0.00000E+00
   -0.19970E+07         0.80242E+07         0.00000E+00
    0.00000E+00         0.00000E+00         0.35937E+07
 
    0.96357E+07        -0.22463E+07         0.00000E+00
   -0.22463E+07         0.81582E+07         0.00000E+00
    0.00000E+00         0.00000E+00         0.35588E+07
 
    0.92914E+07        -0.23919E+07         0.00000E+00
   -0.23919E+07         0.82450E+07         0.00000E+00
    0.00000E+00         0.00000E+00         0.35073E+07
 
    0.89428E+07        -0.24500E+07         0.00000E+00
   -0.24500E+07         0.82809E+07         0.00000E+00
    0.00000E+00         0.00000E+00         0.34447E+07
 
    0.86167E+07        -0.24454E+07         0.00000E+00
   -0.24454E+07         0.82810E+07         0.00000E+00
    0.00000E+00         0.00000E+00         0.33795E+07
 
    0.83246E+07        -0.23997E+07         0.00000E+00
   -0.23997E+07         0.82526E+07         0.00000E+00
    0.00000E+00         0.00000E+00         0.33154E+07
 
    0.80688E+07        -0.23279E+07         0.00000E+00
   -0.23279E+07         0.82021E+07         0.00000E+00
    0.00000E+00         0.00000E+00         0.32542E+07
 
    0.78476E+07        -0.22404E+07         0.00000E+00
   -0.22404E+07         0.81349E+07         0.00000E+00
    0.00000E+00         0.00000E+00         0.31965E+07
 
    0.76576E+07        -0.21441E+07         0.00000E+00
   -0.21441E+07         0.80556E+07         0.00000E+00
    0.00000E+00         0.00000E+00         0.31426E+07
 
    0.74950E+07        -0.20438E+07         0.00000E+00
   -0.20438E+07         0.79679E+07         0.00000E+00
    0.00000E+00         0.00000E+00         0.30926E+07
 
    0.73560E+07        -0.19425E+07         0.00000E+00
   -0.19425E+07         0.78746E+07         0.00000E+00
    0.00000E+00         0.00000E+00         0.30461E+07
 
    0.72372E+07        -0.18424E+07         0.00000E+00
   -0.18424E+07         0.77783E+07         0.00000E+00
    0.00000E+00         0.00000E+00         0.30031E+07
 
    0.71352E+07        -0.17448E+07         0.00000E+00
   -0.17448E+07         0.76808E+07         0.00000E+00
    0.00000E+00         0.00000E+00         0.29632E+07
 
    0.70473E+07        -0.16505E+07         0.00000E+00
   -0.16505E+07         0.75835E+07         0.00000E+00
    0.00000E+00         0.00000E+00         0.29262E+07
 
    0.69709E+07        -0.15599E+07         0.00000E+00
   -0.15599E+07         0.74875E+07         0.00000E+00
    0.00000E+00         0.00000E+00         0.28917E+07
 
    0.69038E+07        -0.14732E+07         0.00000E+00
   -0.14732E+07         0.73939E+07         0.00000E+00
    0.00000E+00         0.00000E+00         0.28595E+07
 
    0.68442E+07        -0.13903E+07         0.00000E+00
   -0.13903E+07         0.73031E+07         0.00000E+00
    0.00000E+00         0.00000E+00         0.28295E+07
 
    0.67902E+07        -0.13113E+07         0.00000E+00
   -0.13113E+07         0.72159E+07         0.00000E+00
    0.00000E+00         0.00000E+00         0.28012E+07
 
    0.67404E+07        -0.12357E+07         0.00000E+00
   -0.12357E+07         0.71325E+07         0.00000E+00
    0.00000E+00         0.00000E+00         0.27746E+07
 
    0.66934E+07        -0.11635E+07         0.00000E+00
   -0.11635E+07         0.70533E+07         0.00000E+00
    0.00000E+00         0.00000E+00         0.27493E+07
 
    0.66479E+07        -0.10942E+07         0.00000E+00
   -0.10942E+07         0.69786E+07         0.00000E+00
    0.00000E+00         0.00000E+00         0.27253E+07
 
    0.66027E+07        -0.10275E+07         0.00000E+00
   -0.10275E+07         0.69086E+07         0.00000E+00
    0.00000E+00         0.00000E+00         0.27023E+07
 
    0.65569E+07        -0.96296E+06         0.00000E+00
   -0.96296E+06         0.68435E+07         0.00000E+00
    0.00000E+00         0.00000E+00         0.26801E+07
 
    0.65092E+07        -0.90018E+06         0.00000E+00
   -0.90018E+06         0.67835E+07         0.00000E+00
    0.00000E+00         0.00000E+00         0.26585E+07
 
    0.64587E+07        -0.83865E+06         0.00000E+00
   -0.83865E+06         0.67288E+07         0.00000E+00
    0.00000E+00         0.00000E+00         0.26375E+07
 
    0.64044E+07        -0.77785E+06         0.00000E+00
   -0.77785E+06         0.66795E+07         0.00000E+00
    0.00000E+00         0.00000E+00         0.26168E+07
 
    0.63451E+07        -0.71718E+06         0.00000E+00
   -0.71718E+06         0.66361E+07         0.00000E+00
    0.00000E+00         0.00000E+00         0.25962E+07
 
    0.62798E+07        -0.65598E+06         0.00000E+00
   -0.65598E+06         0.65986E+07         0.00000E+00
    0.00000E+00         0.00000E+00         0.25757E+07
 
    0.62073E+07        -0.59349E+06         0.00000E+00
   -0.59349E+06         0.65676E+07         0.00000E+00
    0.00000E+00         0.00000E+00         0.25550E+07
 
    0.61265E+07        -0.52883E+06         0.00000E+00
   -0.52883E+06         0.65433E+07         0.00000E+00
    0.00000E+00         0.00000E+00         0.25340E+07
 
    0.60358E+07        -0.46100E+06         0.00000E+00
   -0.46100E+06         0.65263E+07         0.00000E+00
    0.00000E+00         0.00000E+00         0.25124E+07
 
    0.59339E+07        -0.38877E+06         0.00000E+00
   -0.38877E+06         0.65172E+07         0.00000E+00
    0.00000E+00         0.00000E+00         0.24902E+07
 
    0.58192E+07        -0.31071E+06         0.00000E+00
   -0.31071E+06         0.65166E+07         0.00000E+00
    0.00000E+00         0.00000E+00         0.24672E+07
 
    0.56898E+07        -0.22509E+06         0.00000E+00
   -0.22509E+06         0.65254E+07         0.00000E+00
    0.00000E+00         0.00000E+00         0.24430E+07
 
    0.55437E+07        -0.12977E+06         0.00000E+00
   -0.12977E+06         0.65445E+07         0.00000E+00
    0.00000E+00         0.00000E+00         0.24176E+07
 
    0.53787E+07        -0.22110E+05         0.00000E+00
   -0.22110E+05         0.65751E+07         0.00000E+00
    0.00000E+00         0.00000E+00         0.23908E+07
 
    0.51925E+07         0.10116E+06         0.00000E+00
    0.10116E+06         0.66184E+07         0.00000E+00
    0.00000E+00         0.00000E+00         0.23622E+07
 
    0.49825E+07         0.24418E+06         0.00000E+00
    0.24418E+06         0.66759E+07         0.00000E+00
    0.00000E+00         0.00000E+00         0.23317E+07
 
    0.47461E+07         0.41222E+06         0.00000E+00
    0.41222E+06         0.67492E+07         0.00000E+00
    0.00000E+00         0.00000E+00         0.22991E+07
 
    0.44805E+07         0.61207E+06         0.00000E+00
    0.61207E+06         0.68402E+07         0.00000E+00
    0.00000E+00         0.00000E+00         0.22641E+07
 
    0.41838E+07         0.85253E+06         0.00000E+00
    0.85253E+06         0.69507E+07         0.00000E+00
    0.00000E+00         0.00000E+00         0.22269E+07
 
    0.38549E+07         0.11451E+07         0.00000E+00
    0.11451E+07         0.70826E+07         0.00000E+00
    0.00000E+00         0.00000E+00         0.21875E+07
 
    0.34954E+07         0.15052E+07         0.00000E+00
    0.15052E+07         0.72376E+07         0.00000E+00
    0.00000E+00         0.00000E+00         0.21466E+07
 
    0.31120E+07         0.19531E+07         0.00000E+00
    0.19531E+07         0.74165E+07         0.00000E+00
    0.00000E+00         0.00000E+00         0.21057E+07
 
    0.27218E+07         0.25159E+07         0.00000E+00
    0.25159E+07         0.76190E+07         0.00000E+00
    0.00000E+00         0.00000E+00         0.20682E+07
 
    0.23643E+07         0.32299E+07         0.00000E+00
    0.32299E+07         0.78418E+07         0.00000E+00
    0.00000E+00         0.00000E+00         0.20412E+07
 
    0.21248E+07         0.41415E+07         0.00000E+00
    0.41415E+07         0.80773E+07         0.00000E+00
    0.00000E+00         0.00000E+00         0.20404E+07
 
    0.28524E+07        -0.28087E+06         0.00000E+00
   -0.28087E+06         0.32034E+07         0.00000E+00
    0.00000E+00         0.00000E+00         0.12112E+07
 
    0.32820E+07        -0.69687E+06         0.00000E+00
   -0.69687E+06         0.32406E+07         0.00000E+00
    0.00000E+00         0.00000E+00         0.13045E+07
 
    0.35887E+07        -0.10937E+07         0.00000E+00
   -0.10937E+07         0.33622E+07         0.00000E+00
    0.00000E+00         0.00000E+00         0.13902E+07
 
    0.37713E+07        -0.14406E+07         0.00000E+00
   -0.14406E+07         0.35260E+07         0.00000E+00
    0.00000E+00         0.00000E+00         0.14595E+07
 
    0.38516E+07        -0.17295E+07         0.00000E+00
   -0.17295E+07         0.37015E+07         0.00000E+00
    0.00000E+00         0.00000E+00         0.15106E+07
 
    0.38562E+07        -0.19616E+07         0.00000E+00
   -0.19616E+07         0.38855E+07         0.00000E+00
    0.00000E+00         0.00000E+00         0.15483E+07
 
    0.38046E+07        -0.21389E+07         0.00000E+00
   -0.21389E+07         0.40676E+07         0.00000E+00
    0.00000E+00         0.00000E+00         0.15744E+07
 
    0.37134E+07        -0.22645E+07         0.00000E+00
   -0.22645E+07         0.42365E+07         0.00000E+00
    0.00000E+00         0.00000E+00         0.15900E+07
 
    0.35979E+07        -0.23445E+07         0.00000E+00
   -0.23445E+07         0.43874E+07         0.00000E+00
    0.00000E+00         0.00000E+00         0.15971E+07
 
    0.34700E+07        -0.23861E+07         0.00000E+00
   -0.23861E+07         0.45183E+07         0.00000E+00
    0.00000E+00         0.00000E+00         0.15977E+07
 
    0.33382E+07        -0.23965E+07         0.00000E+00
   -0.23965E+07         0.46295E+07         0.00000E+00
    0.00000E+00         0.00000E+00         0.15935E+07
 
    0.32081E+07        -0.23822E+07         0.00000E+00
   -0.23822E+07         0.47219E+07         0.00000E+00
    0.00000E+00         0.00000E+00         0.15860E+07
 
    0.30833E+07        -0.23486E+07         0.00000E+00
   -0.23486E+07         0.47974E+07         0.00000E+00
    0.00000E+00         0.00000E+00         0.15761E+07
 
    0.29658E+07        -0.23004E+07         0.00000E+00
   -0.23004E+07         0.48577E+07         0.00000E+00
    0.00000E+00         0.00000E+00         0.15647E+07
 
    0.28565E+07        -0.22411E+07         0.00000E+00
   -0.22411E+07         0.49048E+07         0.00000E+00
    0.00000E+00         0.00000E+00         0.15523E+07
 
    0.27557E+07        -0.21738E+07         0.00000E+00
   -0.21738E+07         0.49407E+07         0.00000E+00
    0.00000E+00         0.00000E+00         0.15393E+07
 
    0.26631E+07        -0.21008E+07         0.00000E+00
   -0.21008E+07         0.49672E+07         0.00000E+00
    0.00000E+00         0.00000E+00         0.15261E+07
 
    0.25782E+07        -0.20238E+07         0.00000E+00
   -0.20238E+07         0.49858E+07         0.00000E+00
    0.00000E+00         0.00000E+00         0.15128E+07
 
    0.25004E+07        -0.19442E+07         0.00000E+00
   -0.19442E+07         0.49980E+07         0.00000E+00
    0.00000E+00         0.00000E+00         0.14997E+07
 
    0.24288E+07        -0.18631E+07         0.00000E+00
   -0.18631E+07         0.50053E+07         0.00000E+00
    0.00000E+00         0.00000E+00         0.14868E+07
 
    0.23626E+07        -0.17812E+07         0.00000E+00
   -0.17812E+07         0.50086E+07         0.00000E+00
    0.00000E+00         0.00000E+00         0.14742E+07
 
    0.23009E+07        -0.16989E+07         0.00000E+00
   -0.16989E+07         0.50091E+07         0.00000E+00
    0.00000E+00         0.00000E+00         0.14620E+07
 
    0.22429E+07        -0.16165E+07         0.00000E+00
   -0.16165E+07         0.50076E+07         0.00000E+00
    0.00000E+00         0.00000E+00         0.14501E+07
 
    0.21878E+07        -0.15343E+07         0.00000E+00
   -0.15343E+07         0.50050E+07         0.00000E+00
    0.00000E+00         0.00000E+00         0.14386E+07
 
    0.21347E+07        -0.14521E+07         0.00000E+00
   -0.14521E+07         0.50020E+07         0.00000E+00
    0.00000E+00         0.00000E+00         0.14273E+07
 
    0.20829E+07        -0.13698E+07         0.00000E+00
   -0.13698E+07         0.49992E+07         0.00000E+00
    0.00000E+00         0.00000E+00         0.14164E+07
 
    0.20317E+07        -0.12872E+07         0.00000E+00
   -0.12872E+07         0.49973E+07         0.00000E+00
    0.00000E+00         0.00000E+00         0.14058E+07
 
    0.19803E+07        -0.12038E+07         0.00000E+00
   -0.12038E+07         0.49967E+07         0.00000E+00
    0.00000E+00         0.00000E+00         0.13954E+07
 
    0.19281E+07        -0.11192E+07         0.00000E+00
   -0.11192E+07         0.49980E+07         0.00000E+00
    0.00000E+00         0.00000E+00         0.13852E+07
 
    0.18745E+07        -0.10328E+07         0.00000E+00
   -0.10328E+07         0.50018E+07         0.00000E+00
    0.00000E+00         0.00000E+00         0.13753E+07
 
    0.18188E+07        -0.94377E+06         0.00000E+00
   -0.94377E+06         0.50084E+07         0.00000E+00
    0.00000E+00         0.00000E+00         0.13654E+07
 
    0.17605E+07        -0.85131E+06         0.00000E+00
   -0.85131E+06         0.50183E+07         0.00000E+00
    0.00000E+00         0.00000E+00         0.13558E+07
 
    0.16991E+07        -0.75434E+06         0.00000E+00
   -0.75434E+06         0.50321E+07         0.00000E+00
    0.00000E+00         0.00000E+00         0.13462E+07
 
    0.16341E+07        -0.65164E+06         0.00000E+00
   -0.65164E+06         0.50501E+07         0.00000E+00
    0.00000E+00         0.00000E+00         0.13368E+07
 
    0.15653E+07        -0.54176E+06         0.00000E+00
   -0.54176E+06         0.50728E+07         0.00000E+00
    0.00000E+00         0.00000E+00         0.13276E+07
 
    0.14924E+07        -0.42299E+06         0.00000E+00
   -0.42299E+06         0.51006E+07         0.00000E+00
    0.00000E+00         0.00000E+00         0.13186E+07
 
    0.14154E+07        -0.29333E+06         0.00000E+00
   -0.29333E+06         0.51339E+07         0.00000E+00
    0.00000E+00         0.00000E+00         0.13099E+07
 
    0.13344E+07        -0.15043E+06         0.00000E+00
   -0.15043E+06         0.51731E+07         0.00000E+00
    0.00000E+00         0.00000E+00         0.13015E+07
 
    0.12499E+07         0.84824E+04         0.00000E+00
    0.84824E+04         0.52184E+07         0.00000E+00
    0.00000E+00         0.00000E+00         0.12937E+07
 
    0.11630E+07         0.18666E+06         0.00000E+00
    0.18666E+06         0.52699E+07         0.00000E+00
    0.00000E+00         0.00000E+00         0.12866E+07
 
    0.10752E+07         0.38793E+06         0.00000E+00
    0.38793E+06         0.53274E+07         0.00000E+00
    0.00000E+00         0.00000E+00         0.12805E+07
 
    0.98907E+06         0.61672E+06         0.00000E+00
    0.61672E+06         0.53904E+07         0.00000E+00
    0.00000E+00         0.00000E+00         0.12759E+07
 
    0.90830E+06         0.87814E+06         0.00000E+00
    0.87814E+06         0.54579E+07         0.00000E+00
    0.00000E+00         0.00000E+00         0.12732E+07
 
    0.83836E+06         0.11780E+07         0.00000E+00
    0.11780E+07         0.55278E+07         0.00000E+00
    0.00000E+00         0.00000E+00         0.12732E+07
 
    0.78693E+06         0.15226E+07         0.00000E+00
    0.15226E+07         0.55972E+07         0.00000E+00
    0.00000E+00         0.00000E+00         0.12768E+07
 
    0.76463E+06         0.19184E+07         0.00000E+00
    0.19184E+07         0.56612E+07         0.00000E+00
    0.00000E+00         0.00000E+00         0.12852E+07
 
    0.78541E+06         0.23713E+07         0.00000E+00
    0.23713E+07         0.57122E+07         0.00000E+00
    0.00000E+00         0.00000E+00         0.12995E+07
 
    0.86612E+06         0.28848E+07         0.00000E+00
    0.28848E+07         0.57389E+07         0.00000E+00
    0.00000E+00         0.00000E+00         0.13210E+07
 
    0.10229E+07         0.34567E+07         0.00000E+00
    0.34567E+07         0.57242E+07         0.00000E+00
    0.00000E+00         0.00000E+00         0.13494E+07
 
    0.12585E+07         0.40726E+07         0.00000E+00
    0.40726E+07         0.56417E+07         0.00000E+00
    0.00000E+00         0.00000E+00         0.13800E+07
 
   -0.78234E+06        -0.84716E+05         0.00000E+00
   -0.84716E+05         0.12360E+07         0.00000E+00
    0.00000E+00         0.00000E+00         0.90733E+05
 
   -0.28213E+06        -0.33975E+06         0.00000E+00
   -0.33975E+06         0.12948E+07         0.00000E+00
    0.00000E+00         0.00000E+00         0.20254E+06
 
    0.10542E+06        -0.58890E+06         0.00000E+00
   -0.58890E+06         0.13707E+07         0.00000E+00
    0.00000E+00         0.00000E+00         0.29522E+06
 
    0.40259E+06        -0.83060E+06         0.00000E+00
   -0.83060E+06         0.14684E+07         0.00000E+00
    0.00000E+00         0.00000E+00         0.37420E+06
 
    0.62139E+06        -0.10577E+07         0.00000E+00
   -0.10577E+07         0.15865E+07         0.00000E+00
    0.00000E+00         0.00000E+00         0.44157E+06
 
    0.77207E+06        -0.12639E+07         0.00000E+00
   -0.12639E+07         0.17169E+07         0.00000E+00
    0.00000E+00         0.00000E+00         0.49780E+06
 
    0.86560E+06        -0.14459E+07         0.00000E+00
   -0.14459E+07         0.18551E+07         0.00000E+00
    0.00000E+00         0.00000E+00         0.54414E+06
 
    0.91214E+06        -0.16020E+07         0.00000E+00
   -0.16020E+07         0.19976E+07         0.00000E+00
    0.00000E+00         0.00000E+00         0.58194E+06
 
    0.92065E+06        -0.17315E+07         0.00000E+00
   -0.17315E+07         0.21406E+07         0.00000E+00
    0.00000E+00         0.00000E+00         0.61224E+06
 
    0.89934E+06        -0.18348E+07         0.00000E+00
   -0.18348E+07         0.22807E+07         0.00000E+00
    0.00000E+00         0.00000E+00         0.63601E+06
 
    0.85548E+06        -0.19131E+07         0.00000E+00
   -0.19131E+07         0.24155E+07         0.00000E+00
    0.00000E+00         0.00000E+00         0.65419E+06
 
    0.79529E+06        -0.19684E+07         0.00000E+00
   -0.19684E+07         0.25433E+07         0.00000E+00
    0.00000E+00         0.00000E+00         0.66771E+06
 
    0.72385E+06        -0.20031E+07         0.00000E+00
   -0.20031E+07         0.26630E+07         0.00000E+00
    0.00000E+00         0.00000E+00         0.67737E+06
 
    0.64523E+06        -0.20195E+07         0.00000E+00
   -0.20195E+07         0.27742E+07         0.00000E+00
    0.00000E+00         0.00000E+00         0.68389E+06
 
    0.56255E+06        -0.20200E+07         0.00000E+00
   -0.20200E+07         0.28769E+07         0.00000E+00
    0.00000E+00         0.00000E+00         0.68789E+06
 
    0.47818E+06        -0.20068E+07         0.00000E+00
   -0.20068E+07         0.29712E+07         0.00000E+00
    0.00000E+00         0.00000E+00         0.68988E+06
 
    0.39382E+06        -0.19819E+07         0.00000E+00
   -0.19819E+07         0.30576E+07         0.00000E+00
    0.00000E+00         0.00000E+00         0.69029E+06
 
    0.31069E+06        -0.19469E+07         0.00000E+00
   -0.19469E+07         0.31366E+07         0.00000E+00
    0.00000E+00         0.00000E+00         0.68947E+06
 
    0.22960E+06        -0.19035E+07         0.00000E+00
   -0.19035E+07         0.32090E+07         0.00000E+00
    0.00000E+00         0.00000E+00         0.68771E+06
 
    0.15105E+06        -0.18530E+07         0.00000E+00
   -0.18530E+07         0.32752E+07         0.00000E+00
    0.00000E+00         0.00000E+00         0.68525E+06
 
    0.75310E+05        -0.17962E+07         0.00000E+00
   -0.17962E+07         0.33360E+07         0.00000E+00
    0.00000E+00         0.00000E+00         0.68227E+06
 
    0.24702E+04        -0.17342E+07         0.00000E+00
   -0.17342E+07         0.33921E+07         0.00000E+00
    0.00000E+00         0.00000E+00         0.67892E+06
 
   -0.67498E+05        -0.16675E+07         0.00000E+00
   -0.16675E+07         0.34442E+07         0.00000E+00
    0.00000E+00         0.00000E+00         0.67533E+06
 
   -0.13471E+06        -0.15967E+07         0.00000E+00
   -0.15967E+07         0.34927E+07         0.00000E+00
    0.00000E+00         0.00000E+00         0.67160E+06
 
   -0.19933E+06        -0.15220E+07         0.00000E+00
   -0.15220E+07         0.35383E+07         0.00000E+00
    0.00000E+00         0.00000E+00         0.66780E+06
 
   -0.26156E+06        -0.14437E+07         0.00000E+00
   -0.14437E+07         0.35816E+07         0.00000E+00
    0.00000E+00         0.00000E+00         0.66401E+06
 
   -0.32159E+06        -0.13616E+07         0.00000E+00
   -0.13616E+07         0.36230E+07         0.00000E+00
    0.00000E+00         0.00000E+00         0.66028E+06
 
   -0.37960E+06        -0.12758E+07         0.00000E+00
   -0.12758E+07         0.36629E+07         0.00000E+00
    0.00000E+00         0.00000E+00         0.65666E+06
 
   -0.43573E+06        -0.11860E+07         0.00000E+00
   -0.11860E+07         0.37018E+07         0.00000E+00
    0.00000E+00         0.00000E+00         0.65322E+06
 
   -0.49008E+06        -0.10917E+07         0.00000E+00
   -0.10917E+07         0.37401E+07         0.00000E+00
    0.00000E+00         0.00000E+00         0.65001E+06
 
   -0.54264E+06        -0.99247E+06         0.00000E+00
   -0.99247E+06         0.37781E+07         0.00000E+00
    0.00000E+00         0.00000E+00         0.64709E+06
 
   -0.59333E+06        -0.88767E+06         0.00000E+00
   -0.88767E+06         0.38160E+07         0.00000E+00
    0.00000E+00         0.00000E+00         0.64453E+06
 
   -0.64193E+06        -0.77650E+06         0.00000E+00
   -0.77650E+06         0.38540E+07         0.00000E+00
    0.00000E+00         0.00000E+00         0.64241E+06
 
   -0.68807E+06        -0.65804E+06         0.00000E+00
   -0.65804E+06         0.38923E+07         0.00000E+00
    0.00000E+00         0.00000E+00         0.64085E+06
 
   -0.73116E+06        -0.53122E+06         0.00000E+00
   -0.53122E+06         0.39310E+07         0.00000E+00
    0.00000E+00         0.00000E+00         0.63996E+06
 
   -0.77040E+06        -0.39480E+06         0.00000E+00
   -0.39480E+06         0.39699E+07         0.00000E+00
    0.00000E+00         0.00000E+00         0.63990E+06
 
   -0.80467E+06        -0.24742E+06         0.00000E+00
   -0.24742E+06         0.40089E+07         0.00000E+00
    0.00000E+00         0.00000E+00         0.64085E+06
 
   -0.83250E+06        -0.87552E+05         0.00000E+00
   -0.87552E+05         0.40476E+07         0.00000E+00
    0.00000E+00         0.00000E+00         0.64302E+06
 
   -0.85196E+06         0.86452E+05         0.00000E+00
    0.86452E+05         0.40854E+07         0.00000E+00
    0.00000E+00         0.00000E+00         0.64670E+06
 
   -0.86059E+06         0.27635E+06         0.00000E+00
    0.27635E+06         0.41215E+07         0.00000E+00
    0.00000E+00         0.00000E+00         0.65218E+06
 
   -0.85532E+06         0.48396E+06         0.00000E+00
    0.48396E+06         0.41546E+07         0.00000E+00
    0.00000E+00         0.00000E+00         0.65985E+06
 
   -0.83231E+06         0.71106E+06         0.00000E+00
    0.71106E+06         0.41829E+07         0.00000E+00
    0.00000E+00         0.00000E+00         0.67012E+06
 
   -0.78689E+06         0.95930E+06         0.00000E+00
    0.95930E+06         0.42042E+07         0.00000E+00
    0.00000E+00         0.00000E+00         0.68347E+06
 
   -0.71354E+06         0.12300E+07         0.00000E+00
    0.12300E+07         0.42156E+07         0.00000E+00
    0.00000E+00         0.00000E+00         0.70041E+06
 
   -0.60584E+06         0.15238E+07         0.00000E+00
    0.15238E+07         0.42132E+07         0.00000E+00
    0.00000E+00         0.00000E+00         0.72146E+06
 
   -0.45669E+06         0.18408E+07         0.00000E+00
    0.18408E+07         0.41923E+07         0.00000E+00
    0.00000E+00         0.00000E+00         0.74712E+06
 
   -0.25858E+06         0.21796E+07         0.00000E+00
    0.21796E+07         0.41474E+07         0.00000E+00
    0.00000E+00         0.00000E+00         0.77776E+06
 
   -0.39794E+04         0.25378E+07         0.00000E+00
    0.25378E+07         0.40724E+07         0.00000E+00
    0.00000E+00         0.00000E+00         0.81369E+06
 
    0.31524E+06         0.29128E+07         0.00000E+00
    0.29128E+07         0.39620E+07         0.00000E+00
    0.00000E+00         0.00000E+00         0.85545E+06
 
    0.71245E+06         0.33046E+07         0.00000E+00
    0.33046E+07         0.38143E+07         0.00000E+00
    0.00000E+00         0.00000E+00         0.90534E+06
 
   -0.20398E+07        -0.16086E+05         0.00000E+00
   -0.16086E+05         0.78611E+06         0.00000E+00
    0.00000E+00         0.00000E+00        -0.25073E+06
 
   -0.16614E+07        -0.12283E+06         0.00000E+00
   -0.12283E+06         0.78892E+06         0.00000E+00
    0.00000E+00         0.00000E+00        -0.17449E+06
 
   -0.13340E+07        -0.25332E+06         0.00000E+00
   -0.25332E+06         0.80846E+06         0.00000E+00
    0.00000E+00         0.00000E+00        -0.10511E+06
 
   -0.10600E+07        -0.39541E+06         0.00000E+00
   -0.39541E+06         0.84143E+06         0.00000E+00
    0.00000E+00         0.00000E+00        -0.43707E+05
 
   -0.83627E+06        -0.54191E+06         0.00000E+00
   -0.54191E+06         0.88658E+06         0.00000E+00
    0.00000E+00         0.00000E+00         0.10062E+05
 
   -0.65890E+06        -0.68745E+06         0.00000E+00
   -0.68745E+06         0.94366E+06         0.00000E+00
    0.00000E+00         0.00000E+00         0.56951E+05
 
   -0.52368E+06        -0.82746E+06         0.00000E+00
   -0.82746E+06         0.10112E+07         0.00000E+00
    0.00000E+00         0.00000E+00         0.97499E+05
 
   -0.42608E+06        -0.95852E+06         0.00000E+00
   -0.95852E+06         0.10872E+07         0.00000E+00
    0.00000E+00         0.00000E+00         0.13223E+06
 
   -0.36143E+06        -0.10782E+07         0.00000E+00
   -0.10782E+07         0.11702E+07         0.00000E+00
    0.00000E+00         0.00000E+00         0.16175E+06
 
   -0.32526E+06        -0.11850E+07         0.00000E+00
   -0.11850E+07         0.12584E+07         0.00000E+00
    0.00000E+00         0.00000E+00         0.18663E+06
 
   -0.31329E+06        -0.12778E+07         0.00000E+00
   -0.12778E+07         0.13502E+07         0.00000E+00
    0.00000E+00         0.00000E+00         0.20739E+06
 
   -0.32152E+06        -0.13562E+07         0.00000E+00
   -0.13562E+07         0.14441E+07         0.00000E+00
    0.00000E+00         0.00000E+00         0.22453E+06
 
   -0.34629E+06        -0.14201E+07         0.00000E+00
   -0.14201E+07         0.15389E+07         0.00000E+00
    0.00000E+00         0.00000E+00         0.23852E+06
 
   -0.38430E+06        -0.14700E+07         0.00000E+00
   -0.14700E+07         0.16333E+07         0.00000E+00
    0.00000E+00         0.00000E+00         0.24980E+06
 
   -0.43267E+06        -0.15063E+07         0.00000E+00
   -0.15063E+07         0.17266E+07         0.00000E+00
    0.00000E+00         0.00000E+00         0.25878E+06
 
   -0.48892E+06        -0.15299E+07         0.00000E+00
   -0.15299E+07         0.18179E+07         0.00000E+00
    0.00000E+00         0.00000E+00         0.26580E+06
 
   -0.55092E+06        -0.15415E+07         0.00000E+00
   -0.15415E+07         0.19069E+07         0.00000E+00
    0.00000E+00         0.00000E+00         0.27120E+06
 
   -0.61691E+06        -0.15420E+07         0.00000E+00
   -0.15420E+07         0.19931E+07         0.00000E+00
    0.00000E+00         0.00000E+00         0.27524E+06
 
   -0.68545E+06        -0.15324E+07         0.00000E+00
   -0.15324E+07         0.20764E+07         0.00000E+00
    0.00000E+00         0.00000E+00         0.27818E+06
 
   -0.75535E+06        -0.15134E+07         0.00000E+00
   -0.15134E+07         0.21565E+07         0.00000E+00
    0.00000E+00         0.00000E+00         0.28023E+06
 
   -0.82565E+06        -0.14857E+07         0.00000E+00
   -0.14857E+07         0.22335E+07         0.00000E+00
    0.00000E+00         0.00000E+00         0.28157E+06
 
   -0.89559E+06        -0.14501E+07         0.00000E+00
   -0.14501E+07         0.23073E+07         0.00000E+00
    0.00000E+00         0.00000E+00         0.28235E+06
 
   -0.96454E+06        -0.14070E+07         0.00000E+00
   -0.14070E+07         0.23781E+07         0.00000E+00
    0.00000E+00         0.00000E+00         0.28271E+06
 
   -0.10320E+07        -0.13571E+07         0.00000E+00
   -0.13571E+07         0.24458E+07         0.00000E+00
    0.00000E+00         0.00000E+00         0.28276E+06
 
   -0.10976E+07        -0.13006E+07         0.00000E+00
   -0.13006E+07         0.25107E+07         0.00000E+00
    0.00000E+00         0.00000E+00         0.28262E+06
 
   -0.11609E+07        -0.12378E+07         0.00000E+00
   -0.12378E+07         0.25727E+07         0.00000E+00
    0.00000E+00         0.00000E+00         0.28237E+06
 
   -0.12216E+07        -0.11689E+07         0.00000E+00
   -0.11689E+07         0.26321E+07         0.00000E+00
    0.00000E+00         0.00000E+00         0.28210E+06
 
   -0.12794E+07        -0.10940E+07         0.00000E+00
   -0.10940E+07         0.26889E+07         0.00000E+00
    0.00000E+00         0.00000E+00         0.28189E+06
 
   -0.13339E+07        -0.10131E+07         0.00000E+00
   -0.10131E+07         0.27431E+07         0.00000E+00
    0.00000E+00         0.00000E+00         0.28183E+06
 
   -0.13848E+07        -0.92613E+06         0.00000E+00
   -0.92613E+06         0.27947E+07         0.00000E+00
    0.00000E+00         0.00000E+00         0.28198E+06
 
   -0.14316E+07        -0.83285E+06         0.00000E+00
   -0.83285E+06         0.28439E+07         0.00000E+00
    0.00000E+00         0.00000E+00         0.28246E+06
 
   -0.14737E+07        -0.73304E+06         0.00000E+00
   -0.73304E+06         0.28904E+07         0.00000E+00
    0.00000E+00         0.00000E+00         0.28334E+06
 
   -0.15104E+07        -0.62637E+06         0.00000E+00
   -0.62637E+06         0.29341E+07         0.00000E+00
    0.00000E+00         0.00000E+00         0.28473E+06
 
   -0.15410E+07        -0.51246E+06         0.00000E+00
   -0.51246E+06         0.29748E+07         0.00000E+00
    0.00000E+00         0.00000E+00         0.28676E+06
 
   -0.15645E+07        -0.39089E+06         0.00000E+00
   -0.39089E+06         0.30123E+07         0.00000E+00
    0.00000E+00         0.00000E+00         0.28955E+06
 
   -0.15797E+07        -0.26118E+06         0.00000E+00
   -0.26118E+06         0.30460E+07         0.00000E+00
    0.00000E+00         0.00000E+00         0.29327E+06
 
   -0.15851E+07        -0.12288E+06         0.00000E+00
   -0.12288E+06         0.30756E+07         0.00000E+00
    0.00000E+00         0.00000E+00         0.29809E+06
 
   -0.15791E+07         0.24460E+05         0.00000E+00
    0.24460E+05         0.31001E+07         0.00000E+00
    0.00000E+00         0.00000E+00         0.30421E+06
 
   -0.15597E+07         0.18122E+06         0.00000E+00
    0.18122E+06         0.31189E+07         0.00000E+00
    0.00000E+00         0.00000E+00         0.31184E+06
 
   -0.15247E+07         0.34767E+06         0.00000E+00
    0.34767E+06         0.31308E+07         0.00000E+00
    0.00000E+00         0.00000E+00         0.32124E+06
 
   -0.14713E+07         0.52393E+06         0.00000E+00
    0.52393E+06         0.31346E+07         0.00000E+00
    0.00000E+00         0.00000E+00         0.33267E+06
 
   -0.13968E+07         0.70986E+06         0.00000E+00
    0.70986E+06         0.31288E+07         0.00000E+00
    0.00000E+00         0.00000E+00         0.34641E+06
 
   -0.12978E+07         0.90502E+06         0.00000E+00
    0.90502E+06         0.31117E+07         0.00000E+00
    0.00000E+00         0.00000E+00         0.36278E+06
 
   -0.11709E+07         0.11086E+07         0.00000E+00
    0.11086E+07         0.30813E+07         0.00000E+00
    0.00000E+00         0.00000E+00         0.38208E+06
 
   -0.10123E+07         0.13192E+07         0.00000E+00
    0.13192E+07         0.30354E+07         0.00000E+00
    0.00000E+00         0.00000E+00         0.40463E+06
 
   -0.81809E+06         0.15351E+07         0.00000E+00
    0.15351E+07         0.29719E+07         0.00000E+00
    0.00000E+00         0.00000E+00         0.43076E+06
 
   -0.58421E+06         0.17539E+07         0.00000E+00
    0.17539E+07         0.28883E+07         0.00000E+00
    0.00000E+00         0.00000E+00         0.46082E+06
 
   -0.30627E+06         0.19726E+07         0.00000E+00
    0.19726E+07         0.27823E+07         0.00000E+00
    0.00000E+00         0.00000E+00         0.49522E+06
 
    0.20299E+05         0.21872E+07         0.00000E+00
    0.21872E+07         0.26513E+07         0.00000E+00
    0.00000E+00         0.00000E+00         0.53433E+06
 
    0.39849E+06         0.23914E+07         0.00000E+00
    0.23914E+07         0.24910E+07         0.00000E+00
    0.00000E+00         0.00000E+00         0.57789E+06
 
   -0.22826E+07         0.84383E+04         0.00000E+00
    0.84383E+04         0.82203E+06         0.00000E+00
    0.00000E+00         0.00000E+00        -0.29211E+06
 
   -0.20194E+07        -0.27518E+05         0.00000E+00
   -0.27518E+05         0.81615E+06         0.00000E+00
    0.00000E+00         0.00000E+00        -0.24065E+06
 
   -0.17811E+07        -0.80336E+05         0.00000E+00
   -0.80336E+05         0.80886E+06         0.00000E+00
    0.00000E+00         0.00000E+00        -0.19444E+06
 
   -0.15687E+07        -0.14729E+06         0.00000E+00
   -0.14729E+06         0.80471E+06         0.00000E+00
    0.00000E+00         0.00000E+00        -0.15279E+06
 
   -0.13834E+07        -0.22445E+06         0.00000E+00
   -0.22445E+06         0.80598E+06         0.00000E+00
    0.00000E+00         0.00000E+00        -0.11549E+06
 
   -0.12254E+07        -0.30809E+06         0.00000E+00
   -0.30809E+06         0.81374E+06         0.00000E+00
    0.00000E+00         0.00000E+00        -0.82341E+05
 
   -0.10940E+07        -0.39499E+06         0.00000E+00
   -0.39499E+06         0.82869E+06         0.00000E+00
    0.00000E+00         0.00000E+00        -0.53069E+05
 
   -0.98794E+06        -0.48232E+06         0.00000E+00
   -0.48232E+06         0.85108E+06         0.00000E+00
    0.00000E+00         0.00000E+00        -0.27372E+05
 
   -0.90550E+06        -0.56765E+06         0.00000E+00
   -0.56765E+06         0.88070E+06         0.00000E+00
    0.00000E+00         0.00000E+00        -0.49617E+04
 
   -0.84483E+06        -0.64900E+06         0.00000E+00
   -0.64900E+06         0.91711E+06         0.00000E+00
    0.00000E+00         0.00000E+00         0.14457E+05
 
   -0.80385E+06        -0.72478E+06         0.00000E+00
   -0.72478E+06         0.95973E+06         0.00000E+00
    0.00000E+00         0.00000E+00         0.31177E+05
 
   -0.78045E+06        -0.79376E+06         0.00000E+00
   -0.79376E+06         0.10078E+07         0.00000E+00
    0.00000E+00         0.00000E+00         0.45479E+05
 
   -0.77252E+06        -0.85504E+06         0.00000E+00
   -0.85504E+06         0.10607E+07         0.00000E+00
    0.00000E+00         0.00000E+00         0.57632E+05
 
   -0.77802E+06        -0.90797E+06         0.00000E+00
   -0.90797E+06         0.11175E+07         0.00000E+00
    0.00000E+00         0.00000E+00         0.67888E+05
 
   -0.79500E+06        -0.95216E+06         0.00000E+00
   -0.95216E+06         0.11774E+07         0.00000E+00
    0.00000E+00         0.00000E+00         0.76481E+05
 
   -0.82161E+06        -0.98741E+06         0.00000E+00
   -0.98741E+06         0.12398E+07         0.00000E+00
    0.00000E+00         0.00000E+00         0.83631E+05
 
   -0.85618E+06        -0.10137E+07         0.00000E+00
   -0.10137E+07         0.13039E+07         0.00000E+00
    0.00000E+00         0.00000E+00         0.89537E+05
 
   -0.89716E+06        -0.10310E+07         0.00000E+00
   -0.10310E+07         0.13691E+07         0.00000E+00
    0.00000E+00         0.00000E+00         0.94382E+05
 
   -0.94316E+06        -0.10397E+07         0.00000E+00
   -0.10397E+07         0.14348E+07         0.00000E+00
    0.00000E+00         0.00000E+00         0.98331E+05
 
   -0.99293E+06        -0.10398E+07         0.00000E+00
   -0.10398E+07         0.15006E+07         0.00000E+00
    0.00000E+00         0.00000E+00         0.10153E+06
 
   -0.10453E+07        -0.10317E+07         0.00000E+00
   -0.10317E+07         0.15659E+07         0.00000E+00
    0.00000E+00         0.00000E+00         0.10412E+06
 
   -0.10994E+07        -0.10157E+07         0.00000E+00
   -0.10157E+07         0.16305E+07         0.00000E+00
    0.00000E+00         0.00000E+00         0.10621E+06
 
   -0.11543E+07        -0.99196E+06         0.00000E+00
   -0.99196E+06         0.16938E+07         0.00000E+00
    0.00000E+00         0.00000E+00         0.10791E+06
 
   -0.12091E+07        -0.96088E+06         0.00000E+00
   -0.96088E+06         0.17557E+07         0.00000E+00
    0.00000E+00         0.00000E+00         0.10932E+06
 
   -0.12631E+07        -0.92267E+06         0.00000E+00
   -0.92267E+06         0.18158E+07         0.00000E+00
    0.00000E+00         0.00000E+00         0.11053E+06
 
   -0.13157E+07        -0.87756E+06         0.00000E+00
   -0.87756E+06         0.18738E+07         0.00000E+00
    0.00000E+00         0.00000E+00         0.11162E+06
 
   -0.13661E+07        -0.82576E+06         0.00000E+00
   -0.82576E+06         0.19294E+07         0.00000E+00
    0.00000E+00         0.00000E+00         0.11266E+06
 
   -0.14139E+07        -0.76742E+06         0.00000E+00
   -0.76742E+06         0.19825E+07         0.00000E+00
    0.00000E+00         0.00000E+00         0.11373E+06
 
   -0.14582E+07        -0.70271E+06         0.00000E+00
   -0.70271E+06         0.20327E+07         0.00000E+00
    0.00000E+00         0.00000E+00         0.11491E+06
 
   -0.14985E+07        -0.63171E+06         0.00000E+00
   -0.63171E+06         0.20798E+07         0.00000E+00
    0.00000E+00         0.00000E+00         0.11626E+06
 
   -0.15341E+07        -0.55454E+06         0.00000E+00
   -0.55454E+06         0.21234E+07         0.00000E+00
    0.00000E+00         0.00000E+00         0.11787E+06
 
   -0.15641E+07        -0.47127E+06         0.00000E+00
   -0.47127E+06         0.21633E+07         0.00000E+00
    0.00000E+00         0.00000E+00         0.11983E+06
 
   -0.15879E+07        -0.38196E+06         0.00000E+00
   -0.38196E+06         0.21990E+07         0.00000E+00
    0.00000E+00         0.00000E+00         0.12220E+06
 
   -0.16045E+07        -0.28671E+06         0.00000E+00
   -0.28671E+06         0.22301E+07         0.00000E+00
    0.00000E+00         0.00000E+00         0.12511E+06
 
   -0.16129E+07        -0.18561E+06         0.00000E+00
   -0.18561E+06         0.22561E+07         0.00000E+00
    0.00000E+00         0.00000E+00         0.12864E+06
 
   -0.16121E+07        -0.78807E+05         0.00000E+00
   -0.78807E+05         0.22767E+07         0.00000E+00
    0.00000E+00         0.00000E+00         0.13292E+06
 
   -0.16007E+07         0.33493E+05         0.00000E+00
    0.33493E+05         0.22910E+07         0.00000E+00
    0.00000E+00         0.00000E+00         0.13806E+06
 
   -0.15776E+07         0.15100E+06         0.00000E+00
    0.15100E+06         0.22987E+07         0.00000E+00
    0.00000E+00         0.00000E+00         0.14422E+06
 
   -0.15411E+07         0.27332E+06         0.00000E+00
    0.27332E+06         0.22988E+07         0.00000E+00
    0.00000E+00         0.00000E+00         0.15154E+06
 
   -0.14898E+07         0.39990E+06         0.00000E+00
    0.39990E+06         0.22907E+07         0.00000E+00
    0.00000E+00         0.00000E+00         0.16017E+06
 
   -0.14220E+07         0.53003E+06         0.00000E+00
    0.53003E+06         0.22736E+07         0.00000E+00
    0.00000E+00         0.00000E+00         0.17031E+06
 
   -0.13360E+07         0.66277E+06         0.00000E+00
    0.66277E+06         0.22465E+07         0.00000E+00
    0.00000E+00         0.00000E+00         0.18212E+06
 
   -0.12298E+07         0.79697E+06         0.00000E+00
    0.79697E+06         0.22088E+07         0.00000E+00
    0.00000E+00         0.00000E+00         0.19580E+06
 
   -0.11017E+07         0.93118E+06         0.00000E+00
    0.93118E+06         0.21595E+07         0.00000E+00
    0.00000E+00         0.00000E+00         0.21155E+06
 
   -0.94984E+06         0.10637E+07         0.00000E+00
    0.10637E+07         0.20978E+07         0.00000E+00
    0.00000E+00         0.00000E+00         0.22960E+06
 
   -0.77232E+06         0.11923E+07         0.00000E+00
    0.11923E+07         0.20231E+07         0.00000E+00
    0.00000E+00         0.00000E+00         0.25015E+06
 
   -0.56749E+06         0.13146E+07         0.00000E+00
    0.13146E+07         0.19345E+07         0.00000E+00
    0.00000E+00         0.00000E+00         0.27341E+06
 
   -0.33388E+06         0.14275E+07         0.00000E+00
    0.14275E+07         0.18318E+07         0.00000E+00
    0.00000E+00         0.00000E+00         0.29958E+06
 
   -0.70479E+05         0.15277E+07         0.00000E+00
    0.15277E+07         0.17145E+07         0.00000E+00
    0.00000E+00         0.00000E+00         0.32880E+06
 
    0.22371E+06         0.16116E+07         0.00000E+00
    0.16116E+07         0.15834E+07         0.00000E+00
    0.00000E+00         0.00000E+00         0.36143E+06
 
   -0.21973E+07         0.15867E+05         0.00000E+00
    0.15867E+05         0.94480E+06         0.00000E+00
    0.00000E+00         0.00000E+00        -0.25050E+06
 
   -0.20121E+07         0.17465E+05         0.00000E+00
    0.17465E+05         0.93524E+06         0.00000E+00
    0.00000E+00         0.00000E+00        -0.21537E+06
 
   -0.18388E+07         0.69775E+04         0.00000E+00
    0.69775E+04         0.92132E+06         0.00000E+00
    0.00000E+00         0.00000E+00        -0.18350E+06
 
   -0.16793E+07        -0.13918E+05         0.00000E+00
   -0.13918E+05         0.90518E+06         0.00000E+00
    0.00000E+00         0.00000E+00        -0.15482E+06
 
   -0.15345E+07        -0.43720E+05         0.00000E+00
   -0.43720E+05         0.88901E+06         0.00000E+00
    0.00000E+00         0.00000E+00        -0.12911E+06
 
   -0.14052E+07        -0.80766E+05         0.00000E+00
   -0.80766E+05         0.87464E+06         0.00000E+00
    0.00000E+00         0.00000E+00        -0.10612E+06
 
   -0.12917E+07        -0.12330E+06         0.00000E+00
   -0.12330E+06         0.86342E+06         0.00000E+00
    0.00000E+00         0.00000E+00        -0.85662E+05
 
   -0.11940E+07        -0.16961E+06         0.00000E+00
   -0.16961E+06         0.85630E+06         0.00000E+00
    0.00000E+00         0.00000E+00        -0.67544E+05
 
   -0.11118E+07        -0.21806E+06         0.00000E+00
   -0.21806E+06         0.85394E+06         0.00000E+00
    0.00000E+00         0.00000E+00        -0.51569E+05
 
   -0.10444E+07        -0.26716E+06         0.00000E+00
   -0.26716E+06         0.85670E+06         0.00000E+00
    0.00000E+00         0.00000E+00        -0.37546E+05
 
   -0.99122E+06        -0.31554E+06         0.00000E+00
   -0.31554E+06         0.86473E+06         0.00000E+00
    0.00000E+00         0.00000E+00        -0.25297E+05
 
   -0.95120E+06        -0.36203E+06         0.00000E+00
   -0.36203E+06         0.87797E+06         0.00000E+00
    0.00000E+00         0.00000E+00        -0.14646E+05
 
   -0.92336E+06        -0.40558E+06         0.00000E+00
   -0.40558E+06         0.89621E+06         0.00000E+00
    0.00000E+00         0.00000E+00        -0.54287E+04
 
   -0.90659E+06        -0.44535E+06         0.00000E+00
   -0.44535E+06         0.91915E+06         0.00000E+00
    0.00000E+00         0.00000E+00         0.25124E+04
 
   -0.89976E+06        -0.48062E+06         0.00000E+00
   -0.48062E+06         0.94638E+06         0.00000E+00
    0.00000E+00         0.00000E+00         0.93233E+04
 
   -0.90174E+06        -0.51083E+06         0.00000E+00
   -0.51083E+06         0.97744E+06         0.00000E+00
    0.00000E+00         0.00000E+00         0.15140E+05
 
   -0.91140E+06        -0.53552E+06         0.00000E+00
   -0.53552E+06         0.10118E+07         0.00000E+00
    0.00000E+00         0.00000E+00         0.20089E+05
 
   -0.92764E+06        -0.55439E+06         0.00000E+00
   -0.55439E+06         0.10491E+07         0.00000E+00
    0.00000E+00         0.00000E+00         0.24285E+05
 
   -0.94940E+06        -0.56720E+06         0.00000E+00
   -0.56720E+06         0.10886E+07         0.00000E+00
    0.00000E+00         0.00000E+00         0.27836E+05
 
   -0.97566E+06        -0.57380E+06         0.00000E+00
   -0.57380E+06         0.11299E+07         0.00000E+00
    0.00000E+00         0.00000E+00         0.30839E+05
 
   -0.10055E+07        -0.57414E+06         0.00000E+00
   -0.57414E+06         0.11724E+07         0.00000E+00
    0.00000E+00         0.00000E+00         0.33383E+05
 
   -0.10379E+07        -0.56819E+06         0.00000E+00
   -0.56819E+06         0.12157E+07         0.00000E+00
    0.00000E+00         0.00000E+00         0.35551E+05
 
   -0.10721E+07        -0.55600E+06         0.00000E+00
   -0.55600E+06         0.12592E+07         0.00000E+00
    0.00000E+00         0.00000E+00         0.37417E+05
 
   -0.11072E+07        -0.53763E+06         0.00000E+00
   -0.53763E+06         0.13025E+07         0.00000E+00
    0.00000E+00         0.00000E+00         0.39050E+05
 
   -0.11425E+07        -0.51318E+06         0.00000E+00
   -0.51318E+06         0.13451E+07         0.00000E+00
    0.00000E+00         0.00000E+00         0.40514E+05
 
   -0.11773E+07        -0.48280E+06         0.00000E+00
   -0.48280E+06         0.13866E+07         0.00000E+00
    0.00000E+00         0.00000E+00         0.41870E+05
 
   -0.12106E+07        -0.44661E+06         0.00000E+00
   -0.44661E+06         0.14265E+07         0.00000E+00
    0.00000E+00         0.00000E+00         0.43177E+05
 
   -0.12420E+07        -0.40481E+06         0.00000E+00
   -0.40481E+06         0.14644E+07         0.00000E+00
    0.00000E+00         0.00000E+00         0.44489E+05
 
   -0.12706E+07        -0.35756E+06         0.00000E+00
   -0.35756E+06         0.14999E+07         0.00000E+00
    0.00000E+00         0.00000E+00         0.45861E+05
 
   -0.12958E+07        -0.30508E+06         0.00000E+00
   -0.30508E+06         0.15325E+07         0.00000E+00
    0.00000E+00         0.00000E+00         0.47351E+05
 
   -0.13168E+07        -0.24759E+06         0.00000E+00
   -0.24759E+06         0.15618E+07         0.00000E+00
    0.00000E+00         0.00000E+00         0.49013E+05
 
   -0.13329E+07        -0.18535E+06         0.00000E+00
   -0.18535E+06         0.15874E+07         0.00000E+00
    0.00000E+00         0.00000E+00         0.50907E+05
 
   -0.13434E+07        -0.11865E+06         0.00000E+00
   -0.11865E+06         0.16089E+07         0.00000E+00
    0.00000E+00         0.00000E+00         0.53094E+05
 
   -0.13475E+07        -0.47819E+05         0.00000E+00
   -0.47819E+05         0.16257E+07         0.00000E+00
    0.00000E+00         0.00000E+00         0.55641E+05
 
   -0.13444E+07         0.26761E+05         0.00000E+00
    0.26761E+05         0.16375E+07         0.00000E+00
    0.00000E+00         0.00000E+00         0.58618E+05
 
   -0.13333E+07         0.10465E+06         0.00000E+00
    0.10465E+06         0.16438E+07         0.00000E+00
    0.00000E+00         0.00000E+00         0.62100E+05
 
   -0.13133E+07         0.18532E+06         0.00000E+00
    0.18532E+06         0.16441E+07         0.00000E+00
    0.00000E+00         0.00000E+00         0.66168E+05
 
   -0.12835E+07         0.26819E+06         0.00000E+00
    0.26819E+06         0.16380E+07         0.00000E+00
    0.00000E+00         0.00000E+00         0.70908E+05
 
   -0.12430E+07         0.35254E+06         0.00000E+00
    0.35254E+06         0.16251E+07         0.00000E+00
    0.00000E+00         0.00000E+00         0.76416E+05
 
   -0.11910E+07         0.43758E+06         0.00000E+00
    0.43758E+06         0.16050E+07         0.00000E+00
    0.00000E+00         0.00000E+00         0.82790E+05
 
   -0.11266E+07         0.52235E+06         0.00000E+00
    0.52235E+06         0.15772E+07         0.00000E+00
    0.00000E+00         0.00000E+00         0.90136E+05
 
   -0.10488E+07         0.60578E+06         0.00000E+00
    0.60578E+06         0.15416E+07         0.00000E+00
    0.00000E+00         0.00000E+00         0.98568E+05
 
   -0.95689E+06         0.68664E+06         0.00000E+00
    0.68664E+06         0.14979E+07         0.00000E+00
    0.00000E+00         0.00000E+00         0.10820E+06
 
   -0.85009E+06         0.76354E+06         0.00000E+00
    0.76354E+06         0.14459E+07         0.00000E+00
    0.00000E+00         0.00000E+00         0.11917E+06
 
   -0.72778E+06         0.83491E+06         0.00000E+00
    0.83491E+06         0.13857E+07         0.00000E+00
    0.00000E+00         0.00000E+00         0.13158E+06
 
   -0.58946E+06         0.89901E+06         0.00000E+00
    0.89901E+06         0.13174E+07         0.00000E+00
    0.00000E+00         0.00000E+00         0.14558E+06
 
   -0.43484E+06         0.95392E+06         0.00000E+00
    0.95392E+06         0.12413E+07         0.00000E+00
    0.00000E+00         0.00000E+00         0.16129E+06
 
   -0.26385E+06         0.99756E+06         0.00000E+00
    0.99756E+06         0.11581E+07         0.00000E+00
    0.00000E+00         0.00000E+00         0.17884E+06
 
   -0.76658E+05         0.10277E+07         0.00000E+00
    0.10277E+07         0.10686E+07         0.00000E+00
    0.00000E+00         0.00000E+00         0.19839E+06
 
    0.12614E+06         0.10420E+07         0.00000E+00
    0.10420E+07         0.97387E+06         0.00000E+00
    0.00000E+00         0.00000E+00         0.22000E+06
 
   -0.20304E+07         0.20060E+05         0.00000E+00
    0.20060E+05         0.10257E+07         0.00000E+00
    0.00000E+00         0.00000E+00        -0.20094E+06
 
   -0.18929E+07         0.41647E+05         0.00000E+00
    0.41647E+05         0.10174E+07         0.00000E+00
    0.00000E+00         0.00000E+00        -0.17510E+06
 
   -0.17625E+07         0.55518E+05         0.00000E+00
    0.55518E+05         0.10032E+07         0.00000E+00
    0.00000E+00         0.00000E+00        -0.15186E+06
 
   -0.16400E+07         0.62000E+05         0.00000E+00
    0.62000E+05         0.98508E+06         0.00000E+00
    0.00000E+00         0.00000E+00        -0.13099E+06
 
   -0.15262E+07         0.61726E+05         0.00000E+00
    0.61726E+05         0.96461E+06         0.00000E+00
    0.00000E+00         0.00000E+00        -0.11232E+06
 
   -0.14216E+07         0.55447E+05         0.00000E+00
    0.55447E+05         0.94322E+06         0.00000E+00
    0.00000E+00         0.00000E+00        -0.95681E+05
 
   -0.13266E+07         0.44002E+05         0.00000E+00
    0.44002E+05         0.92214E+06         0.00000E+00
    0.00000E+00         0.00000E+00        -0.80891E+05
 
   -0.12414E+07         0.28300E+05         0.00000E+00
    0.28300E+05         0.90242E+06         0.00000E+00
    0.00000E+00         0.00000E+00        -0.67788E+05
 
   -0.11660E+07         0.92778E+04         0.00000E+00
    0.92778E+04         0.88489E+06         0.00000E+00
    0.00000E+00         0.00000E+00        -0.56217E+05
 
   -0.11003E+07        -0.12126E+05         0.00000E+00
   -0.12126E+05         0.87018E+06         0.00000E+00
    0.00000E+00         0.00000E+00        -0.46030E+05
 
   -0.10442E+07        -0.34998E+05         0.00000E+00
   -0.34998E+05         0.85875E+06         0.00000E+00
    0.00000E+00         0.00000E+00        -0.37092E+05
 
   -0.99725E+06        -0.58470E+05         0.00000E+00
   -0.58470E+05         0.85089E+06         0.00000E+00
    0.00000E+00         0.00000E+00        -0.29273E+05
 
   -0.95903E+06        -0.81732E+05         0.00000E+00
   -0.81732E+05         0.84675E+06         0.00000E+00
    0.00000E+00         0.00000E+00        -0.22455E+05
 
   -0.92899E+06        -0.10404E+06         0.00000E+00
   -0.10404E+06         0.84635E+06         0.00000E+00
    0.00000E+00         0.00000E+00        -0.16528E+05
 
   -0.90655E+06        -0.12474E+06         0.00000E+00
   -0.12474E+06         0.84961E+06         0.00000E+00
    0.00000E+00         0.00000E+00        -0.11389E+05
 
   -0.89107E+06        -0.14324E+06         0.00000E+00
   -0.14324E+06         0.85635E+06         0.00000E+00
    0.00000E+00         0.00000E+00        -0.69451E+04
 
   -0.88187E+06        -0.15903E+06         0.00000E+00
   -0.15903E+06         0.86632E+06         0.00000E+00
    0.00000E+00         0.00000E+00        -0.31099E+04
 
   -0.87824E+06        -0.17169E+06         0.00000E+00
   -0.17169E+06         0.87922E+06         0.00000E+00
    0.00000E+00         0.00000E+00         0.19544E+03
 
   -0.87948E+06        -0.18086E+06         0.00000E+00
   -0.18086E+06         0.89469E+06         0.00000E+00
    0.00000E+00         0.00000E+00         0.30431E+04
 
   -0.88486E+06        -0.18625E+06         0.00000E+00
   -0.18625E+06         0.91236E+06         0.00000E+00
    0.00000E+00         0.00000E+00         0.54990E+04
 
   -0.89369E+06        -0.18765E+06         0.00000E+00
   -0.18765E+06         0.93180E+06         0.00000E+00
    0.00000E+00         0.00000E+00         0.76237E+04
 
   -0.90524E+06        -0.18491E+06         0.00000E+00
   -0.18491E+06         0.95260E+06         0.00000E+00
    0.00000E+00         0.00000E+00         0.94725E+04
 
   -0.91883E+06        -0.17792E+06         0.00000E+00
   -0.17792E+06         0.97431E+06         0.00000E+00
    0.00000E+00         0.00000E+00         0.11096E+05
 
   -0.93378E+06        -0.16663E+06         0.00000E+00
   -0.16663E+06         0.99649E+06         0.00000E+00
    0.00000E+00         0.00000E+00         0.12543E+05
 
   -0.94942E+06        -0.15105E+06         0.00000E+00
   -0.15105E+06         0.10187E+07         0.00000E+00
    0.00000E+00         0.00000E+00         0.13855E+05
 
   -0.96510E+06        -0.13122E+06         0.00000E+00
   -0.13122E+06         0.10405E+07         0.00000E+00
    0.00000E+00         0.00000E+00         0.15075E+05
 
   -0.98018E+06        -0.10723E+06         0.00000E+00
   -0.10723E+06         0.10614E+07         0.00000E+00
    0.00000E+00         0.00000E+00         0.16243E+05
 
   -0.99404E+06        -0.79214E+05         0.00000E+00
   -0.79214E+05         0.10810E+07         0.00000E+00
    0.00000E+00         0.00000E+00         0.17395E+05
 
   -0.10061E+07        -0.47343E+05         0.00000E+00
   -0.47343E+05         0.10989E+07         0.00000E+00
    0.00000E+00         0.00000E+00         0.18570E+05
 
   -0.10156E+07        -0.11828E+05         0.00000E+00
   -0.11828E+05         0.11146E+07         0.00000E+00
    0.00000E+00         0.00000E+00         0.19803E+05
 
   -0.10221E+07         0.27076E+05         0.00000E+00
    0.27076E+05         0.11278E+07         0.00000E+00
    0.00000E+00         0.00000E+00         0.21132E+05
 
   -0.10250E+07         0.69072E+05         0.00000E+00
    0.69072E+05         0.11380E+07         0.00000E+00
    0.00000E+00         0.00000E+00         0.22595E+05
 
   -0.10237E+07         0.11382E+06         0.00000E+00
    0.11382E+06         0.11449E+07         0.00000E+00
    0.00000E+00         0.00000E+00         0.24231E+05
 
   -0.10176E+07         0.16091E+06         0.00000E+00
    0.16091E+06         0.11480E+07         0.00000E+00
    0.00000E+00         0.00000E+00         0.26079E+05
 
   -0.10062E+07         0.20991E+06         0.00000E+00
    0.20991E+06         0.11471E+07         0.00000E+00
    0.00000E+00         0.00000E+00         0.28184E+05
 
   -0.98886E+06         0.26032E+06         0.00000E+00
    0.26032E+06         0.11418E+07         0.00000E+00
    0.00000E+00         0.00000E+00         0.30589E+05
 
   -0.96512E+06         0.31156E+06         0.00000E+00
    0.31156E+06         0.11318E+07         0.00000E+00
    0.00000E+00         0.00000E+00         0.33343E+05
 
   -0.93447E+06         0.36301E+06         0.00000E+00
    0.36301E+06         0.11170E+07         0.00000E+00
    0.00000E+00         0.00000E+00         0.36497E+05
 
   -0.89645E+06         0.41396E+06         0.00000E+00
    0.41396E+06         0.10970E+07         0.00000E+00
    0.00000E+00         0.00000E+00         0.40104E+05
 
   -0.85062E+06         0.46364E+06         0.00000E+00
    0.46364E+06         0.10717E+07         0.00000E+00
    0.00000E+00         0.00000E+00         0.44223E+05
 
   -0.79663E+06         0.51120E+06         0.00000E+00
    0.51120E+06         0.10412E+07         0.00000E+00
    0.00000E+00         0.00000E+00         0.48913E+05
 
   -0.73416E+06         0.55572E+06         0.00000E+00
    0.55572E+06         0.10054E+07         0.00000E+00
    0.00000E+00         0.00000E+00         0.54239E+05
 
   -0.66301E+06         0.59620E+06         0.00000E+00
    0.59620E+06         0.96436E+06         0.00000E+00
    0.00000E+00         0.00000E+00         0.60269E+05
 
   -0.58306E+06         0.63155E+06         0.00000E+00
    0.63155E+06         0.91842E+06         0.00000E+00
    0.00000E+00         0.00000E+00         0.67072E+05
 
   -0.49431E+06         0.66064E+06         0.00000E+00
    0.66064E+06         0.86792E+06         0.00000E+00
    0.00000E+00         0.00000E+00         0.74722E+05
 
   -0.39691E+06         0.68226E+06         0.00000E+00
    0.68226E+06         0.81338E+06         0.00000E+00
    0.00000E+00         0.00000E+00         0.83294E+05
 
   -0.29116E+06         0.69515E+06         0.00000E+00
    0.69515E+06         0.75548E+06         0.00000E+00
    0.00000E+00         0.00000E+00         0.92865E+05
 
   -0.17755E+06         0.69803E+06         0.00000E+00
    0.69803E+06         0.69511E+06         0.00000E+00
    0.00000E+00         0.00000E+00         0.10351E+06
 
   -0.56776E+05         0.68957E+06         0.00000E+00
    0.68957E+06         0.63333E+06         0.00000E+00
    0.00000E+00         0.00000E+00         0.11531E+06
 
    0.70241E+05         0.66849E+06         0.00000E+00
    0.66849E+06         0.57149E+06         0.00000E+00
    0.00000E+00         0.00000E+00         0.12835E+06
 
   -0.18480E+07         0.23248E+05         0.00000E+00
    0.23248E+05         0.10517E+07         0.00000E+00
    0.00000E+00         0.00000E+00        -0.15926E+06
 
   -0.17415E+07         0.57016E+05         0.00000E+00
    0.57016E+05         0.10446E+07         0.00000E+00
    0.00000E+00         0.00000E+00        -0.13939E+06
 
   -0.16398E+07         0.85300E+05         0.00000E+00
    0.85300E+05         0.10320E+07         0.00000E+00
    0.00000E+00         0.00000E+00        -0.12156E+06
 
   -0.15431E+07         0.10825E+06         0.00000E+00
    0.10825E+06         0.10150E+07         0.00000E+00
    0.00000E+00         0.00000E+00        -0.10563E+06
 
   -0.14519E+07         0.12611E+06         0.00000E+00
    0.12611E+06         0.99470E+06         0.00000E+00
    0.00000E+00         0.00000E+00        -0.91443E+05
 
   -0.13665E+07         0.13920E+06         0.00000E+00
    0.13920E+06         0.97228E+06         0.00000E+00
    0.00000E+00         0.00000E+00        -0.78837E+05
 
   -0.12870E+07         0.14794E+06         0.00000E+00
    0.14794E+06         0.94865E+06         0.00000E+00
    0.00000E+00         0.00000E+00        -0.67671E+05
 
   -0.12137E+07         0.15281E+06         0.00000E+00
    0.15281E+06         0.92468E+06         0.00000E+00
    0.00000E+00         0.00000E+00        -0.57807E+05
 
   -0.11467E+07         0.15433E+06         0.00000E+00
    0.15433E+06         0.90112E+06         0.00000E+00
    0.00000E+00         0.00000E+00        -0.49117E+05
 
   -0.10860E+07         0.15305E+06         0.00000E+00
    0.15305E+06         0.87858E+06         0.00000E+00
    0.00000E+00         0.00000E+00        -0.41479E+05
 
   -0.10315E+07         0.14953E+06         0.00000E+00
    0.14953E+06         0.85759E+06         0.00000E+00
    0.00000E+00         0.00000E+00        -0.34782E+05
 
   -0.98313E+06         0.14434E+06         0.00000E+00
    0.14434E+06         0.83852E+06         0.00000E+00
    0.00000E+00         0.00000E+00        -0.28923E+05
 
   -0.94070E+06         0.13803E+06         0.00000E+00
    0.13803E+06         0.82167E+06         0.00000E+00
    0.00000E+00         0.00000E+00        -0.23807E+05
 
   -0.90395E+06         0.13114E+06         0.00000E+00
    0.13114E+06         0.80721E+06         0.00000E+00
    0.00000E+00         0.00000E+00        -0.19349E+05
 
   -0.87259E+06         0.12416E+06         0.00000E+00
    0.12416E+06         0.79524E+06         0.00000E+00
    0.00000E+00         0.00000E+00        -0.15470E+05
 
   -0.84627E+06         0.11757E+06         0.00000E+00
    0.11757E+06         0.78578E+06         0.00000E+00
    0.00000E+00         0.00000E+00        -0.12100E+05
 
   -0.82461E+06         0.11178E+06         0.00000E+00
    0.11178E+06         0.77874E+06         0.00000E+00
    0.00000E+00         0.00000E+00        -0.91737E+04
 
   -0.80719E+06         0.10718E+06         0.00000E+00
    0.10718E+06         0.77402E+06         0.00000E+00
    0.00000E+00         0.00000E+00        -0.66342E+04
 
   -0.79356E+06         0.10409E+06         0.00000E+00
    0.10409E+06         0.77142E+06         0.00000E+00
    0.00000E+00         0.00000E+00        -0.44287E+04
 
   -0.78327E+06         0.10282E+06         0.00000E+00
    0.10282E+06         0.77072E+06         0.00000E+00
    0.00000E+00         0.00000E+00        -0.25098E+04
 
   -0.77583E+06         0.10357E+06         0.00000E+00
    0.10357E+06         0.77165E+06         0.00000E+00
    0.00000E+00         0.00000E+00        -0.83487E+03
 
   -0.77077E+06         0.10656E+06         0.00000E+00
    0.10656E+06         0.77394E+06         0.00000E+00
    0.00000E+00         0.00000E+00         0.63507E+03
 
   -0.76758E+06         0.11190E+06         0.00000E+00
    0.11190E+06         0.77726E+06         0.00000E+00
    0.00000E+00         0.00000E+00         0.19353E+04
 
   -0.76579E+06         0.11970E+06         0.00000E+00
    0.11970E+06         0.78128E+06         0.00000E+00
    0.00000E+00         0.00000E+00         0.30981E+04
 
   -0.76490E+06         0.13000E+06         0.00000E+00
    0.13000E+06         0.78567E+06         0.00000E+00
    0.00000E+00         0.00000E+00         0.41532E+04
 
   -0.76442E+06         0.14280E+06         0.00000E+00
    0.14280E+06         0.79006E+06         0.00000E+00
    0.00000E+00         0.00000E+00         0.51283E+04
 
   -0.76387E+06         0.15806E+06         0.00000E+00
    0.15806E+06         0.79412E+06         0.00000E+00
    0.00000E+00         0.00000E+00         0.60490E+04
 
   -0.76279E+06         0.17567E+06         0.00000E+00
    0.17567E+06         0.79749E+06         0.00000E+00
    0.00000E+00         0.00000E+00         0.69400E+04
 
   -0.76071E+06         0.19552E+06         0.00000E+00
    0.19552E+06         0.79984E+06         0.00000E+00
    0.00000E+00         0.00000E+00         0.78246E+04
 
   -0.75719E+06         0.21742E+06         0.00000E+00
    0.21742E+06         0.80082E+06         0.00000E+00
    0.00000E+00         0.00000E+00         0.87256E+04
 
   -0.75180E+06         0.24116E+06         0.00000E+00
    0.24116E+06         0.80013E+06         0.00000E+00
    0.00000E+00         0.00000E+00         0.96653E+04
 
   -0.74412E+06         0.26648E+06         0.00000E+00
    0.26648E+06         0.79745E+06         0.00000E+00
    0.00000E+00         0.00000E+00         0.10666E+05
 
   -0.73377E+06         0.29306E+06         0.00000E+00
    0.29306E+06         0.79252E+06         0.00000E+00
    0.00000E+00         0.00000E+00         0.11751E+05
 
   -0.72036E+06         0.32057E+06         0.00000E+00
    0.32057E+06         0.78507E+06         0.00000E+00
    0.00000E+00         0.00000E+00         0.12942E+05
 
   -0.70357E+06         0.34861E+06         0.00000E+00
    0.34861E+06         0.77489E+06         0.00000E+00
    0.00000E+00         0.00000E+00         0.14263E+05
 
   -0.68307E+06         0.37674E+06         0.00000E+00
    0.37674E+06         0.76177E+06         0.00000E+00
    0.00000E+00         0.00000E+00         0.15740E+05
 
   -0.65860E+06         0.40449E+06         0.00000E+00
    0.40449E+06         0.74559E+06         0.00000E+00
    0.00000E+00         0.00000E+00         0.17397E+05
 
   -0.62993E+06         0.43134E+06         0.00000E+00
    0.43134E+06         0.72623E+06         0.00000E+00
    0.00000E+00         0.00000E+00         0.19261E+05
 
   -0.59686E+06         0.45671E+06         0.00000E+00
    0.45671E+06         0.70367E+06         0.00000E+00
    0.00000E+00         0.00000E+00         0.21362E+05
 
   -0.55927E+06         0.48001E+06         0.00000E+00
    0.48001E+06         0.67791E+06         0.00000E+00
    0.00000E+00         0.00000E+00         0.23728E+05
 
   -0.51709E+06         0.50059E+06         0.00000E+00
    0.50059E+06         0.64905E+06         0.00000E+00
    0.00000E+00         0.00000E+00         0.26391E+05
 
   -0.47034E+06         0.51778E+06         0.00000E+00
    0.51778E+06         0.61726E+06         0.00000E+00
    0.00000E+00         0.00000E+00         0.29384E+05
 
   -0.41908E+06         0.53088E+06         0.00000E+00
    0.53088E+06         0.58279E+06         0.00000E+00
    0.00000E+00         0.00000E+00         0.32742E+05
 
   -0.36351E+06         0.53917E+06         0.00000E+00
    0.53917E+06         0.54601E+06         0.00000E+00
    0.00000E+00         0.00000E+00         0.36501E+05
 
   -0.30389E+06         0.54190E+06         0.00000E+00
    0.54190E+06         0.50738E+06         0.00000E+00
    0.00000E+00         0.00000E+00         0.40699E+05
 
   -0.24060E+06         0.53834E+06         0.00000E+00
    0.53834E+06         0.46747E+06         0.00000E+00
    0.00000E+00         0.00000E+00         0.45374E+05
 
   -0.17414E+06         0.52776E+06         0.00000E+00
    0.52776E+06         0.42697E+06         0.00000E+00
    0.00000E+00         0.00000E+00         0.50567E+05
 
   -0.10513E+06         0.50943E+06         0.00000E+00
    0.50943E+06         0.38672E+06         0.00000E+00
    0.00000E+00         0.00000E+00         0.56318E+05
 
   -0.34332E+05         0.48270E+06         0.00000E+00
    0.48270E+06         0.34768E+06         0.00000E+00
    0.00000E+00         0.00000E+00         0.62670E+05
 
    0.37368E+05         0.44694E+06         0.00000E+00
    0.44694E+06         0.31094E+06         0.00000E+00
    0.00000E+00         0.00000E+00         0.69662E+05
 
   -0.16641E+07         0.25494E+05         0.00000E+00
    0.25494E+05         0.10352E+07         0.00000E+00
    0.00000E+00         0.00000E+00        -0.12577E+06
 
   -0.15801E+07         0.66651E+05         0.00000E+00
    0.66651E+05         0.10292E+07         0.00000E+00
    0.00000E+00         0.00000E+00        -0.11019E+06
 
   -0.14993E+07         0.10360E+06         0.00000E+00
    0.10360E+06         0.10180E+07         0.00000E+00
    0.00000E+00         0.00000E+00        -0.96255E+05
 
   -0.14217E+07         0.13639E+06         0.00000E+00
    0.13639E+06         0.10026E+07         0.00000E+00
    0.00000E+00         0.00000E+00        -0.83830E+05
 
   -0.13476E+07         0.16514E+06         0.00000E+00
    0.16514E+06         0.98371E+06         0.00000E+00
    0.00000E+00         0.00000E+00        -0.72787E+05
 
   -0.12772E+07         0.19003E+06         0.00000E+00
    0.19003E+06         0.96218E+06         0.00000E+00
    0.00000E+00         0.00000E+00        -0.63005E+05
 
   -0.12106E+07         0.21128E+06         0.00000E+00
    0.21128E+06         0.93874E+06         0.00000E+00
    0.00000E+00         0.00000E+00        -0.54364E+05
 
   -0.11478E+07         0.22915E+06         0.00000E+00
    0.22915E+06         0.91404E+06         0.00000E+00
    0.00000E+00         0.00000E+00        -0.46751E+05
 
   -0.10890E+07         0.24393E+06         0.00000E+00
    0.24393E+06         0.88868E+06         0.00000E+00
    0.00000E+00         0.00000E+00        -0.40060E+05
 
   -0.10342E+07         0.25594E+06         0.00000E+00
    0.25594E+06         0.86321E+06         0.00000E+00
    0.00000E+00         0.00000E+00        -0.34194E+05
 
   -0.98339E+06         0.26554E+06         0.00000E+00
    0.26554E+06         0.83808E+06         0.00000E+00
    0.00000E+00         0.00000E+00        -0.29061E+05
 
   -0.93656E+06         0.27308E+06         0.00000E+00
    0.27308E+06         0.81367E+06         0.00000E+00
    0.00000E+00         0.00000E+00        -0.24578E+05
 
   -0.89362E+06         0.27890E+06         0.00000E+00
    0.27890E+06         0.79028E+06         0.00000E+00
    0.00000E+00         0.00000E+00        -0.20669E+05
 
   -0.85447E+06         0.28338E+06         0.00000E+00
    0.28338E+06         0.76814E+06         0.00000E+00
    0.00000E+00         0.00000E+00        -0.17265E+05
 
   -0.81894E+06         0.28685E+06         0.00000E+00
    0.28685E+06         0.74742E+06         0.00000E+00
    0.00000E+00         0.00000E+00        -0.14304E+05
 
   -0.78687E+06         0.28964E+06         0.00000E+00
    0.28964E+06         0.72822E+06         0.00000E+00
    0.00000E+00         0.00000E+00        -0.11730E+05
 
   -0.75805E+06         0.29206E+06         0.00000E+00
    0.29206E+06         0.71059E+06         0.00000E+00
    0.00000E+00         0.00000E+00        -0.94926E+04
 
   -0.73224E+06         0.29441E+06         0.00000E+00
    0.29441E+06         0.69450E+06         0.00000E+00
    0.00000E+00         0.00000E+00        -0.75476E+04
 
   -0.70918E+06         0.29693E+06         0.00000E+00
    0.29693E+06         0.67990E+06         0.00000E+00
    0.00000E+00         0.00000E+00        -0.58550E+04
 
   -0.68859E+06         0.29986E+06         0.00000E+00
    0.29986E+06         0.66670E+06         0.00000E+00
    0.00000E+00         0.00000E+00        -0.43793E+04
 
   -0.67019E+06         0.30339E+06         0.00000E+00
    0.30339E+06         0.65475E+06         0.00000E+00
    0.00000E+00         0.00000E+00        -0.30889E+04
 
   -0.65367E+06         0.30768E+06         0.00000E+00
    0.30768E+06         0.64390E+06         0.00000E+00
    0.00000E+00         0.00000E+00        -0.19553E+04
 
   -0.63871E+06         0.31288E+06         0.00000E+00
    0.31288E+06         0.63395E+06         0.00000E+00
    0.00000E+00         0.00000E+00        -0.95358E+03
 
   -0.62500E+06         0.31905E+06         0.00000E+00
    0.31905E+06         0.62470E+06         0.00000E+00
    0.00000E+00         0.00000E+00        -0.60938E+02
 
   -0.61221E+06         0.32627E+06         0.00000E+00
    0.32627E+06         0.61593E+06         0.00000E+00
    0.00000E+00         0.00000E+00         0.74293E+03
 
   -0.60002E+06         0.33454E+06         0.00000E+00
    0.33454E+06         0.60741E+06         0.00000E+00
    0.00000E+00         0.00000E+00         0.14764E+04
 
   -0.58812E+06         0.34386E+06         0.00000E+00
    0.34386E+06         0.59890E+06         0.00000E+00
    0.00000E+00         0.00000E+00         0.21564E+04
 
   -0.57619E+06         0.35416E+06         0.00000E+00
    0.35416E+06         0.59019E+06         0.00000E+00
    0.00000E+00         0.00000E+00         0.27981E+04
 
   -0.56394E+06         0.36537E+06         0.00000E+00
    0.36537E+06         0.58102E+06         0.00000E+00
    0.00000E+00         0.00000E+00         0.34160E+04
 
   -0.55108E+06         0.37734E+06         0.00000E+00
    0.37734E+06         0.57119E+06         0.00000E+00
    0.00000E+00         0.00000E+00         0.40234E+04
 
   -0.53733E+06         0.38993E+06         0.00000E+00
    0.38993E+06         0.56049E+06         0.00000E+00
    0.00000E+00         0.00000E+00         0.46331E+04
 
   -0.52244E+06         0.40293E+06         0.00000E+00
    0.40293E+06         0.54872E+06         0.00000E+00
    0.00000E+00         0.00000E+00         0.52572E+04
 
   -0.50618E+06         0.41613E+06         0.00000E+00
    0.41613E+06         0.53572E+06         0.00000E+00
    0.00000E+00         0.00000E+00         0.59076E+04
 
   -0.48835E+06         0.42925E+06         0.00000E+00
    0.42925E+06         0.52133E+06         0.00000E+00
    0.00000E+00         0.00000E+00         0.65959E+04
 
   -0.46878E+06         0.44201E+06         0.00000E+00
    0.44201E+06         0.50545E+06         0.00000E+00
    0.00000E+00         0.00000E+00         0.73337E+04
 
   -0.44731E+06         0.45409E+06         0.00000E+00
    0.45409E+06         0.48797E+06         0.00000E+00
    0.00000E+00         0.00000E+00         0.81327E+04
 
   -0.42385E+06         0.46514E+06         0.00000E+00
    0.46514E+06         0.46887E+06         0.00000E+00
    0.00000E+00         0.00000E+00         0.90046E+04
 
   -0.39832E+06         0.47479E+06         0.00000E+00
    0.47479E+06         0.44813E+06         0.00000E+00
    0.00000E+00         0.00000E+00         0.99614E+04
 
   -0.37071E+06         0.48265E+06         0.00000E+00
    0.48265E+06         0.42579E+06         0.00000E+00
    0.00000E+00         0.00000E+00         0.11016E+05
 
   -0.34105E+06         0.48831E+06         0.00000E+00
    0.48831E+06         0.40195E+06         0.00000E+00
    0.00000E+00         0.00000E+00         0.12180E+05
 
   -0.30942E+06         0.49133E+06         0.00000E+00
    0.49133E+06         0.37676E+06         0.00000E+00
    0.00000E+00         0.00000E+00         0.13467E+05
 
   -0.27597E+06         0.49130E+06         0.00000E+00
    0.49130E+06         0.35043E+06         0.00000E+00
    0.00000E+00         0.00000E+00         0.14892E+05
 
   -0.24090E+06         0.48776E+06         0.00000E+00
    0.48776E+06         0.32324E+06         0.00000E+00
    0.00000E+00         0.00000E+00         0.16468E+05
 
   -0.20448E+06         0.48029E+06         0.00000E+00
    0.48029E+06         0.29552E+06         0.00000E+00
    0.00000E+00         0.00000E+00         0.18209E+05
 
   -0.16705E+06         0.46848E+06         0.00000E+00
    0.46848E+06         0.26771E+06         0.00000E+00
    0.00000E+00         0.00000E+00         0.20132E+05
 
   -0.12904E+06         0.45191E+06         0.00000E+00
    0.45191E+06         0.24029E+06         0.00000E+00
    0.00000E+00         0.00000E+00         0.22251E+05
 
   -0.90929E+05         0.43022E+06         0.00000E+00
    0.43022E+06         0.21384E+06         0.00000E+00
    0.00000E+00         0.00000E+00         0.24583E+05
 
   -0.53297E+05         0.40307E+06         0.00000E+00
    0.40307E+06         0.18902E+06         0.00000E+00
    0.00000E+00         0.00000E+00         0.27144E+05
 
   -0.16792E+05         0.37018E+06         0.00000E+00
    0.37018E+06         0.16654E+06         0.00000E+00
    0.00000E+00         0.00000E+00         0.29950E+05
 
    0.17858E+05         0.33133E+06         0.00000E+00
    0.33133E+06         0.14724E+06         0.00000E+00
    0.00000E+00         0.00000E+00         0.33020E+05
 
   -0.14828E+07         0.26539E+05         0.00000E+00
    0.26539E+05         0.99067E+06         0.00000E+00
    0.00000E+00         0.00000E+00        -0.98427E+05
 
   -0.14166E+07         0.71563E+05         0.00000E+00
    0.71563E+05         0.98534E+06         0.00000E+00
    0.00000E+00         0.00000E+00        -0.86261E+05
 
   -0.13523E+07         0.11314E+06         0.00000E+00
    0.11314E+06         0.97540E+06         0.00000E+00
    0.00000E+00         0.00000E+00        -0.75383E+05
 
   -0.12899E+07         0.15132E+06         0.00000E+00
    0.15132E+06         0.96147E+06         0.00000E+00
    0.00000E+00         0.00000E+00        -0.65695E+05
 
   -0.12297E+07         0.18616E+06         0.00000E+00
    0.18616E+06         0.94418E+06         0.00000E+00
    0.00000E+00         0.00000E+00        -0.57094E+05
 
   -0.11715E+07         0.21775E+06         0.00000E+00
    0.21775E+06         0.92412E+06         0.00000E+00
    0.00000E+00         0.00000E+00        -0.49483E+05
 
   -0.11157E+07         0.24622E+06         0.00000E+00
    0.24622E+06         0.90183E+06         0.00000E+00
    0.00000E+00         0.00000E+00        -0.42770E+05
 
   -0.10622E+07         0.27173E+06         0.00000E+00
    0.27173E+06         0.87785E+06         0.00000E+00
    0.00000E+00         0.00000E+00        -0.36864E+05
 
   -0.10111E+07         0.29445E+06         0.00000E+00
    0.29445E+06         0.85266E+06         0.00000E+00
    0.00000E+00         0.00000E+00        -0.31682E+05
 
   -0.96242E+06         0.31457E+06         0.00000E+00
    0.31457E+06         0.82669E+06         0.00000E+00
    0.00000E+00         0.00000E+00        -0.27146E+05
 
   -0.91624E+06         0.33231E+06         0.00000E+00
    0.33231E+06         0.80032E+06         0.00000E+00
    0.00000E+00         0.00000E+00        -0.23184E+05
 
   -0.87253E+06         0.34788E+06         0.00000E+00
    0.34788E+06         0.77389E+06         0.00000E+00
    0.00000E+00         0.00000E+00        -0.19729E+05
 
   -0.83128E+06         0.36152E+06         0.00000E+00
    0.36152E+06         0.74767E+06         0.00000E+00
    0.00000E+00         0.00000E+00        -0.16721E+05
 
   -0.79243E+06         0.37345E+06         0.00000E+00
    0.37345E+06         0.72191E+06         0.00000E+00
    0.00000E+00         0.00000E+00        -0.14106E+05
 
   -0.75594E+06         0.38389E+06         0.00000E+00
    0.38389E+06         0.69677E+06         0.00000E+00
    0.00000E+00         0.00000E+00        -0.11834E+05
 
   -0.72171E+06         0.39308E+06         0.00000E+00
    0.39308E+06         0.67240E+06         0.00000E+00
    0.00000E+00         0.00000E+00        -0.98612E+04
 
   -0.68964E+06         0.40123E+06         0.00000E+00
    0.40123E+06         0.64889E+06         0.00000E+00
    0.00000E+00         0.00000E+00        -0.81489E+04
 
   -0.65961E+06         0.40852E+06         0.00000E+00
    0.40852E+06         0.62630E+06         0.00000E+00
    0.00000E+00         0.00000E+00        -0.66620E+04
 
   -0.63149E+06         0.41516E+06         0.00000E+00
    0.41516E+06         0.60464E+06         0.00000E+00
    0.00000E+00         0.00000E+00        -0.53698E+04
 
   -0.60513E+06         0.42130E+06         0.00000E+00
    0.42130E+06         0.58390E+06         0.00000E+00
    0.00000E+00         0.00000E+00        -0.42452E+04
 
   -0.58035E+06         0.42710E+06         0.00000E+00
    0.42710E+06         0.56403E+06         0.00000E+00
    0.00000E+00         0.00000E+00        -0.32642E+04
 
   -0.55700E+06         0.43267E+06         0.00000E+00
    0.43267E+06         0.54497E+06         0.00000E+00
    0.00000E+00         0.00000E+00        -0.24059E+04
 
   -0.53489E+06         0.43812E+06         0.00000E+00
    0.43812E+06         0.52663E+06         0.00000E+00
    0.00000E+00         0.00000E+00        -0.16518E+04
 
   -0.51383E+06         0.44353E+06         0.00000E+00
    0.44353E+06         0.50890E+06         0.00000E+00
    0.00000E+00         0.00000E+00        -0.98574E+03
 
   -0.49364E+06         0.44894E+06         0.00000E+00
    0.44894E+06         0.49168E+06         0.00000E+00
    0.00000E+00         0.00000E+00        -0.39355E+03
 
   -0.47414E+06         0.45439E+06         0.00000E+00
    0.45439E+06         0.47482E+06         0.00000E+00
    0.00000E+00         0.00000E+00         0.13722E+03
 
   -0.45513E+06         0.45988E+06         0.00000E+00
    0.45988E+06         0.45822E+06         0.00000E+00
    0.00000E+00         0.00000E+00         0.61752E+03
 
   -0.43644E+06         0.46537E+06         0.00000E+00
    0.46537E+06         0.44172E+06         0.00000E+00
    0.00000E+00         0.00000E+00         0.10570E+04
 
   -0.41790E+06         0.47082E+06         0.00000E+00
    0.47082E+06         0.42522E+06         0.00000E+00
    0.00000E+00         0.00000E+00         0.14642E+04
 
   -0.39935E+06         0.47615E+06         0.00000E+00
    0.47615E+06         0.40858E+06         0.00000E+00
    0.00000E+00         0.00000E+00         0.18466E+04
 
   -0.38064E+06         0.48126E+06         0.00000E+00
    0.48126E+06         0.39170E+06         0.00000E+00
    0.00000E+00         0.00000E+00         0.22111E+04
 
   -0.36166E+06         0.48602E+06         0.00000E+00
    0.48602E+06         0.37447E+06         0.00000E+00
    0.00000E+00         0.00000E+00         0.25634E+04
 
   -0.34227E+06         0.49029E+06         0.00000E+00
    0.49029E+06         0.35682E+06         0.00000E+00
    0.00000E+00         0.00000E+00         0.29092E+04
 
   -0.32241E+06         0.49389E+06         0.00000E+00
    0.49389E+06         0.33868E+06         0.00000E+00
    0.00000E+00         0.00000E+00         0.32531E+04
 
   -0.30201E+06         0.49664E+06         0.00000E+00
    0.49664E+06         0.32000E+06         0.00000E+00
    0.00000E+00         0.00000E+00         0.35995E+04
 
   -0.28102E+06         0.49833E+06         0.00000E+00
    0.49833E+06         0.30078E+06         0.00000E+00
    0.00000E+00         0.00000E+00         0.39525E+04
 
   -0.25945E+06         0.49874E+06         0.00000E+00
    0.49874E+06         0.28103E+06         0.00000E+00
    0.00000E+00         0.00000E+00         0.43156E+04
 
   -0.23733E+06         0.49765E+06         0.00000E+00
    0.49765E+06         0.26079E+06         0.00000E+00
    0.00000E+00         0.00000E+00         0.46922E+04
 
   -0.21472E+06         0.49481E+06         0.00000E+00
    0.49481E+06         0.24014E+06         0.00000E+00
    0.00000E+00         0.00000E+00         0.50851E+04
 
   -0.19172E+06         0.48998E+06         0.00000E+00
    0.48998E+06         0.21920E+06         0.00000E+00
    0.00000E+00         0.00000E+00         0.54973E+04
 
   -0.16846E+06         0.48291E+06         0.00000E+00
    0.48291E+06         0.19812E+06         0.00000E+00
    0.00000E+00         0.00000E+00         0.59311E+04
 
   -0.14515E+06         0.47336E+06         0.00000E+00
    0.47336E+06         0.17710E+06         0.00000E+00
    0.00000E+00         0.00000E+00         0.63889E+04
 
   -0.12201E+06         0.46109E+06         0.00000E+00
    0.46109E+06         0.15637E+06         0.00000E+00
    0.00000E+00         0.00000E+00         0.68728E+04
 
   -0.99300E+05         0.44588E+06         0.00000E+00
    0.44588E+06         0.13622E+06         0.00000E+00
    0.00000E+00         0.00000E+00         0.73847E+04
 
   -0.77356E+05         0.42754E+06         0.00000E+00
    0.42754E+06         0.11699E+06         0.00000E+00
    0.00000E+00         0.00000E+00         0.79264E+04
 
   -0.56540E+05         0.40588E+06         0.00000E+00
    0.40588E+06         0.99038E+05         0.00000E+00
    0.00000E+00         0.00000E+00         0.84996E+04
 
   -0.37268E+05         0.38076E+06         0.00000E+00
    0.38076E+06         0.82797E+05         0.00000E+00
    0.00000E+00         0.00000E+00         0.91059E+04
 
   -0.19997E+05         0.35208E+06         0.00000E+00
    0.35208E+06         0.68731E+05         0.00000E+00
    0.00000E+00         0.00000E+00         0.97468E+04
 
   -0.52320E+04         0.31977E+06         0.00000E+00
    0.31977E+06         0.57353E+05         0.00000E+00
    0.00000E+00         0.00000E+00         0.10424E+05
 
    0.64831E+04         0.28384E+06         0.00000E+00
    0.28384E+06         0.49217E+05         0.00000E+00
    0.00000E+00         0.00000E+00         0.11140E+05
 
   -0.13081E+07         0.26382E+05         0.00000E+00
    0.26382E+05         0.92906E+06         0.00000E+00
    0.00000E+00         0.00000E+00        -0.75809E+05
 
   -0.12566E+07         0.72449E+05         0.00000E+00
    0.72449E+05         0.92435E+06         0.00000E+00
    0.00000E+00         0.00000E+00        -0.66456E+05
 
   -0.12059E+07         0.11565E+06         0.00000E+00
    0.11565E+06         0.91548E+06         0.00000E+00
    0.00000E+00         0.00000E+00        -0.58092E+05
 
   -0.11562E+07         0.15598E+06         0.00000E+00
    0.15598E+06         0.90296E+06         0.00000E+00
    0.00000E+00         0.00000E+00        -0.50642E+05
 
   -0.11074E+07         0.19349E+06         0.00000E+00
    0.19349E+06         0.88727E+06         0.00000E+00
    0.00000E+00         0.00000E+00        -0.44029E+05
 
   -0.10598E+07         0.22823E+06         0.00000E+00
    0.22823E+06         0.86886E+06         0.00000E+00
    0.00000E+00         0.00000E+00        -0.38179E+05
 
   -0.10133E+07         0.26027E+06         0.00000E+00
    0.26027E+06         0.84818E+06         0.00000E+00
    0.00000E+00         0.00000E+00        -0.33020E+05
 
   -0.96805E+06         0.28969E+06         0.00000E+00
    0.28969E+06         0.82563E+06         0.00000E+00
    0.00000E+00         0.00000E+00        -0.28483E+05
 
   -0.92413E+06         0.31659E+06         0.00000E+00
    0.31659E+06         0.80161E+06         0.00000E+00
    0.00000E+00         0.00000E+00        -0.24505E+05
 
   -0.88158E+06         0.34111E+06         0.00000E+00
    0.34111E+06         0.77646E+06         0.00000E+00
    0.00000E+00         0.00000E+00        -0.21025E+05
 
   -0.84044E+06         0.36336E+06         0.00000E+00
    0.36336E+06         0.75050E+06         0.00000E+00
    0.00000E+00         0.00000E+00        -0.17988E+05
 
   -0.80073E+06         0.38348E+06         0.00000E+00
    0.38348E+06         0.72401E+06         0.00000E+00
    0.00000E+00         0.00000E+00        -0.15342E+05
 
   -0.76246E+06         0.40162E+06         0.00000E+00
    0.40162E+06         0.69725E+06         0.00000E+00
    0.00000E+00         0.00000E+00        -0.13042E+05
 
   -0.72564E+06         0.41792E+06         0.00000E+00
    0.41792E+06         0.67043E+06         0.00000E+00
    0.00000E+00         0.00000E+00        -0.11044E+05
 
   -0.69026E+06         0.43252E+06         0.00000E+00
    0.43252E+06         0.64371E+06         0.00000E+00
    0.00000E+00         0.00000E+00        -0.93105E+04
 
   -0.65630E+06         0.44559E+06         0.00000E+00
    0.44559E+06         0.61726E+06         0.00000E+00
    0.00000E+00         0.00000E+00        -0.78082E+04
 
   -0.62371E+06         0.45725E+06         0.00000E+00
    0.45725E+06         0.59118E+06         0.00000E+00
    0.00000E+00         0.00000E+00        -0.65066E+04
 
   -0.59245E+06         0.46764E+06         0.00000E+00
    0.46764E+06         0.56556E+06         0.00000E+00
    0.00000E+00         0.00000E+00        -0.53789E+04
 
   -0.56247E+06         0.47689E+06         0.00000E+00
    0.47689E+06         0.54046E+06         0.00000E+00
    0.00000E+00         0.00000E+00        -0.44017E+04
 
   -0.53370E+06         0.48512E+06         0.00000E+00
    0.48512E+06         0.51593E+06         0.00000E+00
    0.00000E+00         0.00000E+00        -0.35543E+04
 
   -0.50606E+06         0.49243E+06         0.00000E+00
    0.49243E+06         0.49196E+06         0.00000E+00
    0.00000E+00         0.00000E+00        -0.28186E+04
 
   -0.47947E+06         0.49891E+06         0.00000E+00
    0.49891E+06         0.46857E+06         0.00000E+00
    0.00000E+00         0.00000E+00        -0.21791E+04
 
   -0.45384E+06         0.50465E+06         0.00000E+00
    0.50465E+06         0.44573E+06         0.00000E+00
    0.00000E+00         0.00000E+00        -0.16222E+04
 
   -0.42910E+06         0.50970E+06         0.00000E+00
    0.50970E+06         0.42342E+06         0.00000E+00
    0.00000E+00         0.00000E+00        -0.11363E+04
 
   -0.40514E+06         0.51411E+06         0.00000E+00
    0.51411E+06         0.40158E+06         0.00000E+00
    0.00000E+00         0.00000E+00        -0.71124E+03
 
   -0.38188E+06         0.51790E+06         0.00000E+00
    0.51790E+06         0.38019E+06         0.00000E+00
    0.00000E+00         0.00000E+00        -0.33864E+03
 
   -0.35923E+06         0.52110E+06         0.00000E+00
    0.52110E+06         0.35917E+06         0.00000E+00
    0.00000E+00         0.00000E+00        -0.11264E+02
 
   -0.33711E+06         0.52370E+06         0.00000E+00
    0.52370E+06         0.33849E+06         0.00000E+00
    0.00000E+00         0.00000E+00         0.27692E+03
 
   -0.31544E+06         0.52567E+06         0.00000E+00
    0.52567E+06         0.31809E+06         0.00000E+00
    0.00000E+00         0.00000E+00         0.53090E+03
 
   -0.29415E+06         0.52698E+06         0.00000E+00
    0.52698E+06         0.29792E+06         0.00000E+00
    0.00000E+00         0.00000E+00         0.75473E+03
 
   -0.27319E+06         0.52758E+06         0.00000E+00
    0.52758E+06         0.27794E+06         0.00000E+00
    0.00000E+00         0.00000E+00         0.95164E+03
 
   -0.25251E+06         0.52741E+06         0.00000E+00
    0.52741E+06         0.25813E+06         0.00000E+00
    0.00000E+00         0.00000E+00         0.11241E+04
 
   -0.23208E+06         0.52637E+06         0.00000E+00
    0.52637E+06         0.23845E+06         0.00000E+00
    0.00000E+00         0.00000E+00         0.12737E+04
 
   -0.21189E+06         0.52438E+06         0.00000E+00
    0.52438E+06         0.21890E+06         0.00000E+00
    0.00000E+00         0.00000E+00         0.14017E+04
 
   -0.19195E+06         0.52134E+06         0.00000E+00
    0.52134E+06         0.19949E+06         0.00000E+00
    0.00000E+00         0.00000E+00         0.15083E+04
 
   -0.17228E+06         0.51713E+06         0.00000E+00
    0.51713E+06         0.18025E+06         0.00000E+00
    0.00000E+00         0.00000E+00         0.15935E+04
 
   -0.15293E+06         0.51164E+06         0.00000E+00
    0.51164E+06         0.16121E+06         0.00000E+00
    0.00000E+00         0.00000E+00         0.16564E+04
 
   -0.13397E+06         0.50475E+06         0.00000E+00
    0.50475E+06         0.14245E+06         0.00000E+00
    0.00000E+00         0.00000E+00         0.16956E+04
 
   -0.11550E+06         0.49634E+06         0.00000E+00
    0.49634E+06         0.12405E+06         0.00000E+00
    0.00000E+00         0.00000E+00         0.17092E+04
 
   -0.97643E+05         0.48627E+06         0.00000E+00
    0.48627E+06         0.10612E+06         0.00000E+00
    0.00000E+00         0.00000E+00         0.16946E+04
 
   -0.80548E+05         0.47444E+06         0.00000E+00
    0.47444E+06         0.88792E+05         0.00000E+00
    0.00000E+00         0.00000E+00         0.16487E+04
 
   -0.64396E+05         0.46075E+06         0.00000E+00
    0.46075E+06         0.72234E+05         0.00000E+00
    0.00000E+00         0.00000E+00         0.15677E+04
 
   -0.49393E+05         0.44508E+06         0.00000E+00
    0.44508E+06         0.56630E+05         0.00000E+00
    0.00000E+00         0.00000E+00         0.14473E+04
 
   -0.35776E+05         0.42736E+06         0.00000E+00
    0.42736E+06         0.42190E+05         0.00000E+00
    0.00000E+00         0.00000E+00         0.12828E+04
 
   -0.23808E+05         0.40754E+06         0.00000E+00
    0.40754E+06         0.29152E+05         0.00000E+00
    0.00000E+00         0.00000E+00         0.10688E+04
 
   -0.13782E+05         0.38556E+06         0.00000E+00
    0.38556E+06         0.17780E+05         0.00000E+00
    0.00000E+00         0.00000E+00         0.79974E+03
 
   -0.60138E+04         0.36142E+06         0.00000E+00
    0.36142E+06         0.83614E+04         0.00000E+00
    0.00000E+00         0.00000E+00         0.46951E+03
 
   -0.84663E+03         0.33515E+06         0.00000E+00
    0.33515E+06         0.12063E+04         0.00000E+00
    0.00000E+00         0.00000E+00         0.71934E+02
 
    0.13561E+04         0.30679E+06         0.00000E+00
    0.30679E+06        -0.33527E+04         0.00000E+00
    0.00000E+00         0.00000E+00        -0.39931E+03
 
    0.21151E+03         0.27645E+06         0.00000E+00
    0.27645E+06        -0.49632E+04         0.00000E+00
    0.00000E+00         0.00000E+00        -0.95035E+03
 
   -0.11442E+07         0.25219E+05         0.00000E+00
    0.25219E+05         0.85844E+06         0.00000E+00
    0.00000E+00         0.00000E+00        -0.57149E+05
 
   -0.11049E+07         0.70151E+05         0.00000E+00
    0.70151E+05         0.85428E+06         0.00000E+00
    0.00000E+00         0.00000E+00        -0.50120E+05
 
   -0.10656E+07         0.11270E+06         0.00000E+00
    0.11270E+06         0.84643E+06         0.00000E+00
    0.00000E+00         0.00000E+00        -0.43830E+05
 
   -0.10264E+07         0.15285E+06         0.00000E+00
    0.15285E+06         0.83529E+06         0.00000E+00
    0.00000E+00         0.00000E+00        -0.38224E+05
 
   -0.98745E+06         0.19060E+06         0.00000E+00
    0.19060E+06         0.82122E+06         0.00000E+00
    0.00000E+00         0.00000E+00        -0.33245E+05
 
   -0.94880E+06         0.22598E+06         0.00000E+00
    0.22598E+06         0.80460E+06         0.00000E+00
    0.00000E+00         0.00000E+00        -0.28838E+05
 
   -0.91054E+06         0.25902E+06         0.00000E+00
    0.25902E+06         0.78578E+06         0.00000E+00
    0.00000E+00         0.00000E+00        -0.24951E+05
 
   -0.87275E+06         0.28977E+06         0.00000E+00
    0.28977E+06         0.76509E+06         0.00000E+00
    0.00000E+00         0.00000E+00        -0.21532E+05
 
   -0.83551E+06         0.31827E+06         0.00000E+00
    0.31827E+06         0.74284E+06         0.00000E+00
    0.00000E+00         0.00000E+00        -0.18533E+05
 
   -0.79887E+06         0.34460E+06         0.00000E+00
    0.34460E+06         0.71932E+06         0.00000E+00
    0.00000E+00         0.00000E+00        -0.15910E+05
 
   -0.76289E+06         0.36884E+06         0.00000E+00
    0.36884E+06         0.69478E+06         0.00000E+00
    0.00000E+00         0.00000E+00        -0.13622E+05
 
   -0.72762E+06         0.39106E+06         0.00000E+00
    0.39106E+06         0.66947E+06         0.00000E+00
    0.00000E+00         0.00000E+00        -0.11629E+05
 
   -0.69309E+06         0.41136E+06         0.00000E+00
    0.41136E+06         0.64361E+06         0.00000E+00
    0.00000E+00         0.00000E+00        -0.98963E+04
 
   -0.65934E+06         0.42983E+06         0.00000E+00
    0.42983E+06         0.61738E+06         0.00000E+00
    0.00000E+00         0.00000E+00        -0.83933E+04
 
   -0.62640E+06         0.44656E+06         0.00000E+00
    0.44656E+06         0.59094E+06         0.00000E+00
    0.00000E+00         0.00000E+00        -0.70909E+04
 
   -0.59427E+06         0.46164E+06         0.00000E+00
    0.46164E+06         0.56445E+06         0.00000E+00
    0.00000E+00         0.00000E+00        -0.59636E+04
 
   -0.56297E+06         0.47518E+06         0.00000E+00
    0.47518E+06         0.53802E+06         0.00000E+00
    0.00000E+00         0.00000E+00        -0.49887E+04
 
   -0.53249E+06         0.48725E+06         0.00000E+00
    0.48725E+06         0.51176E+06         0.00000E+00
    0.00000E+00         0.00000E+00        -0.41463E+04
 
   -0.50283E+06         0.49796E+06         0.00000E+00
    0.49796E+06         0.48574E+06         0.00000E+00
    0.00000E+00         0.00000E+00        -0.34185E+04
 
   -0.47399E+06         0.50738E+06         0.00000E+00
    0.50738E+06         0.46004E+06         0.00000E+00
    0.00000E+00         0.00000E+00        -0.27902E+04
 
   -0.44593E+06         0.51558E+06         0.00000E+00
    0.51558E+06         0.43469E+06         0.00000E+00
    0.00000E+00         0.00000E+00        -0.22479E+04
 
   -0.41865E+06         0.52263E+06         0.00000E+00
    0.52263E+06         0.40975E+06         0.00000E+00
    0.00000E+00         0.00000E+00        -0.17800E+04
 
   -0.39212E+06         0.52860E+06         0.00000E+00
    0.52860E+06         0.38524E+06         0.00000E+00
    0.00000E+00         0.00000E+00        -0.13767E+04
 
   -0.36631E+06         0.53354E+06         0.00000E+00
    0.53354E+06         0.36116E+06         0.00000E+00
    0.00000E+00         0.00000E+00        -0.10296E+04
 
   -0.34120E+06         0.53748E+06         0.00000E+00
    0.53748E+06         0.33754E+06         0.00000E+00
    0.00000E+00         0.00000E+00        -0.73172E+03
 
   -0.31676E+06         0.54045E+06         0.00000E+00
    0.54045E+06         0.31437E+06         0.00000E+00
    0.00000E+00         0.00000E+00        -0.47712E+03
 
   -0.29297E+06         0.54249E+06         0.00000E+00
    0.54249E+06         0.29167E+06         0.00000E+00
    0.00000E+00         0.00000E+00        -0.26109E+03
 
   -0.26981E+06         0.54360E+06         0.00000E+00
    0.54360E+06         0.26941E+06         0.00000E+00
    0.00000E+00         0.00000E+00        -0.79842E+02
 
   -0.24726E+06         0.54379E+06         0.00000E+00
    0.54379E+06         0.24761E+06         0.00000E+00
    0.00000E+00         0.00000E+00         0.69488E+02
 
   -0.22532E+06         0.54304E+06         0.00000E+00
    0.54304E+06         0.22626E+06         0.00000E+00
    0.00000E+00         0.00000E+00         0.18896E+03
 
   -0.20398E+06         0.54135E+06         0.00000E+00
    0.54135E+06         0.20538E+06         0.00000E+00
    0.00000E+00         0.00000E+00         0.27985E+03
 
   -0.18325E+06         0.53870E+06         0.00000E+00
    0.53870E+06         0.18496E+06         0.00000E+00
    0.00000E+00         0.00000E+00         0.34272E+03
 
   -0.16315E+06         0.53504E+06         0.00000E+00
    0.53504E+06         0.16503E+06         0.00000E+00
    0.00000E+00         0.00000E+00         0.37744E+03
 
   -0.14370E+06         0.53035E+06         0.00000E+00
    0.53035E+06         0.14562E+06         0.00000E+00
    0.00000E+00         0.00000E+00         0.38321E+03
 
   -0.12495E+06         0.52459E+06         0.00000E+00
    0.52459E+06         0.12674E+06         0.00000E+00
    0.00000E+00         0.00000E+00         0.35856E+03
 
   -0.10696E+06         0.51772E+06         0.00000E+00
    0.51772E+06         0.10846E+06         0.00000E+00
    0.00000E+00         0.00000E+00         0.30136E+03
 
   -0.89784E+05         0.50968E+06         0.00000E+00
    0.50968E+06         0.90829E+05         0.00000E+00
    0.00000E+00         0.00000E+00         0.20883E+03
 
   -0.73522E+05         0.50045E+06         0.00000E+00
    0.50045E+06         0.73909E+05         0.00000E+00
    0.00000E+00         0.00000E+00         0.77506E+02
 
   -0.58270E+05         0.48997E+06         0.00000E+00
    0.48997E+06         0.57786E+05         0.00000E+00
    0.00000E+00         0.00000E+00        -0.96760E+02
 
   -0.44147E+05         0.47821E+06         0.00000E+00
    0.47821E+06         0.42553E+05         0.00000E+00
    0.00000E+00         0.00000E+00        -0.31880E+03
 
   -0.31290E+05         0.46514E+06         0.00000E+00
    0.46514E+06         0.28319E+05         0.00000E+00
    0.00000E+00         0.00000E+00        -0.59415E+03
 
   -0.19850E+05         0.45073E+06         0.00000E+00
    0.45073E+06         0.15204E+05         0.00000E+00
    0.00000E+00         0.00000E+00        -0.92902E+03
 
   -0.99964E+04         0.43498E+06         0.00000E+00
    0.43498E+06         0.33447E+04         0.00000E+00
    0.00000E+00         0.00000E+00        -0.13303E+04
 
   -0.19159E+04         0.41790E+06         0.00000E+00
    0.41790E+06        -0.71122E+04         0.00000E+00
    0.00000E+00         0.00000E+00        -0.18056E+04
 
    0.41906E+04         0.39949E+06         0.00000E+00
    0.39949E+06        -0.16006E+05         0.00000E+00
    0.00000E+00         0.00000E+00        -0.23630E+04
 
    0.81075E+04         0.37981E+06         0.00000E+00
    0.37981E+06        -0.23164E+05         0.00000E+00
    0.00000E+00         0.00000E+00        -0.30113E+04
 
    0.96063E+04         0.35890E+06         0.00000E+00
    0.35890E+06        -0.28403E+05         0.00000E+00
    0.00000E+00         0.00000E+00        -0.37593E+04
 
    0.84471E+04         0.33686E+06         0.00000E+00
    0.33686E+06        -0.31530E+05         0.00000E+00
    0.00000E+00         0.00000E+00        -0.46166E+04
 
    0.43815E+04         0.31380E+06         0.00000E+00
    0.31380E+06        -0.32344E+05         0.00000E+00
    0.00000E+00         0.00000E+00        -0.55924E+04
 
   -0.28454E+04         0.28985E+06         0.00000E+00
    0.28985E+06        -0.30636E+05         0.00000E+00
    0.00000E+00         0.00000E+00        -0.66963E+04
 
   -0.99447E+06         0.23338E+05         0.00000E+00
    0.23338E+05         0.78450E+06         0.00000E+00
    0.00000E+00         0.00000E+00        -0.41994E+05
 
   -0.96513E+06         0.65590E+05         0.00000E+00
    0.65590E+05         0.78088E+06         0.00000E+00
    0.00000E+00         0.00000E+00        -0.36852E+05
 
   -0.93525E+06         0.10589E+06         0.00000E+00
    0.10589E+06         0.77402E+06         0.00000E+00
    0.00000E+00         0.00000E+00        -0.32246E+05
 
   -0.90492E+06         0.14421E+06         0.00000E+00
    0.14421E+06         0.76424E+06         0.00000E+00
    0.00000E+00         0.00000E+00        -0.28137E+05
 
   -0.87425E+06         0.18053E+06         0.00000E+00
    0.18053E+06         0.75184E+06         0.00000E+00
    0.00000E+00         0.00000E+00        -0.24484E+05
 
   -0.84334E+06         0.21484E+06         0.00000E+00
    0.21484E+06         0.73710E+06         0.00000E+00
    0.00000E+00         0.00000E+00        -0.21248E+05
 
   -0.81227E+06         0.24714E+06         0.00000E+00
    0.24714E+06         0.72031E+06         0.00000E+00
    0.00000E+00         0.00000E+00        -0.18392E+05
 
   -0.78113E+06         0.27746E+06         0.00000E+00
    0.27746E+06         0.70174E+06         0.00000E+00
    0.00000E+00         0.00000E+00        -0.15877E+05
 
   -0.74999E+06         0.30581E+06         0.00000E+00
    0.30581E+06         0.68163E+06         0.00000E+00
    0.00000E+00         0.00000E+00        -0.13671E+05
 
   -0.71893E+06         0.33223E+06         0.00000E+00
    0.33223E+06         0.66023E+06         0.00000E+00
    0.00000E+00         0.00000E+00        -0.11741E+05
 
   -0.68802E+06         0.35675E+06         0.00000E+00
    0.35675E+06         0.63774E+06         0.00000E+00
    0.00000E+00         0.00000E+00        -0.10056E+05
 
   -0.65732E+06         0.37943E+06         0.00000E+00
    0.37943E+06         0.61438E+06         0.00000E+00
    0.00000E+00         0.00000E+00        -0.85887E+04
 
   -0.62689E+06         0.40031E+06         0.00000E+00
    0.40031E+06         0.59032E+06         0.00000E+00
    0.00000E+00         0.00000E+00        -0.73136E+04
 
   -0.59677E+06         0.41946E+06         0.00000E+00
    0.41946E+06         0.56573E+06         0.00000E+00
    0.00000E+00         0.00000E+00        -0.62076E+04
 
   -0.56702E+06         0.43693E+06         0.00000E+00
    0.43693E+06         0.54077E+06         0.00000E+00
    0.00000E+00         0.00000E+00        -0.52500E+04
 
   -0.53767E+06         0.45279E+06         0.00000E+00
    0.45279E+06         0.51556E+06         0.00000E+00
    0.00000E+00         0.00000E+00        -0.44221E+04
 
   -0.50876E+06         0.46708E+06         0.00000E+00
    0.46708E+06         0.49022E+06         0.00000E+00
    0.00000E+00         0.00000E+00        -0.37073E+04
 
   -0.48033E+06         0.47989E+06         0.00000E+00
    0.47989E+06         0.46487E+06         0.00000E+00
    0.00000E+00         0.00000E+00        -0.30911E+04
 
   -0.45239E+06         0.49125E+06         0.00000E+00
    0.49125E+06         0.43959E+06         0.00000E+00
    0.00000E+00         0.00000E+00        -0.25605E+04
 
   -0.42498E+06         0.50124E+06         0.00000E+00
    0.50124E+06         0.41445E+06         0.00000E+00
    0.00000E+00         0.00000E+00        -0.21043E+04
 
   -0.39810E+06         0.50991E+06         0.00000E+00
    0.50991E+06         0.38954E+06         0.00000E+00
    0.00000E+00         0.00000E+00        -0.17129E+04
 
   -0.37179E+06         0.51731E+06         0.00000E+00
    0.51731E+06         0.36490E+06         0.00000E+00
    0.00000E+00         0.00000E+00        -0.13778E+04
 
   -0.34606E+06         0.52349E+06         0.00000E+00
    0.52349E+06         0.34060E+06         0.00000E+00
    0.00000E+00         0.00000E+00        -0.10921E+04
 
   -0.32091E+06         0.52849E+06         0.00000E+00
    0.52849E+06         0.31666E+06         0.00000E+00
    0.00000E+00         0.00000E+00        -0.84975E+03
 
   -0.29637E+06         0.53234E+06         0.00000E+00
    0.53234E+06         0.29314E+06         0.00000E+00
    0.00000E+00         0.00000E+00        -0.64579E+03
 
   -0.27244E+06         0.53510E+06         0.00000E+00
    0.53510E+06         0.27006E+06         0.00000E+00
    0.00000E+00         0.00000E+00        -0.47627E+03
 
   -0.24915E+06         0.53677E+06         0.00000E+00
    0.53677E+06         0.24746E+06         0.00000E+00
    0.00000E+00         0.00000E+00        -0.33803E+03
 
   -0.22651E+06         0.53739E+06         0.00000E+00
    0.53739E+06         0.22537E+06         0.00000E+00
    0.00000E+00         0.00000E+00        -0.22871E+03
 
   -0.20454E+06         0.53698E+06         0.00000E+00
    0.53698E+06         0.20381E+06         0.00000E+00
    0.00000E+00         0.00000E+00        -0.14668E+03
 
   -0.18327E+06         0.53555E+06         0.00000E+00
    0.53555E+06         0.18281E+06         0.00000E+00
    0.00000E+00         0.00000E+00        -0.90971E+02
 
   -0.16272E+06         0.53311E+06         0.00000E+00
    0.53311E+06         0.16241E+06         0.00000E+00
    0.00000E+00         0.00000E+00        -0.61272E+02
 
   -0.14293E+06         0.52967E+06         0.00000E+00
    0.52967E+06         0.14264E+06         0.00000E+00
    0.00000E+00         0.00000E+00        -0.57881E+02
 
   -0.12394E+06         0.52523E+06         0.00000E+00
    0.52523E+06         0.12353E+06         0.00000E+00
    0.00000E+00         0.00000E+00        -0.81701E+02
 
   -0.10580E+06         0.51980E+06         0.00000E+00
    0.51980E+06         0.10512E+06         0.00000E+00
    0.00000E+00         0.00000E+00        -0.13423E+03
 
   -0.88561E+05         0.51339E+06         0.00000E+00
    0.51339E+06         0.87474E+05         0.00000E+00
    0.00000E+00         0.00000E+00        -0.21755E+03
 
   -0.72296E+05         0.50599E+06         0.00000E+00
    0.50599E+06         0.70625E+05         0.00000E+00
    0.00000E+00         0.00000E+00        -0.33437E+03
 
   -0.57075E+05         0.49760E+06         0.00000E+00
    0.49760E+06         0.54635E+05         0.00000E+00
    0.00000E+00         0.00000E+00        -0.48800E+03
 
   -0.42978E+05         0.48824E+06         0.00000E+00
    0.48824E+06         0.39567E+05         0.00000E+00
    0.00000E+00         0.00000E+00        -0.68236E+03
 
   -0.30100E+05         0.47791E+06         0.00000E+00
    0.47791E+06         0.25490E+05         0.00000E+00
    0.00000E+00         0.00000E+00        -0.92204E+03
 
   -0.18541E+05         0.46663E+06         0.00000E+00
    0.46663E+06         0.12479E+05         0.00000E+00
    0.00000E+00         0.00000E+00        -0.12123E+04
 
   -0.84116E+04         0.45442E+06         0.00000E+00
    0.45442E+06         0.61695E+03         0.00000E+00
    0.00000E+00         0.00000E+00        -0.15589E+04
 
    0.16721E+03         0.44131E+06         0.00000E+00
    0.44131E+06        -0.10010E+05         0.00000E+00
    0.00000E+00         0.00000E+00        -0.19686E+04
 
    0.70667E+04         0.42734E+06         0.00000E+00
    0.42734E+06        -0.19309E+05         0.00000E+00
    0.00000E+00         0.00000E+00        -0.24484E+04
 
    0.12150E+05         0.41255E+06         0.00000E+00
    0.41255E+06        -0.27181E+05         0.00000E+00
    0.00000E+00         0.00000E+00        -0.30062E+04
 
    0.15273E+05         0.39702E+06         0.00000E+00
    0.39702E+06        -0.33525E+05         0.00000E+00
    0.00000E+00         0.00000E+00        -0.36504E+04
 
    0.16285E+05         0.38082E+06         0.00000E+00
    0.38082E+06        -0.38233E+05         0.00000E+00
    0.00000E+00         0.00000E+00        -0.43898E+04
 
    0.15030E+05         0.36404E+06         0.00000E+00
    0.36404E+06        -0.41198E+05         0.00000E+00
    0.00000E+00         0.00000E+00        -0.52336E+04
 
    0.11351E+05         0.34679E+06         0.00000E+00
    0.34679E+06        -0.42308E+05         0.00000E+00
    0.00000E+00         0.00000E+00        -0.61913E+04
 
    0.50880E+04         0.32920E+06         0.00000E+00
    0.32920E+06        -0.41450E+05         0.00000E+00
    0.00000E+00         0.00000E+00        -0.72725E+04
 
   -0.39189E+04         0.31142E+06         0.00000E+00
    0.31142E+06        -0.38514E+05         0.00000E+00
    0.00000E+00         0.00000E+00        -0.84865E+04
 
   -0.86110E+06         0.21033E+05         0.00000E+00
    0.21033E+05         0.71125E+06         0.00000E+00
    0.00000E+00         0.00000E+00        -0.29971E+05
 
   -0.83975E+06         0.59641E+05         0.00000E+00
    0.59641E+05         0.70814E+06         0.00000E+00
    0.00000E+00         0.00000E+00        -0.26322E+05
 
   -0.81749E+06         0.96692E+05         0.00000E+00
    0.96692E+05         0.70225E+06         0.00000E+00
    0.00000E+00         0.00000E+00        -0.23049E+05
 
   -0.79444E+06         0.13214E+06         0.00000E+00
    0.13214E+06         0.69381E+06         0.00000E+00
    0.00000E+00         0.00000E+00        -0.20126E+05
 
   -0.77068E+06         0.16594E+06         0.00000E+00
    0.16594E+06         0.68306E+06         0.00000E+00
    0.00000E+00         0.00000E+00        -0.17524E+05
 
   -0.74631E+06         0.19808E+06         0.00000E+00
    0.19808E+06         0.67023E+06         0.00000E+00
    0.00000E+00         0.00000E+00        -0.15217E+05
 
   -0.72143E+06         0.22853E+06         0.00000E+00
    0.22853E+06         0.65554E+06         0.00000E+00
    0.00000E+00         0.00000E+00        -0.13178E+05
 
   -0.69612E+06         0.25729E+06         0.00000E+00
    0.25729E+06         0.63921E+06         0.00000E+00
    0.00000E+00         0.00000E+00        -0.11382E+05
 
   -0.67046E+06         0.28435E+06         0.00000E+00
    0.28435E+06         0.62144E+06         0.00000E+00
    0.00000E+00         0.00000E+00        -0.98049E+04
 
   -0.64454E+06         0.30974E+06         0.00000E+00
    0.30974E+06         0.60242E+06         0.00000E+00
    0.00000E+00         0.00000E+00        -0.84237E+04
 
   -0.61842E+06         0.33346E+06         0.00000E+00
    0.33346E+06         0.58234E+06         0.00000E+00
    0.00000E+00         0.00000E+00        -0.72176E+04
 
   -0.59219E+06         0.35554E+06         0.00000E+00
    0.35554E+06         0.56135E+06         0.00000E+00
    0.00000E+00         0.00000E+00        -0.61668E+04
 
   -0.56589E+06         0.37600E+06         0.00000E+00
    0.37600E+06         0.53962E+06         0.00000E+00
    0.00000E+00         0.00000E+00        -0.52536E+04
 
   -0.53961E+06         0.39488E+06         0.00000E+00
    0.39488E+06         0.51730E+06         0.00000E+00
    0.00000E+00         0.00000E+00        -0.44617E+04
 
   -0.51339E+06         0.41221E+06         0.00000E+00
    0.41221E+06         0.49451E+06         0.00000E+00
    0.00000E+00         0.00000E+00        -0.37763E+04
 
   -0.48730E+06         0.42803E+06         0.00000E+00
    0.42803E+06         0.47137E+06         0.00000E+00
    0.00000E+00         0.00000E+00        -0.31843E+04
 
   -0.46138E+06         0.44237E+06         0.00000E+00
    0.44237E+06         0.44801E+06         0.00000E+00
    0.00000E+00         0.00000E+00        -0.26739E+04
 
   -0.43568E+06         0.45529E+06         0.00000E+00
    0.45529E+06         0.42451E+06         0.00000E+00
    0.00000E+00         0.00000E+00        -0.22349E+04
 
   -0.41026E+06         0.46681E+06         0.00000E+00
    0.46681E+06         0.40097E+06         0.00000E+00
    0.00000E+00         0.00000E+00        -0.18579E+04
 
   -0.38516E+06         0.47699E+06         0.00000E+00
    0.47699E+06         0.37748E+06         0.00000E+00
    0.00000E+00         0.00000E+00        -0.15352E+04
 
   -0.36041E+06         0.48586E+06         0.00000E+00
    0.48586E+06         0.35411E+06         0.00000E+00
    0.00000E+00         0.00000E+00        -0.12598E+04
 
   -0.33605E+06         0.49347E+06         0.00000E+00
    0.49347E+06         0.33092E+06         0.00000E+00
    0.00000E+00         0.00000E+00        -0.10258E+04
 
   -0.31213E+06         0.49985E+06         0.00000E+00
    0.49985E+06         0.30799E+06         0.00000E+00
    0.00000E+00         0.00000E+00        -0.82830E+03
 
   -0.28868E+06         0.50505E+06         0.00000E+00
    0.50505E+06         0.28536E+06         0.00000E+00
    0.00000E+00         0.00000E+00        -0.66310E+03
 
   -0.26573E+06         0.50909E+06         0.00000E+00
    0.50909E+06         0.26310E+06         0.00000E+00
    0.00000E+00         0.00000E+00        -0.52681E+03
 
   -0.24332E+06         0.51202E+06         0.00000E+00
    0.51202E+06         0.24124E+06         0.00000E+00
    0.00000E+00         0.00000E+00        -0.41670E+03
 
   -0.22150E+06         0.51386E+06         0.00000E+00
    0.51386E+06         0.21985E+06         0.00000E+00
    0.00000E+00         0.00000E+00        -0.33068E+03
 
   -0.20029E+06         0.51465E+06         0.00000E+00
    0.51465E+06         0.19895E+06         0.00000E+00
    0.00000E+00         0.00000E+00        -0.26727E+03
 
   -0.17973E+06         0.51441E+06         0.00000E+00
    0.51441E+06         0.17861E+06         0.00000E+00
    0.00000E+00         0.00000E+00        -0.22552E+03
 
   -0.15987E+06         0.51318E+06         0.00000E+00
    0.51318E+06         0.15885E+06         0.00000E+00
    0.00000E+00         0.00000E+00        -0.20501E+03
 
   -0.14075E+06         0.51098E+06         0.00000E+00
    0.51098E+06         0.13972E+06         0.00000E+00
    0.00000E+00         0.00000E+00        -0.20581E+03
 
   -0.12242E+06         0.50784E+06         0.00000E+00
    0.50784E+06         0.12128E+06         0.00000E+00
    0.00000E+00         0.00000E+00        -0.22849E+03
 
   -0.10492E+06         0.50378E+06         0.00000E+00
    0.50378E+06         0.10355E+06         0.00000E+00
    0.00000E+00         0.00000E+00        -0.27408E+03
 
   -0.88314E+05         0.49884E+06         0.00000E+00
    0.49884E+06         0.86593E+05         0.00000E+00
    0.00000E+00         0.00000E+00        -0.34410E+03
 
   -0.72653E+05         0.49303E+06         0.00000E+00
    0.49303E+06         0.70450E+05         0.00000E+00
    0.00000E+00         0.00000E+00        -0.44054E+03
 
   -0.58002E+05         0.48640E+06         0.00000E+00
    0.48640E+06         0.55173E+05         0.00000E+00
    0.00000E+00         0.00000E+00        -0.56588E+03
 
   -0.44428E+05         0.47896E+06         0.00000E+00
    0.47896E+06         0.40812E+05         0.00000E+00
    0.00000E+00         0.00000E+00        -0.72312E+03
 
   -0.32001E+05         0.47076E+06         0.00000E+00
    0.47076E+06         0.27423E+05         0.00000E+00
    0.00000E+00         0.00000E+00        -0.91574E+03
 
   -0.20799E+05         0.46184E+06         0.00000E+00
    0.46184E+06         0.15061E+05         0.00000E+00
    0.00000E+00         0.00000E+00        -0.11478E+04
 
   -0.10902E+05         0.45223E+06         0.00000E+00
    0.45223E+06         0.37835E+04         0.00000E+00
    0.00000E+00         0.00000E+00        -0.14237E+04
 
   -0.23949E+04         0.44199E+06         0.00000E+00
    0.44199E+06        -0.63489E+04         0.00000E+00
    0.00000E+00         0.00000E+00        -0.17488E+04
 
    0.46336E+04         0.43118E+06         0.00000E+00
    0.43118E+06        -0.15276E+05         0.00000E+00
    0.00000E+00         0.00000E+00        -0.21285E+04
 
    0.10091E+05         0.41985E+06         0.00000E+00
    0.41985E+06        -0.22936E+05         0.00000E+00
    0.00000E+00         0.00000E+00        -0.25690E+04
 
    0.13882E+05         0.40808E+06         0.00000E+00
    0.40808E+06        -0.29267E+05         0.00000E+00
    0.00000E+00         0.00000E+00        -0.30770E+04
 
    0.15910E+05         0.39595E+06         0.00000E+00
    0.39595E+06        -0.34207E+05         0.00000E+00
    0.00000E+00         0.00000E+00        -0.36595E+04
 
    0.16075E+05         0.38355E+06         0.00000E+00
    0.38355E+06        -0.37695E+05         0.00000E+00
    0.00000E+00         0.00000E+00        -0.43240E+04
 
    0.14280E+05         0.37098E+06         0.00000E+00
    0.37098E+06        -0.39671E+05         0.00000E+00
    0.00000E+00         0.00000E+00        -0.50782E+04
 
    0.10427E+05         0.35836E+06         0.00000E+00
    0.35836E+06        -0.40077E+05         0.00000E+00
    0.00000E+00         0.00000E+00        -0.59300E+04
 
    0.44214E+04         0.34580E+06         0.00000E+00
    0.34580E+06        -0.38859E+05         0.00000E+00
    0.00000E+00         0.00000E+00        -0.68874E+04
 
   -0.38270E+04         0.33345E+06         0.00000E+00
    0.33345E+06        -0.35964E+05         0.00000E+00
    0.00000E+00         0.00000E+00        -0.79582E+04
 
   -0.74485E+06         0.18555E+05         0.00000E+00
    0.18555E+05         0.64136E+06         0.00000E+00
    0.00000E+00         0.00000E+00        -0.20697E+05
 
   -0.72971E+06         0.53045E+05         0.00000E+00
    0.53045E+05         0.63875E+06         0.00000E+00
    0.00000E+00         0.00000E+00        -0.18194E+05
 
   -0.71349E+06         0.86324E+05         0.00000E+00
    0.86324E+05         0.63376E+06         0.00000E+00
    0.00000E+00         0.00000E+00        -0.15946E+05
 
   -0.69628E+06         0.11833E+06         0.00000E+00
    0.11833E+06         0.62660E+06         0.00000E+00
    0.00000E+00         0.00000E+00        -0.13935E+05
 
   -0.67816E+06         0.14903E+06         0.00000E+00
    0.14903E+06         0.61744E+06         0.00000E+00
    0.00000E+00         0.00000E+00        -0.12143E+05
 
   -0.65923E+06         0.17836E+06         0.00000E+00
    0.17836E+06         0.60647E+06         0.00000E+00
    0.00000E+00         0.00000E+00        -0.10552E+05
 
   -0.63957E+06         0.20632E+06         0.00000E+00
    0.20632E+06         0.59386E+06         0.00000E+00
    0.00000E+00         0.00000E+00        -0.91435E+04
 
   -0.61928E+06         0.23286E+06         0.00000E+00
    0.23286E+06         0.57977E+06         0.00000E+00
    0.00000E+00         0.00000E+00        -0.79019E+04
 
   -0.59843E+06         0.25798E+06         0.00000E+00
    0.25798E+06         0.56437E+06         0.00000E+00
    0.00000E+00         0.00000E+00        -0.68105E+04
 
   -0.57709E+06         0.28168E+06         0.00000E+00
    0.28168E+06         0.54782E+06         0.00000E+00
    0.00000E+00         0.00000E+00        -0.58539E+04
 
   -0.55536E+06         0.30394E+06         0.00000E+00
    0.30394E+06         0.53027E+06         0.00000E+00
    0.00000E+00         0.00000E+00        -0.50179E+04
 
   -0.53329E+06         0.32478E+06         0.00000E+00
    0.32478E+06         0.51184E+06         0.00000E+00
    0.00000E+00         0.00000E+00        -0.42892E+04
 
   -0.51096E+06         0.34421E+06         0.00000E+00
    0.34421E+06         0.49269E+06         0.00000E+00
    0.00000E+00         0.00000E+00        -0.36558E+04
 
   -0.48845E+06         0.36224E+06         0.00000E+00
    0.36224E+06         0.47292E+06         0.00000E+00
    0.00000E+00         0.00000E+00        -0.31064E+04
 
   -0.46580E+06         0.37889E+06         0.00000E+00
    0.37889E+06         0.45265E+06         0.00000E+00
    0.00000E+00         0.00000E+00        -0.26311E+04
 
   -0.44310E+06         0.39418E+06         0.00000E+00
    0.39418E+06         0.43199E+06         0.00000E+00
    0.00000E+00         0.00000E+00        -0.22209E+04
 
   -0.42039E+06         0.40814E+06         0.00000E+00
    0.40814E+06         0.41105E+06         0.00000E+00
    0.00000E+00         0.00000E+00        -0.18677E+04
 
   -0.39773E+06         0.42080E+06         0.00000E+00
    0.42080E+06         0.38991E+06         0.00000E+00
    0.00000E+00         0.00000E+00        -0.15644E+04
 
   -0.37519E+06         0.43218E+06         0.00000E+00
    0.43218E+06         0.36866E+06         0.00000E+00
    0.00000E+00         0.00000E+00        -0.13047E+04
 
   -0.35280E+06         0.44231E+06         0.00000E+00
    0.44231E+06         0.34739E+06         0.00000E+00
    0.00000E+00         0.00000E+00        -0.10832E+04
 
   -0.33064E+06         0.45123E+06         0.00000E+00
    0.45123E+06         0.32616E+06         0.00000E+00
    0.00000E+00         0.00000E+00        -0.89505E+03
 
   -0.30873E+06         0.45896E+06         0.00000E+00
    0.45896E+06         0.30505E+06         0.00000E+00
    0.00000E+00         0.00000E+00        -0.73630E+03
 
   -0.28714E+06         0.46555E+06         0.00000E+00
    0.46555E+06         0.28413E+06         0.00000E+00
    0.00000E+00         0.00000E+00        -0.60350E+03
 
   -0.26591E+06         0.47102E+06         0.00000E+00
    0.47102E+06         0.26345E+06         0.00000E+00
    0.00000E+00         0.00000E+00        -0.49379E+03
 
   -0.24509E+06         0.47541E+06         0.00000E+00
    0.47541E+06         0.24307E+06         0.00000E+00
    0.00000E+00         0.00000E+00        -0.40485E+03
 
   -0.22473E+06         0.47875E+06         0.00000E+00
    0.47875E+06         0.22305E+06         0.00000E+00
    0.00000E+00         0.00000E+00        -0.33481E+03
 
   -0.20486E+06         0.48107E+06         0.00000E+00
    0.48107E+06         0.20344E+06         0.00000E+00
    0.00000E+00         0.00000E+00        -0.28230E+03
 
   -0.18553E+06         0.48242E+06         0.00000E+00
    0.48242E+06         0.18430E+06         0.00000E+00
    0.00000E+00         0.00000E+00        -0.24632E+03
 
   -0.16680E+06         0.48282E+06         0.00000E+00
    0.48282E+06         0.16567E+06         0.00000E+00
    0.00000E+00         0.00000E+00        -0.22629E+03
 
   -0.14870E+06         0.48230E+06         0.00000E+00
    0.48230E+06         0.14759E+06         0.00000E+00
    0.00000E+00         0.00000E+00        -0.22197E+03
 
   -0.13129E+06         0.48092E+06         0.00000E+00
    0.48092E+06         0.13013E+06         0.00000E+00
    0.00000E+00         0.00000E+00        -0.23352E+03
 
   -0.11462E+06         0.47869E+06         0.00000E+00
    0.47869E+06         0.11331E+06         0.00000E+00
    0.00000E+00         0.00000E+00        -0.26142E+03
 
   -0.98726E+05         0.47566E+06         0.00000E+00
    0.47566E+06         0.97193E+05         0.00000E+00
    0.00000E+00         0.00000E+00        -0.30650E+03
 
   -0.83668E+05         0.47187E+06         0.00000E+00
    0.47187E+06         0.81819E+05         0.00000E+00
    0.00000E+00         0.00000E+00        -0.36993E+03
 
   -0.69498E+05         0.46736E+06         0.00000E+00
    0.46736E+06         0.67232E+05         0.00000E+00
    0.00000E+00         0.00000E+00        -0.45322E+03
 
   -0.56271E+05         0.46217E+06         0.00000E+00
    0.46217E+06         0.53480E+05         0.00000E+00
    0.00000E+00         0.00000E+00        -0.55826E+03
 
   -0.44042E+05         0.45635E+06         0.00000E+00
    0.45635E+06         0.40605E+05         0.00000E+00
    0.00000E+00         0.00000E+00        -0.68727E+03
 
   -0.32868E+05         0.44995E+06         0.00000E+00
    0.44995E+06         0.28654E+05         0.00000E+00
    0.00000E+00         0.00000E+00        -0.84283E+03
 
   -0.22810E+05         0.44301E+06         0.00000E+00
    0.44301E+06         0.17670E+05         0.00000E+00
    0.00000E+00         0.00000E+00        -0.10279E+04
 
   -0.13927E+05         0.43560E+06         0.00000E+00
    0.43560E+06         0.76976E+04         0.00000E+00
    0.00000E+00         0.00000E+00        -0.12459E+04
 
   -0.62809E+04         0.42778E+06         0.00000E+00
    0.42778E+06        -0.12213E+04         0.00000E+00
    0.00000E+00         0.00000E+00        -0.15004E+04
 
    0.66643E+02         0.41961E+06         0.00000E+00
    0.41961E+06        -0.90450E+04         0.00000E+00
    0.00000E+00         0.00000E+00        -0.17957E+04
 
    0.50534E+04         0.41117E+06         0.00000E+00
    0.41117E+06        -0.15733E+05         0.00000E+00
    0.00000E+00         0.00000E+00        -0.21360E+04
 
    0.86174E+04         0.40253E+06         0.00000E+00
    0.40253E+06        -0.21248E+05         0.00000E+00
    0.00000E+00         0.00000E+00        -0.25262E+04
 
    0.10698E+05         0.39377E+06         0.00000E+00
    0.39377E+06        -0.25555E+05         0.00000E+00
    0.00000E+00         0.00000E+00        -0.29714E+04
 
    0.11236E+05         0.38499E+06         0.00000E+00
    0.38499E+06        -0.28620E+05         0.00000E+00
    0.00000E+00         0.00000E+00        -0.34767E+04
 
    0.10175E+05         0.37628E+06         0.00000E+00
    0.37628E+06        -0.30414E+05         0.00000E+00
    0.00000E+00         0.00000E+00        -0.40477E+04
 
    0.74616E+04         0.36775E+06         0.00000E+00
    0.36775E+06        -0.30911E+05         0.00000E+00
    0.00000E+00         0.00000E+00        -0.46899E+04
 
    0.30473E+04         0.35950E+06         0.00000E+00
    0.35950E+06        -0.30091E+05         0.00000E+00
    0.00000E+00         0.00000E+00        -0.54088E+04
 
   -0.31110E+04         0.35166E+06         0.00000E+00
    0.35166E+06        -0.27937E+05         0.00000E+00
    0.00000E+00         0.00000E+00        -0.62096E+04
 
   -0.64531E+06         0.16098E+05         0.00000E+00
    0.16098E+05         0.57650E+06         0.00000E+00
    0.00000E+00         0.00000E+00        -0.13762E+05
 
   -0.63489E+06         0.46371E+05         0.00000E+00
    0.46371E+05         0.57433E+06         0.00000E+00
    0.00000E+00         0.00000E+00        -0.12112E+05
 
   -0.62331E+06         0.75731E+05         0.00000E+00
    0.75731E+05         0.57018E+06         0.00000E+00
    0.00000E+00         0.00000E+00        -0.10626E+05
 
   -0.61068E+06         0.10411E+06         0.00000E+00
    0.10411E+06         0.56420E+06         0.00000E+00
    0.00000E+00         0.00000E+00        -0.92952E+04
 
   -0.59706E+06         0.13146E+06         0.00000E+00
    0.13146E+06         0.55652E+06         0.00000E+00
    0.00000E+00         0.00000E+00        -0.81070E+04
 
   -0.58254E+06         0.15774E+06         0.00000E+00
    0.15774E+06         0.54729E+06         0.00000E+00
    0.00000E+00         0.00000E+00        -0.70503E+04
 
   -0.56720E+06         0.18290E+06         0.00000E+00
    0.18290E+06         0.53663E+06         0.00000E+00
    0.00000E+00         0.00000E+00        -0.61140E+04
 
   -0.55112E+06         0.20692E+06         0.00000E+00
    0.20692E+06         0.52469E+06         0.00000E+00
    0.00000E+00         0.00000E+00        -0.52872E+04
 
   -0.53437E+06         0.22977E+06         0.00000E+00
    0.22977E+06         0.51158E+06         0.00000E+00
    0.00000E+00         0.00000E+00        -0.45595E+04
 
   -0.51704E+06         0.25143E+06         0.00000E+00
    0.25143E+06         0.49743E+06         0.00000E+00
    0.00000E+00         0.00000E+00        -0.39212E+04
 
   -0.49918E+06         0.27190E+06         0.00000E+00
    0.27190E+06         0.48236E+06         0.00000E+00
    0.00000E+00         0.00000E+00        -0.33628E+04
 
   -0.48087E+06         0.29116E+06         0.00000E+00
    0.29116E+06         0.46649E+06         0.00000E+00
    0.00000E+00         0.00000E+00        -0.28758E+04
 
   -0.46219E+06         0.30923E+06         0.00000E+00
    0.30923E+06         0.44993E+06         0.00000E+00
    0.00000E+00         0.00000E+00        -0.24523E+04
 
   -0.44320E+06         0.32609E+06         0.00000E+00
    0.32609E+06         0.43277E+06         0.00000E+00
    0.00000E+00         0.00000E+00        -0.20850E+04
 
   -0.42396E+06         0.34176E+06         0.00000E+00
    0.34176E+06         0.41512E+06         0.00000E+00
    0.00000E+00         0.00000E+00        -0.17673E+04
 
   -0.40453E+06         0.35625E+06         0.00000E+00
    0.35625E+06         0.39707E+06         0.00000E+00
    0.00000E+00         0.00000E+00        -0.14932E+04
 
   -0.38499E+06         0.36958E+06         0.00000E+00
    0.36958E+06         0.37870E+06         0.00000E+00
    0.00000E+00         0.00000E+00        -0.12575E+04
 
   -0.36538E+06         0.38176E+06         0.00000E+00
    0.38176E+06         0.36011E+06         0.00000E+00
    0.00000E+00         0.00000E+00        -0.10554E+04
 
   -0.34577E+06         0.39280E+06         0.00000E+00
    0.39280E+06         0.34136E+06         0.00000E+00
    0.00000E+00         0.00000E+00        -0.88279E+03
 
   -0.32622E+06         0.40275E+06         0.00000E+00
    0.40275E+06         0.32254E+06         0.00000E+00
    0.00000E+00         0.00000E+00        -0.73594E+03
 
   -0.30676E+06         0.41160E+06         0.00000E+00
    0.41160E+06         0.30371E+06         0.00000E+00
    0.00000E+00         0.00000E+00        -0.61173E+03
 
   -0.28747E+06         0.41941E+06         0.00000E+00
    0.41941E+06         0.28494E+06         0.00000E+00
    0.00000E+00         0.00000E+00        -0.50744E+03
 
   -0.26840E+06         0.42618E+06         0.00000E+00
    0.42618E+06         0.26629E+06         0.00000E+00
    0.00000E+00         0.00000E+00        -0.42076E+03
 
   -0.24958E+06         0.43195E+06         0.00000E+00
    0.43195E+06         0.24783E+06         0.00000E+00
    0.00000E+00         0.00000E+00        -0.34975E+03
 
   -0.23107E+06         0.43676E+06         0.00000E+00
    0.43676E+06         0.22961E+06         0.00000E+00
    0.00000E+00         0.00000E+00        -0.29282E+03
 
   -0.21293E+06         0.44062E+06         0.00000E+00
    0.44062E+06         0.21168E+06         0.00000E+00
    0.00000E+00         0.00000E+00        -0.24871E+03
 
   -0.19519E+06         0.44358E+06         0.00000E+00
    0.44358E+06         0.19411E+06         0.00000E+00
    0.00000E+00         0.00000E+00        -0.21643E+03
 
   -0.17790E+06         0.44567E+06         0.00000E+00
    0.44567E+06         0.17693E+06         0.00000E+00
    0.00000E+00         0.00000E+00        -0.19529E+03
 
   -0.16112E+06         0.44692E+06         0.00000E+00
    0.44692E+06         0.16020E+06         0.00000E+00
    0.00000E+00         0.00000E+00        -0.18483E+03
 
   -0.14488E+06         0.44737E+06         0.00000E+00
    0.44737E+06         0.14396E+06         0.00000E+00
    0.00000E+00         0.00000E+00        -0.18484E+03
 
   -0.12924E+06         0.44706E+06         0.00000E+00
    0.44706E+06         0.12826E+06         0.00000E+00
    0.00000E+00         0.00000E+00        -0.19535E+03
 
   -0.11423E+06         0.44604E+06         0.00000E+00
    0.44604E+06         0.11315E+06         0.00000E+00
    0.00000E+00         0.00000E+00        -0.21658E+03
 
   -0.99905E+05         0.44433E+06         0.00000E+00
    0.44433E+06         0.98660E+05         0.00000E+00
    0.00000E+00         0.00000E+00        -0.24902E+03
 
   -0.86307E+05         0.44198E+06         0.00000E+00
    0.44198E+06         0.84840E+05         0.00000E+00
    0.00000E+00         0.00000E+00        -0.29331E+03
 
   -0.73481E+05         0.43904E+06         0.00000E+00
    0.43904E+06         0.71730E+05         0.00000E+00
    0.00000E+00         0.00000E+00        -0.35035E+03
 
   -0.61472E+05         0.43557E+06         0.00000E+00
    0.43557E+06         0.59366E+05         0.00000E+00
    0.00000E+00         0.00000E+00        -0.42123E+03
 
   -0.50325E+05         0.43160E+06         0.00000E+00
    0.43160E+06         0.47788E+05         0.00000E+00
    0.00000E+00         0.00000E+00        -0.50726E+03
 
   -0.40082E+05         0.42719E+06         0.00000E+00
    0.42719E+06         0.37032E+05         0.00000E+00
    0.00000E+00         0.00000E+00        -0.60996E+03
 
   -0.30788E+05         0.42240E+06         0.00000E+00
    0.42240E+06         0.27133E+05         0.00000E+00
    0.00000E+00         0.00000E+00        -0.73106E+03
 
   -0.22486E+05         0.41728E+06         0.00000E+00
    0.41728E+06         0.18123E+05         0.00000E+00
    0.00000E+00         0.00000E+00        -0.87251E+03
 
   -0.15216E+05         0.41191E+06         0.00000E+00
    0.41191E+06         0.10033E+05         0.00000E+00
    0.00000E+00         0.00000E+00        -0.10365E+04
 
   -0.90188E+04         0.40634E+06         0.00000E+00
    0.40634E+06         0.28926E+04         0.00000E+00
    0.00000E+00         0.00000E+00        -0.12252E+04
 
   -0.39336E+04         0.40065E+06         0.00000E+00
    0.40065E+06        -0.32734E+04         0.00000E+00
    0.00000E+00         0.00000E+00        -0.14414E+04
 
    0.35883E+01         0.39490E+06         0.00000E+00
    0.39490E+06        -0.84415E+04         0.00000E+00
    0.00000E+00         0.00000E+00        -0.16876E+04
 
    0.27588E+04         0.38919E+06         0.00000E+00
    0.38919E+06        -0.12592E+05         0.00000E+00
    0.00000E+00         0.00000E+00        -0.19666E+04
 
    0.43015E+04         0.38358E+06         0.00000E+00
    0.38358E+06        -0.15708E+05         0.00000E+00
    0.00000E+00         0.00000E+00        -0.22814E+04
 
    0.46046E+04         0.37817E+06         0.00000E+00
    0.37817E+06        -0.17778E+05         0.00000E+00
    0.00000E+00         0.00000E+00        -0.26348E+04
 
    0.36458E+04         0.37304E+06         0.00000E+00
    0.37304E+06        -0.18794E+05         0.00000E+00
    0.00000E+00         0.00000E+00        -0.30297E+04
 
    0.14075E+04         0.36830E+06         0.00000E+00
    0.36830E+06        -0.18752E+05         0.00000E+00
    0.00000E+00         0.00000E+00        -0.34689E+04
 
   -0.21217E+04         0.36403E+06         0.00000E+00
    0.36403E+06        -0.17653E+05         0.00000E+00
    0.00000E+00         0.00000E+00        -0.39550E+04
 
   -0.56129E+06         0.13791E+05         0.00000E+00
    0.13791E+05         0.51751E+06         0.00000E+00
    0.00000E+00         0.00000E+00        -0.87567E+04
 
   -0.55432E+06         0.40018E+05         0.00000E+00
    0.40018E+05         0.51573E+06         0.00000E+00
    0.00000E+00         0.00000E+00        -0.77166E+04
 
   -0.54622E+06         0.65575E+05         0.00000E+00
    0.65575E+05         0.51233E+06         0.00000E+00
    0.00000E+00         0.00000E+00        -0.67785E+04
 
   -0.53709E+06         0.90400E+05         0.00000E+00
    0.90400E+05         0.50741E+06         0.00000E+00
    0.00000E+00         0.00000E+00        -0.59359E+04
 
   -0.52697E+06         0.11444E+06         0.00000E+00
    0.11444E+06         0.50106E+06         0.00000E+00
    0.00000E+00         0.00000E+00        -0.51823E+04
 
   -0.51595E+06         0.13764E+06         0.00000E+00
    0.13764E+06         0.49340E+06         0.00000E+00
    0.00000E+00         0.00000E+00        -0.45108E+04
 
   -0.50410E+06         0.15997E+06         0.00000E+00
    0.15997E+06         0.48452E+06         0.00000E+00
    0.00000E+00         0.00000E+00        -0.39149E+04
 
   -0.49147E+06         0.18139E+06         0.00000E+00
    0.18139E+06         0.47454E+06         0.00000E+00
    0.00000E+00         0.00000E+00        -0.33878E+04
 
   -0.47815E+06         0.20188E+06         0.00000E+00
    0.20188E+06         0.46354E+06         0.00000E+00
    0.00000E+00         0.00000E+00        -0.29232E+04
 
   -0.46420E+06         0.22140E+06         0.00000E+00
    0.22140E+06         0.45162E+06         0.00000E+00
    0.00000E+00         0.00000E+00        -0.25152E+04
 
   -0.44968E+06         0.23994E+06         0.00000E+00
    0.23994E+06         0.43889E+06         0.00000E+00
    0.00000E+00         0.00000E+00        -0.21580E+04
 
   -0.43466E+06         0.25750E+06         0.00000E+00
    0.25750E+06         0.42543E+06         0.00000E+00
    0.00000E+00         0.00000E+00        -0.18463E+04
 
   -0.41921E+06         0.27405E+06         0.00000E+00
    0.27405E+06         0.41133E+06         0.00000E+00
    0.00000E+00         0.00000E+00        -0.15750E+04
 
   -0.40338E+06         0.28961E+06         0.00000E+00
    0.28961E+06         0.39668E+06         0.00000E+00
    0.00000E+00         0.00000E+00        -0.13397E+04
 
   -0.38724E+06         0.30416E+06         0.00000E+00
    0.30416E+06         0.38156E+06         0.00000E+00
    0.00000E+00         0.00000E+00        -0.11363E+04
 
   -0.37084E+06         0.31771E+06         0.00000E+00
    0.31771E+06         0.36604E+06         0.00000E+00
    0.00000E+00         0.00000E+00        -0.96084E+03
 
   -0.35425E+06         0.33027E+06         0.00000E+00
    0.33027E+06         0.35020E+06         0.00000E+00
    0.00000E+00         0.00000E+00        -0.81009E+03
 
   -0.33753E+06         0.34186E+06         0.00000E+00
    0.34186E+06         0.33412E+06         0.00000E+00
    0.00000E+00         0.00000E+00        -0.68099E+03
 
   -0.32072E+06         0.35247E+06         0.00000E+00
    0.35247E+06         0.31786E+06         0.00000E+00
    0.00000E+00         0.00000E+00        -0.57087E+03
 
   -0.30388E+06         0.36213E+06         0.00000E+00
    0.36213E+06         0.30149E+06         0.00000E+00
    0.00000E+00         0.00000E+00        -0.47737E+03
 
   -0.28707E+06         0.37086E+06         0.00000E+00
    0.37086E+06         0.28508E+06         0.00000E+00
    0.00000E+00         0.00000E+00        -0.39842E+03
 
   -0.27033E+06         0.37867E+06         0.00000E+00
    0.37867E+06         0.26867E+06         0.00000E+00
    0.00000E+00         0.00000E+00        -0.33225E+03
 
   -0.25372E+06         0.38559E+06         0.00000E+00
    0.38559E+06         0.25233E+06         0.00000E+00
    0.00000E+00         0.00000E+00        -0.27730E+03
 
   -0.23728E+06         0.39165E+06         0.00000E+00
    0.39165E+06         0.23612E+06         0.00000E+00
    0.00000E+00         0.00000E+00        -0.23228E+03
 
   -0.22107E+06         0.39686E+06         0.00000E+00
    0.39686E+06         0.22009E+06         0.00000E+00
    0.00000E+00         0.00000E+00        -0.19607E+03
 
   -0.20512E+06         0.40126E+06         0.00000E+00
    0.40126E+06         0.20428E+06         0.00000E+00
    0.00000E+00         0.00000E+00        -0.16778E+03
 
   -0.18949E+06         0.40488E+06         0.00000E+00
    0.40488E+06         0.18875E+06         0.00000E+00
    0.00000E+00         0.00000E+00        -0.14667E+03
 
   -0.17421E+06         0.40775E+06         0.00000E+00
    0.40775E+06         0.17355E+06         0.00000E+00
    0.00000E+00         0.00000E+00        -0.13216E+03
 
   -0.15933E+06         0.40991E+06         0.00000E+00
    0.40991E+06         0.15871E+06         0.00000E+00
    0.00000E+00         0.00000E+00        -0.12380E+03
 
   -0.14489E+06         0.41138E+06         0.00000E+00
    0.41138E+06         0.14429E+06         0.00000E+00
    0.00000E+00         0.00000E+00        -0.12131E+03
 
   -0.13094E+06         0.41221E+06         0.00000E+00
    0.41221E+06         0.13032E+06         0.00000E+00
    0.00000E+00         0.00000E+00        -0.12449E+03
 
   -0.11750E+06         0.41243E+06         0.00000E+00
    0.41243E+06         0.11684E+06         0.00000E+00
    0.00000E+00         0.00000E+00        -0.13328E+03
 
   -0.10463E+06         0.41209E+06         0.00000E+00
    0.41209E+06         0.10389E+06         0.00000E+00
    0.00000E+00         0.00000E+00        -0.14771E+03
 
   -0.92352E+05         0.41122E+06         0.00000E+00
    0.41122E+06         0.91512E+05         0.00000E+00
    0.00000E+00         0.00000E+00        -0.16791E+03
 
   -0.80707E+05         0.40988E+06         0.00000E+00
    0.40988E+06         0.79736E+05         0.00000E+00
    0.00000E+00         0.00000E+00        -0.19410E+03
 
   -0.69730E+05         0.40811E+06         0.00000E+00
    0.40811E+06         0.68597E+05         0.00000E+00
    0.00000E+00         0.00000E+00        -0.22658E+03
 
   -0.59454E+05         0.40596E+06         0.00000E+00
    0.40596E+06         0.58125E+05         0.00000E+00
    0.00000E+00         0.00000E+00        -0.26575E+03
 
   -0.49910E+05         0.40348E+06         0.00000E+00
    0.40348E+06         0.48350E+05         0.00000E+00
    0.00000E+00         0.00000E+00        -0.31204E+03
 
   -0.41130E+05         0.40073E+06         0.00000E+00
    0.40073E+06         0.39300E+05         0.00000E+00
    0.00000E+00         0.00000E+00        -0.36600E+03
 
   -0.33142E+05         0.39776E+06         0.00000E+00
    0.39776E+06         0.31001E+05         0.00000E+00
    0.00000E+00         0.00000E+00        -0.42818E+03
 
   -0.25970E+05         0.39462E+06         0.00000E+00
    0.39462E+06         0.23474E+05         0.00000E+00
    0.00000E+00         0.00000E+00        -0.49921E+03
 
   -0.19640E+05         0.39139E+06         0.00000E+00
    0.39139E+06         0.16741E+05         0.00000E+00
    0.00000E+00         0.00000E+00        -0.57974E+03
 
   -0.14172E+05         0.38811E+06         0.00000E+00
    0.38811E+06         0.10820E+05         0.00000E+00
    0.00000E+00         0.00000E+00        -0.67044E+03
 
   -0.95841E+04         0.38487E+06         0.00000E+00
    0.38487E+06         0.57242E+04         0.00000E+00
    0.00000E+00         0.00000E+00        -0.77197E+03
 
   -0.58910E+04         0.38173E+06         0.00000E+00
    0.38173E+06         0.14661E+04         0.00000E+00
    0.00000E+00         0.00000E+00        -0.88497E+03
 
   -0.31037E+04         0.37875E+06         0.00000E+00
    0.37875E+06        -0.19464E+04         0.00000E+00
    0.00000E+00         0.00000E+00        -0.10100E+04
 
   -0.12290E+04         0.37601E+06         0.00000E+00
    0.37601E+06        -0.45089E+04         0.00000E+00
    0.00000E+00         0.00000E+00        -0.11476E+04
 
   -0.26920E+03         0.37359E+06         0.00000E+00
    0.37359E+06        -0.62210E+04         0.00000E+00
    0.00000E+00         0.00000E+00        -0.12980E+04
 
   -0.22140E+03         0.37156E+06         0.00000E+00
    0.37156E+06        -0.70865E+04         0.00000E+00
    0.00000E+00         0.00000E+00        -0.14616E+04
 
   -0.10773E+04         0.37000E+06         0.00000E+00
    0.37000E+06        -0.71136E+04         0.00000E+00
    0.00000E+00         0.00000E+00        -0.16382E+04
 
   -0.49110E+06         0.11715E+05         0.00000E+00
    0.11715E+05         0.46466E+06         0.00000E+00
    0.00000E+00         0.00000E+00        -0.52872E+04
 
   -0.48656E+06         0.34232E+05         0.00000E+00
    0.34232E+05         0.46323E+06         0.00000E+00
    0.00000E+00         0.00000E+00        -0.46664E+04
 
   -0.48099E+06         0.56273E+05         0.00000E+00
    0.56273E+05         0.46047E+06         0.00000E+00
    0.00000E+00         0.00000E+00        -0.41047E+04
 
   -0.47445E+06         0.77783E+05         0.00000E+00
    0.77783E+05         0.45646E+06         0.00000E+00
    0.00000E+00         0.00000E+00        -0.35989E+04
 
   -0.46700E+06         0.98708E+05         0.00000E+00
    0.98708E+05         0.45127E+06         0.00000E+00
    0.00000E+00         0.00000E+00        -0.31454E+04
 
   -0.45869E+06         0.11900E+06         0.00000E+00
    0.11900E+06         0.44499E+06         0.00000E+00
    0.00000E+00         0.00000E+00        -0.27403E+04
 
   -0.44958E+06         0.13863E+06         0.00000E+00
    0.13863E+06         0.43768E+06         0.00000E+00
    0.00000E+00         0.00000E+00        -0.23800E+04
 
   -0.43973E+06         0.15755E+06         0.00000E+00
    0.15755E+06         0.42943E+06         0.00000E+00
    0.00000E+00         0.00000E+00        -0.20607E+04
 
   -0.42920E+06         0.17573E+06         0.00000E+00
    0.17573E+06         0.42031E+06         0.00000E+00
    0.00000E+00         0.00000E+00        -0.17789E+04
 
   -0.41805E+06         0.19315E+06         0.00000E+00
    0.19315E+06         0.41040E+06         0.00000E+00
    0.00000E+00         0.00000E+00        -0.15310E+04
 
   -0.40634E+06         0.20979E+06         0.00000E+00
    0.20979E+06         0.39977E+06         0.00000E+00
    0.00000E+00         0.00000E+00        -0.13138E+04
 
   -0.39411E+06         0.22564E+06         0.00000E+00
    0.22564E+06         0.38849E+06         0.00000E+00
    0.00000E+00         0.00000E+00        -0.11241E+04
 
   -0.38143E+06         0.24067E+06         0.00000E+00
    0.24067E+06         0.37664E+06         0.00000E+00
    0.00000E+00         0.00000E+00        -0.95900E+03
 
   -0.36836E+06         0.25488E+06         0.00000E+00
    0.25488E+06         0.36428E+06         0.00000E+00
    0.00000E+00         0.00000E+00        -0.81575E+03
 
   -0.35494E+06         0.26827E+06         0.00000E+00
    0.26827E+06         0.35148E+06         0.00000E+00
    0.00000E+00         0.00000E+00        -0.69189E+03
 
   -0.34124E+06         0.28084E+06         0.00000E+00
    0.28084E+06         0.33831E+06         0.00000E+00
    0.00000E+00         0.00000E+00        -0.58514E+03
 
   -0.32729E+06         0.29258E+06         0.00000E+00
    0.29258E+06         0.32483E+06         0.00000E+00
    0.00000E+00         0.00000E+00        -0.49344E+03
 
   -0.31317E+06         0.30351E+06         0.00000E+00
    0.30351E+06         0.31109E+06         0.00000E+00
    0.00000E+00         0.00000E+00        -0.41495E+03
 
   -0.29891E+06         0.31363E+06         0.00000E+00
    0.31363E+06         0.29717E+06         0.00000E+00
    0.00000E+00         0.00000E+00        -0.34798E+03
 
   -0.28456E+06         0.32295E+06         0.00000E+00
    0.32295E+06         0.28311E+06         0.00000E+00
    0.00000E+00         0.00000E+00        -0.29108E+03
 
   -0.27018E+06         0.33148E+06         0.00000E+00
    0.33148E+06         0.26897E+06         0.00000E+00
    0.00000E+00         0.00000E+00        -0.24290E+03
 
   -0.25581E+06         0.33925E+06         0.00000E+00
    0.33925E+06         0.25480E+06         0.00000E+00
    0.00000E+00         0.00000E+00        -0.20229E+03
 
   -0.24149E+06         0.34626E+06         0.00000E+00
    0.34626E+06         0.24065E+06         0.00000E+00
    0.00000E+00         0.00000E+00        -0.16823E+03
 
   -0.22727E+06         0.35254E+06         0.00000E+00
    0.35254E+06         0.22657E+06         0.00000E+00
    0.00000E+00         0.00000E+00        -0.13980E+03
 
   -0.21319E+06         0.35812E+06         0.00000E+00
    0.35812E+06         0.21261E+06         0.00000E+00
    0.00000E+00         0.00000E+00        -0.11621E+03
 
   -0.19930E+06         0.36300E+06         0.00000E+00
    0.36300E+06         0.19881E+06         0.00000E+00
    0.00000E+00         0.00000E+00        -0.96767E+02
 
   -0.18563E+06         0.36723E+06         0.00000E+00
    0.36723E+06         0.18522E+06         0.00000E+00
    0.00000E+00         0.00000E+00        -0.80849E+02
 
   -0.17222E+06         0.37082E+06         0.00000E+00
    0.37082E+06         0.17188E+06         0.00000E+00
    0.00000E+00         0.00000E+00        -0.67912E+02
 
   -0.15910E+06         0.37382E+06         0.00000E+00
    0.37382E+06         0.15882E+06         0.00000E+00
    0.00000E+00         0.00000E+00        -0.57465E+02
 
   -0.14633E+06         0.37624E+06         0.00000E+00
    0.37624E+06         0.14608E+06         0.00000E+00
    0.00000E+00         0.00000E+00        -0.49065E+02
 
   -0.13392E+06         0.37813E+06         0.00000E+00
    0.37813E+06         0.13371E+06         0.00000E+00
    0.00000E+00         0.00000E+00        -0.42300E+02
 
   -0.12192E+06         0.37952E+06         0.00000E+00
    0.37952E+06         0.12173E+06         0.00000E+00
    0.00000E+00         0.00000E+00        -0.36784E+02
 
   -0.11034E+06         0.38045E+06         0.00000E+00
    0.38045E+06         0.11018E+06         0.00000E+00
    0.00000E+00         0.00000E+00        -0.32137E+02
 
   -0.99235E+05         0.38095E+06         0.00000E+00
    0.38095E+06         0.99095E+05         0.00000E+00
    0.00000E+00         0.00000E+00        -0.27983E+02
 
   -0.88617E+05         0.38107E+06         0.00000E+00
    0.38107E+06         0.88498E+05         0.00000E+00
    0.00000E+00         0.00000E+00        -0.23930E+02
 
   -0.78516E+05         0.38085E+06         0.00000E+00
    0.38085E+06         0.78418E+05         0.00000E+00
    0.00000E+00         0.00000E+00        -0.19562E+02
 
   -0.68955E+05         0.38033E+06         0.00000E+00
    0.38033E+06         0.68883E+05         0.00000E+00
    0.00000E+00         0.00000E+00        -0.14428E+02
 
   -0.59957E+05         0.37956E+06         0.00000E+00
    0.37956E+06         0.59917E+05         0.00000E+00
    0.00000E+00         0.00000E+00        -0.80261E+01
 
   -0.51541E+05         0.37859E+06         0.00000E+00
    0.37859E+06         0.51542E+05         0.00000E+00
    0.00000E+00         0.00000E+00         0.21027E+00
 
   -0.43724E+05         0.37747E+06         0.00000E+00
    0.37747E+06         0.43779E+05         0.00000E+00
    0.00000E+00         0.00000E+00         0.10925E+02
 
   -0.36521E+05         0.37625E+06         0.00000E+00
    0.37625E+06         0.36645E+05         0.00000E+00
    0.00000E+00         0.00000E+00         0.24854E+02
 
   -0.29943E+05         0.37498E+06         0.00000E+00
    0.37498E+06         0.30157E+05         0.00000E+00
    0.00000E+00         0.00000E+00         0.42844E+02
 
   -0.23999E+05         0.37372E+06         0.00000E+00
    0.37372E+06         0.24328E+05         0.00000E+00
    0.00000E+00         0.00000E+00         0.65867E+02
 
   -0.18694E+05         0.37252E+06         0.00000E+00
    0.37252E+06         0.19169E+05         0.00000E+00
    0.00000E+00         0.00000E+00         0.95035E+02
 
   -0.14030E+05         0.37144E+06         0.00000E+00
    0.37144E+06         0.14688E+05         0.00000E+00
    0.00000E+00         0.00000E+00         0.13162E+03
 
   -0.10005E+05         0.37054E+06         0.00000E+00
    0.37054E+06         0.10890E+05         0.00000E+00
    0.00000E+00         0.00000E+00         0.17708E+03
 
   -0.66124E+04         0.36987E+06         0.00000E+00
    0.36987E+06         0.77777E+04         0.00000E+00
    0.00000E+00         0.00000E+00         0.23305E+03
 
   -0.38427E+04         0.36949E+06         0.00000E+00
    0.36949E+06         0.53496E+04         0.00000E+00
    0.00000E+00         0.00000E+00         0.30139E+03
 
   -0.16803E+04         0.36948E+06         0.00000E+00
    0.36948E+06         0.36012E+04         0.00000E+00
    0.00000E+00         0.00000E+00         0.38418E+03
 
   -0.10541E+03         0.36988E+06         0.00000E+00
    0.36988E+06         0.25240E+04         0.00000E+00
    0.00000E+00         0.00000E+00         0.48372E+03
 
   -0.43282E+06         0.99065E+04         0.00000E+00
    0.99065E+04         0.41782E+06         0.00000E+00
    0.00000E+00         0.00000E+00        -0.29999E+04
 
   -0.42994E+06         0.29137E+05         0.00000E+00
    0.29137E+05         0.41667E+06         0.00000E+00
    0.00000E+00         0.00000E+00        -0.26522E+04
 
   -0.42614E+06         0.48045E+05         0.00000E+00
    0.48045E+05         0.41446E+06         0.00000E+00
    0.00000E+00         0.00000E+00        -0.23364E+04
 
   -0.42147E+06         0.66579E+05         0.00000E+00
    0.66579E+05         0.41122E+06         0.00000E+00
    0.00000E+00         0.00000E+00        -0.20509E+04
 
   -0.41599E+06         0.84690E+05         0.00000E+00
    0.84690E+05         0.40701E+06         0.00000E+00
    0.00000E+00         0.00000E+00        -0.17941E+04
 
   -0.40972E+06         0.10234E+06         0.00000E+00
    0.10234E+06         0.40190E+06         0.00000E+00
    0.00000E+00         0.00000E+00        -0.15640E+04
 
   -0.40273E+06         0.11948E+06         0.00000E+00
    0.11948E+06         0.39594E+06         0.00000E+00
    0.00000E+00         0.00000E+00        -0.13589E+04
 
   -0.39506E+06         0.13609E+06         0.00000E+00
    0.13609E+06         0.38918E+06         0.00000E+00
    0.00000E+00         0.00000E+00        -0.11767E+04
 
   -0.38676E+06         0.15214E+06         0.00000E+00
    0.15214E+06         0.38168E+06         0.00000E+00
    0.00000E+00         0.00000E+00        -0.10156E+04
 
   -0.37787E+06         0.16760E+06         0.00000E+00
    0.16760E+06         0.37351E+06         0.00000E+00
    0.00000E+00         0.00000E+00        -0.87370E+03
 
   -0.36845E+06         0.18244E+06         0.00000E+00
    0.18244E+06         0.36471E+06         0.00000E+00
    0.00000E+00         0.00000E+00        -0.74923E+03
 
   -0.35854E+06         0.19665E+06         0.00000E+00
    0.19665E+06         0.35534E+06         0.00000E+00
    0.00000E+00         0.00000E+00        -0.64046E+03
 
   -0.34819E+06         0.21023E+06         0.00000E+00
    0.21023E+06         0.34546E+06         0.00000E+00
    0.00000E+00         0.00000E+00        -0.54575E+03
 
   -0.33745E+06         0.22314E+06         0.00000E+00
    0.22314E+06         0.33513E+06         0.00000E+00
    0.00000E+00         0.00000E+00        -0.46359E+03
 
   -0.32636E+06         0.23540E+06         0.00000E+00
    0.23540E+06         0.32440E+06         0.00000E+00
    0.00000E+00         0.00000E+00        -0.39255E+03
 
   -0.31497E+06         0.24699E+06         0.00000E+00
    0.24699E+06         0.31332E+06         0.00000E+00
    0.00000E+00         0.00000E+00        -0.33132E+03
 
   -0.30333E+06         0.25791E+06         0.00000E+00
    0.25791E+06         0.30194E+06         0.00000E+00
    0.00000E+00         0.00000E+00        -0.27870E+03
 
   -0.29148E+06         0.26816E+06         0.00000E+00
    0.26816E+06         0.29031E+06         0.00000E+00
    0.00000E+00         0.00000E+00        -0.23358E+03
 
   -0.27946E+06         0.27776E+06         0.00000E+00
    0.27776E+06         0.27848E+06         0.00000E+00
    0.00000E+00         0.00000E+00        -0.19495E+03
 
   -0.26731E+06         0.28669E+06         0.00000E+00
    0.28669E+06         0.26650E+06         0.00000E+00
    0.00000E+00         0.00000E+00        -0.16189E+03
 
   -0.25509E+06         0.29498E+06         0.00000E+00
    0.29498E+06         0.25442E+06         0.00000E+00
    0.00000E+00         0.00000E+00        -0.13355E+03
 
   -0.24282E+06         0.30264E+06         0.00000E+00
    0.30264E+06         0.24228E+06         0.00000E+00
    0.00000E+00         0.00000E+00        -0.10916E+03
 
   -0.23055E+06         0.30968E+06         0.00000E+00
    0.30968E+06         0.23011E+06         0.00000E+00
    0.00000E+00         0.00000E+00        -0.88014E+02
 
   -0.21832E+06         0.31611E+06         0.00000E+00
    0.31611E+06         0.21797E+06         0.00000E+00
    0.00000E+00         0.00000E+00        -0.69450E+02
 
   -0.20616E+06         0.32195E+06         0.00000E+00
    0.32195E+06         0.20590E+06         0.00000E+00
    0.00000E+00         0.00000E+00        -0.52848E+02
 
   -0.19411E+06         0.32722E+06         0.00000E+00
    0.32722E+06         0.19392E+06         0.00000E+00
    0.00000E+00         0.00000E+00        -0.37618E+02
 
   -0.18220E+06         0.33195E+06         0.00000E+00
    0.33195E+06         0.18208E+06         0.00000E+00
    0.00000E+00         0.00000E+00        -0.23186E+02
 
   -0.17047E+06         0.33616E+06         0.00000E+00
    0.33616E+06         0.17042E+06         0.00000E+00
    0.00000E+00         0.00000E+00        -0.89846E+01
 
   -0.15894E+06         0.33987E+06         0.00000E+00
    0.33987E+06         0.15897E+06         0.00000E+00
    0.00000E+00         0.00000E+00         0.55618E+01
 
   -0.14765E+06         0.34311E+06         0.00000E+00
    0.34311E+06         0.14775E+06         0.00000E+00
    0.00000E+00         0.00000E+00         0.21048E+02
 
   -0.13662E+06         0.34591E+06         0.00000E+00
    0.34591E+06         0.13681E+06         0.00000E+00
    0.00000E+00         0.00000E+00         0.38102E+02
 
   -0.12589E+06         0.34830E+06         0.00000E+00
    0.34830E+06         0.12617E+06         0.00000E+00
    0.00000E+00         0.00000E+00         0.57400E+02
 
   -0.11546E+06         0.35031E+06         0.00000E+00
    0.35031E+06         0.11586E+06         0.00000E+00
    0.00000E+00         0.00000E+00         0.79681E+02
 
   -0.10538E+06         0.35198E+06         0.00000E+00
    0.35198E+06         0.10591E+06         0.00000E+00
    0.00000E+00         0.00000E+00         0.10576E+03
 
   -0.95655E+05         0.35334E+06         0.00000E+00
    0.35334E+06         0.96338E+05         0.00000E+00
    0.00000E+00         0.00000E+00         0.13655E+03
 
   -0.86307E+05         0.35443E+06         0.00000E+00
    0.35443E+06         0.87172E+05         0.00000E+00
    0.00000E+00         0.00000E+00         0.17308E+03
 
   -0.77351E+05         0.35529E+06         0.00000E+00
    0.35529E+06         0.78434E+05         0.00000E+00
    0.00000E+00         0.00000E+00         0.21649E+03
 
   -0.68803E+05         0.35595E+06         0.00000E+00
    0.35595E+06         0.70144E+05         0.00000E+00
    0.00000E+00         0.00000E+00         0.26808E+03
 
   -0.60674E+05         0.35645E+06         0.00000E+00
    0.35645E+06         0.62321E+05         0.00000E+00
    0.00000E+00         0.00000E+00         0.32934E+03
 
   -0.52973E+05         0.35685E+06         0.00000E+00
    0.35685E+06         0.54982E+05         0.00000E+00
    0.00000E+00         0.00000E+00         0.40191E+03
 
   -0.45705E+05         0.35718E+06         0.00000E+00
    0.35718E+06         0.48143E+05         0.00000E+00
    0.00000E+00         0.00000E+00         0.48764E+03
 
   -0.38874E+05         0.35748E+06         0.00000E+00
    0.35748E+06         0.41817E+05         0.00000E+00
    0.00000E+00         0.00000E+00         0.58864E+03
 
   -0.32481E+05         0.35780E+06         0.00000E+00
    0.35780E+06         0.36017E+05         0.00000E+00
    0.00000E+00         0.00000E+00         0.70721E+03
 
   -0.26522E+05         0.35819E+06         0.00000E+00
    0.35819E+06         0.30752E+05         0.00000E+00
    0.00000E+00         0.00000E+00         0.84593E+03
 
   -0.20991E+05         0.35869E+06         0.00000E+00
    0.35869E+06         0.26030E+05         0.00000E+00
    0.00000E+00         0.00000E+00         0.10076E+04
 
   -0.15878E+05         0.35934E+06         0.00000E+00
    0.35934E+06         0.21856E+05         0.00000E+00
    0.00000E+00         0.00000E+00         0.11955E+04
 
   -0.11169E+05         0.36020E+06         0.00000E+00
    0.36020E+06         0.18233E+05         0.00000E+00
    0.00000E+00         0.00000E+00         0.14128E+04
 
   -0.68473E+04         0.36131E+06         0.00000E+00
    0.36131E+06         0.15164E+05         0.00000E+00
    0.00000E+00         0.00000E+00         0.16632E+04
 
   -0.28903E+04         0.36271E+06         0.00000E+00
    0.36271E+06         0.12644E+05         0.00000E+00
    0.00000E+00         0.00000E+00         0.19508E+04
 
    0.72738E+03         0.36446E+06         0.00000E+00
    0.36446E+06         0.10671E+05         0.00000E+00
    0.00000E+00         0.00000E+00         0.22796E+04
 
   -0.38454E+06         0.83712E+04         0.00000E+00
    0.83712E+04         0.37659E+06         0.00000E+00
    0.00000E+00         0.00000E+00        -0.15904E+04
 
   -0.38272E+06         0.24772E+05         0.00000E+00
    0.24772E+05         0.37568E+06         0.00000E+00
    0.00000E+00         0.00000E+00        -0.14081E+04
 
   -0.38011E+06         0.40964E+05         0.00000E+00
    0.40964E+05         0.37390E+06         0.00000E+00
    0.00000E+00         0.00000E+00        -0.12417E+04
 
   -0.37675E+06         0.56903E+05         0.00000E+00
    0.56903E+05         0.37130E+06         0.00000E+00
    0.00000E+00         0.00000E+00        -0.10905E+04
 
   -0.37268E+06         0.72546E+05         0.00000E+00
    0.72546E+05         0.36791E+06         0.00000E+00
    0.00000E+00         0.00000E+00        -0.95396E+03
 
   -0.36793E+06         0.87856E+05         0.00000E+00
    0.87856E+05         0.36377E+06         0.00000E+00
    0.00000E+00         0.00000E+00        -0.83123E+03
 
   -0.36253E+06         0.10280E+06         0.00000E+00
    0.10280E+06         0.35893E+06         0.00000E+00
    0.00000E+00         0.00000E+00        -0.72148E+03
 
   -0.35653E+06         0.11735E+06         0.00000E+00
    0.11735E+06         0.35342E+06         0.00000E+00
    0.00000E+00         0.00000E+00        -0.62381E+03
 
   -0.34997E+06         0.13147E+06         0.00000E+00
    0.13147E+06         0.34728E+06         0.00000E+00
    0.00000E+00         0.00000E+00        -0.53730E+03
 
   -0.34288E+06         0.14514E+06         0.00000E+00
    0.14514E+06         0.34057E+06         0.00000E+00
    0.00000E+00         0.00000E+00        -0.46102E+03
 
   -0.33530E+06         0.15835E+06         0.00000E+00
    0.15835E+06         0.33333E+06         0.00000E+00
    0.00000E+00         0.00000E+00        -0.39408E+03
 
   -0.32727E+06         0.17107E+06         0.00000E+00
    0.17107E+06         0.32559E+06         0.00000E+00
    0.00000E+00         0.00000E+00        -0.33557E+03
 
   -0.31882E+06         0.18328E+06         0.00000E+00
    0.18328E+06         0.31740E+06         0.00000E+00
    0.00000E+00         0.00000E+00        -0.28463E+03
 
   -0.31001E+06         0.19499E+06         0.00000E+00
    0.19499E+06         0.30881E+06         0.00000E+00
    0.00000E+00         0.00000E+00        -0.24046E+03
 
   -0.30086E+06         0.20617E+06         0.00000E+00
    0.20617E+06         0.29985E+06         0.00000E+00
    0.00000E+00         0.00000E+00        -0.20226E+03
 
   -0.29142E+06         0.21682E+06         0.00000E+00
    0.21682E+06         0.29058E+06         0.00000E+00
    0.00000E+00         0.00000E+00        -0.16930E+03
 
   -0.28172E+06         0.22695E+06         0.00000E+00
    0.22695E+06         0.28102E+06         0.00000E+00
    0.00000E+00         0.00000E+00        -0.14088E+03
 
   -0.27180E+06         0.23653E+06         0.00000E+00
    0.23653E+06         0.27122E+06         0.00000E+00
    0.00000E+00         0.00000E+00        -0.11635E+03
 
   -0.26170E+06         0.24559E+06         0.00000E+00
    0.24559E+06         0.26123E+06         0.00000E+00
    0.00000E+00         0.00000E+00        -0.95078E+02
 
   -0.25145E+06         0.25412E+06         0.00000E+00
    0.25412E+06         0.25107E+06         0.00000E+00
    0.00000E+00         0.00000E+00        -0.76486E+02
 
   -0.24109E+06         0.26212E+06         0.00000E+00
    0.26212E+06         0.24079E+06         0.00000E+00
    0.00000E+00         0.00000E+00        -0.60009E+02
 
   -0.23065E+06         0.26961E+06         0.00000E+00
    0.26961E+06         0.23042E+06         0.00000E+00
    0.00000E+00         0.00000E+00        -0.45104E+02
 
   -0.22016E+06         0.27660E+06         0.00000E+00
    0.27660E+06         0.22000E+06         0.00000E+00
    0.00000E+00         0.00000E+00        -0.31243E+02
 
   -0.20965E+06         0.28309E+06         0.00000E+00
    0.28309E+06         0.20957E+06         0.00000E+00
    0.00000E+00         0.00000E+00        -0.17898E+02
 
   -0.19917E+06         0.28910E+06         0.00000E+00
    0.28910E+06         0.19915E+06         0.00000E+00
    0.00000E+00         0.00000E+00        -0.45380E+01
 
   -0.18873E+06         0.29465E+06         0.00000E+00
    0.29465E+06         0.18878E+06         0.00000E+00
    0.00000E+00         0.00000E+00         0.93860E+01
 
   -0.17836E+06         0.29976E+06         0.00000E+00
    0.29976E+06         0.17849E+06         0.00000E+00
    0.00000E+00         0.00000E+00         0.24449E+02
 
   -0.16810E+06         0.30443E+06         0.00000E+00
    0.30443E+06         0.16830E+06         0.00000E+00
    0.00000E+00         0.00000E+00         0.41266E+02
 
   -0.15796E+06         0.30870E+06         0.00000E+00
    0.30870E+06         0.15826E+06         0.00000E+00
    0.00000E+00         0.00000E+00         0.60504E+02
 
   -0.14797E+06         0.31259E+06         0.00000E+00
    0.31259E+06         0.14838E+06         0.00000E+00
    0.00000E+00         0.00000E+00         0.82896E+02
 
   -0.13815E+06         0.31612E+06         0.00000E+00
    0.31612E+06         0.13870E+06         0.00000E+00
    0.00000E+00         0.00000E+00         0.10926E+03
 
   -0.12853E+06         0.31931E+06         0.00000E+00
    0.31931E+06         0.12923E+06         0.00000E+00
    0.00000E+00         0.00000E+00         0.14051E+03
 
   -0.11911E+06         0.32219E+06         0.00000E+00
    0.32219E+06         0.12000E+06         0.00000E+00
    0.00000E+00         0.00000E+00         0.17768E+03
 
   -0.10993E+06         0.32480E+06         0.00000E+00
    0.32480E+06         0.11104E+06         0.00000E+00
    0.00000E+00         0.00000E+00         0.22193E+03
 
   -0.10098E+06         0.32715E+06         0.00000E+00
    0.32715E+06         0.10236E+06         0.00000E+00
    0.00000E+00         0.00000E+00         0.27460E+03
 
   -0.92294E+05         0.32928E+06         0.00000E+00
    0.32928E+06         0.93979E+05         0.00000E+00
    0.00000E+00         0.00000E+00         0.33718E+03
 
   -0.83870E+05         0.33123E+06         0.00000E+00
    0.33123E+06         0.85927E+05         0.00000E+00
    0.00000E+00         0.00000E+00         0.41138E+03
 
   -0.75721E+05         0.33301E+06         0.00000E+00
    0.33301E+06         0.78216E+05         0.00000E+00
    0.00000E+00         0.00000E+00         0.49913E+03
 
   -0.67851E+05         0.33467E+06         0.00000E+00
    0.33467E+06         0.70864E+05         0.00000E+00
    0.00000E+00         0.00000E+00         0.60259E+03
 
   -0.60263E+05         0.33624E+06         0.00000E+00
    0.33624E+06         0.63884E+05         0.00000E+00
    0.00000E+00         0.00000E+00         0.72420E+03
 
   -0.52959E+05         0.33776E+06         0.00000E+00
    0.33776E+06         0.57292E+05         0.00000E+00
    0.00000E+00         0.00000E+00         0.86671E+03
 
   -0.45935E+05         0.33926E+06         0.00000E+00
    0.33926E+06         0.51101E+05         0.00000E+00
    0.00000E+00         0.00000E+00         0.10331E+04
 
   -0.39188E+05         0.34077E+06         0.00000E+00
    0.34077E+06         0.45322E+05         0.00000E+00
    0.00000E+00         0.00000E+00         0.12269E+04
 
   -0.32708E+05         0.34233E+06         0.00000E+00
    0.34233E+06         0.39966E+05         0.00000E+00
    0.00000E+00         0.00000E+00         0.14516E+04
 
   -0.26485E+05         0.34398E+06         0.00000E+00
    0.34398E+06         0.35042E+05         0.00000E+00
    0.00000E+00         0.00000E+00         0.17114E+04
 
   -0.20505E+05         0.34575E+06         0.00000E+00
    0.34575E+06         0.30558E+05         0.00000E+00
    0.00000E+00         0.00000E+00         0.20105E+04
 
   -0.14749E+05         0.34767E+06         0.00000E+00
    0.34767E+06         0.26519E+05         0.00000E+00
    0.00000E+00         0.00000E+00         0.23539E+04
 
   -0.91975E+04         0.34979E+06         0.00000E+00
    0.34979E+06         0.22930E+05         0.00000E+00
    0.00000E+00         0.00000E+00         0.27465E+04
 
   -0.38255E+04         0.35214E+06         0.00000E+00
    0.35214E+06         0.19793E+05         0.00000E+00
    0.00000E+00         0.00000E+00         0.31936E+04
 
    0.13945E+04         0.35474E+06         0.00000E+00
    0.35474E+06         0.17110E+05         0.00000E+00
    0.00000E+00         0.00000E+00         0.37008E+04
 
   -0.34446E+06         0.70958E+04         0.00000E+00
    0.70958E+04         0.34042E+06         0.00000E+00
    0.00000E+00         0.00000E+00        -0.80749E+03
 
   -0.34327E+06         0.21114E+05         0.00000E+00
    0.21114E+05         0.33969E+06         0.00000E+00
    0.00000E+00         0.00000E+00        -0.71432E+03
 
   -0.34142E+06         0.35004E+05         0.00000E+00
    0.35004E+05         0.33827E+06         0.00000E+00
    0.00000E+00         0.00000E+00        -0.62886E+03
 
   -0.33894E+06         0.48730E+05         0.00000E+00
    0.48730E+05         0.33618E+06         0.00000E+00
    0.00000E+00         0.00000E+00        -0.55095E+03
 
   -0.33585E+06         0.62257E+05         0.00000E+00
    0.62257E+05         0.33345E+06         0.00000E+00
    0.00000E+00         0.00000E+00        -0.48037E+03
 
   -0.33219E+06         0.75552E+05         0.00000E+00
    0.75552E+05         0.33010E+06         0.00000E+00
    0.00000E+00         0.00000E+00        -0.41679E+03
 
   -0.32797E+06         0.88586E+05         0.00000E+00
    0.88586E+05         0.32617E+06         0.00000E+00
    0.00000E+00         0.00000E+00        -0.35985E+03
 
   -0.32323E+06         0.10133E+06         0.00000E+00
    0.10133E+06         0.32168E+06         0.00000E+00
    0.00000E+00         0.00000E+00        -0.30915E+03
 
   -0.31799E+06         0.11377E+06         0.00000E+00
    0.11377E+06         0.31667E+06         0.00000E+00
    0.00000E+00         0.00000E+00        -0.26425E+03
 
   -0.31230E+06         0.12587E+06         0.00000E+00
    0.12587E+06         0.31117E+06         0.00000E+00
    0.00000E+00         0.00000E+00        -0.22471E+03
 
   -0.30616E+06         0.13761E+06         0.00000E+00
    0.13761E+06         0.30521E+06         0.00000E+00
    0.00000E+00         0.00000E+00        -0.19005E+03
 
   -0.29963E+06         0.14899E+06         0.00000E+00
    0.14899E+06         0.29883E+06         0.00000E+00
    0.00000E+00         0.00000E+00        -0.15981E+03
 
   -0.29272E+06         0.15998E+06         0.00000E+00
    0.15998E+06         0.29205E+06         0.00000E+00
    0.00000E+00         0.00000E+00        -0.13354E+03
 
   -0.28547E+06         0.17058E+06         0.00000E+00
    0.17058E+06         0.28492E+06         0.00000E+00
    0.00000E+00         0.00000E+00        -0.11077E+03
 
   -0.27791E+06         0.18077E+06         0.00000E+00
    0.18077E+06         0.27745E+06         0.00000E+00
    0.00000E+00         0.00000E+00        -0.91073E+02
 
   -0.27007E+06         0.19055E+06         0.00000E+00
    0.19055E+06         0.26970E+06         0.00000E+00
    0.00000E+00         0.00000E+00        -0.74003E+02
 
   -0.26198E+06         0.19991E+06         0.00000E+00
    0.19991E+06         0.26169E+06         0.00000E+00
    0.00000E+00         0.00000E+00        -0.59137E+02
 
   -0.25367E+06         0.20885E+06         0.00000E+00
    0.20885E+06         0.25344E+06         0.00000E+00
    0.00000E+00         0.00000E+00        -0.46057E+02
 
   -0.24518E+06         0.21738E+06         0.00000E+00
    0.21738E+06         0.24500E+06         0.00000E+00
    0.00000E+00         0.00000E+00        -0.34352E+02
 
   -0.23652E+06         0.22548E+06         0.00000E+00
    0.22548E+06         0.23640E+06         0.00000E+00
    0.00000E+00         0.00000E+00        -0.23609E+02
 
   -0.22773E+06         0.23316E+06         0.00000E+00
    0.23316E+06         0.22766E+06         0.00000E+00
    0.00000E+00         0.00000E+00        -0.13413E+02
 
   -0.21883E+06         0.24043E+06         0.00000E+00
    0.24043E+06         0.21881E+06         0.00000E+00
    0.00000E+00         0.00000E+00        -0.33401E+01
 
   -0.20986E+06         0.24730E+06         0.00000E+00
    0.24730E+06         0.20989E+06         0.00000E+00
    0.00000E+00         0.00000E+00         0.70517E+01
 
   -0.20083E+06         0.25377E+06         0.00000E+00
    0.25377E+06         0.20092E+06         0.00000E+00
    0.00000E+00         0.00000E+00         0.18229E+02
 
   -0.19177E+06         0.25985E+06         0.00000E+00
    0.25985E+06         0.19193E+06         0.00000E+00
    0.00000E+00         0.00000E+00         0.30691E+02
 
   -0.18272E+06         0.26556E+06         0.00000E+00
    0.26556E+06         0.18294E+06         0.00000E+00
    0.00000E+00         0.00000E+00         0.44982E+02
 
   -0.17368E+06         0.27091E+06         0.00000E+00
    0.27091E+06         0.17398E+06         0.00000E+00
    0.00000E+00         0.00000E+00         0.61703E+02
 
   -0.16467E+06         0.27591E+06         0.00000E+00
    0.27591E+06         0.16508E+06         0.00000E+00
    0.00000E+00         0.00000E+00         0.81520E+02
 
   -0.15573E+06         0.28058E+06         0.00000E+00
    0.28058E+06         0.15626E+06         0.00000E+00
    0.00000E+00         0.00000E+00         0.10519E+03
 
   -0.14687E+06         0.28494E+06         0.00000E+00
    0.28494E+06         0.14754E+06         0.00000E+00
    0.00000E+00         0.00000E+00         0.13355E+03
 
   -0.13810E+06         0.28900E+06         0.00000E+00
    0.28900E+06         0.13894E+06         0.00000E+00
    0.00000E+00         0.00000E+00         0.16757E+03
 
   -0.12944E+06         0.29279E+06         0.00000E+00
    0.29279E+06         0.13048E+06         0.00000E+00
    0.00000E+00         0.00000E+00         0.20836E+03
 
   -0.12091E+06         0.29632E+06         0.00000E+00
    0.29632E+06         0.12219E+06         0.00000E+00
    0.00000E+00         0.00000E+00         0.25715E+03
 
   -0.11251E+06         0.29963E+06         0.00000E+00
    0.29963E+06         0.11409E+06         0.00000E+00
    0.00000E+00         0.00000E+00         0.31540E+03
 
   -0.10426E+06         0.30273E+06         0.00000E+00
    0.30273E+06         0.10618E+06         0.00000E+00
    0.00000E+00         0.00000E+00         0.38472E+03
 
   -0.96159E+05         0.30564E+06         0.00000E+00
    0.30564E+06         0.98494E+05         0.00000E+00
    0.00000E+00         0.00000E+00         0.46697E+03
 
   -0.88221E+05         0.30840E+06         0.00000E+00
    0.30840E+06         0.91042E+05         0.00000E+00
    0.00000E+00         0.00000E+00         0.56425E+03
 
   -0.80447E+05         0.31102E+06         0.00000E+00
    0.31102E+06         0.83842E+05         0.00000E+00
    0.00000E+00         0.00000E+00         0.67896E+03
 
   -0.72838E+05         0.31353E+06         0.00000E+00
    0.31353E+06         0.76907E+05         0.00000E+00
    0.00000E+00         0.00000E+00         0.81376E+03
 
   -0.65395E+05         0.31597E+06         0.00000E+00
    0.31597E+06         0.70254E+05         0.00000E+00
    0.00000E+00         0.00000E+00         0.97168E+03
 
   -0.58114E+05         0.31835E+06         0.00000E+00
    0.31835E+06         0.63895E+05         0.00000E+00
    0.00000E+00         0.00000E+00         0.11561E+04
 
   -0.50990E+05         0.32070E+06         0.00000E+00
    0.32070E+06         0.57843E+05         0.00000E+00
    0.00000E+00         0.00000E+00         0.13706E+04
 
   -0.44015E+05         0.32305E+06         0.00000E+00
    0.32305E+06         0.52112E+05         0.00000E+00
    0.00000E+00         0.00000E+00         0.16195E+04
 
   -0.37177E+05         0.32543E+06         0.00000E+00
    0.32543E+06         0.46713E+05         0.00000E+00
    0.00000E+00         0.00000E+00         0.19073E+04
 
   -0.30464E+05         0.32787E+06         0.00000E+00
    0.32787E+06         0.41657E+05         0.00000E+00
    0.00000E+00         0.00000E+00         0.22387E+04
 
   -0.23859E+05         0.33039E+06         0.00000E+00
    0.33039E+06         0.36955E+05         0.00000E+00
    0.00000E+00         0.00000E+00         0.26192E+04
 
   -0.17344E+05         0.33301E+06         0.00000E+00
    0.33301E+06         0.32616E+05         0.00000E+00
    0.00000E+00         0.00000E+00         0.30544E+04
 
   -0.10897E+05         0.33577E+06         0.00000E+00
    0.33577E+06         0.28648E+05         0.00000E+00
    0.00000E+00         0.00000E+00         0.35503E+04
 
   -0.44929E+04         0.33868E+06         0.00000E+00
    0.33868E+06         0.25059E+05         0.00000E+00
    0.00000E+00         0.00000E+00         0.41133E+04
 
    0.18945E+04         0.34178E+06         0.00000E+00
    0.34178E+06         0.21856E+05         0.00000E+00
    0.00000E+00         0.00000E+00         0.47500E+04
 
   -0.31096E+06         0.60546E+04         0.00000E+00
    0.60546E+04         0.30870E+06         0.00000E+00
    0.00000E+00         0.00000E+00        -0.45113E+03
 
   -0.31010E+06         0.18100E+05         0.00000E+00
    0.18100E+05         0.30812E+06         0.00000E+00
    0.00000E+00         0.00000E+00        -0.39578E+03
 
   -0.30870E+06         0.30076E+05         0.00000E+00
    0.30076E+05         0.30698E+06         0.00000E+00
    0.00000E+00         0.00000E+00        -0.34520E+03
 
   -0.30679E+06         0.41950E+05         0.00000E+00
    0.41950E+05         0.30529E+06         0.00000E+00
    0.00000E+00         0.00000E+00        -0.29927E+03
 
   -0.30437E+06         0.53695E+05         0.00000E+00
    0.53695E+05         0.30308E+06         0.00000E+00
    0.00000E+00         0.00000E+00        -0.25784E+03
 
   -0.30146E+06         0.65284E+05         0.00000E+00
    0.65284E+05         0.30036E+06         0.00000E+00
    0.00000E+00         0.00000E+00        -0.22070E+03
 
   -0.29810E+06         0.76691E+05         0.00000E+00
    0.76691E+05         0.29716E+06         0.00000E+00
    0.00000E+00         0.00000E+00        -0.18762E+03
 
   -0.29428E+06         0.87894E+05         0.00000E+00
    0.87894E+05         0.29349E+06         0.00000E+00
    0.00000E+00         0.00000E+00        -0.15833E+03
 
   -0.29005E+06         0.98871E+05         0.00000E+00
    0.98871E+05         0.28939E+06         0.00000E+00
    0.00000E+00         0.00000E+00        -0.13256E+03
 
   -0.28542E+06         0.10960E+06         0.00000E+00
    0.10960E+06         0.28487E+06         0.00000E+00
    0.00000E+00         0.00000E+00        -0.11001E+03
 
   -0.28041E+06         0.12008E+06         0.00000E+00
    0.12008E+06         0.27995E+06         0.00000E+00
    0.00000E+00         0.00000E+00        -0.90385E+02
 
   -0.27504E+06         0.13027E+06         0.00000E+00
    0.13027E+06         0.27467E+06         0.00000E+00
    0.00000E+00         0.00000E+00        -0.73371E+02
 
   -0.26934E+06         0.14018E+06         0.00000E+00
    0.14018E+06         0.26905E+06         0.00000E+00
    0.00000E+00         0.00000E+00        -0.58663E+02
 
   -0.26334E+06         0.14978E+06         0.00000E+00
    0.14978E+06         0.26311E+06         0.00000E+00
    0.00000E+00         0.00000E+00        -0.45950E+02
 
   -0.25706E+06         0.15907E+06         0.00000E+00
    0.15907E+06         0.25688E+06         0.00000E+00
    0.00000E+00         0.00000E+00        -0.34924E+02
 
   -0.25052E+06         0.16805E+06         0.00000E+00
    0.16805E+06         0.25039E+06         0.00000E+00
    0.00000E+00         0.00000E+00        -0.25273E+02
 
   -0.24374E+06         0.17670E+06         0.00000E+00
    0.17670E+06         0.24365E+06         0.00000E+00
    0.00000E+00         0.00000E+00        -0.16683E+02
 
   -0.23675E+06         0.18503E+06         0.00000E+00
    0.18503E+06         0.23670E+06         0.00000E+00
    0.00000E+00         0.00000E+00        -0.88377E+01
 
   -0.22957E+06         0.19302E+06         0.00000E+00
    0.19302E+06         0.22956E+06         0.00000E+00
    0.00000E+00         0.00000E+00        -0.14092E+01
 
   -0.22223E+06         0.20069E+06         0.00000E+00
    0.20069E+06         0.22226E+06         0.00000E+00
    0.00000E+00         0.00000E+00         0.59411E+01
 
   -0.21474E+06         0.20803E+06         0.00000E+00
    0.20803E+06         0.21481E+06         0.00000E+00
    0.00000E+00         0.00000E+00         0.13570E+02
 
   -0.20713E+06         0.21504E+06         0.00000E+00
    0.21504E+06         0.20724E+06         0.00000E+00
    0.00000E+00         0.00000E+00         0.21857E+02
 
   -0.19943E+06         0.22172E+06         0.00000E+00
    0.22172E+06         0.19958E+06         0.00000E+00
    0.00000E+00         0.00000E+00         0.31214E+02
 
   -0.19164E+06         0.22809E+06         0.00000E+00
    0.22809E+06         0.19185E+06         0.00000E+00
    0.00000E+00         0.00000E+00         0.42091E+02
 
   -0.18379E+06         0.23415E+06         0.00000E+00
    0.23415E+06         0.18406E+06         0.00000E+00
    0.00000E+00         0.00000E+00         0.54990E+02
 
   -0.17590E+06         0.23991E+06         0.00000E+00
    0.23991E+06         0.17625E+06         0.00000E+00
    0.00000E+00         0.00000E+00         0.70467E+02
 
   -0.16798E+06         0.24538E+06         0.00000E+00
    0.24538E+06         0.16843E+06         0.00000E+00
    0.00000E+00         0.00000E+00         0.89156E+02
 
   -0.16006E+06         0.25057E+06         0.00000E+00
    0.25057E+06         0.16062E+06         0.00000E+00
    0.00000E+00         0.00000E+00         0.11177E+03
 
   -0.15214E+06         0.25549E+06         0.00000E+00
    0.25549E+06         0.15284E+06         0.00000E+00
    0.00000E+00         0.00000E+00         0.13913E+03
 
   -0.14424E+06         0.26015E+06         0.00000E+00
    0.26015E+06         0.14511E+06         0.00000E+00
    0.00000E+00         0.00000E+00         0.17217E+03
 
   -0.13638E+06         0.26457E+06         0.00000E+00
    0.26457E+06         0.13744E+06         0.00000E+00
    0.00000E+00         0.00000E+00         0.21196E+03
 
   -0.12856E+06         0.26877E+06         0.00000E+00
    0.26877E+06         0.12986E+06         0.00000E+00
    0.00000E+00         0.00000E+00         0.25973E+03
 
   -0.12080E+06         0.27275E+06         0.00000E+00
    0.27275E+06         0.12238E+06         0.00000E+00
    0.00000E+00         0.00000E+00         0.31689E+03
 
   -0.11310E+06         0.27655E+06         0.00000E+00
    0.27655E+06         0.11502E+06         0.00000E+00
    0.00000E+00         0.00000E+00         0.38504E+03
 
   -0.10546E+06         0.28016E+06         0.00000E+00
    0.28016E+06         0.10779E+06         0.00000E+00
    0.00000E+00         0.00000E+00         0.46602E+03
 
   -0.97904E+05         0.28362E+06         0.00000E+00
    0.28362E+06         0.10071E+06         0.00000E+00
    0.00000E+00         0.00000E+00         0.56192E+03
 
   -0.90422E+05         0.28694E+06         0.00000E+00
    0.28694E+06         0.93797E+05         0.00000E+00
    0.00000E+00         0.00000E+00         0.67512E+03
 
   -0.83017E+05         0.29015E+06         0.00000E+00
    0.29015E+06         0.87059E+05         0.00000E+00
    0.00000E+00         0.00000E+00         0.80829E+03
 
   -0.75690E+05         0.29325E+06         0.00000E+00
    0.29325E+06         0.80512E+05         0.00000E+00
    0.00000E+00         0.00000E+00         0.96447E+03
 
   -0.68436E+05         0.29627E+06         0.00000E+00
    0.29627E+06         0.74171E+05         0.00000E+00
    0.00000E+00         0.00000E+00         0.11470E+04
 
   -0.61252E+05         0.29924E+06         0.00000E+00
    0.29924E+06         0.68050E+05         0.00000E+00
    0.00000E+00         0.00000E+00         0.13597E+04
 
   -0.54129E+05         0.30216E+06         0.00000E+00
    0.30216E+06         0.62163E+05         0.00000E+00
    0.00000E+00         0.00000E+00         0.16068E+04
 
   -0.47058E+05         0.30507E+06         0.00000E+00
    0.30507E+06         0.56522E+05         0.00000E+00
    0.00000E+00         0.00000E+00         0.18927E+04
 
   -0.40028E+05         0.30798E+06         0.00000E+00
    0.30798E+06         0.51142E+05         0.00000E+00
    0.00000E+00         0.00000E+00         0.22227E+04
 
   -0.33025E+05         0.31091E+06         0.00000E+00
    0.31091E+06         0.46035E+05         0.00000E+00
    0.00000E+00         0.00000E+00         0.26021E+04
 
   -0.26032E+05         0.31388E+06         0.00000E+00
    0.31388E+06         0.41216E+05         0.00000E+00
    0.00000E+00         0.00000E+00         0.30367E+04
 
   -0.19031E+05         0.31691E+06         0.00000E+00
    0.31691E+06         0.36696E+05         0.00000E+00
    0.00000E+00         0.00000E+00         0.35330E+04
 
   -0.12001E+05         0.32002E+06         0.00000E+00
    0.32002E+06         0.32489E+05         0.00000E+00
    0.00000E+00         0.00000E+00         0.40976E+04
 
   -0.49189E+04         0.32322E+06         0.00000E+00
    0.32322E+06         0.28606E+05         0.00000E+00
    0.00000E+00         0.00000E+00         0.47373E+04
 
    0.22402E+04         0.32653E+06         0.00000E+00
    0.32653E+06         0.25058E+05         0.00000E+00
    0.00000E+00         0.00000E+00         0.54596E+04
 
   -0.28266E+06         0.52162E+04         0.00000E+00
    0.52162E+04         0.28082E+06         0.00000E+00
    0.00000E+00         0.00000E+00        -0.36812E+03
 
   -0.28194E+06         0.15652E+05         0.00000E+00
    0.15652E+05         0.28035E+06         0.00000E+00
    0.00000E+00         0.00000E+00        -0.31820E+03
 
   -0.28079E+06         0.26056E+05         0.00000E+00
    0.26056E+05         0.27942E+06         0.00000E+00
    0.00000E+00         0.00000E+00        -0.27331E+03
 
   -0.27922E+06         0.36403E+05         0.00000E+00
    0.36403E+05         0.27805E+06         0.00000E+00
    0.00000E+00         0.00000E+00        -0.23317E+03
 
   -0.27723E+06         0.46669E+05         0.00000E+00
    0.46669E+05         0.27624E+06         0.00000E+00
    0.00000E+00         0.00000E+00        -0.19747E+03
 
   -0.27485E+06         0.56832E+05         0.00000E+00
    0.56832E+05         0.27402E+06         0.00000E+00
    0.00000E+00         0.00000E+00        -0.16592E+03
 
   -0.27208E+06         0.66873E+05         0.00000E+00
    0.66873E+05         0.27139E+06         0.00000E+00
    0.00000E+00         0.00000E+00        -0.13818E+03
 
   -0.26894E+06         0.76771E+05         0.00000E+00
    0.76771E+05         0.26837E+06         0.00000E+00
    0.00000E+00         0.00000E+00        -0.11394E+03
 
   -0.26545E+06         0.86509E+05         0.00000E+00
    0.86509E+05         0.26498E+06         0.00000E+00
    0.00000E+00         0.00000E+00        -0.92859E+02
 
   -0.26162E+06         0.96071E+05         0.00000E+00
    0.96071E+05         0.26124E+06         0.00000E+00
    0.00000E+00         0.00000E+00        -0.74622E+02
 
   -0.25746E+06         0.10544E+06         0.00000E+00
    0.10544E+06         0.25717E+06         0.00000E+00
    0.00000E+00         0.00000E+00        -0.58911E+02
 
   -0.25300E+06         0.11461E+06         0.00000E+00
    0.11461E+06         0.25277E+06         0.00000E+00
    0.00000E+00         0.00000E+00        -0.45411E+02
 
   -0.24825E+06         0.12356E+06         0.00000E+00
    0.12356E+06         0.24808E+06         0.00000E+00
    0.00000E+00         0.00000E+00        -0.33814E+02
 
   -0.24323E+06         0.13228E+06         0.00000E+00
    0.13228E+06         0.24311E+06         0.00000E+00
    0.00000E+00         0.00000E+00        -0.23817E+02
 
   -0.23795E+06         0.14077E+06         0.00000E+00
    0.14077E+06         0.23788E+06         0.00000E+00
    0.00000E+00         0.00000E+00        -0.15121E+02
 
   -0.23245E+06         0.14902E+06         0.00000E+00
    0.14902E+06         0.23241E+06         0.00000E+00
    0.00000E+00         0.00000E+00        -0.74269E+01
 
   -0.22672E+06         0.15701E+06         0.00000E+00
    0.15701E+06         0.22672E+06         0.00000E+00
    0.00000E+00         0.00000E+00        -0.43396E+00
 
   -0.22080E+06         0.16476E+06         0.00000E+00
    0.16476E+06         0.22083E+06         0.00000E+00
    0.00000E+00         0.00000E+00         0.61633E+01
 
   -0.21469E+06         0.17225E+06         0.00000E+00
    0.17225E+06         0.21476E+06         0.00000E+00
    0.00000E+00         0.00000E+00         0.12680E+02
 
   -0.20842E+06         0.17948E+06         0.00000E+00
    0.17948E+06         0.20852E+06         0.00000E+00
    0.00000E+00         0.00000E+00         0.19447E+02
 
   -0.20201E+06         0.18645E+06         0.00000E+00
    0.18645E+06         0.20214E+06         0.00000E+00
    0.00000E+00         0.00000E+00         0.26815E+02
 
   -0.19546E+06         0.19317E+06         0.00000E+00
    0.19317E+06         0.19564E+06         0.00000E+00
    0.00000E+00         0.00000E+00         0.35164E+02
 
   -0.18880E+06         0.19962E+06         0.00000E+00
    0.19962E+06         0.18903E+06         0.00000E+00
    0.00000E+00         0.00000E+00         0.44907E+02
 
   -0.18204E+06         0.20583E+06         0.00000E+00
    0.20583E+06         0.18232E+06         0.00000E+00
    0.00000E+00         0.00000E+00         0.56505E+02
 
   -0.17520E+06         0.21179E+06         0.00000E+00
    0.21179E+06         0.17555E+06         0.00000E+00
    0.00000E+00         0.00000E+00         0.70472E+02
 
   -0.16829E+06         0.21751E+06         0.00000E+00
    0.21751E+06         0.16872E+06         0.00000E+00
    0.00000E+00         0.00000E+00         0.87389E+02
 
   -0.16132E+06         0.22299E+06         0.00000E+00
    0.22299E+06         0.16186E+06         0.00000E+00
    0.00000E+00         0.00000E+00         0.10792E+03
 
   -0.15430E+06         0.22824E+06         0.00000E+00
    0.22824E+06         0.15497E+06         0.00000E+00
    0.00000E+00         0.00000E+00         0.13281E+03
 
   -0.14726E+06         0.23328E+06         0.00000E+00
    0.23328E+06         0.14807E+06         0.00000E+00
    0.00000E+00         0.00000E+00         0.16292E+03
 
   -0.14019E+06         0.23810E+06         0.00000E+00
    0.23810E+06         0.14118E+06         0.00000E+00
    0.00000E+00         0.00000E+00         0.19926E+03
 
   -0.13311E+06         0.24272E+06         0.00000E+00
    0.24272E+06         0.13432E+06         0.00000E+00
    0.00000E+00         0.00000E+00         0.24295E+03
 
   -0.12602E+06         0.24716E+06         0.00000E+00
    0.24716E+06         0.12749E+06         0.00000E+00
    0.00000E+00         0.00000E+00         0.29530E+03
 
   -0.11893E+06         0.25142E+06         0.00000E+00
    0.25142E+06         0.12072E+06         0.00000E+00
    0.00000E+00         0.00000E+00         0.35781E+03
 
   -0.11185E+06         0.25551E+06         0.00000E+00
    0.25551E+06         0.11401E+06         0.00000E+00
    0.00000E+00         0.00000E+00         0.43219E+03
 
   -0.10478E+06         0.25945E+06         0.00000E+00
    0.25945E+06         0.10738E+06         0.00000E+00
    0.00000E+00         0.00000E+00         0.52040E+03
 
   -0.97720E+05         0.26325E+06         0.00000E+00
    0.26325E+06         0.10084E+06         0.00000E+00
    0.00000E+00         0.00000E+00         0.62466E+03
 
   -0.90676E+05         0.26693E+06         0.00000E+00
    0.26693E+06         0.94413E+05         0.00000E+00
    0.00000E+00         0.00000E+00         0.74751E+03
 
   -0.83644E+05         0.27050E+06         0.00000E+00
    0.27050E+06         0.88103E+05         0.00000E+00
    0.00000E+00         0.00000E+00         0.89179E+03
 
   -0.76623E+05         0.27397E+06         0.00000E+00
    0.27397E+06         0.81926E+05         0.00000E+00
    0.00000E+00         0.00000E+00         0.10607E+04
 
   -0.69607E+05         0.27736E+06         0.00000E+00
    0.27736E+06         0.75897E+05         0.00000E+00
    0.00000E+00         0.00000E+00         0.12579E+04
 
   -0.62592E+05         0.28068E+06         0.00000E+00
    0.28068E+06         0.70028E+05         0.00000E+00
    0.00000E+00         0.00000E+00         0.14873E+04
 
   -0.55569E+05         0.28395E+06         0.00000E+00
    0.28395E+06         0.64336E+05         0.00000E+00
    0.00000E+00         0.00000E+00         0.17533E+04
 
   -0.48529E+05         0.28718E+06         0.00000E+00
    0.28718E+06         0.58833E+05         0.00000E+00
    0.00000E+00         0.00000E+00         0.20609E+04
 
   -0.41459E+05         0.29039E+06         0.00000E+00
    0.29039E+06         0.53536E+05         0.00000E+00
    0.00000E+00         0.00000E+00         0.24153E+04
 
   -0.34347E+05         0.29358E+06         0.00000E+00
    0.29358E+06         0.48459E+05         0.00000E+00
    0.00000E+00         0.00000E+00         0.28224E+04
 
   -0.27177E+05         0.29679E+06         0.00000E+00
    0.29679E+06         0.43618E+05         0.00000E+00
    0.00000E+00         0.00000E+00         0.32882E+04
 
   -0.19932E+05         0.30000E+06         0.00000E+00
    0.30000E+06         0.39029E+05         0.00000E+00
    0.00000E+00         0.00000E+00         0.38194E+04
 
   -0.12593E+05         0.30325E+06         0.00000E+00
    0.30325E+06         0.34708E+05         0.00000E+00
    0.00000E+00         0.00000E+00         0.44230E+04
 
   -0.51390E+04         0.30654E+06         0.00000E+00
    0.30654E+06         0.30671E+05         0.00000E+00
    0.00000E+00         0.00000E+00         0.51063E+04
 
    0.24522E+04         0.30987E+06         0.00000E+00
    0.30987E+06         0.26932E+05         0.00000E+00
    0.00000E+00         0.00000E+00         0.58769E+04
 
   -0.25843E+06         0.45481E+04         0.00000E+00
    0.45481E+04         0.25620E+06         0.00000E+00
    0.00000E+00         0.00000E+00        -0.44518E+03
 
   -0.25772E+06         0.13684E+05         0.00000E+00
    0.13684E+05         0.25581E+06         0.00000E+00
    0.00000E+00         0.00000E+00        -0.38219E+03
 
   -0.25668E+06         0.22811E+05         0.00000E+00
    0.22811E+05         0.25505E+06         0.00000E+00
    0.00000E+00         0.00000E+00        -0.32625E+03
 
   -0.25530E+06         0.31909E+05         0.00000E+00
    0.31909E+05         0.25392E+06         0.00000E+00
    0.00000E+00         0.00000E+00        -0.27679E+03
 
   -0.25359E+06         0.40960E+05         0.00000E+00
    0.40960E+05         0.25242E+06         0.00000E+00
    0.00000E+00         0.00000E+00        -0.23329E+03
 
   -0.25155E+06         0.49945E+05         0.00000E+00
    0.49945E+05         0.25058E+06         0.00000E+00
    0.00000E+00         0.00000E+00        -0.19520E+03
 
   -0.24920E+06         0.58849E+05         0.00000E+00
    0.58849E+05         0.24839E+06         0.00000E+00
    0.00000E+00         0.00000E+00        -0.16201E+03
 
   -0.24655E+06         0.67655E+05         0.00000E+00
    0.67655E+05         0.24588E+06         0.00000E+00
    0.00000E+00         0.00000E+00        -0.13322E+03
 
   -0.24359E+06         0.76348E+05         0.00000E+00
    0.76348E+05         0.24305E+06         0.00000E+00
    0.00000E+00         0.00000E+00        -0.10835E+03
 
   -0.24036E+06         0.84915E+05         0.00000E+00
    0.84915E+05         0.23992E+06         0.00000E+00
    0.00000E+00         0.00000E+00        -0.86960E+02
 
   -0.23685E+06         0.93344E+05         0.00000E+00
    0.93344E+05         0.23651E+06         0.00000E+00
    0.00000E+00         0.00000E+00        -0.68605E+02
 
   -0.23308E+06         0.10162E+06         0.00000E+00
    0.10162E+06         0.23281E+06         0.00000E+00
    0.00000E+00         0.00000E+00        -0.52878E+02
 
   -0.22906E+06         0.10974E+06         0.00000E+00
    0.10974E+06         0.22886E+06         0.00000E+00
    0.00000E+00         0.00000E+00        -0.39388E+02
 
   -0.22480E+06         0.11769E+06         0.00000E+00
    0.11769E+06         0.22466E+06         0.00000E+00
    0.00000E+00         0.00000E+00        -0.27761E+02
 
   -0.22032E+06         0.12546E+06         0.00000E+00
    0.12546E+06         0.22023E+06         0.00000E+00
    0.00000E+00         0.00000E+00        -0.17639E+02
 
   -0.21563E+06         0.13305E+06         0.00000E+00
    0.13305E+06         0.21559E+06         0.00000E+00
    0.00000E+00         0.00000E+00        -0.86729E+01
 
   -0.21074E+06         0.14045E+06         0.00000E+00
    0.14045E+06         0.21074E+06         0.00000E+00
    0.00000E+00         0.00000E+00        -0.51976E+00
 
   -0.20567E+06         0.14765E+06         0.00000E+00
    0.14765E+06         0.20571E+06         0.00000E+00
    0.00000E+00         0.00000E+00         0.71616E+01
 
   -0.20043E+06         0.15466E+06         0.00000E+00
    0.15466E+06         0.20050E+06         0.00000E+00
    0.00000E+00         0.00000E+00         0.14717E+02
 
   -0.19503E+06         0.16146E+06         0.00000E+00
    0.16146E+06         0.19514E+06         0.00000E+00
    0.00000E+00         0.00000E+00         0.22503E+02
 
   -0.18949E+06         0.16806E+06         0.00000E+00
    0.16806E+06         0.18964E+06         0.00000E+00
    0.00000E+00         0.00000E+00         0.30894E+02
 
   -0.18381E+06         0.17446E+06         0.00000E+00
    0.17446E+06         0.18401E+06         0.00000E+00
    0.00000E+00         0.00000E+00         0.40290E+02
 
   -0.17801E+06         0.18065E+06         0.00000E+00
    0.18065E+06         0.17826E+06         0.00000E+00
    0.00000E+00         0.00000E+00         0.51125E+02
 
   -0.17210E+06         0.18664E+06         0.00000E+00
    0.18664E+06         0.17242E+06         0.00000E+00
    0.00000E+00         0.00000E+00         0.63878E+02
 
   -0.16609E+06         0.19244E+06         0.00000E+00
    0.19244E+06         0.16648E+06         0.00000E+00
    0.00000E+00         0.00000E+00         0.79083E+02
 
   -0.15999E+06         0.19804E+06         0.00000E+00
    0.19804E+06         0.16048E+06         0.00000E+00
    0.00000E+00         0.00000E+00         0.97339E+02
 
   -0.15382E+06         0.20344E+06         0.00000E+00
    0.20344E+06         0.15441E+06         0.00000E+00
    0.00000E+00         0.00000E+00         0.11933E+03
 
   -0.14757E+06         0.20866E+06         0.00000E+00
    0.20866E+06         0.14830E+06         0.00000E+00
    0.00000E+00         0.00000E+00         0.14582E+03
 
   -0.14127E+06         0.21370E+06         0.00000E+00
    0.21370E+06         0.14215E+06         0.00000E+00
    0.00000E+00         0.00000E+00         0.17772E+03
 
   -0.13491E+06         0.21857E+06         0.00000E+00
    0.21857E+06         0.13599E+06         0.00000E+00
    0.00000E+00         0.00000E+00         0.21603E+03
 
   -0.12850E+06         0.22326E+06         0.00000E+00
    0.22326E+06         0.12981E+06         0.00000E+00
    0.00000E+00         0.00000E+00         0.26192E+03
 
   -0.12205E+06         0.22780E+06         0.00000E+00
    0.22780E+06         0.12363E+06         0.00000E+00
    0.00000E+00         0.00000E+00         0.31674E+03
 
   -0.11556E+06         0.23218E+06         0.00000E+00
    0.23218E+06         0.11747E+06         0.00000E+00
    0.00000E+00         0.00000E+00         0.38202E+03
 
   -0.10904E+06         0.23642E+06         0.00000E+00
    0.23642E+06         0.11134E+06         0.00000E+00
    0.00000E+00         0.00000E+00         0.45952E+03
 
   -0.10248E+06         0.24052E+06         0.00000E+00
    0.24052E+06         0.10524E+06         0.00000E+00
    0.00000E+00         0.00000E+00         0.55124E+03
 
   -0.95898E+05         0.24450E+06         0.00000E+00
    0.24450E+06         0.99195E+05         0.00000E+00
    0.00000E+00         0.00000E+00         0.65946E+03
 
   -0.89279E+05         0.24837E+06         0.00000E+00
    0.24837E+06         0.93213E+05         0.00000E+00
    0.00000E+00         0.00000E+00         0.78676E+03
 
   -0.82626E+05         0.25212E+06         0.00000E+00
    0.25212E+06         0.87307E+05         0.00000E+00
    0.00000E+00         0.00000E+00         0.93607E+03
 
   -0.75936E+05         0.25578E+06         0.00000E+00
    0.25578E+06         0.81490E+05         0.00000E+00
    0.00000E+00         0.00000E+00         0.11107E+04
 
   -0.69204E+05         0.25936E+06         0.00000E+00
    0.25936E+06         0.75775E+05         0.00000E+00
    0.00000E+00         0.00000E+00         0.13142E+04
 
   -0.62424E+05         0.26286E+06         0.00000E+00
    0.26286E+06         0.70178E+05         0.00000E+00
    0.00000E+00         0.00000E+00         0.15507E+04
 
   -0.55588E+05         0.26629E+06         0.00000E+00
    0.26629E+06         0.64712E+05         0.00000E+00
    0.00000E+00         0.00000E+00         0.18248E+04
 
   -0.48686E+05         0.26967E+06         0.00000E+00
    0.26967E+06         0.59393E+05         0.00000E+00
    0.00000E+00         0.00000E+00         0.21414E+04
 
   -0.41708E+05         0.27300E+06         0.00000E+00
    0.27300E+06         0.54237E+05         0.00000E+00
    0.00000E+00         0.00000E+00         0.25059E+04
 
   -0.34642E+05         0.27630E+06         0.00000E+00
    0.27630E+06         0.49262E+05         0.00000E+00
    0.00000E+00         0.00000E+00         0.29240E+04
 
   -0.27473E+05         0.27957E+06         0.00000E+00
    0.27957E+06         0.44484E+05         0.00000E+00
    0.00000E+00         0.00000E+00         0.34023E+04
 
   -0.20186E+05         0.28282E+06         0.00000E+00
    0.28282E+06         0.39922E+05         0.00000E+00
    0.00000E+00         0.00000E+00         0.39472E+04
 
   -0.12765E+05         0.28605E+06         0.00000E+00
    0.28605E+06         0.35595E+05         0.00000E+00
    0.00000E+00         0.00000E+00         0.45659E+04
 
   -0.51917E+04         0.28929E+06         0.00000E+00
    0.28929E+06         0.31521E+05         0.00000E+00
    0.00000E+00         0.00000E+00         0.52658E+04
 
    0.25538E+04         0.29252E+06         0.00000E+00
    0.29252E+06         0.27719E+05         0.00000E+00
    0.00000E+00         0.00000E+00         0.60545E+04
 
   -0.23733E+06         0.40190E+04         0.00000E+00
    0.40190E+04         0.23432E+06         0.00000E+00
    0.00000E+00         0.00000E+00        -0.60197E+03
 
   -0.23658E+06         0.12112E+05         0.00000E+00
    0.12112E+05         0.23400E+06         0.00000E+00
    0.00000E+00         0.00000E+00        -0.51718E+03
 
   -0.23556E+06         0.20208E+05         0.00000E+00
    0.20208E+05         0.23335E+06         0.00000E+00
    0.00000E+00         0.00000E+00        -0.44219E+03
 
   -0.23428E+06         0.28293E+05         0.00000E+00
    0.28293E+05         0.23240E+06         0.00000E+00
    0.00000E+00         0.00000E+00        -0.37615E+03
 
   -0.23273E+06         0.36350E+05         0.00000E+00
    0.36350E+05         0.23114E+06         0.00000E+00
    0.00000E+00         0.00000E+00        -0.31824E+03
 
   -0.23093E+06         0.44367E+05         0.00000E+00
    0.44367E+05         0.22959E+06         0.00000E+00
    0.00000E+00         0.00000E+00        -0.26767E+03
 
   -0.22886E+06         0.52330E+05         0.00000E+00
    0.52330E+05         0.22774E+06         0.00000E+00
    0.00000E+00         0.00000E+00        -0.22369E+03
 
   -0.22655E+06         0.60227E+05         0.00000E+00
    0.60227E+05         0.22562E+06         0.00000E+00
    0.00000E+00         0.00000E+00        -0.18559E+03
 
   -0.22399E+06         0.68044E+05         0.00000E+00
    0.68044E+05         0.22323E+06         0.00000E+00
    0.00000E+00         0.00000E+00        -0.15270E+03
 
   -0.22120E+06         0.75772E+05         0.00000E+00
    0.75772E+05         0.22058E+06         0.00000E+00
    0.00000E+00         0.00000E+00        -0.12439E+03
 
   -0.21817E+06         0.83400E+05         0.00000E+00
    0.83400E+05         0.21767E+06         0.00000E+00
    0.00000E+00         0.00000E+00        -0.10007E+03
 
   -0.21493E+06         0.90917E+05         0.00000E+00
    0.90917E+05         0.21453E+06         0.00000E+00
    0.00000E+00         0.00000E+00        -0.79199E+02
 
   -0.21147E+06         0.98315E+05         0.00000E+00
    0.98315E+05         0.21116E+06         0.00000E+00
    0.00000E+00         0.00000E+00        -0.61268E+02
 
   -0.20781E+06         0.10559E+06         0.00000E+00
    0.10559E+06         0.20758E+06         0.00000E+00
    0.00000E+00         0.00000E+00        -0.45798E+02
 
   -0.20395E+06         0.11272E+06         0.00000E+00
    0.11272E+06         0.20378E+06         0.00000E+00
    0.00000E+00         0.00000E+00        -0.32338E+02
 
   -0.19990E+06         0.11972E+06         0.00000E+00
    0.11972E+06         0.19980E+06         0.00000E+00
    0.00000E+00         0.00000E+00        -0.20463E+02
 
   -0.19568E+06         0.12657E+06         0.00000E+00
    0.12657E+06         0.19563E+06         0.00000E+00
    0.00000E+00         0.00000E+00        -0.97620E+01
 
   -0.19128E+06         0.13327E+06         0.00000E+00
    0.13327E+06         0.19128E+06         0.00000E+00
    0.00000E+00         0.00000E+00         0.16272E+00
 
   -0.18673E+06         0.13982E+06         0.00000E+00
    0.13982E+06         0.18678E+06         0.00000E+00
    0.00000E+00         0.00000E+00         0.97059E+01
 
   -0.18203E+06         0.14620E+06         0.00000E+00
    0.14620E+06         0.18213E+06         0.00000E+00
    0.00000E+00         0.00000E+00         0.19265E+02
 
   -0.17719E+06         0.15243E+06         0.00000E+00
    0.15243E+06         0.17734E+06         0.00000E+00
    0.00000E+00         0.00000E+00         0.29250E+02
 
   -0.17222E+06         0.15850E+06         0.00000E+00
    0.15850E+06         0.17242E+06         0.00000E+00
    0.00000E+00         0.00000E+00         0.40088E+02
 
   -0.16712E+06         0.16440E+06         0.00000E+00
    0.16440E+06         0.16738E+06         0.00000E+00
    0.00000E+00         0.00000E+00         0.52240E+02
 
   -0.16191E+06         0.17015E+06         0.00000E+00
    0.17015E+06         0.16224E+06         0.00000E+00
    0.00000E+00         0.00000E+00         0.66202E+02
 
   -0.15660E+06         0.17573E+06         0.00000E+00
    0.17573E+06         0.15701E+06         0.00000E+00
    0.00000E+00         0.00000E+00         0.82525E+02
 
   -0.15118E+06         0.18115E+06         0.00000E+00
    0.18115E+06         0.15169E+06         0.00000E+00
    0.00000E+00         0.00000E+00         0.10182E+03
 
   -0.14567E+06         0.18641E+06         0.00000E+00
    0.18641E+06         0.14629E+06         0.00000E+00
    0.00000E+00         0.00000E+00         0.12479E+03
 
   -0.14008E+06         0.19152E+06         0.00000E+00
    0.19152E+06         0.14084E+06         0.00000E+00
    0.00000E+00         0.00000E+00         0.15220E+03
 
   -0.13440E+06         0.19648E+06         0.00000E+00
    0.19648E+06         0.13533E+06         0.00000E+00
    0.00000E+00         0.00000E+00         0.18495E+03
 
   -0.12865E+06         0.20129E+06         0.00000E+00
    0.20129E+06         0.12977E+06         0.00000E+00
    0.00000E+00         0.00000E+00         0.22407E+03
 
   -0.12283E+06         0.20595E+06         0.00000E+00
    0.20595E+06         0.12419E+06         0.00000E+00
    0.00000E+00         0.00000E+00         0.27073E+03
 
   -0.11695E+06         0.21048E+06         0.00000E+00
    0.21048E+06         0.11858E+06         0.00000E+00
    0.00000E+00         0.00000E+00         0.32626E+03
 
   -0.11099E+06         0.21487E+06         0.00000E+00
    0.21487E+06         0.11295E+06         0.00000E+00
    0.00000E+00         0.00000E+00         0.39219E+03
 
   -0.10498E+06         0.21914E+06         0.00000E+00
    0.21914E+06         0.10733E+06         0.00000E+00
    0.00000E+00         0.00000E+00         0.47029E+03
 
   -0.98903E+05         0.22328E+06         0.00000E+00
    0.22328E+06         0.10172E+06         0.00000E+00
    0.00000E+00         0.00000E+00         0.56253E+03
 
   -0.92764E+05         0.22731E+06         0.00000E+00
    0.22731E+06         0.96120E+05         0.00000E+00
    0.00000E+00         0.00000E+00         0.67119E+03
 
   -0.86562E+05         0.23122E+06         0.00000E+00
    0.23122E+06         0.90556E+05         0.00000E+00
    0.00000E+00         0.00000E+00         0.79885E+03
 
   -0.80294E+05         0.23504E+06         0.00000E+00
    0.23504E+06         0.85036E+05         0.00000E+00
    0.00000E+00         0.00000E+00         0.94838E+03
 
   -0.73957E+05         0.23875E+06         0.00000E+00
    0.23875E+06         0.79572E+05         0.00000E+00
    0.00000E+00         0.00000E+00         0.11231E+04
 
   -0.67546E+05         0.24238E+06         0.00000E+00
    0.24238E+06         0.74178E+05         0.00000E+00
    0.00000E+00         0.00000E+00         0.13265E+04
 
   -0.61054E+05         0.24592E+06         0.00000E+00
    0.24592E+06         0.68868E+05         0.00000E+00
    0.00000E+00         0.00000E+00         0.15627E+04
 
   -0.54475E+05         0.24939E+06         0.00000E+00
    0.24939E+06         0.63657E+05         0.00000E+00
    0.00000E+00         0.00000E+00         0.18363E+04
 
   -0.47801E+05         0.25278E+06         0.00000E+00
    0.25278E+06         0.58561E+05         0.00000E+00
    0.00000E+00         0.00000E+00         0.21520E+04
 
   -0.41021E+05         0.25611E+06         0.00000E+00
    0.25611E+06         0.53597E+05         0.00000E+00
    0.00000E+00         0.00000E+00         0.25152E+04
 
   -0.34124E+05         0.25938E+06         0.00000E+00
    0.25938E+06         0.48783E+05         0.00000E+00
    0.00000E+00         0.00000E+00         0.29317E+04
 
   -0.27099E+05         0.26260E+06         0.00000E+00
    0.26260E+06         0.44138E+05         0.00000E+00
    0.00000E+00         0.00000E+00         0.34078E+04
 
   -0.19932E+05         0.26578E+06         0.00000E+00
    0.26578E+06         0.39682E+05         0.00000E+00
    0.00000E+00         0.00000E+00         0.39499E+04
 
   -0.12609E+05         0.26890E+06         0.00000E+00
    0.26890E+06         0.35435E+05         0.00000E+00
    0.00000E+00         0.00000E+00         0.45651E+04
 
   -0.51145E+04         0.27200E+06         0.00000E+00
    0.27200E+06         0.31418E+05         0.00000E+00
    0.00000E+00         0.00000E+00         0.52607E+04
 
    0.25682E+04         0.27505E+06         0.00000E+00
    0.27505E+06         0.27652E+05         0.00000E+00
    0.00000E+00         0.00000E+00         0.60441E+04
 
   -0.21864E+06         0.36006E+04         0.00000E+00
    0.36006E+04         0.21472E+06         0.00000E+00
    0.00000E+00         0.00000E+00        -0.78420E+03
 
   -0.21782E+06         0.10858E+05         0.00000E+00
    0.10858E+05         0.21445E+06         0.00000E+00
    0.00000E+00         0.00000E+00        -0.67539E+03
 
   -0.21679E+06         0.18124E+05         0.00000E+00
    0.18124E+05         0.21390E+06         0.00000E+00
    0.00000E+00         0.00000E+00        -0.57922E+03
 
   -0.21555E+06         0.25387E+05         0.00000E+00
    0.25387E+05         0.21308E+06         0.00000E+00
    0.00000E+00         0.00000E+00        -0.49457E+03
 
   -0.21410E+06         0.32636E+05         0.00000E+00
    0.32636E+05         0.21200E+06         0.00000E+00
    0.00000E+00         0.00000E+00        -0.42034E+03
 
   -0.21244E+06         0.39859E+05         0.00000E+00
    0.39859E+05         0.21066E+06         0.00000E+00
    0.00000E+00         0.00000E+00        -0.35551E+03
 
   -0.21058E+06         0.47046E+05         0.00000E+00
    0.47046E+05         0.20908E+06         0.00000E+00
    0.00000E+00         0.00000E+00        -0.29910E+03
 
   -0.20851E+06         0.54187E+05         0.00000E+00
    0.54187E+05         0.20726E+06         0.00000E+00
    0.00000E+00         0.00000E+00        -0.25017E+03
 
   -0.20624E+06         0.61272E+05         0.00000E+00
    0.61272E+05         0.20520E+06         0.00000E+00
    0.00000E+00         0.00000E+00        -0.20787E+03
 
   -0.20377E+06         0.68292E+05         0.00000E+00
    0.68292E+05         0.20292E+06         0.00000E+00
    0.00000E+00         0.00000E+00        -0.17139E+03
 
   -0.20111E+06         0.75238E+05         0.00000E+00
    0.75238E+05         0.20041E+06         0.00000E+00
    0.00000E+00         0.00000E+00        -0.13999E+03
 
   -0.19827E+06         0.82102E+05         0.00000E+00
    0.82102E+05         0.19770E+06         0.00000E+00
    0.00000E+00         0.00000E+00        -0.11298E+03
 
   -0.19524E+06         0.88877E+05         0.00000E+00
    0.88877E+05         0.19479E+06         0.00000E+00
    0.00000E+00         0.00000E+00        -0.89734E+02
 
   -0.19204E+06         0.95556E+05         0.00000E+00
    0.95556E+05         0.19169E+06         0.00000E+00
    0.00000E+00         0.00000E+00        -0.69654E+02
 
   -0.18866E+06         0.10213E+06         0.00000E+00
    0.10213E+06         0.18840E+06         0.00000E+00
    0.00000E+00         0.00000E+00        -0.52200E+02
 
   -0.18512E+06         0.10860E+06         0.00000E+00
    0.10860E+06         0.18494E+06         0.00000E+00
    0.00000E+00         0.00000E+00        -0.36859E+02
 
   -0.18142E+06         0.11495E+06         0.00000E+00
    0.11495E+06         0.18131E+06         0.00000E+00
    0.00000E+00         0.00000E+00        -0.23151E+02
 
   -0.17757E+06         0.12119E+06         0.00000E+00
    0.12119E+06         0.17752E+06         0.00000E+00
    0.00000E+00         0.00000E+00        -0.10616E+02
 
   -0.17357E+06         0.12731E+06         0.00000E+00
    0.12731E+06         0.17358E+06         0.00000E+00
    0.00000E+00         0.00000E+00         0.11913E+01
 
   -0.16944E+06         0.13330E+06         0.00000E+00
    0.13330E+06         0.16950E+06         0.00000E+00
    0.00000E+00         0.00000E+00         0.12713E+02
 
   -0.16517E+06         0.13916E+06         0.00000E+00
    0.13916E+06         0.16529E+06         0.00000E+00
    0.00000E+00         0.00000E+00         0.24391E+02
 
   -0.16077E+06         0.14489E+06         0.00000E+00
    0.14489E+06         0.16095E+06         0.00000E+00
    0.00000E+00         0.00000E+00         0.36685E+02
 
   -0.15625E+06         0.15049E+06         0.00000E+00
    0.15049E+06         0.15650E+06         0.00000E+00
    0.00000E+00         0.00000E+00         0.50073E+02
 
   -0.15162E+06         0.15596E+06         0.00000E+00
    0.15596E+06         0.15195E+06         0.00000E+00
    0.00000E+00         0.00000E+00         0.65070E+02
 
   -0.14688E+06         0.16130E+06         0.00000E+00
    0.16130E+06         0.14729E+06         0.00000E+00
    0.00000E+00         0.00000E+00         0.82235E+02
 
   -0.14203E+06         0.16650E+06         0.00000E+00
    0.16650E+06         0.14254E+06         0.00000E+00
    0.00000E+00         0.00000E+00         0.10219E+03
 
   -0.13709E+06         0.17157E+06         0.00000E+00
    0.17157E+06         0.13772E+06         0.00000E+00
    0.00000E+00         0.00000E+00         0.12561E+03
 
   -0.13205E+06         0.17651E+06         0.00000E+00
    0.17651E+06         0.13281E+06         0.00000E+00
    0.00000E+00         0.00000E+00         0.15330E+03
 
   -0.12691E+06         0.18132E+06         0.00000E+00
    0.18132E+06         0.12785E+06         0.00000E+00
    0.00000E+00         0.00000E+00         0.18611E+03
 
   -0.12169E+06         0.18601E+06         0.00000E+00
    0.18601E+06         0.12282E+06         0.00000E+00
    0.00000E+00         0.00000E+00         0.22507E+03
 
   -0.11639E+06         0.19056E+06         0.00000E+00
    0.19056E+06         0.11775E+06         0.00000E+00
    0.00000E+00         0.00000E+00         0.27132E+03
 
   -0.11100E+06         0.19500E+06         0.00000E+00
    0.19500E+06         0.11263E+06         0.00000E+00
    0.00000E+00         0.00000E+00         0.32617E+03
 
   -0.10553E+06         0.19932E+06         0.00000E+00
    0.19932E+06         0.10749E+06         0.00000E+00
    0.00000E+00         0.00000E+00         0.39111E+03
 
   -0.99985E+05         0.20352E+06         0.00000E+00
    0.20352E+06         0.10232E+06         0.00000E+00
    0.00000E+00         0.00000E+00         0.46785E+03
 
   -0.94355E+05         0.20760E+06         0.00000E+00
    0.20760E+06         0.97146E+05         0.00000E+00
    0.00000E+00         0.00000E+00         0.55834E+03
 
   -0.88643E+05         0.21158E+06         0.00000E+00
    0.21158E+06         0.91967E+05         0.00000E+00
    0.00000E+00         0.00000E+00         0.66477E+03
 
   -0.82849E+05         0.21545E+06         0.00000E+00
    0.21545E+06         0.86797E+05         0.00000E+00
    0.00000E+00         0.00000E+00         0.78965E+03
 
   -0.76969E+05         0.21922E+06         0.00000E+00
    0.21922E+06         0.81648E+05         0.00000E+00
    0.00000E+00         0.00000E+00         0.93580E+03
 
   -0.71000E+05         0.22289E+06         0.00000E+00
    0.22289E+06         0.76532E+05         0.00000E+00
    0.00000E+00         0.00000E+00         0.11064E+04
 
   -0.64938E+05         0.22647E+06         0.00000E+00
    0.22647E+06         0.71462E+05         0.00000E+00
    0.00000E+00         0.00000E+00         0.13049E+04
 
   -0.58776E+05         0.22996E+06         0.00000E+00
    0.22996E+06         0.66452E+05         0.00000E+00
    0.00000E+00         0.00000E+00         0.15352E+04
 
   -0.52509E+05         0.23336E+06         0.00000E+00
    0.23336E+06         0.61518E+05         0.00000E+00
    0.00000E+00         0.00000E+00         0.18018E+04
 
   -0.46129E+05         0.23668E+06         0.00000E+00
    0.23668E+06         0.56675E+05         0.00000E+00
    0.00000E+00         0.00000E+00         0.21093E+04
 
   -0.39628E+05         0.23992E+06         0.00000E+00
    0.23992E+06         0.51942E+05         0.00000E+00
    0.00000E+00         0.00000E+00         0.24629E+04
 
   -0.32996E+05         0.24309E+06         0.00000E+00
    0.24309E+06         0.47337E+05         0.00000E+00
    0.00000E+00         0.00000E+00         0.28682E+04
 
   -0.26223E+05         0.24618E+06         0.00000E+00
    0.24618E+06         0.42879E+05         0.00000E+00
    0.00000E+00         0.00000E+00         0.33312E+04
 
   -0.19298E+05         0.24921E+06         0.00000E+00
    0.24921E+06         0.38589E+05         0.00000E+00
    0.00000E+00         0.00000E+00         0.38582E+04
 
   -0.12208E+05         0.25217E+06         0.00000E+00
    0.25217E+06         0.34489E+05         0.00000E+00
    0.00000E+00         0.00000E+00         0.44561E+04
 
   -0.49410E+04         0.25507E+06         0.00000E+00
    0.25507E+06         0.30600E+05         0.00000E+00
    0.00000E+00         0.00000E+00         0.51318E+04
 
    0.25168E+04         0.25790E+06         0.00000E+00
    0.25790E+06         0.26946E+05         0.00000E+00
    0.00000E+00         0.00000E+00         0.58926E+04
 
   -0.20181E+06         0.32688E+04         0.00000E+00
    0.32688E+04         0.19702E+06         0.00000E+00
    0.00000E+00         0.00000E+00        -0.95751E+03
 
   -0.20092E+06         0.98555E+04         0.00000E+00
    0.98555E+04         0.19678E+06         0.00000E+00
    0.00000E+00         0.00000E+00        -0.82651E+03
 
   -0.19986E+06         0.16451E+05         0.00000E+00
    0.16451E+05         0.19630E+06         0.00000E+00
    0.00000E+00         0.00000E+00        -0.71069E+03
 
   -0.19863E+06         0.23048E+05         0.00000E+00
    0.23048E+05         0.19559E+06         0.00000E+00
    0.00000E+00         0.00000E+00        -0.60868E+03
 
   -0.19724E+06         0.29636E+05         0.00000E+00
    0.29636E+05         0.19464E+06         0.00000E+00
    0.00000E+00         0.00000E+00        -0.51918E+03
 
   -0.19568E+06         0.36206E+05         0.00000E+00
    0.36206E+05         0.19348E+06         0.00000E+00
    0.00000E+00         0.00000E+00        -0.44092E+03
 
   -0.19396E+06         0.42752E+05         0.00000E+00
    0.42752E+05         0.19209E+06         0.00000E+00
    0.00000E+00         0.00000E+00        -0.37274E+03
 
   -0.19207E+06         0.49264E+05         0.00000E+00
    0.49264E+05         0.19050E+06         0.00000E+00
    0.00000E+00         0.00000E+00        -0.31353E+03
 
   -0.19001E+06         0.55735E+05         0.00000E+00
    0.55735E+05         0.18870E+06         0.00000E+00
    0.00000E+00         0.00000E+00        -0.26226E+03
 
   -0.18779E+06         0.62158E+05         0.00000E+00
    0.62158E+05         0.18670E+06         0.00000E+00
    0.00000E+00         0.00000E+00        -0.21796E+03
 
   -0.18541E+06         0.68525E+05         0.00000E+00
    0.68525E+05         0.18451E+06         0.00000E+00
    0.00000E+00         0.00000E+00        -0.17976E+03
 
   -0.18287E+06         0.74829E+05         0.00000E+00
    0.74829E+05         0.18214E+06         0.00000E+00
    0.00000E+00         0.00000E+00        -0.14684E+03
 
   -0.18018E+06         0.81065E+05         0.00000E+00
    0.81065E+05         0.17959E+06         0.00000E+00
    0.00000E+00         0.00000E+00        -0.11846E+03
 
   -0.17733E+06         0.87225E+05         0.00000E+00
    0.87225E+05         0.17686E+06         0.00000E+00
    0.00000E+00         0.00000E+00        -0.93935E+02
 
   -0.17434E+06         0.93306E+05         0.00000E+00
    0.93306E+05         0.17397E+06         0.00000E+00
    0.00000E+00         0.00000E+00        -0.72626E+02
 
   -0.17120E+06         0.99301E+05         0.00000E+00
    0.99301E+05         0.17093E+06         0.00000E+00
    0.00000E+00         0.00000E+00        -0.53952E+02
 
   -0.16792E+06         0.10521E+06         0.00000E+00
    0.10521E+06         0.16773E+06         0.00000E+00
    0.00000E+00         0.00000E+00        -0.37367E+02
 
   -0.16450E+06         0.11102E+06         0.00000E+00
    0.11102E+06         0.16439E+06         0.00000E+00
    0.00000E+00         0.00000E+00        -0.22357E+02
 
   -0.16095E+06         0.11673E+06         0.00000E+00
    0.11673E+06         0.16091E+06         0.00000E+00
    0.00000E+00         0.00000E+00        -0.84315E+01
 
   -0.15727E+06         0.12234E+06         0.00000E+00
    0.12234E+06         0.15730E+06         0.00000E+00
    0.00000E+00         0.00000E+00         0.48883E+01
 
   -0.15347E+06         0.12785E+06         0.00000E+00
    0.12785E+06         0.15356E+06         0.00000E+00
    0.00000E+00         0.00000E+00         0.18075E+02
 
   -0.14954E+06         0.13325E+06         0.00000E+00
    0.13325E+06         0.14970E+06         0.00000E+00
    0.00000E+00         0.00000E+00         0.31608E+02
 
   -0.14551E+06         0.13854E+06         0.00000E+00
    0.13854E+06         0.14574E+06         0.00000E+00
    0.00000E+00         0.00000E+00         0.45981E+02
 
   -0.14135E+06         0.14373E+06         0.00000E+00
    0.14373E+06         0.14166E+06         0.00000E+00
    0.00000E+00         0.00000E+00         0.61718E+02
 
   -0.13709E+06         0.14880E+06         0.00000E+00
    0.14880E+06         0.13749E+06         0.00000E+00
    0.00000E+00         0.00000E+00         0.79378E+02
 
   -0.13273E+06         0.15376E+06         0.00000E+00
    0.15376E+06         0.13323E+06         0.00000E+00
    0.00000E+00         0.00000E+00         0.99576E+02
 
   -0.12826E+06         0.15860E+06         0.00000E+00
    0.15860E+06         0.12888E+06         0.00000E+00
    0.00000E+00         0.00000E+00         0.12299E+03
 
   -0.12370E+06         0.16334E+06         0.00000E+00
    0.16334E+06         0.12445E+06         0.00000E+00
    0.00000E+00         0.00000E+00         0.15038E+03
 
   -0.11904E+06         0.16796E+06         0.00000E+00
    0.16796E+06         0.11995E+06         0.00000E+00
    0.00000E+00         0.00000E+00         0.18260E+03
 
   -0.11428E+06         0.17247E+06         0.00000E+00
    0.17247E+06         0.11538E+06         0.00000E+00
    0.00000E+00         0.00000E+00         0.22063E+03
 
   -0.10943E+06         0.17686E+06         0.00000E+00
    0.17686E+06         0.11076E+06         0.00000E+00
    0.00000E+00         0.00000E+00         0.26557E+03
 
   -0.10449E+06         0.18115E+06         0.00000E+00
    0.18115E+06         0.10609E+06         0.00000E+00
    0.00000E+00         0.00000E+00         0.31868E+03
 
   -0.99463E+05         0.18533E+06         0.00000E+00
    0.18533E+06         0.10137E+06         0.00000E+00
    0.00000E+00         0.00000E+00         0.38140E+03
 
   -0.94343E+05         0.18940E+06         0.00000E+00
    0.18940E+06         0.96620E+05         0.00000E+00
    0.00000E+00         0.00000E+00         0.45536E+03
 
   -0.89132E+05         0.19336E+06         0.00000E+00
    0.19336E+06         0.91845E+05         0.00000E+00
    0.00000E+00         0.00000E+00         0.54242E+03
 
   -0.83830E+05         0.19722E+06         0.00000E+00
    0.19722E+06         0.87053E+05         0.00000E+00
    0.00000E+00         0.00000E+00         0.64470E+03
 
   -0.78434E+05         0.20098E+06         0.00000E+00
    0.20098E+06         0.82257E+05         0.00000E+00
    0.00000E+00         0.00000E+00         0.76457E+03
 
   -0.72941E+05         0.20464E+06         0.00000E+00
    0.20464E+06         0.77465E+05         0.00000E+00
    0.00000E+00         0.00000E+00         0.90473E+03
 
   -0.67350E+05         0.20819E+06         0.00000E+00
    0.20819E+06         0.72691E+05         0.00000E+00
    0.00000E+00         0.00000E+00         0.10682E+04
 
   -0.61654E+05         0.21166E+06         0.00000E+00
    0.21166E+06         0.67946E+05         0.00000E+00
    0.00000E+00         0.00000E+00         0.12583E+04
 
   -0.55851E+05         0.21502E+06         0.00000E+00
    0.21502E+06         0.63245E+05         0.00000E+00
    0.00000E+00         0.00000E+00         0.14788E+04
 
   -0.49934E+05         0.21830E+06         0.00000E+00
    0.21830E+06         0.58603E+05         0.00000E+00
    0.00000E+00         0.00000E+00         0.17338E+04
 
   -0.43897E+05         0.22148E+06         0.00000E+00
    0.22148E+06         0.54037E+05         0.00000E+00
    0.00000E+00         0.00000E+00         0.20279E+04
 
   -0.37733E+05         0.22458E+06         0.00000E+00
    0.22458E+06         0.49563E+05         0.00000E+00
    0.00000E+00         0.00000E+00         0.23660E+04
 
   -0.31433E+05         0.22759E+06         0.00000E+00
    0.22759E+06         0.45200E+05         0.00000E+00
    0.00000E+00         0.00000E+00         0.27533E+04
 
   -0.24990E+05         0.23051E+06         0.00000E+00
    0.23051E+06         0.40968E+05         0.00000E+00
    0.00000E+00         0.00000E+00         0.31956E+04
 
   -0.18394E+05         0.23336E+06         0.00000E+00
    0.23336E+06         0.36888E+05         0.00000E+00
    0.00000E+00         0.00000E+00         0.36990E+04
 
   -0.11634E+05         0.23611E+06         0.00000E+00
    0.23611E+06         0.32983E+05         0.00000E+00
    0.00000E+00         0.00000E+00         0.42698E+04
 
   -0.47003E+04         0.23879E+06         0.00000E+00
    0.23879E+06         0.29274E+05         0.00000E+00
    0.00000E+00         0.00000E+00         0.49147E+04
 
    0.24180E+04         0.24139E+06         0.00000E+00
    0.24139E+06         0.25785E+05         0.00000E+00
    0.00000E+00         0.00000E+00         0.56407E+04
 
   -0.18642E+06         0.30034E+04         0.00000E+00
    0.30034E+04         0.18091E+06         0.00000E+00
    0.00000E+00         0.00000E+00        -0.11022E+04
 
   -0.18546E+06         0.90476E+04         0.00000E+00
    0.90476E+04         0.18069E+06         0.00000E+00
    0.00000E+00         0.00000E+00        -0.95311E+03
 
   -0.18437E+06         0.15099E+05         0.00000E+00
    0.15099E+05         0.18026E+06         0.00000E+00
    0.00000E+00         0.00000E+00        -0.82121E+03
 
   -0.18315E+06         0.21151E+05         0.00000E+00
    0.21151E+05         0.17963E+06         0.00000E+00
    0.00000E+00         0.00000E+00        -0.70496E+03
 
   -0.18180E+06         0.27196E+05         0.00000E+00
    0.27196E+05         0.17879E+06         0.00000E+00
    0.00000E+00         0.00000E+00        -0.60285E+03
 
   -0.18031E+06         0.33229E+05         0.00000E+00
    0.33229E+05         0.17775E+06         0.00000E+00
    0.00000E+00         0.00000E+00        -0.51350E+03
 
   -0.17869E+06         0.39241E+05         0.00000E+00
    0.39241E+05         0.17652E+06         0.00000E+00
    0.00000E+00         0.00000E+00        -0.43556E+03
 
   -0.17694E+06         0.45228E+05         0.00000E+00
    0.45228E+05         0.17510E+06         0.00000E+00
    0.00000E+00         0.00000E+00        -0.36779E+03
 
   -0.17505E+06         0.51182E+05         0.00000E+00
    0.51182E+05         0.17350E+06         0.00000E+00
    0.00000E+00         0.00000E+00        -0.30902E+03
 
   -0.17302E+06         0.57098E+05         0.00000E+00
    0.57098E+05         0.17173E+06         0.00000E+00
    0.00000E+00         0.00000E+00        -0.25818E+03
 
   -0.17086E+06         0.62970E+05         0.00000E+00
    0.62970E+05         0.16978E+06         0.00000E+00
    0.00000E+00         0.00000E+00        -0.21426E+03
 
   -0.16856E+06         0.68792E+05         0.00000E+00
    0.68792E+05         0.16768E+06         0.00000E+00
    0.00000E+00         0.00000E+00        -0.17637E+03
 
   -0.16613E+06         0.74560E+05         0.00000E+00
    0.74560E+05         0.16541E+06         0.00000E+00
    0.00000E+00         0.00000E+00        -0.14367E+03
 
   -0.16357E+06         0.80267E+05         0.00000E+00
    0.80267E+05         0.16299E+06         0.00000E+00
    0.00000E+00         0.00000E+00        -0.11539E+03
 
   -0.16088E+06         0.85909E+05         0.00000E+00
    0.85909E+05         0.16042E+06         0.00000E+00
    0.00000E+00         0.00000E+00        -0.90833E+02
 
   -0.15806E+06         0.91481E+05         0.00000E+00
    0.91481E+05         0.15771E+06         0.00000E+00
    0.00000E+00         0.00000E+00        -0.69356E+02
 
   -0.15512E+06         0.96981E+05         0.00000E+00
    0.96981E+05         0.15486E+06         0.00000E+00
    0.00000E+00         0.00000E+00        -0.50365E+02
 
   -0.15205E+06         0.10240E+06         0.00000E+00
    0.10240E+06         0.15188E+06         0.00000E+00
    0.00000E+00         0.00000E+00        -0.33302E+02
 
   -0.14887E+06         0.10774E+06         0.00000E+00
    0.10774E+06         0.14878E+06         0.00000E+00
    0.00000E+00         0.00000E+00        -0.17643E+02
 
   -0.14556E+06         0.11300E+06         0.00000E+00
    0.11300E+06         0.14555E+06         0.00000E+00
    0.00000E+00         0.00000E+00        -0.28828E+01
 
   -0.14214E+06         0.11817E+06         0.00000E+00
    0.11817E+06         0.14220E+06         0.00000E+00
    0.00000E+00         0.00000E+00         0.11471E+02
 
   -0.13861E+06         0.12325E+06         0.00000E+00
    0.12325E+06         0.13874E+06         0.00000E+00
    0.00000E+00         0.00000E+00         0.25910E+02
 
   -0.13497E+06         0.12824E+06         0.00000E+00
    0.12824E+06         0.13518E+06         0.00000E+00
    0.00000E+00         0.00000E+00         0.40937E+02
 
   -0.13123E+06         0.13313E+06         0.00000E+00
    0.13313E+06         0.13151E+06         0.00000E+00
    0.00000E+00         0.00000E+00         0.57072E+02
 
   -0.12738E+06         0.13793E+06         0.00000E+00
    0.13793E+06         0.12775E+06         0.00000E+00
    0.00000E+00         0.00000E+00         0.74872E+02
 
   -0.12342E+06         0.14263E+06         0.00000E+00
    0.14263E+06         0.12390E+06         0.00000E+00
    0.00000E+00         0.00000E+00         0.94935E+02
 
   -0.11937E+06         0.14723E+06         0.00000E+00
    0.14723E+06         0.11996E+06         0.00000E+00
    0.00000E+00         0.00000E+00         0.11792E+03
 
   -0.11522E+06         0.15173E+06         0.00000E+00
    0.15173E+06         0.11594E+06         0.00000E+00
    0.00000E+00         0.00000E+00         0.14456E+03
 
   -0.11097E+06         0.15614E+06         0.00000E+00
    0.15614E+06         0.11185E+06         0.00000E+00
    0.00000E+00         0.00000E+00         0.17568E+03
 
   -0.10662E+06         0.16044E+06         0.00000E+00
    0.16044E+06         0.10769E+06         0.00000E+00
    0.00000E+00         0.00000E+00         0.21220E+03
 
   -0.10218E+06         0.16464E+06         0.00000E+00
    0.16464E+06         0.10346E+06         0.00000E+00
    0.00000E+00         0.00000E+00         0.25517E+03
 
   -0.97652E+05         0.16874E+06         0.00000E+00
    0.16874E+06         0.99181E+05         0.00000E+00
    0.00000E+00         0.00000E+00         0.30579E+03
 
   -0.93025E+05         0.17274E+06         0.00000E+00
    0.17274E+06         0.94852E+05         0.00000E+00
    0.00000E+00         0.00000E+00         0.36542E+03
 
   -0.88304E+05         0.17664E+06         0.00000E+00
    0.17664E+06         0.90482E+05         0.00000E+00
    0.00000E+00         0.00000E+00         0.43561E+03
 
   -0.83489E+05         0.18043E+06         0.00000E+00
    0.18043E+06         0.86079E+05         0.00000E+00
    0.00000E+00         0.00000E+00         0.51811E+03
 
   -0.78578E+05         0.18413E+06         0.00000E+00
    0.18413E+06         0.81652E+05         0.00000E+00
    0.00000E+00         0.00000E+00         0.61491E+03
 
   -0.73569E+05         0.18773E+06         0.00000E+00
    0.18773E+06         0.77210E+05         0.00000E+00
    0.00000E+00         0.00000E+00         0.72826E+03
 
   -0.68460E+05         0.19123E+06         0.00000E+00
    0.19123E+06         0.72763E+05         0.00000E+00
    0.00000E+00         0.00000E+00         0.86069E+03
 
   -0.63248E+05         0.19463E+06         0.00000E+00
    0.19463E+06         0.68324E+05         0.00000E+00
    0.00000E+00         0.00000E+00         0.10150E+04
 
   -0.57931E+05         0.19793E+06         0.00000E+00
    0.19793E+06         0.63903E+05         0.00000E+00
    0.00000E+00         0.00000E+00         0.11945E+04
 
   -0.52503E+05         0.20114E+06         0.00000E+00
    0.20114E+06         0.59515E+05         0.00000E+00
    0.00000E+00         0.00000E+00         0.14025E+04
 
   -0.46960E+05         0.20424E+06         0.00000E+00
    0.20424E+06         0.55175E+05         0.00000E+00
    0.00000E+00         0.00000E+00         0.16430E+04
 
   -0.41296E+05         0.20726E+06         0.00000E+00
    0.20726E+06         0.50898E+05         0.00000E+00
    0.00000E+00         0.00000E+00         0.19202E+04
 
   -0.35507E+05         0.21018E+06         0.00000E+00
    0.21018E+06         0.46701E+05         0.00000E+00
    0.00000E+00         0.00000E+00         0.22388E+04
 
   -0.29585E+05         0.21300E+06         0.00000E+00
    0.21300E+06         0.42603E+05         0.00000E+00
    0.00000E+00         0.00000E+00         0.26037E+04
 
   -0.23522E+05         0.21574E+06         0.00000E+00
    0.21574E+06         0.38624E+05         0.00000E+00
    0.00000E+00         0.00000E+00         0.30203E+04
 
   -0.17312E+05         0.21837E+06         0.00000E+00
    0.21837E+06         0.34784E+05         0.00000E+00
    0.00000E+00         0.00000E+00         0.34944E+04
 
   -0.10946E+05         0.22092E+06         0.00000E+00
    0.22092E+06         0.31105E+05         0.00000E+00
    0.00000E+00         0.00000E+00         0.40318E+04
 
   -0.44162E+04         0.22338E+06         0.00000E+00
    0.22338E+06         0.27611E+05         0.00000E+00
    0.00000E+00         0.00000E+00         0.46389E+04
 
    0.22873E+04         0.22574E+06         0.00000E+00
    0.22574E+06         0.24323E+05         0.00000E+00
    0.00000E+00         0.00000E+00         0.53221E+04
 
   -0.17215E+06         0.27881E+04         0.00000E+00
    0.27881E+04         0.16611E+06         0.00000E+00
    0.00000E+00         0.00000E+00        -0.12089E+04
 
   -0.17115E+06         0.83886E+04         0.00000E+00
    0.83886E+04         0.16591E+06         0.00000E+00
    0.00000E+00         0.00000E+00        -0.10468E+04
 
   -0.17004E+06         0.13993E+05         0.00000E+00
    0.13993E+05         0.16553E+06         0.00000E+00
    0.00000E+00         0.00000E+00        -0.90335E+03
 
   -0.16883E+06         0.19595E+05         0.00000E+00
    0.19595E+05         0.16495E+06         0.00000E+00
    0.00000E+00         0.00000E+00        -0.77680E+03
 
   -0.16752E+06         0.25191E+05         0.00000E+00
    0.25191E+05         0.16419E+06         0.00000E+00
    0.00000E+00         0.00000E+00        -0.66557E+03
 
   -0.16609E+06         0.30775E+05         0.00000E+00
    0.30775E+05         0.16325E+06         0.00000E+00
    0.00000E+00         0.00000E+00        -0.56813E+03
 
   -0.16456E+06         0.36341E+05         0.00000E+00
    0.36341E+05         0.16214E+06         0.00000E+00
    0.00000E+00         0.00000E+00        -0.48306E+03
 
   -0.16291E+06         0.41885E+05         0.00000E+00
    0.41885E+05         0.16086E+06         0.00000E+00
    0.00000E+00         0.00000E+00        -0.40901E+03
 
   -0.16115E+06         0.47401E+05         0.00000E+00
    0.47401E+05         0.15943E+06         0.00000E+00
    0.00000E+00         0.00000E+00        -0.34472E+03
 
   -0.15928E+06         0.52885E+05         0.00000E+00
    0.52885E+05         0.15783E+06         0.00000E+00
    0.00000E+00         0.00000E+00        -0.28904E+03
 
   -0.15729E+06         0.58332E+05         0.00000E+00
    0.58332E+05         0.15608E+06         0.00000E+00
    0.00000E+00         0.00000E+00        -0.24090E+03
 
   -0.15519E+06         0.63737E+05         0.00000E+00
    0.63737E+05         0.15419E+06         0.00000E+00
    0.00000E+00         0.00000E+00        -0.19931E+03
 
   -0.15297E+06         0.69096E+05         0.00000E+00
    0.69096E+05         0.15215E+06         0.00000E+00
    0.00000E+00         0.00000E+00        -0.16339E+03
 
   -0.15064E+06         0.74404E+05         0.00000E+00
    0.74404E+05         0.14998E+06         0.00000E+00
    0.00000E+00         0.00000E+00        -0.13232E+03
 
   -0.14820E+06         0.79657E+05         0.00000E+00
    0.79657E+05         0.14767E+06         0.00000E+00
    0.00000E+00         0.00000E+00        -0.10534E+03
 
   -0.14564E+06         0.84852E+05         0.00000E+00
    0.84852E+05         0.14523E+06         0.00000E+00
    0.00000E+00         0.00000E+00        -0.81787E+02
 
   -0.14298E+06         0.89985E+05         0.00000E+00
    0.89985E+05         0.14267E+06         0.00000E+00
    0.00000E+00         0.00000E+00        -0.61022E+02
 
   -0.14020E+06         0.95051E+05         0.00000E+00
    0.95051E+05         0.13999E+06         0.00000E+00
    0.00000E+00         0.00000E+00        -0.42464E+02
 
   -0.13732E+06         0.10005E+06         0.00000E+00
    0.10005E+06         0.13719E+06         0.00000E+00
    0.00000E+00         0.00000E+00        -0.25567E+02
 
   -0.13433E+06         0.10497E+06         0.00000E+00
    0.10497E+06         0.13428E+06         0.00000E+00
    0.00000E+00         0.00000E+00        -0.98110E+01
 
   -0.13124E+06         0.10982E+06         0.00000E+00
    0.10982E+06         0.13126E+06         0.00000E+00
    0.00000E+00         0.00000E+00         0.53055E+01
 
   -0.12804E+06         0.11460E+06         0.00000E+00
    0.11460E+06         0.12814E+06         0.00000E+00
    0.00000E+00         0.00000E+00         0.20278E+02
 
   -0.12474E+06         0.11929E+06         0.00000E+00
    0.11929E+06         0.12492E+06         0.00000E+00
    0.00000E+00         0.00000E+00         0.35606E+02
 
   -0.12134E+06         0.12390E+06         0.00000E+00
    0.12390E+06         0.12160E+06         0.00000E+00
    0.00000E+00         0.00000E+00         0.51804E+02
 
   -0.11784E+06         0.12842E+06         0.00000E+00
    0.12842E+06         0.11819E+06         0.00000E+00
    0.00000E+00         0.00000E+00         0.69412E+02
 
   -0.11424E+06         0.13286E+06         0.00000E+00
    0.13286E+06         0.11469E+06         0.00000E+00
    0.00000E+00         0.00000E+00         0.89009E+02
 
   -0.11055E+06         0.13721E+06         0.00000E+00
    0.13721E+06         0.11111E+06         0.00000E+00
    0.00000E+00         0.00000E+00         0.11123E+03
 
   -0.10676E+06         0.14147E+06         0.00000E+00
    0.14147E+06         0.10745E+06         0.00000E+00
    0.00000E+00         0.00000E+00         0.13676E+03
 
   -0.10288E+06         0.14564E+06         0.00000E+00
    0.14564E+06         0.10371E+06         0.00000E+00
    0.00000E+00         0.00000E+00         0.16639E+03
 
   -0.98906E+05         0.14972E+06         0.00000E+00
    0.14972E+06         0.99911E+05         0.00000E+00
    0.00000E+00         0.00000E+00         0.20099E+03
 
   -0.94837E+05         0.15371E+06         0.00000E+00
    0.15371E+06         0.96045E+05         0.00000E+00
    0.00000E+00         0.00000E+00         0.24155E+03
 
   -0.90676E+05         0.15760E+06         0.00000E+00
    0.15760E+06         0.92122E+05         0.00000E+00
    0.00000E+00         0.00000E+00         0.28918E+03
 
   -0.86421E+05         0.16139E+06         0.00000E+00
    0.16139E+06         0.88147E+05         0.00000E+00
    0.00000E+00         0.00000E+00         0.34517E+03
 
   -0.82073E+05         0.16509E+06         0.00000E+00
    0.16509E+06         0.84128E+05         0.00000E+00
    0.00000E+00         0.00000E+00         0.41095E+03
 
   -0.77632E+05         0.16870E+06         0.00000E+00
    0.16870E+06         0.80072E+05         0.00000E+00
    0.00000E+00         0.00000E+00         0.48817E+03
 
   -0.73095E+05         0.17221E+06         0.00000E+00
    0.17221E+06         0.75988E+05         0.00000E+00
    0.00000E+00         0.00000E+00         0.57868E+03
 
   -0.68461E+05         0.17562E+06         0.00000E+00
    0.17562E+06         0.71884E+05         0.00000E+00
    0.00000E+00         0.00000E+00         0.68458E+03
 
   -0.63728E+05         0.17893E+06         0.00000E+00
    0.17893E+06         0.67769E+05         0.00000E+00
    0.00000E+00         0.00000E+00         0.80822E+03
 
   -0.58894E+05         0.18215E+06         0.00000E+00
    0.18215E+06         0.63656E+05         0.00000E+00
    0.00000E+00         0.00000E+00         0.95226E+03
 
   -0.53956E+05         0.18527E+06         0.00000E+00
    0.18527E+06         0.59555E+05         0.00000E+00
    0.00000E+00         0.00000E+00         0.11196E+04
 
   -0.48911E+05         0.18829E+06         0.00000E+00
    0.18829E+06         0.55479E+05         0.00000E+00
    0.00000E+00         0.00000E+00         0.13136E+04
 
   -0.43754E+05         0.19122E+06         0.00000E+00
    0.19122E+06         0.51443E+05         0.00000E+00
    0.00000E+00         0.00000E+00         0.15378E+04
 
   -0.38481E+05         0.19404E+06         0.00000E+00
    0.19404E+06         0.47462E+05         0.00000E+00
    0.00000E+00         0.00000E+00         0.17961E+04
 
   -0.33088E+05         0.19677E+06         0.00000E+00
    0.19677E+06         0.43553E+05         0.00000E+00
    0.00000E+00         0.00000E+00         0.20929E+04
 
   -0.27569E+05         0.19940E+06         0.00000E+00
    0.19940E+06         0.39733E+05         0.00000E+00
    0.00000E+00         0.00000E+00         0.24328E+04
 
   -0.21917E+05         0.20193E+06         0.00000E+00
    0.20193E+06         0.36021E+05         0.00000E+00
    0.00000E+00         0.00000E+00         0.28208E+04
 
   -0.16128E+05         0.20437E+06         0.00000E+00
    0.20437E+06         0.32439E+05         0.00000E+00
    0.00000E+00         0.00000E+00         0.32622E+04
 
   -0.10193E+05         0.20670E+06         0.00000E+00
    0.20670E+06         0.29006E+05         0.00000E+00
    0.00000E+00         0.00000E+00         0.37626E+04
 
   -0.41076E+04         0.20894E+06         0.00000E+00
    0.20894E+06         0.25746E+05         0.00000E+00
    0.00000E+00         0.00000E+00         0.43277E+04
 
    0.21370E+04         0.21108E+06         0.00000E+00
    0.21108E+06         0.22681E+05         0.00000E+00
    0.00000E+00         0.00000E+00         0.49635E+04
 
   -0.15880E+06         0.26103E+04         0.00000E+00
    0.26103E+04         0.15242E+06         0.00000E+00
    0.00000E+00         0.00000E+00        -0.12752E+04
 
   -0.15777E+06         0.78422E+04         0.00000E+00
    0.78422E+04         0.15224E+06         0.00000E+00
    0.00000E+00         0.00000E+00        -0.11054E+04
 
   -0.15666E+06         0.13074E+05         0.00000E+00
    0.13074E+05         0.15188E+06         0.00000E+00
    0.00000E+00         0.00000E+00        -0.95508E+03
 
   -0.15547E+06         0.18301E+05         0.00000E+00
    0.18301E+05         0.15135E+06         0.00000E+00
    0.00000E+00         0.00000E+00        -0.82235E+03
 
   -0.15419E+06         0.23519E+05         0.00000E+00
    0.23519E+05         0.15066E+06         0.00000E+00
    0.00000E+00         0.00000E+00        -0.70560E+03
 
   -0.15282E+06         0.28724E+05         0.00000E+00
    0.28724E+05         0.14980E+06         0.00000E+00
    0.00000E+00         0.00000E+00        -0.60326E+03
 
   -0.15136E+06         0.33912E+05         0.00000E+00
    0.33912E+05         0.14879E+06         0.00000E+00
    0.00000E+00         0.00000E+00        -0.51384E+03
 
   -0.14981E+06         0.39079E+05         0.00000E+00
    0.39079E+05         0.14763E+06         0.00000E+00
    0.00000E+00         0.00000E+00        -0.43593E+03
 
   -0.14816E+06         0.44221E+05         0.00000E+00
    0.44221E+05         0.14632E+06         0.00000E+00
    0.00000E+00         0.00000E+00        -0.36823E+03
 
   -0.14642E+06         0.49333E+05         0.00000E+00
    0.49333E+05         0.14487E+06         0.00000E+00
    0.00000E+00         0.00000E+00        -0.30954E+03
 
   -0.14458E+06         0.54413E+05         0.00000E+00
    0.54413E+05         0.14328E+06         0.00000E+00
    0.00000E+00         0.00000E+00        -0.25876E+03
 
   -0.14264E+06         0.59454E+05         0.00000E+00
    0.59454E+05         0.14156E+06         0.00000E+00
    0.00000E+00         0.00000E+00        -0.21485E+03
 
   -0.14060E+06         0.64455E+05         0.00000E+00
    0.64455E+05         0.13972E+06         0.00000E+00
    0.00000E+00         0.00000E+00        -0.17691E+03
 
   -0.13847E+06         0.69411E+05         0.00000E+00
    0.69411E+05         0.13775E+06         0.00000E+00
    0.00000E+00         0.00000E+00        -0.14407E+03
 
   -0.13623E+06         0.74319E+05         0.00000E+00
    0.74319E+05         0.13566E+06         0.00000E+00
    0.00000E+00         0.00000E+00        -0.11558E+03
 
   -0.13390E+06         0.79176E+05         0.00000E+00
    0.79176E+05         0.13345E+06         0.00000E+00
    0.00000E+00         0.00000E+00        -0.90724E+02
 
   -0.13147E+06         0.83977E+05         0.00000E+00
    0.83977E+05         0.13113E+06         0.00000E+00
    0.00000E+00         0.00000E+00        -0.68862E+02
 
   -0.12894E+06         0.88720E+05         0.00000E+00
    0.88720E+05         0.12870E+06         0.00000E+00
    0.00000E+00         0.00000E+00        -0.49400E+02
 
   -0.12632E+06         0.93402E+05         0.00000E+00
    0.93402E+05         0.12616E+06         0.00000E+00
    0.00000E+00         0.00000E+00        -0.31783E+02
 
   -0.12360E+06         0.98020E+05         0.00000E+00
    0.98020E+05         0.12352E+06         0.00000E+00
    0.00000E+00         0.00000E+00        -0.15489E+02
 
   -0.12078E+06         0.10257E+06         0.00000E+00
    0.10257E+06         0.12078E+06         0.00000E+00
    0.00000E+00         0.00000E+00        -0.16961E-01
 
   -0.11787E+06         0.10705E+06         0.00000E+00
    0.10705E+06         0.11794E+06         0.00000E+00
    0.00000E+00         0.00000E+00         0.15124E+02
 
   -0.11486E+06         0.11146E+06         0.00000E+00
    0.11146E+06         0.11502E+06         0.00000E+00
    0.00000E+00         0.00000E+00         0.30422E+02
 
   -0.11177E+06         0.11580E+06         0.00000E+00
    0.11580E+06         0.11200E+06         0.00000E+00
    0.00000E+00         0.00000E+00         0.46377E+02
 
   -0.10857E+06         0.12006E+06         0.00000E+00
    0.12006E+06         0.10889E+06         0.00000E+00
    0.00000E+00         0.00000E+00         0.63508E+02
 
   -0.10529E+06         0.12424E+06         0.00000E+00
    0.12424E+06         0.10570E+06         0.00000E+00
    0.00000E+00         0.00000E+00         0.82368E+02
 
   -0.10192E+06         0.12834E+06         0.00000E+00
    0.12834E+06         0.10244E+06         0.00000E+00
    0.00000E+00         0.00000E+00         0.10356E+03
 
   -0.98458E+05         0.13236E+06         0.00000E+00
    0.13236E+06         0.99097E+05         0.00000E+00
    0.00000E+00         0.00000E+00         0.12773E+03
 
   -0.94906E+05         0.13629E+06         0.00000E+00
    0.13629E+06         0.95684E+05         0.00000E+00
    0.00000E+00         0.00000E+00         0.15561E+03
 
   -0.91265E+05         0.14014E+06         0.00000E+00
    0.14014E+06         0.92206E+05         0.00000E+00
    0.00000E+00         0.00000E+00         0.18802E+03
 
   -0.87536E+05         0.14390E+06         0.00000E+00
    0.14390E+06         0.88665E+05         0.00000E+00
    0.00000E+00         0.00000E+00         0.22588E+03
 
   -0.83717E+05         0.14757E+06         0.00000E+00
    0.14757E+06         0.85068E+05         0.00000E+00
    0.00000E+00         0.00000E+00         0.27023E+03
 
   -0.79809E+05         0.15116E+06         0.00000E+00
    0.15116E+06         0.81420E+05         0.00000E+00
    0.00000E+00         0.00000E+00         0.32224E+03
 
   -0.75811E+05         0.15465E+06         0.00000E+00
    0.15465E+06         0.77728E+05         0.00000E+00
    0.00000E+00         0.00000E+00         0.38327E+03
 
   -0.71723E+05         0.15805E+06         0.00000E+00
    0.15805E+06         0.73997E+05         0.00000E+00
    0.00000E+00         0.00000E+00         0.45482E+03
 
   -0.67544E+05         0.16136E+06         0.00000E+00
    0.16136E+06         0.70237E+05         0.00000E+00
    0.00000E+00         0.00000E+00         0.53862E+03
 
   -0.63272E+05         0.16457E+06         0.00000E+00
    0.16457E+06         0.66455E+05         0.00000E+00
    0.00000E+00         0.00000E+00         0.63659E+03
 
   -0.58905E+05         0.16769E+06         0.00000E+00
    0.16769E+06         0.62660E+05         0.00000E+00
    0.00000E+00         0.00000E+00         0.75091E+03
 
   -0.54442E+05         0.17071E+06         0.00000E+00
    0.17071E+06         0.58862E+05         0.00000E+00
    0.00000E+00         0.00000E+00         0.88403E+03
 
   -0.49881E+05         0.17364E+06         0.00000E+00
    0.17364E+06         0.55074E+05         0.00000E+00
    0.00000E+00         0.00000E+00         0.10387E+04
 
   -0.45217E+05         0.17647E+06         0.00000E+00
    0.17647E+06         0.51306E+05         0.00000E+00
    0.00000E+00         0.00000E+00         0.12178E+04
 
   -0.40449E+05         0.17920E+06         0.00000E+00
    0.17920E+06         0.47573E+05         0.00000E+00
    0.00000E+00         0.00000E+00         0.14248E+04
 
   -0.35572E+05         0.18184E+06         0.00000E+00
    0.18184E+06         0.43889E+05         0.00000E+00
    0.00000E+00         0.00000E+00         0.16633E+04
 
   -0.30583E+05         0.18437E+06         0.00000E+00
    0.18437E+06         0.40269E+05         0.00000E+00
    0.00000E+00         0.00000E+00         0.19373E+04
 
   -0.25477E+05         0.18681E+06         0.00000E+00
    0.18681E+06         0.36732E+05         0.00000E+00
    0.00000E+00         0.00000E+00         0.22510E+04
 
   -0.20250E+05         0.18915E+06         0.00000E+00
    0.18915E+06         0.33295E+05         0.00000E+00
    0.00000E+00         0.00000E+00         0.26090E+04
 
   -0.14897E+05         0.19138E+06         0.00000E+00
    0.19138E+06         0.29978E+05         0.00000E+00
    0.00000E+00         0.00000E+00         0.30162E+04
 
   -0.94113E+04         0.19352E+06         0.00000E+00
    0.19352E+06         0.26800E+05         0.00000E+00
    0.00000E+00         0.00000E+00         0.34778E+04
 
   -0.37888E+04         0.19555E+06         0.00000E+00
    0.19555E+06         0.23784E+05         0.00000E+00
    0.00000E+00         0.00000E+00         0.39991E+04
 
    0.19766E+04         0.19749E+06         0.00000E+00
    0.19749E+06         0.20951E+05         0.00000E+00
    0.00000E+00         0.00000E+00         0.45855E+04
 
   -0.14618E+06         0.24604E+04         0.00000E+00
    0.24604E+04         0.13967E+06         0.00000E+00
    0.00000E+00         0.00000E+00        -0.13031E+04
 
   -0.14515E+06         0.73806E+04         0.00000E+00
    0.73806E+04         0.13950E+06         0.00000E+00
    0.00000E+00         0.00000E+00        -0.11306E+04
 
   -0.14406E+06         0.12296E+05         0.00000E+00
    0.12296E+05         0.13917E+06         0.00000E+00
    0.00000E+00         0.00000E+00        -0.97774E+03
 
   -0.14290E+06         0.17204E+05         0.00000E+00
    0.17204E+05         0.13868E+06         0.00000E+00
    0.00000E+00         0.00000E+00        -0.84271E+03
 
   -0.14166E+06         0.22101E+05         0.00000E+00
    0.22101E+05         0.13804E+06         0.00000E+00
    0.00000E+00         0.00000E+00        -0.72387E+03
 
   -0.14035E+06         0.26983E+05         0.00000E+00
    0.26983E+05         0.13725E+06         0.00000E+00
    0.00000E+00         0.00000E+00        -0.61962E+03
 
   -0.13897E+06         0.31847E+05         0.00000E+00
    0.31847E+05         0.13632E+06         0.00000E+00
    0.00000E+00         0.00000E+00        -0.52847E+03
 
   -0.13750E+06         0.36690E+05         0.00000E+00
    0.36690E+05         0.13526E+06         0.00000E+00
    0.00000E+00         0.00000E+00        -0.44900E+03
 
   -0.13596E+06         0.41508E+05         0.00000E+00
    0.41508E+05         0.13406E+06         0.00000E+00
    0.00000E+00         0.00000E+00        -0.37990E+03
 
   -0.13433E+06         0.46298E+05         0.00000E+00
    0.46298E+05         0.13273E+06         0.00000E+00
    0.00000E+00         0.00000E+00        -0.31996E+03
 
   -0.13262E+06         0.51056E+05         0.00000E+00
    0.51056E+05         0.13128E+06         0.00000E+00
    0.00000E+00         0.00000E+00        -0.26804E+03
 
   -0.13083E+06         0.55780E+05         0.00000E+00
    0.55780E+05         0.12971E+06         0.00000E+00
    0.00000E+00         0.00000E+00        -0.22314E+03
 
   -0.12895E+06         0.60465E+05         0.00000E+00
    0.60465E+05         0.12803E+06         0.00000E+00
    0.00000E+00         0.00000E+00        -0.18432E+03
 
   -0.12698E+06         0.65110E+05         0.00000E+00
    0.65110E+05         0.12623E+06         0.00000E+00
    0.00000E+00         0.00000E+00        -0.15071E+03
 
   -0.12493E+06         0.69710E+05         0.00000E+00
    0.69710E+05         0.12432E+06         0.00000E+00
    0.00000E+00         0.00000E+00        -0.12156E+03
 
   -0.12279E+06         0.74263E+05         0.00000E+00
    0.74263E+05         0.12231E+06         0.00000E+00
    0.00000E+00         0.00000E+00        -0.96145E+02
 
   -0.12056E+06         0.78765E+05         0.00000E+00
    0.78765E+05         0.12019E+06         0.00000E+00
    0.00000E+00         0.00000E+00        -0.73832E+02
 
   -0.11825E+06         0.83214E+05         0.00000E+00
    0.83214E+05         0.11798E+06         0.00000E+00
    0.00000E+00         0.00000E+00        -0.54027E+02
 
   -0.11585E+06         0.87608E+05         0.00000E+00
    0.87608E+05         0.11567E+06         0.00000E+00
    0.00000E+00         0.00000E+00        -0.36179E+02
 
   -0.11336E+06         0.91943E+05         0.00000E+00
    0.91943E+05         0.11326E+06         0.00000E+00
    0.00000E+00         0.00000E+00        -0.19773E+02
 
   -0.11079E+06         0.96216E+05         0.00000E+00
    0.96216E+05         0.11077E+06         0.00000E+00
    0.00000E+00         0.00000E+00        -0.43183E+01
 
   -0.10813E+06         0.10043E+06         0.00000E+00
    0.10043E+06         0.10818E+06         0.00000E+00
    0.00000E+00         0.00000E+00         0.10663E+02
 
   -0.10538E+06         0.10457E+06         0.00000E+00
    0.10457E+06         0.10551E+06         0.00000E+00
    0.00000E+00         0.00000E+00         0.25641E+02
 
   -0.10255E+06         0.10865E+06         0.00000E+00
    0.10865E+06         0.10276E+06         0.00000E+00
    0.00000E+00         0.00000E+00         0.41095E+02
 
   -0.99639E+05         0.11265E+06         0.00000E+00
    0.11265E+06         0.99927E+05         0.00000E+00
    0.00000E+00         0.00000E+00         0.57519E+02
 
   -0.96640E+05         0.11658E+06         0.00000E+00
    0.11658E+06         0.97017E+05         0.00000E+00
    0.00000E+00         0.00000E+00         0.75433E+02
 
   -0.93557E+05         0.12044E+06         0.00000E+00
    0.12044E+06         0.94034E+05         0.00000E+00
    0.00000E+00         0.00000E+00         0.95399E+02
 
   -0.90390E+05         0.12422E+06         0.00000E+00
    0.12422E+06         0.90980E+05         0.00000E+00
    0.00000E+00         0.00000E+00         0.11803E+03
 
   -0.87139E+05         0.12792E+06         0.00000E+00
    0.12792E+06         0.87859E+05         0.00000E+00
    0.00000E+00         0.00000E+00         0.14400E+03
 
   -0.83806E+05         0.13155E+06         0.00000E+00
    0.13155E+06         0.84676E+05         0.00000E+00
    0.00000E+00         0.00000E+00         0.17407E+03
 
   -0.80389E+05         0.13509E+06         0.00000E+00
    0.13509E+06         0.81435E+05         0.00000E+00
    0.00000E+00         0.00000E+00         0.20908E+03
 
   -0.76889E+05         0.13854E+06         0.00000E+00
    0.13854E+06         0.78139E+05         0.00000E+00
    0.00000E+00         0.00000E+00         0.25001E+03
 
   -0.73305E+05         0.14191E+06         0.00000E+00
    0.14191E+06         0.74795E+05         0.00000E+00
    0.00000E+00         0.00000E+00         0.29792E+03
 
   -0.69638E+05         0.14520E+06         0.00000E+00
    0.14520E+06         0.71408E+05         0.00000E+00
    0.00000E+00         0.00000E+00         0.35405E+03
 
   -0.65885E+05         0.14839E+06         0.00000E+00
    0.14839E+06         0.67984E+05         0.00000E+00
    0.00000E+00         0.00000E+00         0.41980E+03
 
   -0.62047E+05         0.15150E+06         0.00000E+00
    0.15150E+06         0.64531E+05         0.00000E+00
    0.00000E+00         0.00000E+00         0.49674E+03
 
   -0.58123E+05         0.15451E+06         0.00000E+00
    0.15451E+06         0.61056E+05         0.00000E+00
    0.00000E+00         0.00000E+00         0.58664E+03
 
   -0.54110E+05         0.15743E+06         0.00000E+00
    0.15743E+06         0.57568E+05         0.00000E+00
    0.00000E+00         0.00000E+00         0.69150E+03
 
   -0.50008E+05         0.16026E+06         0.00000E+00
    0.16026E+06         0.54075E+05         0.00000E+00
    0.00000E+00         0.00000E+00         0.81355E+03
 
   -0.45814E+05         0.16300E+06         0.00000E+00
    0.16300E+06         0.50590E+05         0.00000E+00
    0.00000E+00         0.00000E+00         0.95528E+03
 
   -0.41526E+05         0.16564E+06         0.00000E+00
    0.16564E+06         0.47123E+05         0.00000E+00
    0.00000E+00         0.00000E+00         0.11194E+04
 
   -0.37141E+05         0.16818E+06         0.00000E+00
    0.16818E+06         0.43687E+05         0.00000E+00
    0.00000E+00         0.00000E+00         0.13091E+04
 
   -0.32658E+05         0.17063E+06         0.00000E+00
    0.17063E+06         0.40295E+05         0.00000E+00
    0.00000E+00         0.00000E+00         0.15276E+04
 
   -0.28071E+05         0.17298E+06         0.00000E+00
    0.17298E+06         0.36964E+05         0.00000E+00
    0.00000E+00         0.00000E+00         0.17785E+04
 
   -0.23379E+05         0.17523E+06         0.00000E+00
    0.17523E+06         0.33708E+05         0.00000E+00
    0.00000E+00         0.00000E+00         0.20658E+04
 
   -0.18577E+05         0.17738E+06         0.00000E+00
    0.17738E+06         0.30545E+05         0.00000E+00
    0.00000E+00         0.00000E+00         0.23936E+04
 
   -0.13661E+05         0.17943E+06         0.00000E+00
    0.17943E+06         0.27493E+05         0.00000E+00
    0.00000E+00         0.00000E+00         0.27665E+04
 
   -0.86269E+04         0.18139E+06         0.00000E+00
    0.18139E+06         0.24572E+05         0.00000E+00
    0.00000E+00         0.00000E+00         0.31891E+04
 
   -0.34704E+04         0.18324E+06         0.00000E+00
    0.18324E+06         0.21802E+05         0.00000E+00
    0.00000E+00         0.00000E+00         0.36663E+04
 
    0.18131E+04         0.18499E+06         0.00000E+00
    0.18499E+06         0.19203E+05         0.00000E+00
    0.00000E+00         0.00000E+00         0.42032E+04
 
   -0.13420E+06         0.23312E+04         0.00000E+00
    0.23312E+04         0.12772E+06         0.00000E+00
    0.00000E+00         0.00000E+00        -0.12971E+04
 
   -0.13319E+06         0.69829E+04         0.00000E+00
    0.69829E+04         0.12756E+06         0.00000E+00
    0.00000E+00         0.00000E+00        -0.11262E+04
 
   -0.13213E+06         0.11626E+05         0.00000E+00
    0.11626E+05         0.12726E+06         0.00000E+00
    0.00000E+00         0.00000E+00        -0.97463E+03
 
   -0.13101E+06         0.16259E+05         0.00000E+00
    0.16259E+05         0.12680E+06         0.00000E+00
    0.00000E+00         0.00000E+00        -0.84069E+03
 
   -0.12982E+06         0.20878E+05         0.00000E+00
    0.20878E+05         0.12621E+06         0.00000E+00
    0.00000E+00         0.00000E+00        -0.72275E+03
 
   -0.12858E+06         0.25481E+05         0.00000E+00
    0.25481E+05         0.12548E+06         0.00000E+00
    0.00000E+00         0.00000E+00        -0.61924E+03
 
   -0.12727E+06         0.30064E+05         0.00000E+00
    0.30064E+05         0.12463E+06         0.00000E+00
    0.00000E+00         0.00000E+00        -0.52868E+03
 
   -0.12589E+06         0.34624E+05         0.00000E+00
    0.34624E+05         0.12364E+06         0.00000E+00
    0.00000E+00         0.00000E+00        -0.44969E+03
 
   -0.12444E+06         0.39160E+05         0.00000E+00
    0.39160E+05         0.12254E+06         0.00000E+00
    0.00000E+00         0.00000E+00        -0.38096E+03
 
   -0.12293E+06         0.43667E+05         0.00000E+00
    0.43667E+05         0.12132E+06         0.00000E+00
    0.00000E+00         0.00000E+00        -0.32130E+03
 
   -0.12134E+06         0.48144E+05         0.00000E+00
    0.48144E+05         0.11999E+06         0.00000E+00
    0.00000E+00         0.00000E+00        -0.26961E+03
 
   -0.11967E+06         0.52586E+05         0.00000E+00
    0.52586E+05         0.11855E+06         0.00000E+00
    0.00000E+00         0.00000E+00        -0.22488E+03
 
   -0.11794E+06         0.56992E+05         0.00000E+00
    0.56992E+05         0.11700E+06         0.00000E+00
    0.00000E+00         0.00000E+00        -0.18619E+03
 
   -0.11612E+06         0.61359E+05         0.00000E+00
    0.61359E+05         0.11536E+06         0.00000E+00
    0.00000E+00         0.00000E+00        -0.15269E+03
 
   -0.11423E+06         0.65684E+05         0.00000E+00
    0.65684E+05         0.11361E+06         0.00000E+00
    0.00000E+00         0.00000E+00        -0.12364E+03
 
   -0.11227E+06         0.69964E+05         0.00000E+00
    0.69964E+05         0.11177E+06         0.00000E+00
    0.00000E+00         0.00000E+00        -0.98331E+02
 
   -0.11022E+06         0.74197E+05         0.00000E+00
    0.74197E+05         0.10984E+06         0.00000E+00
    0.00000E+00         0.00000E+00        -0.76140E+02
 
   -0.10810E+06         0.78380E+05         0.00000E+00
    0.78380E+05         0.10782E+06         0.00000E+00
    0.00000E+00         0.00000E+00        -0.56486E+02
 
   -0.10590E+06         0.82510E+05         0.00000E+00
    0.82510E+05         0.10571E+06         0.00000E+00
    0.00000E+00         0.00000E+00        -0.38835E+02
 
   -0.10362E+06         0.86586E+05         0.00000E+00
    0.86586E+05         0.10351E+06         0.00000E+00
    0.00000E+00         0.00000E+00        -0.22688E+02
 
   -0.10127E+06         0.90604E+05         0.00000E+00
    0.90604E+05         0.10123E+06         0.00000E+00
    0.00000E+00         0.00000E+00        -0.75706E+01
 
   -0.98836E+05         0.94563E+05         0.00000E+00
    0.94563E+05         0.98871E+05         0.00000E+00
    0.00000E+00         0.00000E+00         0.69731E+01
 
   -0.96326E+05         0.98459E+05         0.00000E+00
    0.98459E+05         0.96433E+05         0.00000E+00
    0.00000E+00         0.00000E+00         0.21393E+02
 
   -0.93738E+05         0.10229E+06         0.00000E+00
    0.10229E+06         0.93919E+05         0.00000E+00
    0.00000E+00         0.00000E+00         0.36140E+02
 
   -0.91074E+05         0.10606E+06         0.00000E+00
    0.10606E+06         0.91332E+05         0.00000E+00
    0.00000E+00         0.00000E+00         0.51679E+02
 
   -0.88332E+05         0.10976E+06         0.00000E+00
    0.10976E+06         0.88675E+05         0.00000E+00
    0.00000E+00         0.00000E+00         0.68498E+02
 
   -0.85514E+05         0.11338E+06         0.00000E+00
    0.11338E+06         0.85949E+05         0.00000E+00
    0.00000E+00         0.00000E+00         0.87117E+02
 
   -0.82618E+05         0.11694E+06         0.00000E+00
    0.11694E+06         0.83159E+05         0.00000E+00
    0.00000E+00         0.00000E+00         0.10810E+03
 
   -0.79647E+05         0.12042E+06         0.00000E+00
    0.12042E+06         0.80307E+05         0.00000E+00
    0.00000E+00         0.00000E+00         0.13208E+03
 
   -0.76598E+05         0.12382E+06         0.00000E+00
    0.12382E+06         0.77397E+05         0.00000E+00
    0.00000E+00         0.00000E+00         0.15974E+03
 
   -0.73473E+05         0.12715E+06         0.00000E+00
    0.12715E+06         0.74433E+05         0.00000E+00
    0.00000E+00         0.00000E+00         0.19187E+03
 
   -0.70272E+05         0.13039E+06         0.00000E+00
    0.13039E+06         0.71418E+05         0.00000E+00
    0.00000E+00         0.00000E+00         0.22934E+03
 
   -0.66993E+05         0.13356E+06         0.00000E+00
    0.13356E+06         0.68359E+05         0.00000E+00
    0.00000E+00         0.00000E+00         0.27314E+03
 
   -0.63637E+05         0.13664E+06         0.00000E+00
    0.13664E+06         0.65259E+05         0.00000E+00
    0.00000E+00         0.00000E+00         0.32440E+03
 
   -0.60203E+05         0.13963E+06         0.00000E+00
    0.13963E+06         0.62125E+05         0.00000E+00
    0.00000E+00         0.00000E+00         0.38438E+03
 
   -0.56691E+05         0.14254E+06         0.00000E+00
    0.14254E+06         0.58964E+05         0.00000E+00
    0.00000E+00         0.00000E+00         0.45452E+03
 
   -0.53099E+05         0.14537E+06         0.00000E+00
    0.14537E+06         0.55781E+05         0.00000E+00
    0.00000E+00         0.00000E+00         0.53645E+03
 
   -0.49427E+05         0.14810E+06         0.00000E+00
    0.14810E+06         0.52586E+05         0.00000E+00
    0.00000E+00         0.00000E+00         0.63196E+03
 
   -0.45672E+05         0.15074E+06         0.00000E+00
    0.15074E+06         0.49388E+05         0.00000E+00
    0.00000E+00         0.00000E+00         0.74310E+03
 
   -0.41834E+05         0.15329E+06         0.00000E+00
    0.15329E+06         0.46195E+05         0.00000E+00
    0.00000E+00         0.00000E+00         0.87214E+03
 
   -0.37911E+05         0.15575E+06         0.00000E+00
    0.15575E+06         0.43019E+05         0.00000E+00
    0.00000E+00         0.00000E+00         0.10216E+04
 
   -0.33901E+05         0.15811E+06         0.00000E+00
    0.15811E+06         0.39872E+05         0.00000E+00
    0.00000E+00         0.00000E+00         0.11942E+04
 
   -0.29801E+05         0.16038E+06         0.00000E+00
    0.16038E+06         0.36766E+05         0.00000E+00
    0.00000E+00         0.00000E+00         0.13930E+04
 
   -0.25608E+05         0.16256E+06         0.00000E+00
    0.16256E+06         0.33715E+05         0.00000E+00
    0.00000E+00         0.00000E+00         0.16213E+04
 
   -0.21321E+05         0.16464E+06         0.00000E+00
    0.16464E+06         0.30735E+05         0.00000E+00
    0.00000E+00         0.00000E+00         0.18827E+04
 
   -0.16936E+05         0.16662E+06         0.00000E+00
    0.16662E+06         0.27841E+05         0.00000E+00
    0.00000E+00         0.00000E+00         0.21810E+04
 
   -0.12450E+05         0.16851E+06         0.00000E+00
    0.16851E+06         0.25050E+05         0.00000E+00
    0.00000E+00         0.00000E+00         0.25202E+04
 
   -0.78586E+04         0.17030E+06         0.00000E+00
    0.17030E+06         0.22382E+05         0.00000E+00
    0.00000E+00         0.00000E+00         0.29046E+04
 
   -0.31595E+04         0.17199E+06         0.00000E+00
    0.17199E+06         0.19853E+05         0.00000E+00
    0.00000E+00         0.00000E+00         0.33386E+04
 
    0.16514E+04         0.17358E+06         0.00000E+00
    0.17358E+06         0.17483E+05         0.00000E+00
    0.00000E+00         0.00000E+00         0.38270E+04
 
   -0.12278E+06         0.22176E+04         0.00000E+00
    0.22176E+04         0.11646E+06         0.00000E+00
    0.00000E+00         0.00000E+00        -0.12628E+04
 
   -0.12180E+06         0.66340E+04         0.00000E+00
    0.66340E+04         0.11632E+06         0.00000E+00
    0.00000E+00         0.00000E+00        -0.10970E+04
 
   -0.12078E+06         0.11039E+05         0.00000E+00
    0.11039E+05         0.11603E+06         0.00000E+00
    0.00000E+00         0.00000E+00        -0.94996E+03
 
   -0.11971E+06         0.15431E+05         0.00000E+00
    0.15431E+05         0.11561E+06         0.00000E+00
    0.00000E+00         0.00000E+00        -0.81993E+03
 
   -0.11859E+06         0.19807E+05         0.00000E+00
    0.19807E+05         0.11507E+06         0.00000E+00
    0.00000E+00         0.00000E+00        -0.70537E+03
 
   -0.11742E+06         0.24164E+05         0.00000E+00
    0.24164E+05         0.11439E+06         0.00000E+00
    0.00000E+00         0.00000E+00        -0.60479E+03
 
   -0.11618E+06         0.28500E+05         0.00000E+00
    0.28500E+05         0.11360E+06         0.00000E+00
    0.00000E+00         0.00000E+00        -0.51675E+03
 
   -0.11489E+06         0.32813E+05         0.00000E+00
    0.32813E+05         0.11269E+06         0.00000E+00
    0.00000E+00         0.00000E+00        -0.43992E+03
 
   -0.11354E+06         0.37099E+05         0.00000E+00
    0.37099E+05         0.11168E+06         0.00000E+00
    0.00000E+00         0.00000E+00        -0.37304E+03
 
   -0.11213E+06         0.41357E+05         0.00000E+00
    0.41357E+05         0.11056E+06         0.00000E+00
    0.00000E+00         0.00000E+00        -0.31497E+03
 
   -0.11066E+06         0.45584E+05         0.00000E+00
    0.45584E+05         0.10933E+06         0.00000E+00
    0.00000E+00         0.00000E+00        -0.26462E+03
 
   -0.10912E+06         0.49778E+05         0.00000E+00
    0.49778E+05         0.10801E+06         0.00000E+00
    0.00000E+00         0.00000E+00        -0.22104E+03
 
   -0.10751E+06         0.53935E+05         0.00000E+00
    0.53935E+05         0.10659E+06         0.00000E+00
    0.00000E+00         0.00000E+00        -0.18334E+03
 
   -0.10584E+06         0.58054E+05         0.00000E+00
    0.58054E+05         0.10508E+06         0.00000E+00
    0.00000E+00         0.00000E+00        -0.15069E+03
 
   -0.10410E+06         0.62133E+05         0.00000E+00
    0.62133E+05         0.10349E+06         0.00000E+00
    0.00000E+00         0.00000E+00        -0.12238E+03
 
   -0.10229E+06         0.66168E+05         0.00000E+00
    0.66168E+05         0.10180E+06         0.00000E+00
    0.00000E+00         0.00000E+00        -0.97726E+02
 
   -0.10041E+06         0.70158E+05         0.00000E+00
    0.70158E+05         0.10003E+06         0.00000E+00
    0.00000E+00         0.00000E+00        -0.76133E+02
 
   -0.98468E+05         0.74099E+05         0.00000E+00
    0.74099E+05         0.98183E+05         0.00000E+00
    0.00000E+00         0.00000E+00        -0.57043E+02
 
   -0.96453E+05         0.77991E+05         0.00000E+00
    0.77991E+05         0.96253E+05         0.00000E+00
    0.00000E+00         0.00000E+00        -0.39943E+02
 
   -0.94368E+05         0.81830E+05         0.00000E+00
    0.81830E+05         0.94246E+05         0.00000E+00
    0.00000E+00         0.00000E+00        -0.24359E+02
 
   -0.92214E+05         0.85615E+05         0.00000E+00
    0.85615E+05         0.92165E+05         0.00000E+00
    0.00000E+00         0.00000E+00        -0.98393E+01
 
   -0.89990E+05         0.89343E+05         0.00000E+00
    0.89343E+05         0.90010E+05         0.00000E+00
    0.00000E+00         0.00000E+00         0.40461E+01
 
   -0.87696E+05         0.93011E+05         0.00000E+00
    0.93011E+05         0.87784E+05         0.00000E+00
    0.00000E+00         0.00000E+00         0.17720E+02
 
   -0.85332E+05         0.96619E+05         0.00000E+00
    0.96619E+05         0.85490E+05         0.00000E+00
    0.00000E+00         0.00000E+00         0.31606E+02
 
   -0.82899E+05         0.10016E+06         0.00000E+00
    0.10016E+06         0.83129E+05         0.00000E+00
    0.00000E+00         0.00000E+00         0.46135E+02
 
   -0.80395E+05         0.10364E+06         0.00000E+00
    0.10364E+06         0.80704E+05         0.00000E+00
    0.00000E+00         0.00000E+00         0.61758E+02
 
   -0.77823E+05         0.10705E+06         0.00000E+00
    0.10705E+06         0.78217E+05         0.00000E+00
    0.00000E+00         0.00000E+00         0.78955E+02
 
   -0.75180E+05         0.11040E+06         0.00000E+00
    0.11040E+06         0.75671E+05         0.00000E+00
    0.00000E+00         0.00000E+00         0.98247E+02
 
   -0.72468E+05         0.11367E+06         0.00000E+00
    0.11367E+06         0.73069E+05         0.00000E+00
    0.00000E+00         0.00000E+00         0.12020E+03
 
   -0.69687E+05         0.11687E+06         0.00000E+00
    0.11687E+06         0.70414E+05         0.00000E+00
    0.00000E+00         0.00000E+00         0.14546E+03
 
   -0.66836E+05         0.11999E+06         0.00000E+00
    0.11999E+06         0.67710E+05         0.00000E+00
    0.00000E+00         0.00000E+00         0.17473E+03
 
   -0.63916E+05         0.12304E+06         0.00000E+00
    0.12304E+06         0.64960E+05         0.00000E+00
    0.00000E+00         0.00000E+00         0.20880E+03
 
   -0.60925E+05         0.12601E+06         0.00000E+00
    0.12601E+06         0.62168E+05         0.00000E+00
    0.00000E+00         0.00000E+00         0.24857E+03
 
   -0.57865E+05         0.12890E+06         0.00000E+00
    0.12890E+06         0.59340E+05         0.00000E+00
    0.00000E+00         0.00000E+00         0.29508E+03
 
   -0.54733E+05         0.13171E+06         0.00000E+00
    0.13171E+06         0.56481E+05         0.00000E+00
    0.00000E+00         0.00000E+00         0.34946E+03
 
   -0.51531E+05         0.13443E+06         0.00000E+00
    0.13443E+06         0.53596E+05         0.00000E+00
    0.00000E+00         0.00000E+00         0.41301E+03
 
   -0.48257E+05         0.13707E+06         0.00000E+00
    0.13707E+06         0.50693E+05         0.00000E+00
    0.00000E+00         0.00000E+00         0.48720E+03
 
   -0.44910E+05         0.13962E+06         0.00000E+00
    0.13962E+06         0.47778E+05         0.00000E+00
    0.00000E+00         0.00000E+00         0.57368E+03
 
   -0.41489E+05         0.14209E+06         0.00000E+00
    0.14209E+06         0.44861E+05         0.00000E+00
    0.00000E+00         0.00000E+00         0.67428E+03
 
   -0.37994E+05         0.14447E+06         0.00000E+00
    0.14447E+06         0.41949E+05         0.00000E+00
    0.00000E+00         0.00000E+00         0.79106E+03
 
   -0.34422E+05         0.14676E+06         0.00000E+00
    0.14676E+06         0.39053E+05         0.00000E+00
    0.00000E+00         0.00000E+00         0.92627E+03
 
   -0.30772E+05         0.14896E+06         0.00000E+00
    0.14896E+06         0.36184E+05         0.00000E+00
    0.00000E+00         0.00000E+00         0.10824E+04
 
   -0.27043E+05         0.15107E+06         0.00000E+00
    0.15107E+06         0.33354E+05         0.00000E+00
    0.00000E+00         0.00000E+00         0.12623E+04
 
   -0.23231E+05         0.15308E+06         0.00000E+00
    0.15308E+06         0.30575E+05         0.00000E+00
    0.00000E+00         0.00000E+00         0.14688E+04
 
   -0.19335E+05         0.15501E+06         0.00000E+00
    0.15501E+06         0.27862E+05         0.00000E+00
    0.00000E+00         0.00000E+00         0.17053E+04
 
   -0.15353E+05         0.15684E+06         0.00000E+00
    0.15684E+06         0.25228E+05         0.00000E+00
    0.00000E+00         0.00000E+00         0.19751E+04
 
   -0.11282E+05         0.15857E+06         0.00000E+00
    0.15857E+06         0.22691E+05         0.00000E+00
    0.00000E+00         0.00000E+00         0.22819E+04
 
   -0.71186E+04         0.16022E+06         0.00000E+00
    0.16022E+06         0.20266E+05         0.00000E+00
    0.00000E+00         0.00000E+00         0.26296E+04
 
   -0.28607E+04         0.16177E+06         0.00000E+00
    0.16177E+06         0.17971E+05         0.00000E+00
    0.00000E+00         0.00000E+00         0.30221E+04
 
    0.14948E+04         0.16322E+06         0.00000E+00
    0.16322E+06         0.15824E+05         0.00000E+00
    0.00000E+00         0.00000E+00         0.34638E+04
 
   -0.11184E+06         0.21161E+04         0.00000E+00
    0.21161E+04         0.10581E+06         0.00000E+00
    0.00000E+00         0.00000E+00        -0.12061E+04
 
   -0.11092E+06         0.63234E+04         0.00000E+00
    0.63234E+04         0.10568E+06         0.00000E+00
    0.00000E+00         0.00000E+00        -0.10483E+04
 
   -0.10996E+06         0.10517E+05         0.00000E+00
    0.10517E+05         0.10542E+06         0.00000E+00
    0.00000E+00         0.00000E+00        -0.90814E+03
 
   -0.10895E+06         0.14695E+05         0.00000E+00
    0.14695E+05         0.10503E+06         0.00000E+00
    0.00000E+00         0.00000E+00        -0.78422E+03
 
   -0.10790E+06         0.18855E+05         0.00000E+00
    0.18855E+05         0.10452E+06         0.00000E+00
    0.00000E+00         0.00000E+00        -0.67502E+03
 
   -0.10680E+06         0.22995E+05         0.00000E+00
    0.22995E+05         0.10390E+06         0.00000E+00
    0.00000E+00         0.00000E+00        -0.57909E+03
 
   -0.10565E+06         0.27112E+05         0.00000E+00
    0.27112E+05         0.10317E+06         0.00000E+00
    0.00000E+00         0.00000E+00        -0.49510E+03
 
   -0.10445E+06         0.31205E+05         0.00000E+00
    0.31205E+05         0.10234E+06         0.00000E+00
    0.00000E+00         0.00000E+00        -0.42177E+03
 
   -0.10319E+06         0.35270E+05         0.00000E+00
    0.35270E+05         0.10140E+06         0.00000E+00
    0.00000E+00         0.00000E+00        -0.35792E+03
 
   -0.10188E+06         0.39307E+05         0.00000E+00
    0.39307E+05         0.10037E+06         0.00000E+00
    0.00000E+00         0.00000E+00        -0.30246E+03
 
   -0.10052E+06         0.43312E+05         0.00000E+00
    0.43312E+05         0.99248E+05         0.00000E+00
    0.00000E+00         0.00000E+00        -0.25436E+03
 
   -0.99098E+05         0.47283E+05         0.00000E+00
    0.47283E+05         0.98035E+05         0.00000E+00
    0.00000E+00         0.00000E+00        -0.21271E+03
 
   -0.97619E+05         0.51219E+05         0.00000E+00
    0.51219E+05         0.96736E+05         0.00000E+00
    0.00000E+00         0.00000E+00        -0.17666E+03
 
   -0.96081E+05         0.55117E+05         0.00000E+00
    0.55117E+05         0.95354E+05         0.00000E+00
    0.00000E+00         0.00000E+00        -0.14545E+03
 
   -0.94483E+05         0.58974E+05         0.00000E+00
    0.58974E+05         0.93891E+05         0.00000E+00
    0.00000E+00         0.00000E+00        -0.11839E+03
 
   -0.92825E+05         0.62790E+05         0.00000E+00
    0.62790E+05         0.92351E+05         0.00000E+00
    0.00000E+00         0.00000E+00        -0.94834E+02
 
   -0.91106E+05         0.66560E+05         0.00000E+00
    0.66560E+05         0.90734E+05         0.00000E+00
    0.00000E+00         0.00000E+00        -0.74218E+02
 
   -0.89325E+05         0.70285E+05         0.00000E+00
    0.70285E+05         0.89045E+05         0.00000E+00
    0.00000E+00         0.00000E+00        -0.56016E+02
 
   -0.87482E+05         0.73960E+05         0.00000E+00
    0.73960E+05         0.87283E+05         0.00000E+00
    0.00000E+00         0.00000E+00        -0.39747E+02
 
   -0.85577E+05         0.77585E+05         0.00000E+00
    0.77585E+05         0.85453E+05         0.00000E+00
    0.00000E+00         0.00000E+00        -0.24962E+02
 
   -0.83610E+05         0.81157E+05         0.00000E+00
    0.81157E+05         0.83554E+05         0.00000E+00
    0.00000E+00         0.00000E+00        -0.11241E+02
 
   -0.81581E+05         0.84674E+05         0.00000E+00
    0.84674E+05         0.81590E+05         0.00000E+00
    0.00000E+00         0.00000E+00         0.18189E+01
 
   -0.79489E+05         0.88135E+05         0.00000E+00
    0.88135E+05         0.79562E+05         0.00000E+00
    0.00000E+00         0.00000E+00         0.14611E+02
 
   -0.77334E+05         0.91537E+05         0.00000E+00
    0.91537E+05         0.77472E+05         0.00000E+00
    0.00000E+00         0.00000E+00         0.27525E+02
 
   -0.75117E+05         0.94878E+05         0.00000E+00
    0.94878E+05         0.75322E+05         0.00000E+00
    0.00000E+00         0.00000E+00         0.40961E+02
 
   -0.72838E+05         0.98156E+05         0.00000E+00
    0.98156E+05         0.73114E+05         0.00000E+00
    0.00000E+00         0.00000E+00         0.55331E+02
 
   -0.70495E+05         0.10137E+06         0.00000E+00
    0.10137E+06         0.70851E+05         0.00000E+00
    0.00000E+00         0.00000E+00         0.71075E+02
 
   -0.68091E+05         0.10452E+06         0.00000E+00
    0.10452E+06         0.68534E+05         0.00000E+00
    0.00000E+00         0.00000E+00         0.88666E+02
 
   -0.65624E+05         0.10760E+06         0.00000E+00
    0.10760E+06         0.66167E+05         0.00000E+00
    0.00000E+00         0.00000E+00         0.10862E+03
 
   -0.63094E+05         0.11061E+06         0.00000E+00
    0.11061E+06         0.63752E+05         0.00000E+00
    0.00000E+00         0.00000E+00         0.13152E+03
 
   -0.60502E+05         0.11354E+06         0.00000E+00
    0.11354E+06         0.61292E+05         0.00000E+00
    0.00000E+00         0.00000E+00         0.15800E+03
 
   -0.57848E+05         0.11641E+06         0.00000E+00
    0.11641E+06         0.58792E+05         0.00000E+00
    0.00000E+00         0.00000E+00         0.18878E+03
 
   -0.55130E+05         0.11919E+06         0.00000E+00
    0.11919E+06         0.56254E+05         0.00000E+00
    0.00000E+00         0.00000E+00         0.22468E+03
 
   -0.52350E+05         0.12191E+06         0.00000E+00
    0.12191E+06         0.53683E+05         0.00000E+00
    0.00000E+00         0.00000E+00         0.26662E+03
 
   -0.49507E+05         0.12454E+06         0.00000E+00
    0.12454E+06         0.51085E+05         0.00000E+00
    0.00000E+00         0.00000E+00         0.31562E+03
 
   -0.46600E+05         0.12709E+06         0.00000E+00
    0.12709E+06         0.48464E+05         0.00000E+00
    0.00000E+00         0.00000E+00         0.37287E+03
 
   -0.43629E+05         0.12957E+06         0.00000E+00
    0.12957E+06         0.45827E+05         0.00000E+00
    0.00000E+00         0.00000E+00         0.43968E+03
 
   -0.40593E+05         0.13196E+06         0.00000E+00
    0.13196E+06         0.43181E+05         0.00000E+00
    0.00000E+00         0.00000E+00         0.51753E+03
 
   -0.37491E+05         0.13426E+06         0.00000E+00
    0.13426E+06         0.40532E+05         0.00000E+00
    0.00000E+00         0.00000E+00         0.60808E+03
 
   -0.34323E+05         0.13648E+06         0.00000E+00
    0.13648E+06         0.37889E+05         0.00000E+00
    0.00000E+00         0.00000E+00         0.71317E+03
 
   -0.31088E+05         0.13862E+06         0.00000E+00
    0.13862E+06         0.35262E+05         0.00000E+00
    0.00000E+00         0.00000E+00         0.83485E+03
 
   -0.27783E+05         0.14067E+06         0.00000E+00
    0.14067E+06         0.32660E+05         0.00000E+00
    0.00000E+00         0.00000E+00         0.97536E+03
 
   -0.24408E+05         0.14263E+06         0.00000E+00
    0.14263E+06         0.30094E+05         0.00000E+00
    0.00000E+00         0.00000E+00         0.11372E+04
 
   -0.20961E+05         0.14450E+06         0.00000E+00
    0.14450E+06         0.27576E+05         0.00000E+00
    0.00000E+00         0.00000E+00         0.13230E+04
 
   -0.17440E+05         0.14629E+06         0.00000E+00
    0.14629E+06         0.25118E+05         0.00000E+00
    0.00000E+00         0.00000E+00         0.15357E+04
 
   -0.13843E+05         0.14798E+06         0.00000E+00
    0.14798E+06         0.22735E+05         0.00000E+00
    0.00000E+00         0.00000E+00         0.17784E+04
 
   -0.10169E+05         0.14959E+06         0.00000E+00
    0.14959E+06         0.20441E+05         0.00000E+00
    0.00000E+00         0.00000E+00         0.20544E+04
 
   -0.64139E+04         0.15110E+06         0.00000E+00
    0.15110E+06         0.18250E+05         0.00000E+00
    0.00000E+00         0.00000E+00         0.23672E+04
 
   -0.25767E+04         0.15253E+06         0.00000E+00
    0.15253E+06         0.16179E+05         0.00000E+00
    0.00000E+00         0.00000E+00         0.27204E+04
 
    0.13453E+04         0.15387E+06         0.00000E+00
    0.15387E+06         0.14243E+05         0.00000E+00
    0.00000E+00         0.00000E+00         0.31177E+04
 
   -0.10136E+06         0.20245E+04         0.00000E+00
    0.20245E+04         0.95701E+05         0.00000E+00
    0.00000E+00         0.00000E+00        -0.11326E+04
 
   -0.10050E+06         0.60439E+04         0.00000E+00
    0.60439E+04         0.95578E+05         0.00000E+00
    0.00000E+00         0.00000E+00        -0.98468E+03
 
   -0.99602E+05         0.10048E+05         0.00000E+00
    0.10048E+05         0.95335E+05         0.00000E+00
    0.00000E+00         0.00000E+00        -0.85337E+03
 
   -0.98664E+05         0.14035E+05         0.00000E+00
    0.14035E+05         0.94978E+05         0.00000E+00
    0.00000E+00         0.00000E+00        -0.73722E+03
 
   -0.97685E+05         0.18002E+05         0.00000E+00
    0.18002E+05         0.94511E+05         0.00000E+00
    0.00000E+00         0.00000E+00        -0.63483E+03
 
   -0.96665E+05         0.21948E+05         0.00000E+00
    0.21948E+05         0.93941E+05         0.00000E+00
    0.00000E+00         0.00000E+00        -0.54486E+03
 
   -0.95601E+05         0.25870E+05         0.00000E+00
    0.25870E+05         0.93271E+05         0.00000E+00
    0.00000E+00         0.00000E+00        -0.46606E+03
 
   -0.94491E+05         0.29766E+05         0.00000E+00
    0.29766E+05         0.92505E+05         0.00000E+00
    0.00000E+00         0.00000E+00        -0.39725E+03
 
   -0.93335E+05         0.33635E+05         0.00000E+00
    0.33635E+05         0.91648E+05         0.00000E+00
    0.00000E+00         0.00000E+00        -0.33731E+03
 
   -0.92130E+05         0.37473E+05         0.00000E+00
    0.37473E+05         0.90704E+05         0.00000E+00
    0.00000E+00         0.00000E+00        -0.28522E+03
 
   -0.90876E+05         0.41280E+05         0.00000E+00
    0.41280E+05         0.89676E+05         0.00000E+00
    0.00000E+00         0.00000E+00        -0.24004E+03
 
   -0.89572E+05         0.45053E+05         0.00000E+00
    0.45053E+05         0.88567E+05         0.00000E+00
    0.00000E+00         0.00000E+00        -0.20091E+03
 
   -0.88216E+05         0.48791E+05         0.00000E+00
    0.48791E+05         0.87381E+05         0.00000E+00
    0.00000E+00         0.00000E+00        -0.16704E+03
 
   -0.86808E+05         0.52490E+05         0.00000E+00
    0.52490E+05         0.86119E+05         0.00000E+00
    0.00000E+00         0.00000E+00        -0.13771E+03
 
   -0.85346E+05         0.56150E+05         0.00000E+00
    0.56150E+05         0.84785E+05         0.00000E+00
    0.00000E+00         0.00000E+00        -0.11228E+03
 
   -0.83831E+05         0.59768E+05         0.00000E+00
    0.59768E+05         0.83381E+05         0.00000E+00
    0.00000E+00         0.00000E+00        -0.90154E+02
 
   -0.82262E+05         0.63342E+05         0.00000E+00
    0.63342E+05         0.81908E+05         0.00000E+00
    0.00000E+00         0.00000E+00        -0.70801E+02
 
   -0.80638E+05         0.66870E+05         0.00000E+00
    0.66870E+05         0.80370E+05         0.00000E+00
    0.00000E+00         0.00000E+00        -0.53733E+02
 
   -0.78960E+05         0.70351E+05         0.00000E+00
    0.70351E+05         0.78767E+05         0.00000E+00
    0.00000E+00         0.00000E+00        -0.38502E+02
 
   -0.77226E+05         0.73783E+05         0.00000E+00
    0.73783E+05         0.77102E+05         0.00000E+00
    0.00000E+00         0.00000E+00        -0.24692E+02
 
   -0.75436E+05         0.77163E+05         0.00000E+00
    0.77163E+05         0.75377E+05         0.00000E+00
    0.00000E+00         0.00000E+00        -0.11915E+02
 
   -0.73591E+05         0.80490E+05         0.00000E+00
    0.80490E+05         0.73592E+05         0.00000E+00
    0.00000E+00         0.00000E+00         0.20084E+00
 
   -0.71690E+05         0.83762E+05         0.00000E+00
    0.83762E+05         0.71750E+05         0.00000E+00
    0.00000E+00         0.00000E+00         0.12017E+02
 
   -0.69734E+05         0.86977E+05         0.00000E+00
    0.86977E+05         0.69853E+05         0.00000E+00
    0.00000E+00         0.00000E+00         0.23891E+02
 
   -0.67722E+05         0.90133E+05         0.00000E+00
    0.90133E+05         0.67903E+05         0.00000E+00
    0.00000E+00         0.00000E+00         0.36187E+02
 
   -0.65654E+05         0.93229E+05         0.00000E+00
    0.93229E+05         0.65900E+05         0.00000E+00
    0.00000E+00         0.00000E+00         0.49280E+02
 
   -0.63530E+05         0.96262E+05         0.00000E+00
    0.96262E+05         0.63848E+05         0.00000E+00
    0.00000E+00         0.00000E+00         0.63570E+02
 
   -0.61351E+05         0.99231E+05         0.00000E+00
    0.99231E+05         0.61748E+05         0.00000E+00
    0.00000E+00         0.00000E+00         0.79484E+02
 
   -0.59116E+05         0.10213E+06         0.00000E+00
    0.10213E+06         0.59603E+05         0.00000E+00
    0.00000E+00         0.00000E+00         0.97490E+02
 
   -0.56825E+05         0.10497E+06         0.00000E+00
    0.10497E+06         0.57416E+05         0.00000E+00
    0.00000E+00         0.00000E+00         0.11811E+03
 
   -0.54479E+05         0.10774E+06         0.00000E+00
    0.10774E+06         0.55188E+05         0.00000E+00
    0.00000E+00         0.00000E+00         0.14191E+03
 
   -0.52077E+05         0.11043E+06         0.00000E+00
    0.11043E+06         0.52925E+05         0.00000E+00
    0.00000E+00         0.00000E+00         0.16955E+03
 
   -0.49620E+05         0.11306E+06         0.00000E+00
    0.11306E+06         0.50628E+05         0.00000E+00
    0.00000E+00         0.00000E+00         0.20175E+03
 
   -0.47106E+05         0.11561E+06         0.00000E+00
    0.11561E+06         0.48303E+05         0.00000E+00
    0.00000E+00         0.00000E+00         0.23934E+03
 
   -0.44537E+05         0.11808E+06         0.00000E+00
    0.11808E+06         0.45953E+05         0.00000E+00
    0.00000E+00         0.00000E+00         0.28324E+03
 
   -0.41911E+05         0.12048E+06         0.00000E+00
    0.12048E+06         0.43584E+05         0.00000E+00
    0.00000E+00         0.00000E+00         0.33451E+03
 
   -0.39229E+05         0.12280E+06         0.00000E+00
    0.12280E+06         0.41201E+05         0.00000E+00
    0.00000E+00         0.00000E+00         0.39433E+03
 
   -0.36490E+05         0.12504E+06         0.00000E+00
    0.12504E+06         0.38810E+05         0.00000E+00
    0.00000E+00         0.00000E+00         0.46402E+03
 
   -0.33692E+05         0.12720E+06         0.00000E+00
    0.12720E+06         0.36417E+05         0.00000E+00
    0.00000E+00         0.00000E+00         0.54506E+03
 
   -0.30836E+05         0.12928E+06         0.00000E+00
    0.12928E+06         0.34032E+05         0.00000E+00
    0.00000E+00         0.00000E+00         0.63911E+03
 
   -0.27921E+05         0.13128E+06         0.00000E+00
    0.13128E+06         0.31661E+05         0.00000E+00
    0.00000E+00         0.00000E+00         0.74800E+03
 
   -0.24945E+05         0.13320E+06         0.00000E+00
    0.13320E+06         0.29314E+05         0.00000E+00
    0.00000E+00         0.00000E+00         0.87373E+03
 
   -0.21908E+05         0.13503E+06         0.00000E+00
    0.13503E+06         0.27001E+05         0.00000E+00
    0.00000E+00         0.00000E+00         0.10185E+04
 
   -0.18808E+05         0.13677E+06         0.00000E+00
    0.13677E+06         0.24732E+05         0.00000E+00
    0.00000E+00         0.00000E+00         0.11848E+04
 
   -0.15644E+05         0.13844E+06         0.00000E+00
    0.13844E+06         0.22519E+05         0.00000E+00
    0.00000E+00         0.00000E+00         0.13751E+04
 
   -0.12413E+05         0.14001E+06         0.00000E+00
    0.14001E+06         0.20375E+05         0.00000E+00
    0.00000E+00         0.00000E+00         0.15923E+04
 
   -0.91151E+04         0.14151E+06         0.00000E+00
    0.14151E+06         0.18311E+05         0.00000E+00
    0.00000E+00         0.00000E+00         0.18392E+04
 
   -0.57475E+04         0.14291E+06         0.00000E+00
    0.14291E+06         0.16343E+05         0.00000E+00
    0.00000E+00         0.00000E+00         0.21191E+04
 
   -0.23085E+04         0.14424E+06         0.00000E+00
    0.14424E+06         0.14484E+05         0.00000E+00
    0.00000E+00         0.00000E+00         0.24351E+04
 
    0.12039E+04         0.14548E+06         0.00000E+00
    0.14548E+06         0.12749E+05         0.00000E+00
    0.00000E+00         0.00000E+00         0.27906E+04
 
   -0.91298E+05         0.19412E+04         0.00000E+00
    0.19412E+04         0.86063E+05         0.00000E+00
    0.00000E+00         0.00000E+00        -0.10470E+04
 
   -0.90502E+05         0.57910E+04         0.00000E+00
    0.57910E+04         0.85950E+05         0.00000E+00
    0.00000E+00         0.00000E+00        -0.91054E+03
 
   -0.89674E+05         0.96243E+04         0.00000E+00
    0.96243E+04         0.85727E+05         0.00000E+00
    0.00000E+00         0.00000E+00        -0.78936E+03
 
   -0.88811E+05         0.13439E+05         0.00000E+00
    0.13439E+05         0.85400E+05         0.00000E+00
    0.00000E+00         0.00000E+00        -0.68214E+03
 
   -0.87912E+05         0.17233E+05         0.00000E+00
    0.17233E+05         0.84974E+05         0.00000E+00
    0.00000E+00         0.00000E+00        -0.58759E+03
 
   -0.86976E+05         0.21005E+05         0.00000E+00
    0.21005E+05         0.84453E+05         0.00000E+00
    0.00000E+00         0.00000E+00        -0.50450E+03
 
   -0.86000E+05         0.24752E+05         0.00000E+00
    0.24752E+05         0.83841E+05         0.00000E+00
    0.00000E+00         0.00000E+00        -0.43170E+03
 
   -0.84984E+05         0.28473E+05         0.00000E+00
    0.28473E+05         0.83143E+05         0.00000E+00
    0.00000E+00         0.00000E+00        -0.36811E+03
 
   -0.83926E+05         0.32165E+05         0.00000E+00
    0.32165E+05         0.82363E+05         0.00000E+00
    0.00000E+00         0.00000E+00        -0.31271E+03
 
   -0.82826E+05         0.35827E+05         0.00000E+00
    0.35827E+05         0.81503E+05         0.00000E+00
    0.00000E+00         0.00000E+00        -0.26456E+03
 
   -0.81681E+05         0.39456E+05         0.00000E+00
    0.39456E+05         0.80567E+05         0.00000E+00
    0.00000E+00         0.00000E+00        -0.22278E+03
 
   -0.80492E+05         0.43052E+05         0.00000E+00
    0.43052E+05         0.79559E+05         0.00000E+00
    0.00000E+00         0.00000E+00        -0.18659E+03
 
   -0.79257E+05         0.46612E+05         0.00000E+00
    0.46612E+05         0.78480E+05         0.00000E+00
    0.00000E+00         0.00000E+00        -0.15526E+03
 
   -0.77975E+05         0.50134E+05         0.00000E+00
    0.50134E+05         0.77335E+05         0.00000E+00
    0.00000E+00         0.00000E+00        -0.12813E+03
 
   -0.76647E+05         0.53617E+05         0.00000E+00
    0.53617E+05         0.76124E+05         0.00000E+00
    0.00000E+00         0.00000E+00        -0.10461E+03
 
   -0.75271E+05         0.57058E+05         0.00000E+00
    0.57058E+05         0.74850E+05         0.00000E+00
    0.00000E+00         0.00000E+00        -0.84148E+02
 
   -0.73847E+05         0.60456E+05         0.00000E+00
    0.60456E+05         0.73516E+05         0.00000E+00
    0.00000E+00         0.00000E+00        -0.66261E+02
 
   -0.72374E+05         0.63810E+05         0.00000E+00
    0.63810E+05         0.72122E+05         0.00000E+00
    0.00000E+00         0.00000E+00        -0.50499E+02
 
   -0.70853E+05         0.67116E+05         0.00000E+00
    0.67116E+05         0.70671E+05         0.00000E+00
    0.00000E+00         0.00000E+00        -0.36451E+02
 
   -0.69283E+05         0.70374E+05         0.00000E+00
    0.70374E+05         0.69164E+05         0.00000E+00
    0.00000E+00         0.00000E+00        -0.23738E+02
 
   -0.67664E+05         0.73582E+05         0.00000E+00
    0.73582E+05         0.67604E+05         0.00000E+00
    0.00000E+00         0.00000E+00        -0.12003E+02
 
   -0.65995E+05         0.76738E+05         0.00000E+00
    0.76738E+05         0.65991E+05         0.00000E+00
    0.00000E+00         0.00000E+00        -0.90866E+00
 
   -0.64277E+05         0.79841E+05         0.00000E+00
    0.79841E+05         0.64327E+05         0.00000E+00
    0.00000E+00         0.00000E+00         0.98740E+01
 
   -0.62510E+05         0.82888E+05         0.00000E+00
    0.82888E+05         0.62614E+05         0.00000E+00
    0.00000E+00         0.00000E+00         0.20670E+02
 
   -0.60694E+05         0.85878E+05         0.00000E+00
    0.85878E+05         0.60853E+05         0.00000E+00
    0.00000E+00         0.00000E+00         0.31807E+02
 
   -0.58828E+05         0.88809E+05         0.00000E+00
    0.88809E+05         0.59046E+05         0.00000E+00
    0.00000E+00         0.00000E+00         0.43625E+02
 
   -0.56913E+05         0.91680E+05         0.00000E+00
    0.91680E+05         0.57195E+05         0.00000E+00
    0.00000E+00         0.00000E+00         0.56482E+02
 
   -0.54948E+05         0.94489E+05         0.00000E+00
    0.94489E+05         0.55302E+05         0.00000E+00
    0.00000E+00         0.00000E+00         0.70763E+02
 
   -0.52935E+05         0.97234E+05         0.00000E+00
    0.97234E+05         0.53369E+05         0.00000E+00
    0.00000E+00         0.00000E+00         0.86886E+02
 
   -0.50872E+05         0.99915E+05         0.00000E+00
    0.99915E+05         0.51399E+05         0.00000E+00
    0.00000E+00         0.00000E+00         0.10531E+03
 
   -0.48761E+05         0.10253E+06         0.00000E+00
    0.10253E+06         0.49393E+05         0.00000E+00
    0.00000E+00         0.00000E+00         0.12656E+03
 
   -0.46600E+05         0.10507E+06         0.00000E+00
    0.10507E+06         0.47356E+05         0.00000E+00
    0.00000E+00         0.00000E+00         0.15121E+03
 
   -0.44390E+05         0.10755E+06         0.00000E+00
    0.10755E+06         0.45290E+05         0.00000E+00
    0.00000E+00         0.00000E+00         0.17991E+03
 
   -0.42131E+05         0.10996E+06         0.00000E+00
    0.10996E+06         0.43198E+05         0.00000E+00
    0.00000E+00         0.00000E+00         0.21339E+03
 
   -0.39823E+05         0.11229E+06         0.00000E+00
    0.11229E+06         0.41086E+05         0.00000E+00
    0.00000E+00         0.00000E+00         0.25248E+03
 
   -0.37466E+05         0.11455E+06         0.00000E+00
    0.11455E+06         0.38956E+05         0.00000E+00
    0.00000E+00         0.00000E+00         0.29811E+03
 
   -0.35059E+05         0.11673E+06         0.00000E+00
    0.11673E+06         0.36815E+05         0.00000E+00
    0.00000E+00         0.00000E+00         0.35134E+03
 
   -0.32602E+05         0.11884E+06         0.00000E+00
    0.11884E+06         0.34668E+05         0.00000E+00
    0.00000E+00         0.00000E+00         0.41335E+03
 
   -0.30094E+05         0.12087E+06         0.00000E+00
    0.12087E+06         0.32521E+05         0.00000E+00
    0.00000E+00         0.00000E+00         0.48545E+03
 
   -0.27535E+05         0.12283E+06         0.00000E+00
    0.12283E+06         0.30381E+05         0.00000E+00
    0.00000E+00         0.00000E+00         0.56911E+03
 
   -0.24925E+05         0.12470E+06         0.00000E+00
    0.12470E+06         0.28255E+05         0.00000E+00
    0.00000E+00         0.00000E+00         0.66597E+03
 
   -0.22262E+05         0.12650E+06         0.00000E+00
    0.12650E+06         0.26151E+05         0.00000E+00
    0.00000E+00         0.00000E+00         0.77782E+03
 
   -0.19546E+05         0.12821E+06         0.00000E+00
    0.12821E+06         0.24079E+05         0.00000E+00
    0.00000E+00         0.00000E+00         0.90662E+03
 
   -0.16775E+05         0.12985E+06         0.00000E+00
    0.12985E+06         0.22047E+05         0.00000E+00
    0.00000E+00         0.00000E+00         0.10545E+04
 
   -0.13948E+05         0.13141E+06         0.00000E+00
    0.13141E+06         0.20067E+05         0.00000E+00
    0.00000E+00         0.00000E+00         0.12238E+04
 
   -0.11064E+05         0.13288E+06         0.00000E+00
    0.13288E+06         0.18149E+05         0.00000E+00
    0.00000E+00         0.00000E+00         0.14170E+04
 
   -0.81220E+04         0.13428E+06         0.00000E+00
    0.13428E+06         0.16305E+05         0.00000E+00
    0.00000E+00         0.00000E+00         0.16366E+04
 
   -0.51199E+04         0.13559E+06         0.00000E+00
    0.13559E+06         0.14548E+05         0.00000E+00
    0.00000E+00         0.00000E+00         0.18856E+04
 
   -0.20562E+04         0.13683E+06         0.00000E+00
    0.13683E+06         0.12890E+05         0.00000E+00
    0.00000E+00         0.00000E+00         0.21667E+04
 
    0.10707E+04         0.13799E+06         0.00000E+00
    0.13799E+06         0.11344E+05         0.00000E+00
    0.00000E+00         0.00000E+00         0.24829E+04
 
   -0.81614E+05         0.18654E+04         0.00000E+00
    0.18654E+04         0.76847E+05         0.00000E+00
    0.00000E+00         0.00000E+00        -0.95353E+03
 
   -0.80891E+05         0.55619E+04         0.00000E+00
    0.55619E+04         0.76744E+05         0.00000E+00
    0.00000E+00         0.00000E+00        -0.82945E+03
 
   -0.80138E+05         0.92410E+04         0.00000E+00
    0.92410E+04         0.76542E+05         0.00000E+00
    0.00000E+00         0.00000E+00        -0.71923E+03
 
   -0.79354E+05         0.12901E+05         0.00000E+00
    0.12901E+05         0.76245E+05         0.00000E+00
    0.00000E+00         0.00000E+00        -0.62169E+03
 
   -0.78537E+05         0.16539E+05         0.00000E+00
    0.16539E+05         0.75859E+05         0.00000E+00
    0.00000E+00         0.00000E+00        -0.53566E+03
 
   -0.77687E+05         0.20155E+05         0.00000E+00
    0.20155E+05         0.75387E+05         0.00000E+00
    0.00000E+00         0.00000E+00        -0.46004E+03
 
   -0.76802E+05         0.23745E+05         0.00000E+00
    0.23745E+05         0.74833E+05         0.00000E+00
    0.00000E+00         0.00000E+00        -0.39378E+03
 
   -0.75881E+05         0.27309E+05         0.00000E+00
    0.27309E+05         0.74201E+05         0.00000E+00
    0.00000E+00         0.00000E+00        -0.33589E+03
 
   -0.74923E+05         0.30843E+05         0.00000E+00
    0.30843E+05         0.73495E+05         0.00000E+00
    0.00000E+00         0.00000E+00        -0.28544E+03
 
   -0.73926E+05         0.34347E+05         0.00000E+00
    0.34347E+05         0.72718E+05         0.00000E+00
    0.00000E+00         0.00000E+00        -0.24158E+03
 
   -0.72891E+05         0.37819E+05         0.00000E+00
    0.37819E+05         0.71873E+05         0.00000E+00
    0.00000E+00         0.00000E+00        -0.20352E+03
 
   -0.71816E+05         0.41256E+05         0.00000E+00
    0.41256E+05         0.70963E+05         0.00000E+00
    0.00000E+00         0.00000E+00        -0.17055E+03
 
   -0.70700E+05         0.44658E+05         0.00000E+00
    0.44658E+05         0.69990E+05         0.00000E+00
    0.00000E+00         0.00000E+00        -0.14200E+03
 
   -0.69544E+05         0.48022E+05         0.00000E+00
    0.48022E+05         0.68957E+05         0.00000E+00
    0.00000E+00         0.00000E+00        -0.11728E+03
 
   -0.68345E+05         0.51347E+05         0.00000E+00
    0.51347E+05         0.67866E+05         0.00000E+00
    0.00000E+00         0.00000E+00        -0.95849E+02
 
   -0.67105E+05         0.54631E+05         0.00000E+00
    0.54631E+05         0.66719E+05         0.00000E+00
    0.00000E+00         0.00000E+00        -0.77211E+02
 
   -0.65823E+05         0.57873E+05         0.00000E+00
    0.57873E+05         0.65518E+05         0.00000E+00
    0.00000E+00         0.00000E+00        -0.60924E+02
 
   -0.64497E+05         0.61070E+05         0.00000E+00
    0.61070E+05         0.64264E+05         0.00000E+00
    0.00000E+00         0.00000E+00        -0.46580E+02
 
   -0.63129E+05         0.64221E+05         0.00000E+00
    0.64221E+05         0.62960E+05         0.00000E+00
    0.00000E+00         0.00000E+00        -0.33810E+02
 
   -0.61717E+05         0.67324E+05         0.00000E+00
    0.67324E+05         0.61606E+05         0.00000E+00
    0.00000E+00         0.00000E+00        -0.22270E+02
 
   -0.60262E+05         0.70379E+05         0.00000E+00
    0.70379E+05         0.60204E+05         0.00000E+00
    0.00000E+00         0.00000E+00        -0.11638E+02
 
   -0.58764E+05         0.73383E+05         0.00000E+00
    0.73383E+05         0.58756E+05         0.00000E+00
    0.00000E+00         0.00000E+00        -0.16089E+01
 
   -0.57222E+05         0.76334E+05         0.00000E+00
    0.76334E+05         0.57263E+05         0.00000E+00
    0.00000E+00         0.00000E+00         0.81117E+01
 
   -0.55637E+05         0.79231E+05         0.00000E+00
    0.79231E+05         0.55727E+05         0.00000E+00
    0.00000E+00         0.00000E+00         0.17816E+02
 
   -0.54009E+05         0.82073E+05         0.00000E+00
    0.82073E+05         0.54148E+05         0.00000E+00
    0.00000E+00         0.00000E+00         0.27797E+02
 
   -0.52337E+05         0.84858E+05         0.00000E+00
    0.84858E+05         0.52529E+05         0.00000E+00
    0.00000E+00         0.00000E+00         0.38359E+02
 
   -0.50622E+05         0.87584E+05         0.00000E+00
    0.87584E+05         0.50871E+05         0.00000E+00
    0.00000E+00         0.00000E+00         0.49820E+02
 
   -0.48864E+05         0.90250E+05         0.00000E+00
    0.90250E+05         0.49177E+05         0.00000E+00
    0.00000E+00         0.00000E+00         0.62523E+02
 
   -0.47063E+05         0.92855E+05         0.00000E+00
    0.92855E+05         0.47447E+05         0.00000E+00
    0.00000E+00         0.00000E+00         0.76840E+02
 
   -0.45219E+05         0.95397E+05         0.00000E+00
    0.95397E+05         0.45685E+05         0.00000E+00
    0.00000E+00         0.00000E+00         0.93182E+02
 
   -0.43332E+05         0.97874E+05         0.00000E+00
    0.97874E+05         0.43892E+05         0.00000E+00
    0.00000E+00         0.00000E+00         0.11201E+03
 
   -0.41402E+05         0.10029E+06         0.00000E+00
    0.10029E+06         0.42071E+05         0.00000E+00
    0.00000E+00         0.00000E+00         0.13382E+03
 
   -0.39429E+05         0.10263E+06         0.00000E+00
    0.10263E+06         0.40225E+05         0.00000E+00
    0.00000E+00         0.00000E+00         0.15921E+03
 
   -0.37414E+05         0.10491E+06         0.00000E+00
    0.10491E+06         0.38358E+05         0.00000E+00
    0.00000E+00         0.00000E+00         0.18881E+03
 
   -0.35355E+05         0.10711E+06         0.00000E+00
    0.10711E+06         0.36472E+05         0.00000E+00
    0.00000E+00         0.00000E+00         0.22337E+03
 
   -0.33254E+05         0.10925E+06         0.00000E+00
    0.10925E+06         0.34572E+05         0.00000E+00
    0.00000E+00         0.00000E+00         0.26370E+03
 
   -0.31109E+05         0.11131E+06         0.00000E+00
    0.11131E+06         0.32663E+05         0.00000E+00
    0.00000E+00         0.00000E+00         0.31074E+03
 
   -0.28921E+05         0.11330E+06         0.00000E+00
    0.11330E+06         0.30749E+05         0.00000E+00
    0.00000E+00         0.00000E+00         0.36553E+03
 
   -0.26690E+05         0.11522E+06         0.00000E+00
    0.11522E+06         0.28836E+05         0.00000E+00
    0.00000E+00         0.00000E+00         0.42923E+03
 
   -0.24414E+05         0.11707E+06         0.00000E+00
    0.11707E+06         0.26930E+05         0.00000E+00
    0.00000E+00         0.00000E+00         0.50315E+03
 
   -0.22093E+05         0.11883E+06         0.00000E+00
    0.11883E+06         0.25037E+05         0.00000E+00
    0.00000E+00         0.00000E+00         0.58872E+03
 
   -0.19727E+05         0.12053E+06         0.00000E+00
    0.12053E+06         0.23165E+05         0.00000E+00
    0.00000E+00         0.00000E+00         0.68753E+03
 
   -0.17315E+05         0.12214E+06         0.00000E+00
    0.12214E+06         0.21322E+05         0.00000E+00
    0.00000E+00         0.00000E+00         0.80132E+03
 
   -0.14856E+05         0.12369E+06         0.00000E+00
    0.12369E+06         0.19516E+05         0.00000E+00
    0.00000E+00         0.00000E+00         0.93198E+03
 
   -0.12349E+05         0.12515E+06         0.00000E+00
    0.12515E+06         0.17757E+05         0.00000E+00
    0.00000E+00         0.00000E+00         0.10815E+04
 
   -0.97935E+04         0.12654E+06         0.00000E+00
    0.12654E+06         0.16055E+05         0.00000E+00
    0.00000E+00         0.00000E+00         0.12522E+04
 
   -0.71873E+04         0.12785E+06         0.00000E+00
    0.12785E+06         0.14419E+05         0.00000E+00
    0.00000E+00         0.00000E+00         0.14463E+04
 
   -0.45296E+04         0.12909E+06         0.00000E+00
    0.12909E+06         0.12861E+05         0.00000E+00
    0.00000E+00         0.00000E+00         0.16662E+04
 
   -0.18190E+04         0.13025E+06         0.00000E+00
    0.13025E+06         0.11392E+05         0.00000E+00
    0.00000E+00         0.00000E+00         0.19146E+04
 
    0.94571E+03         0.13134E+06         0.00000E+00
    0.13134E+06         0.10024E+05         0.00000E+00
    0.00000E+00         0.00000E+00         0.21940E+04
 
   -0.72283E+05         0.17967E+04         0.00000E+00
    0.17967E+04         0.68006E+05         0.00000E+00
    0.00000E+00         0.00000E+00        -0.85544E+03
 
   -0.71634E+05         0.53549E+04         0.00000E+00
    0.53549E+04         0.67913E+05         0.00000E+00
    0.00000E+00         0.00000E+00        -0.74426E+03
 
   -0.70959E+05         0.88954E+04         0.00000E+00
    0.88954E+04         0.67732E+05         0.00000E+00
    0.00000E+00         0.00000E+00        -0.64548E+03
 
   -0.70256E+05         0.12416E+05         0.00000E+00
    0.12416E+05         0.67466E+05         0.00000E+00
    0.00000E+00         0.00000E+00        -0.55805E+03
 
   -0.69524E+05         0.15915E+05         0.00000E+00
    0.15915E+05         0.67119E+05         0.00000E+00
    0.00000E+00         0.00000E+00        -0.48093E+03
 
   -0.68762E+05         0.19391E+05         0.00000E+00
    0.19391E+05         0.66696E+05         0.00000E+00
    0.00000E+00         0.00000E+00        -0.41313E+03
 
   -0.67968E+05         0.22841E+05         0.00000E+00
    0.22841E+05         0.66200E+05         0.00000E+00
    0.00000E+00         0.00000E+00        -0.35371E+03
 
   -0.67143E+05         0.26265E+05         0.00000E+00
    0.26265E+05         0.65634E+05         0.00000E+00
    0.00000E+00         0.00000E+00        -0.30178E+03
 
   -0.66284E+05         0.29659E+05         0.00000E+00
    0.29659E+05         0.65002E+05         0.00000E+00
    0.00000E+00         0.00000E+00        -0.25652E+03
 
   -0.65392E+05         0.33022E+05         0.00000E+00
    0.33022E+05         0.64306E+05         0.00000E+00
    0.00000E+00         0.00000E+00        -0.21717E+03
 
   -0.64466E+05         0.36354E+05         0.00000E+00
    0.36354E+05         0.63550E+05         0.00000E+00
    0.00000E+00         0.00000E+00        -0.18303E+03
 
   -0.63504E+05         0.39651E+05         0.00000E+00
    0.39651E+05         0.62737E+05         0.00000E+00
    0.00000E+00         0.00000E+00        -0.15344E+03
 
   -0.62507E+05         0.42912E+05         0.00000E+00
    0.42912E+05         0.61867E+05         0.00000E+00
    0.00000E+00         0.00000E+00        -0.12782E+03
 
   -0.61473E+05         0.46136E+05         0.00000E+00
    0.46136E+05         0.60945E+05         0.00000E+00
    0.00000E+00         0.00000E+00        -0.10563E+03
 
   -0.60403E+05         0.49321E+05         0.00000E+00
    0.49321E+05         0.59971E+05         0.00000E+00
    0.00000E+00         0.00000E+00        -0.86394E+02
 
   -0.59296E+05         0.52466E+05         0.00000E+00
    0.52466E+05         0.58947E+05         0.00000E+00
    0.00000E+00         0.00000E+00        -0.69671E+02
 
   -0.58152E+05         0.55569E+05         0.00000E+00
    0.55569E+05         0.57876E+05         0.00000E+00
    0.00000E+00         0.00000E+00        -0.55060E+02
 
   -0.56970E+05         0.58627E+05         0.00000E+00
    0.58627E+05         0.56759E+05         0.00000E+00
    0.00000E+00         0.00000E+00        -0.42201E+02
 
   -0.55750E+05         0.61641E+05         0.00000E+00
    0.61641E+05         0.55597E+05         0.00000E+00
    0.00000E+00         0.00000E+00        -0.30762E+02
 
   -0.54493E+05         0.64608E+05         0.00000E+00
    0.64608E+05         0.54391E+05         0.00000E+00
    0.00000E+00         0.00000E+00        -0.20435E+02
 
   -0.53198E+05         0.67527E+05         0.00000E+00
    0.67527E+05         0.53143E+05         0.00000E+00
    0.00000E+00         0.00000E+00        -0.10935E+02
 
   -0.51865E+05         0.70396E+05         0.00000E+00
    0.70396E+05         0.51855E+05         0.00000E+00
    0.00000E+00         0.00000E+00        -0.19910E+01
 
   -0.50494E+05         0.73214E+05         0.00000E+00
    0.73214E+05         0.50528E+05         0.00000E+00
    0.00000E+00         0.00000E+00         0.66603E+01
 
   -0.49086E+05         0.75979E+05         0.00000E+00
    0.75979E+05         0.49162E+05         0.00000E+00
    0.00000E+00         0.00000E+00         0.15277E+02
 
   -0.47639E+05         0.78690E+05         0.00000E+00
    0.78690E+05         0.47760E+05         0.00000E+00
    0.00000E+00         0.00000E+00         0.24119E+02
 
   -0.46155E+05         0.81346E+05         0.00000E+00
    0.81346E+05         0.46322E+05         0.00000E+00
    0.00000E+00         0.00000E+00         0.33455E+02
 
   -0.44633E+05         0.83944E+05         0.00000E+00
    0.83944E+05         0.44851E+05         0.00000E+00
    0.00000E+00         0.00000E+00         0.43566E+02
 
   -0.43074E+05         0.86485E+05         0.00000E+00
    0.86485E+05         0.43347E+05         0.00000E+00
    0.00000E+00         0.00000E+00         0.54754E+02
 
   -0.41477E+05         0.88965E+05         0.00000E+00
    0.88965E+05         0.41813E+05         0.00000E+00
    0.00000E+00         0.00000E+00         0.67347E+02
 
   -0.39843E+05         0.91385E+05         0.00000E+00
    0.91385E+05         0.40251E+05         0.00000E+00
    0.00000E+00         0.00000E+00         0.81705E+02
 
   -0.38171E+05         0.93742E+05         0.00000E+00
    0.93742E+05         0.38663E+05         0.00000E+00
    0.00000E+00         0.00000E+00         0.98230E+02
 
   -0.36463E+05         0.96036E+05         0.00000E+00
    0.96036E+05         0.37050E+05         0.00000E+00
    0.00000E+00         0.00000E+00         0.11737E+03
 
   -0.34718E+05         0.98265E+05         0.00000E+00
    0.98265E+05         0.35416E+05         0.00000E+00
    0.00000E+00         0.00000E+00         0.13963E+03
 
   -0.32935E+05         0.10043E+06         0.00000E+00
    0.10043E+06         0.33763E+05         0.00000E+00
    0.00000E+00         0.00000E+00         0.16559E+03
 
   -0.31116E+05         0.10252E+06         0.00000E+00
    0.10252E+06         0.32095E+05         0.00000E+00
    0.00000E+00         0.00000E+00         0.19587E+03
 
   -0.29259E+05         0.10455E+06         0.00000E+00
    0.10455E+06         0.30416E+05         0.00000E+00
    0.00000E+00         0.00000E+00         0.23122E+03
 
   -0.27366E+05         0.10651E+06         0.00000E+00
    0.10651E+06         0.28728E+05         0.00000E+00
    0.00000E+00         0.00000E+00         0.27243E+03
 
   -0.25435E+05         0.10840E+06         0.00000E+00
    0.10840E+06         0.27037E+05         0.00000E+00
    0.00000E+00         0.00000E+00         0.32044E+03
 
   -0.23467E+05         0.11022E+06         0.00000E+00
    0.11022E+06         0.25348E+05         0.00000E+00
    0.00000E+00         0.00000E+00         0.37625E+03
 
   -0.21460E+05         0.11197E+06         0.00000E+00
    0.11197E+06         0.23665E+05         0.00000E+00
    0.00000E+00         0.00000E+00         0.44101E+03
 
   -0.19415E+05         0.11365E+06         0.00000E+00
    0.11365E+06         0.21995E+05         0.00000E+00
    0.00000E+00         0.00000E+00         0.51598E+03
 
   -0.17332E+05         0.11525E+06         0.00000E+00
    0.11525E+06         0.20345E+05         0.00000E+00
    0.00000E+00         0.00000E+00         0.60255E+03
 
   -0.15209E+05         0.11678E+06         0.00000E+00
    0.11678E+06         0.18720E+05         0.00000E+00
    0.00000E+00         0.00000E+00         0.70225E+03
 
   -0.13046E+05         0.11824E+06         0.00000E+00
    0.11824E+06         0.17129E+05         0.00000E+00
    0.00000E+00         0.00000E+00         0.81672E+03
 
   -0.10842E+05         0.11963E+06         0.00000E+00
    0.11963E+06         0.15580E+05         0.00000E+00
    0.00000E+00         0.00000E+00         0.94777E+03
 
   -0.85956E+04         0.12094E+06         0.00000E+00
    0.12094E+06         0.14082E+05         0.00000E+00
    0.00000E+00         0.00000E+00         0.10973E+04
 
   -0.63067E+04         0.12218E+06         0.00000E+00
    0.12218E+06         0.12643E+05         0.00000E+00
    0.00000E+00         0.00000E+00         0.12674E+04
 
   -0.39738E+04         0.12335E+06         0.00000E+00
    0.12335E+06         0.11274E+05         0.00000E+00
    0.00000E+00         0.00000E+00         0.14601E+04
 
   -0.15959E+04         0.12445E+06         0.00000E+00
    0.12445E+06         0.99845E+04         0.00000E+00
    0.00000E+00         0.00000E+00         0.16777E+04
 
    0.82828E+03         0.12548E+06         0.00000E+00
    0.12548E+06         0.87846E+04         0.00000E+00
    0.00000E+00         0.00000E+00         0.19226E+04
 
   -0.63273E+05         0.17350E+04         0.00000E+00
    0.17350E+04         0.59497E+05         0.00000E+00
    0.00000E+00         0.00000E+00        -0.75523E+03
 
   -0.62701E+05         0.51695E+04         0.00000E+00
    0.51695E+04         0.59415E+05         0.00000E+00
    0.00000E+00         0.00000E+00        -0.65716E+03
 
   -0.62105E+05         0.85861E+04         0.00000E+00
    0.85861E+04         0.59254E+05         0.00000E+00
    0.00000E+00         0.00000E+00        -0.57003E+03
 
   -0.61483E+05         0.11983E+05         0.00000E+00
    0.11983E+05         0.59019E+05         0.00000E+00
    0.00000E+00         0.00000E+00        -0.49289E+03
 
   -0.60836E+05         0.15358E+05         0.00000E+00
    0.15358E+05         0.58712E+05         0.00000E+00
    0.00000E+00         0.00000E+00        -0.42484E+03
 
   -0.60162E+05         0.18710E+05         0.00000E+00
    0.18710E+05         0.58337E+05         0.00000E+00
    0.00000E+00         0.00000E+00        -0.36501E+03
 
   -0.59461E+05         0.22036E+05         0.00000E+00
    0.22036E+05         0.57898E+05         0.00000E+00
    0.00000E+00         0.00000E+00        -0.31256E+03
 
   -0.58731E+05         0.25335E+05         0.00000E+00
    0.25335E+05         0.57398E+05         0.00000E+00
    0.00000E+00         0.00000E+00        -0.26673E+03
 
   -0.57973E+05         0.28605E+05         0.00000E+00
    0.28605E+05         0.56839E+05         0.00000E+00
    0.00000E+00         0.00000E+00        -0.22678E+03
 
   -0.57185E+05         0.31845E+05         0.00000E+00
    0.31845E+05         0.56224E+05         0.00000E+00
    0.00000E+00         0.00000E+00        -0.19203E+03
 
   -0.56366E+05         0.35052E+05         0.00000E+00
    0.35052E+05         0.55557E+05         0.00000E+00
    0.00000E+00         0.00000E+00        -0.16188E+03
 
   -0.55517E+05         0.38225E+05         0.00000E+00
    0.38225E+05         0.54838E+05         0.00000E+00
    0.00000E+00         0.00000E+00        -0.13575E+03
 
   -0.54637E+05         0.41363E+05         0.00000E+00
    0.41363E+05         0.54071E+05         0.00000E+00
    0.00000E+00         0.00000E+00        -0.11313E+03
 
   -0.53725E+05         0.44464E+05         0.00000E+00
    0.44464E+05         0.53257E+05         0.00000E+00
    0.00000E+00         0.00000E+00        -0.93534E+02
 
   -0.52781E+05         0.47527E+05         0.00000E+00
    0.47527E+05         0.52398E+05         0.00000E+00
    0.00000E+00         0.00000E+00        -0.76548E+02
 
   -0.51805E+05         0.50549E+05         0.00000E+00
    0.50549E+05         0.51496E+05         0.00000E+00
    0.00000E+00         0.00000E+00        -0.61782E+02
 
   -0.50796E+05         0.53530E+05         0.00000E+00
    0.53530E+05         0.50552E+05         0.00000E+00
    0.00000E+00         0.00000E+00        -0.48885E+02
 
   -0.49755E+05         0.56468E+05         0.00000E+00
    0.56468E+05         0.49568E+05         0.00000E+00
    0.00000E+00         0.00000E+00        -0.37539E+02
 
   -0.48682E+05         0.59361E+05         0.00000E+00
    0.59361E+05         0.48545E+05         0.00000E+00
    0.00000E+00         0.00000E+00        -0.27452E+02
 
   -0.47575E+05         0.62208E+05         0.00000E+00
    0.62208E+05         0.47484E+05         0.00000E+00
    0.00000E+00         0.00000E+00        -0.18354E+02
 
   -0.46436E+05         0.65008E+05         0.00000E+00
    0.65008E+05         0.46386E+05         0.00000E+00
    0.00000E+00         0.00000E+00        -0.99941E+01
 
   -0.45264E+05         0.67760E+05         0.00000E+00
    0.67760E+05         0.45254E+05         0.00000E+00
    0.00000E+00         0.00000E+00        -0.21341E+01
 
   -0.44060E+05         0.70461E+05         0.00000E+00
    0.70461E+05         0.44087E+05         0.00000E+00
    0.00000E+00         0.00000E+00         0.54560E+01
 
   -0.42822E+05         0.73111E+05         0.00000E+00
    0.73111E+05         0.42887E+05         0.00000E+00
    0.00000E+00         0.00000E+00         0.13002E+02
 
   -0.41552E+05         0.75708E+05         0.00000E+00
    0.75708E+05         0.41656E+05         0.00000E+00
    0.00000E+00         0.00000E+00         0.20732E+02
 
   -0.40250E+05         0.78250E+05         0.00000E+00
    0.78250E+05         0.40394E+05         0.00000E+00
    0.00000E+00         0.00000E+00         0.28879E+02
 
   -0.38915E+05         0.80738E+05         0.00000E+00
    0.80738E+05         0.39103E+05         0.00000E+00
    0.00000E+00         0.00000E+00         0.37690E+02
 
   -0.37548E+05         0.83168E+05         0.00000E+00
    0.83168E+05         0.37785E+05         0.00000E+00
    0.00000E+00         0.00000E+00         0.47426E+02
 
   -0.36148E+05         0.85541E+05         0.00000E+00
    0.85541E+05         0.36440E+05         0.00000E+00
    0.00000E+00         0.00000E+00         0.58373E+02
 
   -0.34717E+05         0.87855E+05         0.00000E+00
    0.87855E+05         0.35071E+05         0.00000E+00
    0.00000E+00         0.00000E+00         0.70844E+02
 
   -0.33254E+05         0.90108E+05         0.00000E+00
    0.90108E+05         0.33680E+05         0.00000E+00
    0.00000E+00         0.00000E+00         0.85189E+02
 
   -0.31759E+05         0.92299E+05         0.00000E+00
    0.92299E+05         0.32268E+05         0.00000E+00
    0.00000E+00         0.00000E+00         0.10180E+03
 
   -0.30232E+05         0.94429E+05         0.00000E+00
    0.94429E+05         0.30838E+05         0.00000E+00
    0.00000E+00         0.00000E+00         0.12111E+03
 
   -0.28674E+05         0.96494E+05         0.00000E+00
    0.96494E+05         0.29392E+05         0.00000E+00
    0.00000E+00         0.00000E+00         0.14361E+03
 
   -0.27084E+05         0.98495E+05         0.00000E+00
    0.98495E+05         0.27933E+05         0.00000E+00
    0.00000E+00         0.00000E+00         0.16987E+03
 
   -0.25462E+05         0.10043E+06         0.00000E+00
    0.10043E+06         0.26465E+05         0.00000E+00
    0.00000E+00         0.00000E+00         0.20051E+03
 
   -0.23809E+05         0.10230E+06         0.00000E+00
    0.10230E+06         0.24991E+05         0.00000E+00
    0.00000E+00         0.00000E+00         0.23624E+03
 
   -0.22124E+05         0.10410E+06         0.00000E+00
    0.10410E+06         0.23514E+05         0.00000E+00
    0.00000E+00         0.00000E+00         0.27786E+03
 
   -0.20408E+05         0.10584E+06         0.00000E+00
    0.10584E+06         0.22039E+05         0.00000E+00
    0.00000E+00         0.00000E+00         0.32624E+03
 
   -0.18658E+05         0.10750E+06         0.00000E+00
    0.10750E+06         0.20570E+05         0.00000E+00
    0.00000E+00         0.00000E+00         0.38237E+03
 
   -0.16877E+05         0.10910E+06         0.00000E+00
    0.10910E+06         0.19114E+05         0.00000E+00
    0.00000E+00         0.00000E+00         0.44736E+03
 
   -0.15062E+05         0.11063E+06         0.00000E+00
    0.11063E+06         0.17674E+05         0.00000E+00
    0.00000E+00         0.00000E+00         0.52240E+03
 
   -0.13214E+05         0.11209E+06         0.00000E+00
    0.11209E+06         0.16258E+05         0.00000E+00
    0.00000E+00         0.00000E+00         0.60883E+03
 
   -0.11332E+05         0.11348E+06         0.00000E+00
    0.11348E+06         0.14873E+05         0.00000E+00
    0.00000E+00         0.00000E+00         0.70806E+03
 
   -0.94156E+04         0.11480E+06         0.00000E+00
    0.11480E+06         0.13524E+05         0.00000E+00
    0.00000E+00         0.00000E+00         0.82167E+03
 
   -0.74635E+04         0.11605E+06         0.00000E+00
    0.11605E+06         0.12220E+05         0.00000E+00
    0.00000E+00         0.00000E+00         0.95131E+03
 
   -0.54750E+04         0.11723E+06         0.00000E+00
    0.11723E+06         0.10969E+05         0.00000E+00
    0.00000E+00         0.00000E+00         0.10987E+04
 
   -0.34493E+04         0.11835E+06         0.00000E+00
    0.11835E+06         0.97785E+04         0.00000E+00
    0.00000E+00         0.00000E+00         0.12658E+04
 
   -0.13854E+04         0.11940E+06         0.00000E+00
    0.11940E+06         0.86581E+04         0.00000E+00
    0.00000E+00         0.00000E+00         0.14546E+04
 
    0.71771E+03         0.12038E+06         0.00000E+00
    0.12038E+06         0.76166E+04         0.00000E+00
    0.00000E+00         0.00000E+00         0.16669E+04
 
   -0.54554E+05         0.16803E+04         0.00000E+00
    0.16803E+04         0.51281E+05         0.00000E+00
    0.00000E+00         0.00000E+00        -0.65468E+03
 
   -0.54058E+05         0.50054E+04         0.00000E+00
    0.50054E+04         0.51209E+05         0.00000E+00
    0.00000E+00         0.00000E+00        -0.56973E+03
 
   -0.53540E+05         0.83129E+04         0.00000E+00
    0.83129E+04         0.51069E+05         0.00000E+00
    0.00000E+00         0.00000E+00        -0.49424E+03
 
   -0.53001E+05         0.11601E+05         0.00000E+00
    0.11601E+05         0.50864E+05         0.00000E+00
    0.00000E+00         0.00000E+00        -0.42741E+03
 
   -0.52439E+05         0.14867E+05         0.00000E+00
    0.14867E+05         0.50597E+05         0.00000E+00
    0.00000E+00         0.00000E+00        -0.36844E+03
 
   -0.51853E+05         0.18109E+05         0.00000E+00
    0.18109E+05         0.50270E+05         0.00000E+00
    0.00000E+00         0.00000E+00        -0.31659E+03
 
   -0.51244E+05         0.21327E+05         0.00000E+00
    0.21327E+05         0.49888E+05         0.00000E+00
    0.00000E+00         0.00000E+00        -0.27114E+03
 
   -0.50610E+05         0.24517E+05         0.00000E+00
    0.24517E+05         0.49453E+05         0.00000E+00
    0.00000E+00         0.00000E+00        -0.23141E+03
 
   -0.49951E+05         0.27679E+05         0.00000E+00
    0.27679E+05         0.48967E+05         0.00000E+00
    0.00000E+00         0.00000E+00        -0.19678E+03
 
   -0.49266E+05         0.30810E+05         0.00000E+00
    0.30810E+05         0.48432E+05         0.00000E+00
    0.00000E+00         0.00000E+00        -0.16666E+03
 
   -0.48554E+05         0.33909E+05         0.00000E+00
    0.33909E+05         0.47852E+05         0.00000E+00
    0.00000E+00         0.00000E+00        -0.14052E+03
 
   -0.47817E+05         0.36975E+05         0.00000E+00
    0.36975E+05         0.47227E+05         0.00000E+00
    0.00000E+00         0.00000E+00        -0.11787E+03
 
   -0.47052E+05         0.40005E+05         0.00000E+00
    0.40005E+05         0.46561E+05         0.00000E+00
    0.00000E+00         0.00000E+00        -0.98251E+02
 
   -0.46260E+05         0.42999E+05         0.00000E+00
    0.42999E+05         0.45854E+05         0.00000E+00
    0.00000E+00         0.00000E+00        -0.81264E+02
 
   -0.45441E+05         0.45955E+05         0.00000E+00
    0.45955E+05         0.45108E+05         0.00000E+00
    0.00000E+00         0.00000E+00        -0.66537E+02
 
   -0.44594E+05         0.48871E+05         0.00000E+00
    0.48871E+05         0.44326E+05         0.00000E+00
    0.00000E+00         0.00000E+00        -0.53737E+02
 
   -0.43720E+05         0.51747E+05         0.00000E+00
    0.51747E+05         0.43507E+05         0.00000E+00
    0.00000E+00         0.00000E+00        -0.42559E+02
 
   -0.42817E+05         0.54580E+05         0.00000E+00
    0.54580E+05         0.42653E+05         0.00000E+00
    0.00000E+00         0.00000E+00        -0.32729E+02
 
   -0.41886E+05         0.57369E+05         0.00000E+00
    0.57369E+05         0.41766E+05         0.00000E+00
    0.00000E+00         0.00000E+00        -0.23994E+02
 
   -0.40928E+05         0.60113E+05         0.00000E+00
    0.60113E+05         0.40847E+05         0.00000E+00
    0.00000E+00         0.00000E+00        -0.16120E+02
 
   -0.39941E+05         0.62810E+05         0.00000E+00
    0.62810E+05         0.39897E+05         0.00000E+00
    0.00000E+00         0.00000E+00        -0.88923E+01
 
   -0.38927E+05         0.65460E+05         0.00000E+00
    0.65460E+05         0.38916E+05         0.00000E+00
    0.00000E+00         0.00000E+00        -0.21040E+01
 
   -0.37884E+05         0.68060E+05         0.00000E+00
    0.68060E+05         0.37906E+05         0.00000E+00
    0.00000E+00         0.00000E+00         0.44428E+01
 
   -0.36814E+05         0.70611E+05         0.00000E+00
    0.70611E+05         0.36868E+05         0.00000E+00
    0.00000E+00         0.00000E+00         0.10943E+02
 
   -0.35716E+05         0.73109E+05         0.00000E+00
    0.73109E+05         0.35804E+05         0.00000E+00
    0.00000E+00         0.00000E+00         0.17592E+02
 
   -0.34590E+05         0.75555E+05         0.00000E+00
    0.75555E+05         0.34713E+05         0.00000E+00
    0.00000E+00         0.00000E+00         0.24590E+02
 
   -0.33437E+05         0.77947E+05         0.00000E+00
    0.77947E+05         0.33597E+05         0.00000E+00
    0.00000E+00         0.00000E+00         0.32150E+02
 
   -0.32256E+05         0.80283E+05         0.00000E+00
    0.80283E+05         0.32458E+05         0.00000E+00
    0.00000E+00         0.00000E+00         0.40495E+02
 
   -0.31048E+05         0.82563E+05         0.00000E+00
    0.82563E+05         0.31297E+05         0.00000E+00
    0.00000E+00         0.00000E+00         0.49870E+02
 
   -0.29813E+05         0.84786E+05         0.00000E+00
    0.84786E+05         0.30116E+05         0.00000E+00
    0.00000E+00         0.00000E+00         0.60545E+02
 
   -0.28551E+05         0.86950E+05         0.00000E+00
    0.86950E+05         0.28915E+05         0.00000E+00
    0.00000E+00         0.00000E+00         0.72817E+02
 
   -0.27262E+05         0.89054E+05         0.00000E+00
    0.89054E+05         0.27697E+05         0.00000E+00
    0.00000E+00         0.00000E+00         0.87020E+02
 
   -0.25947E+05         0.91097E+05         0.00000E+00
    0.91097E+05         0.26464E+05         0.00000E+00
    0.00000E+00         0.00000E+00         0.10353E+03
 
   -0.24605E+05         0.93080E+05         0.00000E+00
    0.93080E+05         0.25218E+05         0.00000E+00
    0.00000E+00         0.00000E+00         0.12277E+03
 
   -0.23236E+05         0.94999E+05         0.00000E+00
    0.94999E+05         0.23962E+05         0.00000E+00
    0.00000E+00         0.00000E+00         0.14522E+03
 
   -0.21840E+05         0.96855E+05         0.00000E+00
    0.96855E+05         0.22697E+05         0.00000E+00
    0.00000E+00         0.00000E+00         0.17141E+03
 
   -0.20418E+05         0.98648E+05         0.00000E+00
    0.98648E+05         0.21428E+05         0.00000E+00
    0.00000E+00         0.00000E+00         0.20195E+03
 
   -0.18970E+05         0.10038E+06         0.00000E+00
    0.10038E+06         0.20157E+05         0.00000E+00
    0.00000E+00         0.00000E+00         0.23751E+03
 
   -0.17494E+05         0.10204E+06         0.00000E+00
    0.10204E+06         0.18888E+05         0.00000E+00
    0.00000E+00         0.00000E+00         0.27886E+03
 
   -0.15992E+05         0.10363E+06         0.00000E+00
    0.10363E+06         0.17626E+05         0.00000E+00
    0.00000E+00         0.00000E+00         0.32684E+03
 
   -0.14462E+05         0.10517E+06         0.00000E+00
    0.10517E+06         0.16374E+05         0.00000E+00
    0.00000E+00         0.00000E+00         0.38239E+03
 
   -0.12904E+05         0.10663E+06         0.00000E+00
    0.10663E+06         0.15137E+05         0.00000E+00
    0.00000E+00         0.00000E+00         0.44653E+03
 
   -0.11319E+05         0.10803E+06         0.00000E+00
    0.10803E+06         0.13921E+05         0.00000E+00
    0.00000E+00         0.00000E+00         0.52040E+03
 
   -0.97050E+04         0.10936E+06         0.00000E+00
    0.10936E+06         0.12731E+05         0.00000E+00
    0.00000E+00         0.00000E+00         0.60523E+03
 
   -0.80620E+04         0.11062E+06         0.00000E+00
    0.11062E+06         0.11574E+05         0.00000E+00
    0.00000E+00         0.00000E+00         0.70235E+03
 
   -0.63893E+04         0.11182E+06         0.00000E+00
    0.11182E+06         0.10455E+05         0.00000E+00
    0.00000E+00         0.00000E+00         0.81317E+03
 
   -0.46863E+04         0.11296E+06         0.00000E+00
    0.11296E+06         0.93824E+04         0.00000E+00
    0.00000E+00         0.00000E+00         0.93922E+03
 
   -0.29521E+04         0.11403E+06         0.00000E+00
    0.11403E+06         0.83625E+04         0.00000E+00
    0.00000E+00         0.00000E+00         0.10821E+04
 
   -0.11859E+04         0.11503E+06         0.00000E+00
    0.11503E+06         0.74030E+04         0.00000E+00
    0.00000E+00         0.00000E+00         0.12434E+04
 
    0.61317E+03         0.11598E+06         0.00000E+00
    0.11598E+06         0.65117E+04         0.00000E+00
    0.00000E+00         0.00000E+00         0.14250E+04
 
   -0.46092E+05         0.16326E+04         0.00000E+00
    0.16326E+04         0.43317E+05         0.00000E+00
    0.00000E+00         0.00000E+00        -0.55501E+03
 
   -0.45671E+05         0.48629E+04         0.00000E+00
    0.48629E+04         0.43256E+05         0.00000E+00
    0.00000E+00         0.00000E+00        -0.48302E+03
 
   -0.45232E+05         0.80756E+04         0.00000E+00
    0.80756E+04         0.43137E+05         0.00000E+00
    0.00000E+00         0.00000E+00        -0.41905E+03
 
   -0.44774E+05         0.11269E+05         0.00000E+00
    0.11269E+05         0.42962E+05         0.00000E+00
    0.00000E+00         0.00000E+00        -0.36242E+03
 
   -0.44296E+05         0.14441E+05         0.00000E+00
    0.14441E+05         0.42734E+05         0.00000E+00
    0.00000E+00         0.00000E+00        -0.31244E+03
 
   -0.43799E+05         0.17590E+05         0.00000E+00
    0.17590E+05         0.42456E+05         0.00000E+00
    0.00000E+00         0.00000E+00        -0.26850E+03
 
   -0.43281E+05         0.20713E+05         0.00000E+00
    0.20713E+05         0.42131E+05         0.00000E+00
    0.00000E+00         0.00000E+00        -0.22997E+03
 
   -0.42741E+05         0.23810E+05         0.00000E+00
    0.23810E+05         0.41760E+05         0.00000E+00
    0.00000E+00         0.00000E+00        -0.19629E+03
 
   -0.42181E+05         0.26878E+05         0.00000E+00
    0.26878E+05         0.41346E+05         0.00000E+00
    0.00000E+00         0.00000E+00        -0.16694E+03
 
   -0.41598E+05         0.29917E+05         0.00000E+00
    0.29917E+05         0.40891E+05         0.00000E+00
    0.00000E+00         0.00000E+00        -0.14141E+03
 
   -0.40993E+05         0.32923E+05         0.00000E+00
    0.32923E+05         0.40397E+05         0.00000E+00
    0.00000E+00         0.00000E+00        -0.11924E+03
 
   -0.40366E+05         0.35896E+05         0.00000E+00
    0.35896E+05         0.39866E+05         0.00000E+00
    0.00000E+00         0.00000E+00        -0.10004E+03
 
   -0.39716E+05         0.38835E+05         0.00000E+00
    0.38835E+05         0.39299E+05         0.00000E+00
    0.00000E+00         0.00000E+00        -0.83406E+02
 
   -0.39043E+05         0.41737E+05         0.00000E+00
    0.41737E+05         0.38698E+05         0.00000E+00
    0.00000E+00         0.00000E+00        -0.69004E+02
 
   -0.38347E+05         0.44602E+05         0.00000E+00
    0.44602E+05         0.38064E+05         0.00000E+00
    0.00000E+00         0.00000E+00        -0.56520E+02
 
   -0.37627E+05         0.47428E+05         0.00000E+00
    0.47428E+05         0.37399E+05         0.00000E+00
    0.00000E+00         0.00000E+00        -0.45669E+02
 
   -0.36884E+05         0.50213E+05         0.00000E+00
    0.50213E+05         0.36703E+05         0.00000E+00
    0.00000E+00         0.00000E+00        -0.36196E+02
 
   -0.36118E+05         0.52957E+05         0.00000E+00
    0.52957E+05         0.35978E+05         0.00000E+00
    0.00000E+00         0.00000E+00        -0.27867E+02
 
   -0.35328E+05         0.55657E+05         0.00000E+00
    0.55657E+05         0.35225E+05         0.00000E+00
    0.00000E+00         0.00000E+00        -0.20469E+02
 
   -0.34514E+05         0.58313E+05         0.00000E+00
    0.58313E+05         0.34445E+05         0.00000E+00
    0.00000E+00         0.00000E+00        -0.13804E+02
 
   -0.33677E+05         0.60924E+05         0.00000E+00
    0.60924E+05         0.33639E+05         0.00000E+00
    0.00000E+00         0.00000E+00        -0.76904E+01
 
   -0.32817E+05         0.63487E+05         0.00000E+00
    0.63487E+05         0.32807E+05         0.00000E+00
    0.00000E+00         0.00000E+00        -0.19535E+01
 
   -0.31933E+05         0.66003E+05         0.00000E+00
    0.66003E+05         0.31951E+05         0.00000E+00
    0.00000E+00         0.00000E+00         0.35736E+01
 
   -0.31026E+05         0.68468E+05         0.00000E+00
    0.68468E+05         0.31072E+05         0.00000E+00
    0.00000E+00         0.00000E+00         0.90552E+01
 
   -0.30096E+05         0.70884E+05         0.00000E+00
    0.70884E+05         0.30169E+05         0.00000E+00
    0.00000E+00         0.00000E+00         0.14656E+02
 
   -0.29143E+05         0.73248E+05         0.00000E+00
    0.73248E+05         0.29245E+05         0.00000E+00
    0.00000E+00         0.00000E+00         0.20546E+02
 
   -0.28167E+05         0.75558E+05         0.00000E+00
    0.75558E+05         0.28301E+05         0.00000E+00
    0.00000E+00         0.00000E+00         0.26901E+02
 
   -0.27168E+05         0.77815E+05         0.00000E+00
    0.77815E+05         0.27337E+05         0.00000E+00
    0.00000E+00         0.00000E+00         0.33912E+02
 
   -0.26146E+05         0.80017E+05         0.00000E+00
    0.80017E+05         0.26355E+05         0.00000E+00
    0.00000E+00         0.00000E+00         0.41783E+02
 
   -0.25102E+05         0.82163E+05         0.00000E+00
    0.82163E+05         0.25355E+05         0.00000E+00
    0.00000E+00         0.00000E+00         0.50740E+02
 
   -0.24035E+05         0.84251E+05         0.00000E+00
    0.84251E+05         0.24340E+05         0.00000E+00
    0.00000E+00         0.00000E+00         0.61035E+02
 
   -0.22946E+05         0.86282E+05         0.00000E+00
    0.86282E+05         0.23311E+05         0.00000E+00
    0.00000E+00         0.00000E+00         0.72946E+02
 
   -0.21835E+05         0.88254E+05         0.00000E+00
    0.88254E+05         0.22269E+05         0.00000E+00
    0.00000E+00         0.00000E+00         0.86790E+02
 
   -0.20702E+05         0.90166E+05         0.00000E+00
    0.90166E+05         0.21217E+05         0.00000E+00
    0.00000E+00         0.00000E+00         0.10292E+03
 
   -0.19547E+05         0.92017E+05         0.00000E+00
    0.92017E+05         0.20156E+05         0.00000E+00
    0.00000E+00         0.00000E+00         0.12174E+03
 
   -0.18370E+05         0.93807E+05         0.00000E+00
    0.93807E+05         0.19088E+05         0.00000E+00
    0.00000E+00         0.00000E+00         0.14369E+03
 
   -0.17171E+05         0.95535E+05         0.00000E+00
    0.95535E+05         0.18017E+05         0.00000E+00
    0.00000E+00         0.00000E+00         0.16929E+03
 
   -0.15950E+05         0.97201E+05         0.00000E+00
    0.97201E+05         0.16945E+05         0.00000E+00
    0.00000E+00         0.00000E+00         0.19911E+03
 
   -0.14707E+05         0.98803E+05         0.00000E+00
    0.98803E+05         0.15876E+05         0.00000E+00
    0.00000E+00         0.00000E+00         0.23377E+03
 
   -0.13441E+05         0.10034E+06         0.00000E+00
    0.10034E+06         0.14811E+05         0.00000E+00
    0.00000E+00         0.00000E+00         0.27400E+03
 
   -0.12153E+05         0.10182E+06         0.00000E+00
    0.10182E+06         0.13756E+05         0.00000E+00
    0.00000E+00         0.00000E+00         0.32057E+03
 
   -0.10843E+05         0.10323E+06         0.00000E+00
    0.10323E+06         0.12714E+05         0.00000E+00
    0.00000E+00         0.00000E+00         0.37435E+03
 
   -0.95089E+04         0.10458E+06         0.00000E+00
    0.10458E+06         0.11690E+05         0.00000E+00
    0.00000E+00         0.00000E+00         0.43628E+03
 
   -0.81517E+04         0.10586E+06         0.00000E+00
    0.10586E+06         0.10689E+05         0.00000E+00
    0.00000E+00         0.00000E+00         0.50741E+03
 
   -0.67706E+04         0.10708E+06         0.00000E+00
    0.10708E+06         0.97149E+04         0.00000E+00
    0.00000E+00         0.00000E+00         0.58885E+03
 
   -0.53651E+04         0.10824E+06         0.00000E+00
    0.10824E+06         0.87740E+04         0.00000E+00
    0.00000E+00         0.00000E+00         0.68179E+03
 
   -0.39346E+04         0.10933E+06         0.00000E+00
    0.10933E+06         0.78721E+04         0.00000E+00
    0.00000E+00         0.00000E+00         0.78750E+03
 
   -0.24784E+04         0.11036E+06         0.00000E+00
    0.11036E+06         0.70150E+04         0.00000E+00
    0.00000E+00         0.00000E+00         0.90732E+03
 
   -0.99581E+03         0.11134E+06         0.00000E+00
    0.11134E+06         0.62091E+04         0.00000E+00
    0.00000E+00         0.00000E+00         0.10426E+04
 
    0.51381E+03         0.11225E+06         0.00000E+00
    0.11225E+06         0.54608E+04         0.00000E+00
    0.00000E+00         0.00000E+00         0.11949E+04
 
   -0.37854E+05         0.15921E+04         0.00000E+00
    0.15921E+04         0.35569E+05         0.00000E+00
    0.00000E+00         0.00000E+00        -0.45691E+03
 
   -0.37507E+05         0.47421E+04         0.00000E+00
    0.47421E+04         0.35519E+05         0.00000E+00
    0.00000E+00         0.00000E+00        -0.39766E+03
 
   -0.37145E+05         0.78749E+04         0.00000E+00
    0.78749E+04         0.35420E+05         0.00000E+00
    0.00000E+00         0.00000E+00        -0.34501E+03
 
   -0.36767E+05         0.10988E+05         0.00000E+00
    0.10988E+05         0.35275E+05         0.00000E+00
    0.00000E+00         0.00000E+00        -0.29840E+03
 
   -0.36373E+05         0.14081E+05         0.00000E+00
    0.14081E+05         0.35087E+05         0.00000E+00
    0.00000E+00         0.00000E+00        -0.25726E+03
 
   -0.35962E+05         0.17150E+05         0.00000E+00
    0.17150E+05         0.34857E+05         0.00000E+00
    0.00000E+00         0.00000E+00        -0.22109E+03
 
   -0.35534E+05         0.20195E+05         0.00000E+00
    0.20195E+05         0.34588E+05         0.00000E+00
    0.00000E+00         0.00000E+00        -0.18938E+03
 
   -0.35089E+05         0.23213E+05         0.00000E+00
    0.23213E+05         0.34281E+05         0.00000E+00
    0.00000E+00         0.00000E+00        -0.16166E+03
 
   -0.34626E+05         0.26203E+05         0.00000E+00
    0.26203E+05         0.33939E+05         0.00000E+00
    0.00000E+00         0.00000E+00        -0.13749E+03
 
   -0.34145E+05         0.29164E+05         0.00000E+00
    0.29164E+05         0.33563E+05         0.00000E+00
    0.00000E+00         0.00000E+00        -0.11647E+03
 
   -0.33645E+05         0.32093E+05         0.00000E+00
    0.32093E+05         0.33154E+05         0.00000E+00
    0.00000E+00         0.00000E+00        -0.98231E+02
 
   -0.33127E+05         0.34989E+05         0.00000E+00
    0.34989E+05         0.32715E+05         0.00000E+00
    0.00000E+00         0.00000E+00        -0.82420E+02
 
   -0.32591E+05         0.37850E+05         0.00000E+00
    0.37850E+05         0.32247E+05         0.00000E+00
    0.00000E+00         0.00000E+00        -0.68728E+02
 
   -0.32035E+05         0.40676E+05         0.00000E+00
    0.40676E+05         0.31751E+05         0.00000E+00
    0.00000E+00         0.00000E+00        -0.56872E+02
 
   -0.31460E+05         0.43465E+05         0.00000E+00
    0.43465E+05         0.31227E+05         0.00000E+00
    0.00000E+00         0.00000E+00        -0.46596E+02
 
   -0.30867E+05         0.46216E+05         0.00000E+00
    0.46216E+05         0.30678E+05         0.00000E+00
    0.00000E+00         0.00000E+00        -0.37665E+02
 
   -0.30254E+05         0.48926E+05         0.00000E+00
    0.48926E+05         0.30104E+05         0.00000E+00
    0.00000E+00         0.00000E+00        -0.29870E+02
 
   -0.29621E+05         0.51595E+05         0.00000E+00
    0.51595E+05         0.29506E+05         0.00000E+00
    0.00000E+00         0.00000E+00        -0.23018E+02
 
   -0.28970E+05         0.54222E+05         0.00000E+00
    0.54222E+05         0.28885E+05         0.00000E+00
    0.00000E+00         0.00000E+00        -0.16933E+02
 
   -0.28299E+05         0.56805E+05         0.00000E+00
    0.56805E+05         0.28242E+05         0.00000E+00
    0.00000E+00         0.00000E+00        -0.11455E+02
 
   -0.27610E+05         0.59343E+05         0.00000E+00
    0.59343E+05         0.27577E+05         0.00000E+00
    0.00000E+00         0.00000E+00        -0.64327E+01
 
   -0.26901E+05         0.61835E+05         0.00000E+00
    0.61835E+05         0.26892E+05         0.00000E+00
    0.00000E+00         0.00000E+00        -0.17234E+01
 
   -0.26173E+05         0.64280E+05         0.00000E+00
    0.64280E+05         0.26187E+05         0.00000E+00
    0.00000E+00         0.00000E+00         0.28098E+01
 
   -0.25426E+05         0.66676E+05         0.00000E+00
    0.66676E+05         0.25463E+05         0.00000E+00
    0.00000E+00         0.00000E+00         0.73015E+01
 
   -0.24660E+05         0.69022E+05         0.00000E+00
    0.69022E+05         0.24720E+05         0.00000E+00
    0.00000E+00         0.00000E+00         0.11887E+02
 
   -0.23876E+05         0.71318E+05         0.00000E+00
    0.71318E+05         0.23959E+05         0.00000E+00
    0.00000E+00         0.00000E+00         0.16704E+02
 
   -0.23073E+05         0.73562E+05         0.00000E+00
    0.73562E+05         0.23182E+05         0.00000E+00
    0.00000E+00         0.00000E+00         0.21898E+02
 
   -0.22251E+05         0.75753E+05         0.00000E+00
    0.75753E+05         0.22389E+05         0.00000E+00
    0.00000E+00         0.00000E+00         0.27624E+02
 
   -0.21411E+05         0.77891E+05         0.00000E+00
    0.77891E+05         0.21582E+05         0.00000E+00
    0.00000E+00         0.00000E+00         0.34050E+02
 
   -0.20553E+05         0.79973E+05         0.00000E+00
    0.79973E+05         0.20760E+05         0.00000E+00
    0.00000E+00         0.00000E+00         0.41359E+02
 
   -0.19677E+05         0.82000E+05         0.00000E+00
    0.82000E+05         0.19926E+05         0.00000E+00
    0.00000E+00         0.00000E+00         0.49757E+02
 
   -0.18783E+05         0.83970E+05         0.00000E+00
    0.83970E+05         0.19080E+05         0.00000E+00
    0.00000E+00         0.00000E+00         0.59472E+02
 
   -0.17871E+05         0.85883E+05         0.00000E+00
    0.85883E+05         0.18225E+05         0.00000E+00
    0.00000E+00         0.00000E+00         0.70762E+02
 
   -0.16941E+05         0.87737E+05         0.00000E+00
    0.87737E+05         0.17360E+05         0.00000E+00
    0.00000E+00         0.00000E+00         0.83916E+02
 
   -0.15993E+05         0.89533E+05         0.00000E+00
    0.89533E+05         0.16490E+05         0.00000E+00
    0.00000E+00         0.00000E+00         0.99260E+02
 
   -0.15028E+05         0.91268E+05         0.00000E+00
    0.91268E+05         0.15614E+05         0.00000E+00
    0.00000E+00         0.00000E+00         0.11716E+03
 
   -0.14045E+05         0.92944E+05         0.00000E+00
    0.92944E+05         0.14735E+05         0.00000E+00
    0.00000E+00         0.00000E+00         0.13804E+03
 
   -0.13044E+05         0.94559E+05         0.00000E+00
    0.94559E+05         0.13856E+05         0.00000E+00
    0.00000E+00         0.00000E+00         0.16235E+03
 
   -0.12026E+05         0.96112E+05         0.00000E+00
    0.96112E+05         0.12979E+05         0.00000E+00
    0.00000E+00         0.00000E+00         0.19062E+03
 
   -0.10989E+05         0.97604E+05         0.00000E+00
    0.97604E+05         0.12106E+05         0.00000E+00
    0.00000E+00         0.00000E+00         0.22342E+03
 
   -0.99347E+04         0.99035E+05         0.00000E+00
    0.99035E+05         0.11242E+05         0.00000E+00
    0.00000E+00         0.00000E+00         0.26140E+03
 
   -0.88620E+04         0.10040E+06         0.00000E+00
    0.10040E+06         0.10388E+05         0.00000E+00
    0.00000E+00         0.00000E+00         0.30526E+03
 
   -0.77708E+04         0.10171E+06         0.00000E+00
    0.10171E+06         0.95497E+04         0.00000E+00
    0.00000E+00         0.00000E+00         0.35578E+03
 
   -0.66607E+04         0.10295E+06         0.00000E+00
    0.10295E+06         0.87298E+04         0.00000E+00
    0.00000E+00         0.00000E+00         0.41380E+03
 
   -0.55315E+04         0.10414E+06         0.00000E+00
    0.10414E+06         0.79327E+04         0.00000E+00
    0.00000E+00         0.00000E+00         0.48023E+03
 
   -0.43827E+04         0.10526E+06         0.00000E+00
    0.10526E+06         0.71630E+04         0.00000E+00
    0.00000E+00         0.00000E+00         0.55605E+03
 
   -0.32138E+04         0.10632E+06         0.00000E+00
    0.10632E+06         0.64253E+04         0.00000E+00
    0.00000E+00         0.00000E+00         0.64230E+03
 
   -0.20243E+04         0.10733E+06         0.00000E+00
    0.10733E+06         0.57247E+04         0.00000E+00
    0.00000E+00         0.00000E+00         0.74007E+03
 
   -0.81365E+03         0.10827E+06         0.00000E+00
    0.10827E+06         0.50662E+04         0.00000E+00
    0.00000E+00         0.00000E+00         0.85050E+03
 
    0.41879E+03         0.10916E+06         0.00000E+00
    0.10916E+06         0.44551E+04         0.00000E+00
    0.00000E+00         0.00000E+00         0.97477E+03
 
   -0.29803E+05         0.15590E+04         0.00000E+00
    0.15590E+04         0.27999E+05         0.00000E+00
    0.00000E+00         0.00000E+00        -0.36071E+03
 
   -0.29529E+05         0.46435E+04         0.00000E+00
    0.46435E+04         0.27959E+05         0.00000E+00
    0.00000E+00         0.00000E+00        -0.31393E+03
 
   -0.29243E+05         0.77110E+04         0.00000E+00
    0.77110E+04         0.27881E+05         0.00000E+00
    0.00000E+00         0.00000E+00        -0.27237E+03
 
   -0.28944E+05         0.10760E+05         0.00000E+00
    0.10760E+05         0.27766E+05         0.00000E+00
    0.00000E+00         0.00000E+00        -0.23557E+03
 
   -0.28632E+05         0.13787E+05         0.00000E+00
    0.13787E+05         0.27617E+05         0.00000E+00
    0.00000E+00         0.00000E+00        -0.20310E+03
 
   -0.28307E+05         0.16793E+05         0.00000E+00
    0.16793E+05         0.27435E+05         0.00000E+00
    0.00000E+00         0.00000E+00        -0.17455E+03
 
   -0.27969E+05         0.19773E+05         0.00000E+00
    0.19773E+05         0.27221E+05         0.00000E+00
    0.00000E+00         0.00000E+00        -0.14952E+03
 
   -0.27616E+05         0.22728E+05         0.00000E+00
    0.22728E+05         0.26978E+05         0.00000E+00
    0.00000E+00         0.00000E+00        -0.12764E+03
 
   -0.27250E+05         0.25654E+05         0.00000E+00
    0.25654E+05         0.26707E+05         0.00000E+00
    0.00000E+00         0.00000E+00        -0.10856E+03
 
   -0.26869E+05         0.28552E+05         0.00000E+00
    0.28552E+05         0.26409E+05         0.00000E+00
    0.00000E+00         0.00000E+00        -0.91972E+02
 
   -0.26474E+05         0.31418E+05         0.00000E+00
    0.31418E+05         0.26086E+05         0.00000E+00
    0.00000E+00         0.00000E+00        -0.77573E+02
 
   -0.26064E+05         0.34252E+05         0.00000E+00
    0.34252E+05         0.25739E+05         0.00000E+00
    0.00000E+00         0.00000E+00        -0.65093E+02
 
   -0.25640E+05         0.37051E+05         0.00000E+00
    0.37051E+05         0.25368E+05         0.00000E+00
    0.00000E+00         0.00000E+00        -0.54287E+02
 
   -0.25200E+05         0.39816E+05         0.00000E+00
    0.39816E+05         0.24976E+05         0.00000E+00
    0.00000E+00         0.00000E+00        -0.44930E+02
 
   -0.24746E+05         0.42543E+05         0.00000E+00
    0.42543E+05         0.24562E+05         0.00000E+00
    0.00000E+00         0.00000E+00        -0.36820E+02
 
   -0.24276E+05         0.45233E+05         0.00000E+00
    0.45233E+05         0.24127E+05         0.00000E+00
    0.00000E+00         0.00000E+00        -0.29773E+02
 
   -0.23792E+05         0.47883E+05         0.00000E+00
    0.47883E+05         0.23674E+05         0.00000E+00
    0.00000E+00         0.00000E+00        -0.23624E+02
 
   -0.23292E+05         0.50492E+05         0.00000E+00
    0.50492E+05         0.23201E+05         0.00000E+00
    0.00000E+00         0.00000E+00        -0.18219E+02
 
   -0.22778E+05         0.53060E+05         0.00000E+00
    0.53060E+05         0.22711E+05         0.00000E+00
    0.00000E+00         0.00000E+00        -0.13422E+02
 
   -0.22248E+05         0.55584E+05         0.00000E+00
    0.55584E+05         0.22202E+05         0.00000E+00
    0.00000E+00         0.00000E+00        -0.91051E+01
 
   -0.21703E+05         0.58064E+05         0.00000E+00
    0.58064E+05         0.21678E+05         0.00000E+00
    0.00000E+00         0.00000E+00        -0.51496E+01
 
   -0.21144E+05         0.60499E+05         0.00000E+00
    0.60499E+05         0.21136E+05         0.00000E+00
    0.00000E+00         0.00000E+00        -0.14436E+01
 
   -0.20569E+05         0.62887E+05         0.00000E+00
    0.62887E+05         0.20580E+05         0.00000E+00
    0.00000E+00         0.00000E+00         0.21209E+01
 
   -0.19980E+05         0.65227E+05         0.00000E+00
    0.65227E+05         0.20008E+05         0.00000E+00
    0.00000E+00         0.00000E+00         0.56495E+01
 
   -0.19376E+05         0.67519E+05         0.00000E+00
    0.67519E+05         0.19422E+05         0.00000E+00
    0.00000E+00         0.00000E+00         0.92483E+01
 
   -0.18757E+05         0.69760E+05         0.00000E+00
    0.69760E+05         0.18822E+05         0.00000E+00
    0.00000E+00         0.00000E+00         0.13026E+02
 
   -0.18124E+05         0.71951E+05         0.00000E+00
    0.71951E+05         0.18210E+05         0.00000E+00
    0.00000E+00         0.00000E+00         0.17096E+02
 
   -0.17477E+05         0.74089E+05         0.00000E+00
    0.74089E+05         0.17585E+05         0.00000E+00
    0.00000E+00         0.00000E+00         0.21580E+02
 
   -0.16815E+05         0.76175E+05         0.00000E+00
    0.76175E+05         0.16948E+05         0.00000E+00
    0.00000E+00         0.00000E+00         0.26609E+02
 
   -0.16139E+05         0.78207E+05         0.00000E+00
    0.78207E+05         0.16301E+05         0.00000E+00
    0.00000E+00         0.00000E+00         0.32328E+02
 
   -0.15449E+05         0.80185E+05         0.00000E+00
    0.80185E+05         0.15643E+05         0.00000E+00
    0.00000E+00         0.00000E+00         0.38897E+02
 
   -0.14745E+05         0.82107E+05         0.00000E+00
    0.82107E+05         0.14977E+05         0.00000E+00
    0.00000E+00         0.00000E+00         0.46495E+02
 
   -0.14027E+05         0.83972E+05         0.00000E+00
    0.83972E+05         0.14304E+05         0.00000E+00
    0.00000E+00         0.00000E+00         0.55324E+02
 
   -0.13296E+05         0.85781E+05         0.00000E+00
    0.85781E+05         0.13624E+05         0.00000E+00
    0.00000E+00         0.00000E+00         0.65609E+02
 
   -0.12550E+05         0.87532E+05         0.00000E+00
    0.87532E+05         0.12938E+05         0.00000E+00
    0.00000E+00         0.00000E+00         0.77607E+02
 
   -0.11791E+05         0.89225E+05         0.00000E+00
    0.89225E+05         0.12249E+05         0.00000E+00
    0.00000E+00         0.00000E+00         0.91605E+02
 
   -0.11018E+05         0.90859E+05         0.00000E+00
    0.90859E+05         0.11558E+05         0.00000E+00
    0.00000E+00         0.00000E+00         0.10793E+03
 
   -0.10232E+05         0.92433E+05         0.00000E+00
    0.92433E+05         0.10867E+05         0.00000E+00
    0.00000E+00         0.00000E+00         0.12694E+03
 
   -0.94316E+04         0.93948E+05         0.00000E+00
    0.93948E+05         0.10177E+05         0.00000E+00
    0.00000E+00         0.00000E+00         0.14904E+03
 
   -0.86176E+04         0.95403E+05         0.00000E+00
    0.95403E+05         0.94911E+04         0.00000E+00
    0.00000E+00         0.00000E+00         0.17470E+03
 
   -0.77897E+04         0.96798E+05         0.00000E+00
    0.96798E+05         0.88117E+04         0.00000E+00
    0.00000E+00         0.00000E+00         0.20440E+03
 
   -0.69477E+04         0.98133E+05         0.00000E+00
    0.98133E+05         0.81413E+04         0.00000E+00
    0.00000E+00         0.00000E+00         0.23871E+03
 
   -0.60915E+04         0.99407E+05         0.00000E+00
    0.99407E+05         0.74826E+04         0.00000E+00
    0.00000E+00         0.00000E+00         0.27823E+03
 
   -0.52207E+04         0.10062E+06         0.00000E+00
    0.10062E+06         0.68388E+04         0.00000E+00
    0.00000E+00         0.00000E+00         0.32362E+03
 
   -0.43352E+04         0.10178E+06         0.00000E+00
    0.10178E+06         0.62131E+04         0.00000E+00
    0.00000E+00         0.00000E+00         0.37559E+03
 
   -0.34345E+04         0.10287E+06         0.00000E+00
    0.10287E+06         0.56091E+04         0.00000E+00
    0.00000E+00         0.00000E+00         0.43492E+03
 
   -0.25184E+04         0.10391E+06         0.00000E+00
    0.10391E+06         0.50304E+04         0.00000E+00
    0.00000E+00         0.00000E+00         0.50242E+03
 
   -0.15863E+04         0.10489E+06         0.00000E+00
    0.10489E+06         0.44810E+04         0.00000E+00
    0.00000E+00         0.00000E+00         0.57893E+03
 
   -0.63791E+03         0.10581E+06         0.00000E+00
    0.10581E+06         0.39648E+04         0.00000E+00
    0.00000E+00         0.00000E+00         0.66538E+03
 
    0.32728E+03         0.10668E+06         0.00000E+00
    0.10668E+06         0.34860E+04         0.00000E+00
    0.00000E+00         0.00000E+00         0.76266E+03
 
   -0.21902E+05         0.15334E+04         0.00000E+00
    0.15334E+04         0.20570E+05         0.00000E+00
    0.00000E+00         0.00000E+00        -0.26641E+03
 
   -0.21700E+05         0.45674E+04         0.00000E+00
    0.45674E+04         0.20540E+05         0.00000E+00
    0.00000E+00         0.00000E+00        -0.23185E+03
 
   -0.21488E+05         0.75847E+04         0.00000E+00
    0.75847E+04         0.20482E+05         0.00000E+00
    0.00000E+00         0.00000E+00        -0.20115E+03
 
   -0.21267E+05         0.10583E+05         0.00000E+00
    0.10583E+05         0.20397E+05         0.00000E+00
    0.00000E+00         0.00000E+00        -0.17397E+03
 
   -0.21037E+05         0.13561E+05         0.00000E+00
    0.13561E+05         0.20287E+05         0.00000E+00
    0.00000E+00         0.00000E+00        -0.14998E+03
 
   -0.20797E+05         0.16517E+05         0.00000E+00
    0.16517E+05         0.20152E+05         0.00000E+00
    0.00000E+00         0.00000E+00        -0.12890E+03
 
   -0.20547E+05         0.19449E+05         0.00000E+00
    0.19449E+05         0.19994E+05         0.00000E+00
    0.00000E+00         0.00000E+00        -0.11041E+03
 
   -0.20286E+05         0.22354E+05         0.00000E+00
    0.22354E+05         0.19815E+05         0.00000E+00
    0.00000E+00         0.00000E+00        -0.94254E+02
 
   -0.20015E+05         0.25232E+05         0.00000E+00
    0.25232E+05         0.19615E+05         0.00000E+00
    0.00000E+00         0.00000E+00        -0.80170E+02
 
   -0.19734E+05         0.28081E+05         0.00000E+00
    0.28081E+05         0.19395E+05         0.00000E+00
    0.00000E+00         0.00000E+00        -0.67921E+02
 
   -0.19442E+05         0.30899E+05         0.00000E+00
    0.30899E+05         0.19156E+05         0.00000E+00
    0.00000E+00         0.00000E+00        -0.57290E+02
 
   -0.19140E+05         0.33685E+05         0.00000E+00
    0.33685E+05         0.18900E+05         0.00000E+00
    0.00000E+00         0.00000E+00        -0.48077E+02
 
   -0.18827E+05         0.36438E+05         0.00000E+00
    0.36438E+05         0.18626E+05         0.00000E+00
    0.00000E+00         0.00000E+00        -0.40100E+02
 
   -0.18502E+05         0.39155E+05         0.00000E+00
    0.39155E+05         0.18336E+05         0.00000E+00
    0.00000E+00         0.00000E+00        -0.33194E+02
 
   -0.18167E+05         0.41836E+05         0.00000E+00
    0.41836E+05         0.18031E+05         0.00000E+00
    0.00000E+00         0.00000E+00        -0.27209E+02
 
   -0.17821E+05         0.44479E+05         0.00000E+00
    0.44479E+05         0.17711E+05         0.00000E+00
    0.00000E+00         0.00000E+00        -0.22010E+02
 
   -0.17463E+05         0.47083E+05         0.00000E+00
    0.47083E+05         0.17376E+05         0.00000E+00
    0.00000E+00         0.00000E+00        -0.17473E+02
 
   -0.17095E+05         0.49647E+05         0.00000E+00
    0.49647E+05         0.17028E+05         0.00000E+00
    0.00000E+00         0.00000E+00        -0.13488E+02
 
   -0.16716E+05         0.52170E+05         0.00000E+00
    0.52170E+05         0.16666E+05         0.00000E+00
    0.00000E+00         0.00000E+00        -0.99521E+01
 
   -0.16326E+05         0.54649E+05         0.00000E+00
    0.54649E+05         0.16292E+05         0.00000E+00
    0.00000E+00         0.00000E+00        -0.67720E+01
 
   -0.15924E+05         0.57085E+05         0.00000E+00
    0.57085E+05         0.15905E+05         0.00000E+00
    0.00000E+00         0.00000E+00        -0.38605E+01
 
   -0.15512E+05         0.59476E+05         0.00000E+00
    0.59476E+05         0.15507E+05         0.00000E+00
    0.00000E+00         0.00000E+00        -0.11351E+01
 
   -0.15089E+05         0.61821E+05         0.00000E+00
    0.61821E+05         0.15097E+05         0.00000E+00
    0.00000E+00         0.00000E+00         0.14833E+01
 
   -0.14655E+05         0.64118E+05         0.00000E+00
    0.64118E+05         0.14676E+05         0.00000E+00
    0.00000E+00         0.00000E+00         0.40724E+01
 
   -0.14211E+05         0.66368E+05         0.00000E+00
    0.66368E+05         0.14245E+05         0.00000E+00
    0.00000E+00         0.00000E+00         0.67100E+01
 
   -0.13756E+05         0.68568E+05         0.00000E+00
    0.68568E+05         0.13803E+05         0.00000E+00
    0.00000E+00         0.00000E+00         0.94756E+01
 
   -0.13290E+05         0.70718E+05         0.00000E+00
    0.70718E+05         0.13352E+05         0.00000E+00
    0.00000E+00         0.00000E+00         0.12453E+02
 
   -0.12814E+05         0.72817E+05         0.00000E+00
    0.72817E+05         0.12893E+05         0.00000E+00
    0.00000E+00         0.00000E+00         0.15730E+02
 
   -0.12327E+05         0.74864E+05         0.00000E+00
    0.74864E+05         0.12424E+05         0.00000E+00
    0.00000E+00         0.00000E+00         0.19403E+02
 
   -0.11831E+05         0.76858E+05         0.00000E+00
    0.76858E+05         0.11948E+05         0.00000E+00
    0.00000E+00         0.00000E+00         0.23577E+02
 
   -0.11323E+05         0.78798E+05         0.00000E+00
    0.78798E+05         0.11465E+05         0.00000E+00
    0.00000E+00         0.00000E+00         0.28371E+02
 
   -0.10806E+05         0.80683E+05         0.00000E+00
    0.80683E+05         0.10976E+05         0.00000E+00
    0.00000E+00         0.00000E+00         0.33914E+02
 
   -0.10279E+05         0.82513E+05         0.00000E+00
    0.82513E+05         0.10481E+05         0.00000E+00
    0.00000E+00         0.00000E+00         0.40354E+02
 
   -0.97417E+04         0.84287E+05         0.00000E+00
    0.84287E+05         0.99810E+04         0.00000E+00
    0.00000E+00         0.00000E+00         0.47856E+02
 
   -0.91945E+04         0.86005E+05         0.00000E+00
    0.86005E+05         0.94775E+04         0.00000E+00
    0.00000E+00         0.00000E+00         0.56606E+02
 
   -0.86373E+04         0.87665E+05         0.00000E+00
    0.87665E+05         0.89714E+04         0.00000E+00
    0.00000E+00         0.00000E+00         0.66816E+02
 
   -0.80703E+04         0.89268E+05         0.00000E+00
    0.89268E+05         0.84639E+04         0.00000E+00
    0.00000E+00         0.00000E+00         0.78722E+02
 
   -0.74933E+04         0.90812E+05         0.00000E+00
    0.90812E+05         0.79563E+04         0.00000E+00
    0.00000E+00         0.00000E+00         0.92589E+02
 
   -0.69065E+04         0.92298E+05         0.00000E+00
    0.92298E+05         0.74500E+04         0.00000E+00
    0.00000E+00         0.00000E+00         0.10872E+03
 
   -0.63096E+04         0.93725E+05         0.00000E+00
    0.93725E+05         0.69468E+04         0.00000E+00
    0.00000E+00         0.00000E+00         0.12743E+03
 
   -0.57028E+04         0.95093E+05         0.00000E+00
    0.95093E+05         0.64483E+04         0.00000E+00
    0.00000E+00         0.00000E+00         0.14911E+03
 
   -0.50858E+04         0.96403E+05         0.00000E+00
    0.96403E+05         0.59565E+04         0.00000E+00
    0.00000E+00         0.00000E+00         0.17414E+03
 
   -0.44585E+04         0.97653E+05         0.00000E+00
    0.97653E+05         0.54734E+04         0.00000E+00
    0.00000E+00         0.00000E+00         0.20299E+03
 
   -0.38208E+04         0.98845E+05         0.00000E+00
    0.98845E+05         0.50014E+04         0.00000E+00
    0.00000E+00         0.00000E+00         0.23612E+03
 
   -0.31724E+04         0.99979E+05         0.00000E+00
    0.99979E+05         0.45427E+04         0.00000E+00
    0.00000E+00         0.00000E+00         0.27407E+03
 
   -0.25131E+04         0.10105E+06         0.00000E+00
    0.10105E+06         0.41001E+04         0.00000E+00
    0.00000E+00         0.00000E+00         0.31739E+03
 
   -0.18427E+04         0.10207E+06         0.00000E+00
    0.10207E+06         0.36761E+04         0.00000E+00
    0.00000E+00         0.00000E+00         0.36669E+03
 
   -0.11608E+04         0.10304E+06         0.00000E+00
    0.10304E+06         0.32738E+04         0.00000E+00
    0.00000E+00         0.00000E+00         0.42259E+03
 
   -0.46719E+03         0.10394E+06         0.00000E+00
    0.10394E+06         0.28959E+04         0.00000E+00
    0.00000E+00         0.00000E+00         0.48575E+03
 
    0.23854E+03         0.10480E+06         0.00000E+00
    0.10480E+06         0.25457E+04         0.00000E+00
    0.00000E+00         0.00000E+00         0.55685E+03
 
   -0.14113E+05         0.15155E+04         0.00000E+00
    0.15155E+04         0.13244E+05         0.00000E+00
    0.00000E+00         0.00000E+00        -0.17380E+03
 
   -0.13981E+05         0.45142E+04         0.00000E+00
    0.45142E+04         0.13225E+05         0.00000E+00
    0.00000E+00         0.00000E+00        -0.15123E+03
 
   -0.13843E+05         0.74964E+04         0.00000E+00
    0.74964E+04         0.13187E+05         0.00000E+00
    0.00000E+00         0.00000E+00        -0.13119E+03
 
   -0.13699E+05         0.10460E+05         0.00000E+00
    0.10460E+05         0.13132E+05         0.00000E+00
    0.00000E+00         0.00000E+00        -0.11344E+03
 
   -0.13549E+05         0.13404E+05         0.00000E+00
    0.13404E+05         0.13060E+05         0.00000E+00
    0.00000E+00         0.00000E+00        -0.97795E+02
 
   -0.13393E+05         0.16325E+05         0.00000E+00
    0.16325E+05         0.12973E+05         0.00000E+00
    0.00000E+00         0.00000E+00        -0.84038E+02
 
   -0.13230E+05         0.19222E+05         0.00000E+00
    0.19222E+05         0.12870E+05         0.00000E+00
    0.00000E+00         0.00000E+00        -0.71981E+02
 
   -0.13061E+05         0.22094E+05         0.00000E+00
    0.22094E+05         0.12754E+05         0.00000E+00
    0.00000E+00         0.00000E+00        -0.61445E+02
 
   -0.12886E+05         0.24938E+05         0.00000E+00
    0.24938E+05         0.12624E+05         0.00000E+00
    0.00000E+00         0.00000E+00        -0.52262E+02
 
   -0.12703E+05         0.27753E+05         0.00000E+00
    0.27753E+05         0.12482E+05         0.00000E+00
    0.00000E+00         0.00000E+00        -0.44277E+02
 
   -0.12514E+05         0.30538E+05         0.00000E+00
    0.30538E+05         0.12327E+05         0.00000E+00
    0.00000E+00         0.00000E+00        -0.37349E+02
 
   -0.12318E+05         0.33291E+05         0.00000E+00
    0.33291E+05         0.12161E+05         0.00000E+00
    0.00000E+00         0.00000E+00        -0.31345E+02
 
   -0.12115E+05         0.36010E+05         0.00000E+00
    0.36010E+05         0.11984E+05         0.00000E+00
    0.00000E+00         0.00000E+00        -0.26148E+02
 
   -0.11905E+05         0.38695E+05         0.00000E+00
    0.38695E+05         0.11797E+05         0.00000E+00
    0.00000E+00         0.00000E+00        -0.21650E+02
 
   -0.11688E+05         0.41343E+05         0.00000E+00
    0.41343E+05         0.11600E+05         0.00000E+00
    0.00000E+00         0.00000E+00        -0.17752E+02
 
   -0.11464E+05         0.43954E+05         0.00000E+00
    0.43954E+05         0.11393E+05         0.00000E+00
    0.00000E+00         0.00000E+00        -0.14368E+02
 
   -0.11234E+05         0.46527E+05         0.00000E+00
    0.46527E+05         0.11177E+05         0.00000E+00
    0.00000E+00         0.00000E+00        -0.11416E+02
 
   -0.10996E+05         0.49059E+05         0.00000E+00
    0.49059E+05         0.10952E+05         0.00000E+00
    0.00000E+00         0.00000E+00        -0.88240E+01
 
   -0.10751E+05         0.51550E+05         0.00000E+00
    0.51550E+05         0.10718E+05         0.00000E+00
    0.00000E+00         0.00000E+00        -0.65266E+01
 
   -0.10499E+05         0.53999E+05         0.00000E+00
    0.53999E+05         0.10476E+05         0.00000E+00
    0.00000E+00         0.00000E+00        -0.44626E+01
 
   -0.10240E+05         0.56404E+05         0.00000E+00
    0.56404E+05         0.10227E+05         0.00000E+00
    0.00000E+00         0.00000E+00        -0.25755E+01
 
   -0.99738E+04         0.58764E+05         0.00000E+00
    0.58764E+05         0.99697E+04         0.00000E+00
    0.00000E+00         0.00000E+00        -0.81189E+00
 
   -0.97009E+04         0.61079E+05         0.00000E+00
    0.61079E+05         0.97053E+04         0.00000E+00
    0.00000E+00         0.00000E+00         0.87929E+00
 
   -0.94211E+04         0.63347E+05         0.00000E+00
    0.63347E+05         0.94339E+04         0.00000E+00
    0.00000E+00         0.00000E+00         0.25481E+01
 
   -0.91345E+04         0.65568E+05         0.00000E+00
    0.65568E+05         0.91557E+04         0.00000E+00
    0.00000E+00         0.00000E+00         0.42446E+01
 
   -0.88411E+04         0.67739E+05         0.00000E+00
    0.67739E+05         0.88712E+04         0.00000E+00
    0.00000E+00         0.00000E+00         0.60199E+01
 
   -0.85410E+04         0.69861E+05         0.00000E+00
    0.69861E+05         0.85806E+04         0.00000E+00
    0.00000E+00         0.00000E+00         0.79275E+01
 
   -0.82341E+04         0.71933E+05         0.00000E+00
    0.71933E+05         0.82843E+04         0.00000E+00
    0.00000E+00         0.00000E+00         0.10024E+02
 
   -0.79207E+04         0.73952E+05         0.00000E+00
    0.73952E+05         0.79825E+04         0.00000E+00
    0.00000E+00         0.00000E+00         0.12371E+02
 
   -0.76006E+04         0.75919E+05         0.00000E+00
    0.75919E+05         0.76758E+04         0.00000E+00
    0.00000E+00         0.00000E+00         0.15037E+02
 
   -0.72741E+04         0.77834E+05         0.00000E+00
    0.77834E+05         0.73646E+04         0.00000E+00
    0.00000E+00         0.00000E+00         0.18095E+02
 
   -0.69411E+04         0.79694E+05         0.00000E+00
    0.79694E+05         0.70492E+04         0.00000E+00
    0.00000E+00         0.00000E+00         0.21630E+02
 
   -0.66017E+04         0.81499E+05         0.00000E+00
    0.81499E+05         0.67304E+04         0.00000E+00
    0.00000E+00         0.00000E+00         0.25736E+02
 
   -0.62559E+04         0.83249E+05         0.00000E+00
    0.83249E+05         0.64085E+04         0.00000E+00
    0.00000E+00         0.00000E+00         0.30518E+02
 
   -0.59038E+04         0.84944E+05         0.00000E+00
    0.84944E+05         0.60842E+04         0.00000E+00
    0.00000E+00         0.00000E+00         0.36095E+02
 
   -0.55454E+04         0.86581E+05         0.00000E+00
    0.86581E+05         0.57584E+04         0.00000E+00
    0.00000E+00         0.00000E+00         0.42603E+02
 
   -0.51807E+04         0.88162E+05         0.00000E+00
    0.88162E+05         0.54316E+04         0.00000E+00
    0.00000E+00         0.00000E+00         0.50193E+02
 
   -0.48097E+04         0.89686E+05         0.00000E+00
    0.89686E+05         0.51049E+04         0.00000E+00
    0.00000E+00         0.00000E+00         0.59034E+02
 
   -0.44324E+04         0.91152E+05         0.00000E+00
    0.91152E+05         0.47790E+04         0.00000E+00
    0.00000E+00         0.00000E+00         0.69317E+02
 
   -0.40489E+04         0.92560E+05         0.00000E+00
    0.92560E+05         0.44551E+04         0.00000E+00
    0.00000E+00         0.00000E+00         0.81255E+02
 
   -0.36590E+04         0.93910E+05         0.00000E+00
    0.93910E+05         0.41344E+04         0.00000E+00
    0.00000E+00         0.00000E+00         0.95082E+02
 
   -0.32627E+04         0.95202E+05         0.00000E+00
    0.95202E+05         0.38180E+04         0.00000E+00
    0.00000E+00         0.00000E+00         0.11106E+03
 
   -0.28599E+04         0.96436E+05         0.00000E+00
    0.96436E+05         0.35072E+04         0.00000E+00
    0.00000E+00         0.00000E+00         0.12947E+03
 
   -0.24505E+04         0.97612E+05         0.00000E+00
    0.97612E+05         0.32037E+04         0.00000E+00
    0.00000E+00         0.00000E+00         0.15062E+03
 
   -0.20345E+04         0.98732E+05         0.00000E+00
    0.98732E+05         0.29088E+04         0.00000E+00
    0.00000E+00         0.00000E+00         0.17486E+03
 
   -0.16116E+04         0.99794E+05         0.00000E+00
    0.99794E+05         0.26243E+04         0.00000E+00
    0.00000E+00         0.00000E+00         0.20254E+03
 
   -0.11817E+04         0.10080E+06         0.00000E+00
    0.10080E+06         0.23520E+04         0.00000E+00
    0.00000E+00         0.00000E+00         0.23405E+03
 
   -0.74464E+03         0.10175E+06         0.00000E+00
    0.10175E+06         0.20936E+04         0.00000E+00
    0.00000E+00         0.00000E+00         0.26979E+03
 
   -0.30020E+03         0.10265E+06         0.00000E+00
    0.10265E+06         0.18512E+04         0.00000E+00
    0.00000E+00         0.00000E+00         0.31019E+03
 
    0.15184E+03         0.10349E+06         0.00000E+00
    0.10349E+06         0.16266E+04         0.00000E+00
    0.00000E+00         0.00000E+00         0.35569E+03
 
   -0.63966E+04         0.15054E+04         0.00000E+00
    0.15054E+04         0.59842E+04         0.00000E+00
    0.00000E+00         0.00000E+00        -0.82485E+02
 
   -0.63339E+04         0.44842E+04         0.00000E+00
    0.44842E+04         0.59752E+04         0.00000E+00
    0.00000E+00         0.00000E+00        -0.71732E+02
 
   -0.62688E+04         0.74467E+04         0.00000E+00
    0.74467E+04         0.59578E+04         0.00000E+00
    0.00000E+00         0.00000E+00        -0.62191E+02
 
   -0.62011E+04         0.10391E+05         0.00000E+00
    0.10391E+05         0.59323E+04         0.00000E+00
    0.00000E+00         0.00000E+00        -0.53755E+02
 
   -0.61309E+04         0.13315E+05         0.00000E+00
    0.13315E+05         0.58993E+04         0.00000E+00
    0.00000E+00         0.00000E+00        -0.46321E+02
 
   -0.60580E+04         0.16217E+05         0.00000E+00
    0.16217E+05         0.58591E+04         0.00000E+00
    0.00000E+00         0.00000E+00        -0.39791E+02
 
   -0.59824E+04         0.19095E+05         0.00000E+00
    0.19095E+05         0.58121E+04         0.00000E+00
    0.00000E+00         0.00000E+00        -0.34072E+02
 
   -0.59041E+04         0.21948E+05         0.00000E+00
    0.21948E+05         0.57587E+04         0.00000E+00
    0.00000E+00         0.00000E+00        -0.29078E+02
 
   -0.58230E+04         0.24773E+05         0.00000E+00
    0.24773E+05         0.56993E+04         0.00000E+00
    0.00000E+00         0.00000E+00        -0.24729E+02
 
   -0.57390E+04         0.27569E+05         0.00000E+00
    0.27569E+05         0.56342E+04         0.00000E+00
    0.00000E+00         0.00000E+00        -0.20950E+02
 
   -0.56520E+04         0.30335E+05         0.00000E+00
    0.30335E+05         0.55637E+04         0.00000E+00
    0.00000E+00         0.00000E+00        -0.17672E+02
 
   -0.55622E+04         0.33070E+05         0.00000E+00
    0.33070E+05         0.54880E+04         0.00000E+00
    0.00000E+00         0.00000E+00        -0.14834E+02
 
   -0.54693E+04         0.35770E+05         0.00000E+00
    0.35770E+05         0.54074E+04         0.00000E+00
    0.00000E+00         0.00000E+00        -0.12379E+02
 
   -0.53735E+04         0.38437E+05         0.00000E+00
    0.38437E+05         0.53222E+04         0.00000E+00
    0.00000E+00         0.00000E+00        -0.10255E+02
 
   -0.52746E+04         0.41067E+05         0.00000E+00
    0.41067E+05         0.52325E+04         0.00000E+00
    0.00000E+00         0.00000E+00        -0.84165E+01
 
   -0.51726E+04         0.43660E+05         0.00000E+00
    0.43660E+05         0.51385E+04         0.00000E+00
    0.00000E+00         0.00000E+00        -0.68215E+01
 
   -0.50676E+04         0.46214E+05         0.00000E+00
    0.46214E+05         0.50404E+04         0.00000E+00
    0.00000E+00         0.00000E+00        -0.54325E+01
 
   -0.49595E+04         0.48728E+05         0.00000E+00
    0.48728E+05         0.49384E+04         0.00000E+00
    0.00000E+00         0.00000E+00        -0.42153E+01
 
   -0.48483E+04         0.51202E+05         0.00000E+00
    0.51202E+05         0.48326E+04         0.00000E+00
    0.00000E+00         0.00000E+00        -0.31390E+01
 
   -0.47340E+04         0.53633E+05         0.00000E+00
    0.53633E+05         0.47231E+04         0.00000E+00
    0.00000E+00         0.00000E+00        -0.21752E+01
 
   -0.46166E+04         0.56020E+05         0.00000E+00
    0.56020E+05         0.46101E+04         0.00000E+00
    0.00000E+00         0.00000E+00        -0.12977E+01
 
   -0.44961E+04         0.58364E+05         0.00000E+00
    0.58364E+05         0.44937E+04         0.00000E+00
    0.00000E+00         0.00000E+00        -0.48179E+00
 
   -0.43726E+04         0.60662E+05         0.00000E+00
    0.60662E+05         0.43740E+04         0.00000E+00
    0.00000E+00         0.00000E+00         0.29591E+00
 
   -0.42459E+04         0.62913E+05         0.00000E+00
    0.62913E+05         0.42512E+04         0.00000E+00
    0.00000E+00         0.00000E+00         0.10583E+01
 
   -0.41163E+04         0.65117E+05         0.00000E+00
    0.65117E+05         0.41254E+04         0.00000E+00
    0.00000E+00         0.00000E+00         0.18281E+01
 
   -0.39836E+04         0.67272E+05         0.00000E+00
    0.67272E+05         0.39967E+04         0.00000E+00
    0.00000E+00         0.00000E+00         0.26285E+01
 
   -0.38479E+04         0.69378E+05         0.00000E+00
    0.69378E+05         0.38653E+04         0.00000E+00
    0.00000E+00         0.00000E+00         0.34834E+01
 
   -0.37092E+04         0.71433E+05         0.00000E+00
    0.71433E+05         0.37313E+04         0.00000E+00
    0.00000E+00         0.00000E+00         0.44184E+01
 
   -0.35675E+04         0.73437E+05         0.00000E+00
    0.73437E+05         0.35948E+04         0.00000E+00
    0.00000E+00         0.00000E+00         0.54608E+01
 
   -0.34229E+04         0.75389E+05         0.00000E+00
    0.75389E+05         0.34561E+04         0.00000E+00
    0.00000E+00         0.00000E+00         0.66408E+01
 
   -0.32753E+04         0.77289E+05         0.00000E+00
    0.77289E+05         0.33153E+04         0.00000E+00
    0.00000E+00         0.00000E+00         0.79916E+01
 
   -0.31249E+04         0.79134E+05         0.00000E+00
    0.79134E+05         0.31726E+04         0.00000E+00
    0.00000E+00         0.00000E+00         0.95504E+01
 
   -0.29716E+04         0.80926E+05         0.00000E+00
    0.80926E+05         0.30284E+04         0.00000E+00
    0.00000E+00         0.00000E+00         0.11359E+02
 
   -0.28154E+04         0.82662E+05         0.00000E+00
    0.82662E+05         0.28828E+04         0.00000E+00
    0.00000E+00         0.00000E+00         0.13464E+02
 
   -0.26565E+04         0.84343E+05         0.00000E+00
    0.84343E+05         0.27361E+04         0.00000E+00
    0.00000E+00         0.00000E+00         0.15919E+02
 
   -0.24947E+04         0.85968E+05         0.00000E+00
    0.85968E+05         0.25886E+04         0.00000E+00
    0.00000E+00         0.00000E+00         0.18783E+02
 
   -0.23301E+04         0.87536E+05         0.00000E+00
    0.87536E+05         0.24407E+04         0.00000E+00
    0.00000E+00         0.00000E+00         0.22124E+02
 
   -0.21628E+04         0.89048E+05         0.00000E+00
    0.89048E+05         0.22929E+04         0.00000E+00
    0.00000E+00         0.00000E+00         0.26018E+02
 
   -0.19927E+04         0.90502E+05         0.00000E+00
    0.90502E+05         0.21454E+04         0.00000E+00
    0.00000E+00         0.00000E+00         0.30550E+02
 
   -0.18198E+04         0.91900E+05         0.00000E+00
    0.91900E+05         0.19988E+04         0.00000E+00
    0.00000E+00         0.00000E+00         0.35814E+02
 
   -0.16441E+04         0.93239E+05         0.00000E+00
    0.93239E+05         0.18537E+04         0.00000E+00
    0.00000E+00         0.00000E+00         0.41916E+02
 
   -0.14657E+04         0.94521E+05         0.00000E+00
    0.94521E+05         0.17105E+04         0.00000E+00
    0.00000E+00         0.00000E+00         0.48972E+02
 
   -0.12844E+04         0.95746E+05         0.00000E+00
    0.95746E+05         0.15700E+04         0.00000E+00
    0.00000E+00         0.00000E+00         0.57112E+02
 
   -0.11003E+04         0.96914E+05         0.00000E+00
    0.96914E+05         0.14327E+04         0.00000E+00
    0.00000E+00         0.00000E+00         0.66475E+02
 
   -0.91337E+03         0.98025E+05         0.00000E+00
    0.98025E+05         0.12994E+04         0.00000E+00
    0.00000E+00         0.00000E+00         0.77214E+02
 
   -0.72349E+03         0.99080E+05         0.00000E+00
    0.99080E+05         0.11710E+04         0.00000E+00
    0.00000E+00         0.00000E+00         0.89494E+02
 
   -0.53063E+03         0.10008E+06         0.00000E+00
    0.10008E+06         0.10481E+04         0.00000E+00
    0.00000E+00         0.00000E+00         0.10349E+03
 
   -0.33472E+03         0.10102E+06         0.00000E+00
    0.10102E+06         0.93166E+03         0.00000E+00
    0.00000E+00         0.00000E+00         0.11939E+03
 
   -0.13570E+03         0.10192E+06         0.00000E+00
    0.10192E+06         0.82261E+03         0.00000E+00
    0.00000E+00         0.00000E+00         0.13738E+03
 
    0.66513E+02         0.10275E+06         0.00000E+00
    0.10275E+06         0.72189E+03         0.00000E+00
    0.00000E+00         0.00000E+00         0.15768E+03
 
    0.12877E+04         0.15032E+04         0.00000E+00
    0.15032E+04        -0.12475E+04         0.00000E+00
    0.00000E+00         0.00000E+00         0.80447E+01
 
    0.12815E+04         0.44778E+04         0.00000E+00
    0.44778E+04        -0.12461E+04         0.00000E+00
    0.00000E+00         0.00000E+00         0.70880E+01
 
    0.12743E+04         0.74362E+04         0.00000E+00
    0.74362E+04        -0.12432E+04         0.00000E+00
    0.00000E+00         0.00000E+00         0.62176E+01
 
    0.12661E+04         0.10376E+05         0.00000E+00
    0.10376E+05        -0.12389E+04         0.00000E+00
    0.00000E+00         0.00000E+00         0.54301E+01
 
    0.12568E+04         0.13296E+05         0.00000E+00
    0.13296E+05        -0.12332E+04         0.00000E+00
    0.00000E+00         0.00000E+00         0.47214E+01
 
    0.12466E+04         0.16194E+05         0.00000E+00
    0.16194E+05        -0.12261E+04         0.00000E+00
    0.00000E+00         0.00000E+00         0.40870E+01
 
    0.12353E+04         0.19068E+05         0.00000E+00
    0.19068E+05        -0.12177E+04         0.00000E+00
    0.00000E+00         0.00000E+00         0.35217E+01
 
    0.12230E+04         0.21917E+05         0.00000E+00
    0.21917E+05        -0.12079E+04         0.00000E+00
    0.00000E+00         0.00000E+00         0.30201E+01
 
    0.12097E+04         0.24738E+05         0.00000E+00
    0.24738E+05        -0.11969E+04         0.00000E+00
    0.00000E+00         0.00000E+00         0.25770E+01
 
    0.11955E+04         0.27530E+05         0.00000E+00
    0.27530E+05        -0.11845E+04         0.00000E+00
    0.00000E+00         0.00000E+00         0.21867E+01
 
    0.11802E+04         0.30292E+05         0.00000E+00
    0.30292E+05        -0.11710E+04         0.00000E+00
    0.00000E+00         0.00000E+00         0.18439E+01
 
    0.11640E+04         0.33022E+05         0.00000E+00
    0.33022E+05        -0.11562E+04         0.00000E+00
    0.00000E+00         0.00000E+00         0.15434E+01
 
    0.11468E+04         0.35719E+05         0.00000E+00
    0.35719E+05        -0.11404E+04         0.00000E+00
    0.00000E+00         0.00000E+00         0.12801E+01
 
    0.11286E+04         0.38381E+05         0.00000E+00
    0.38381E+05        -0.11234E+04         0.00000E+00
    0.00000E+00         0.00000E+00         0.10491E+01
 
    0.11096E+04         0.41007E+05         0.00000E+00
    0.41007E+05        -0.11054E+04         0.00000E+00
    0.00000E+00         0.00000E+00         0.84592E+00
 
    0.10896E+04         0.43596E+05         0.00000E+00
    0.43596E+05        -0.10863E+04         0.00000E+00
    0.00000E+00         0.00000E+00         0.66606E+00
 
    0.10688E+04         0.46146E+05         0.00000E+00
    0.46146E+05        -0.10663E+04         0.00000E+00
    0.00000E+00         0.00000E+00         0.50536E+00
 
    0.10471E+04         0.48656E+05         0.00000E+00
    0.48656E+05        -0.10453E+04         0.00000E+00
    0.00000E+00         0.00000E+00         0.35978E+00
 
    0.10246E+04         0.51125E+05         0.00000E+00
    0.51125E+05        -0.10235E+04         0.00000E+00
    0.00000E+00         0.00000E+00         0.22542E+00
 
    0.10013E+04         0.53552E+05         0.00000E+00
    0.53552E+05        -0.10008E+04         0.00000E+00
    0.00000E+00         0.00000E+00         0.98454E-01
 
    0.97723E+03         0.55936E+05         0.00000E+00
    0.55936E+05        -0.97736E+03         0.00000E+00
    0.00000E+00         0.00000E+00        -0.24895E-01
 
    0.95238E+03         0.58275E+05         0.00000E+00
    0.58275E+05        -0.95312E+03         0.00000E+00
    0.00000E+00         0.00000E+00        -0.14845E+00
 
    0.92678E+03         0.60568E+05         0.00000E+00
    0.60568E+05        -0.92816E+03         0.00000E+00
    0.00000E+00         0.00000E+00        -0.27614E+00
 
    0.90047E+03         0.62815E+05         0.00000E+00
    0.62815E+05        -0.90253E+03         0.00000E+00
    0.00000E+00         0.00000E+00        -0.41207E+00
 
    0.87346E+03         0.65014E+05         0.00000E+00
    0.65014E+05        -0.87626E+03         0.00000E+00
    0.00000E+00         0.00000E+00        -0.56057E+00
 
    0.84577E+03         0.67165E+05         0.00000E+00
    0.67165E+05        -0.84941E+03         0.00000E+00
    0.00000E+00         0.00000E+00        -0.72636E+00
 
    0.81743E+03         0.69267E+05         0.00000E+00
    0.69267E+05        -0.82200E+03         0.00000E+00
    0.00000E+00         0.00000E+00        -0.91456E+00
 
    0.78844E+03         0.71318E+05         0.00000E+00
    0.71318E+05        -0.79409E+03         0.00000E+00
    0.00000E+00         0.00000E+00        -0.11308E+01
 
    0.75882E+03         0.73318E+05         0.00000E+00
    0.73318E+05        -0.76573E+03         0.00000E+00
    0.00000E+00         0.00000E+00        -0.13815E+01
 
    0.72859E+03         0.75266E+05         0.00000E+00
    0.75266E+05        -0.73696E+03         0.00000E+00
    0.00000E+00         0.00000E+00        -0.16736E+01
 
    0.69774E+03         0.77161E+05         0.00000E+00
    0.77161E+05        -0.70782E+03         0.00000E+00
    0.00000E+00         0.00000E+00        -0.20152E+01
 
    0.66629E+03         0.79003E+05         0.00000E+00
    0.79003E+05        -0.67837E+03         0.00000E+00
    0.00000E+00         0.00000E+00        -0.24151E+01
 
    0.63424E+03         0.80790E+05         0.00000E+00
    0.80790E+05        -0.64866E+03         0.00000E+00
    0.00000E+00         0.00000E+00        -0.28834E+01
 
    0.60159E+03         0.82523E+05         0.00000E+00
    0.82523E+05        -0.61875E+03         0.00000E+00
    0.00000E+00         0.00000E+00        -0.34315E+01
 
    0.56834E+03         0.84200E+05         0.00000E+00
    0.84200E+05        -0.58870E+03         0.00000E+00
    0.00000E+00         0.00000E+00        -0.40721E+01
 
    0.53447E+03         0.85821E+05         0.00000E+00
    0.85821E+05        -0.55857E+03         0.00000E+00
    0.00000E+00         0.00000E+00        -0.48196E+01
 
    0.49997E+03         0.87386E+05         0.00000E+00
    0.87386E+05        -0.52842E+03         0.00000E+00
    0.00000E+00         0.00000E+00        -0.56898E+01
 
    0.46484E+03         0.88895E+05         0.00000E+00
    0.88895E+05        -0.49834E+03         0.00000E+00
    0.00000E+00         0.00000E+00        -0.67003E+01
 
    0.42904E+03         0.90346E+05         0.00000E+00
    0.90346E+05        -0.46840E+03         0.00000E+00
    0.00000E+00         0.00000E+00        -0.78708E+01
 
    0.39256E+03         0.91740E+05         0.00000E+00
    0.91740E+05        -0.43868E+03         0.00000E+00
    0.00000E+00         0.00000E+00        -0.92226E+01
 
    0.35537E+03         0.93077E+05         0.00000E+00
    0.93077E+05        -0.40926E+03         0.00000E+00
    0.00000E+00         0.00000E+00        -0.10779E+02
 
    0.31743E+03         0.94357E+05         0.00000E+00
    0.94357E+05        -0.38025E+03         0.00000E+00
    0.00000E+00         0.00000E+00        -0.12565E+02
 
    0.27870E+03         0.95580E+05         0.00000E+00
    0.95580E+05        -0.35175E+03         0.00000E+00
    0.00000E+00         0.00000E+00        -0.14608E+02
 
    0.23916E+03         0.96745E+05         0.00000E+00
    0.96745E+05        -0.32384E+03         0.00000E+00
    0.00000E+00         0.00000E+00        -0.16937E+02
 
    0.19874E+03         0.97855E+05         0.00000E+00
    0.97855E+05        -0.29664E+03         0.00000E+00
    0.00000E+00         0.00000E+00        -0.19580E+02
 
    0.15741E+03         0.98908E+05         0.00000E+00
    0.98908E+05        -0.27027E+03         0.00000E+00
    0.00000E+00         0.00000E+00        -0.22571E+02
 
    0.11512E+03         0.99906E+05         0.00000E+00
    0.99906E+05        -0.24481E+03         0.00000E+00
    0.00000E+00         0.00000E+00        -0.25939E+02
 
    0.71813E+02         0.10085E+06         0.00000E+00
    0.10085E+06        -0.22040E+03         0.00000E+00
    0.00000E+00         0.00000E+00        -0.29717E+02
 
    0.27437E+02         0.10174E+06         0.00000E+00
    0.10174E+06        -0.19712E+03         0.00000E+00
    0.00000E+00         0.00000E+00        -0.33936E+02
 
   -0.18059E+02         0.10258E+06         0.00000E+00
    0.10258E+06        -0.17508E+03         0.00000E+00
    0.00000E+00         0.00000E+00        -0.38627E+02
 
    0.89808E+04         0.15090E+04         0.00000E+00
    0.15090E+04        -0.84889E+04         0.00000E+00
    0.00000E+00         0.00000E+00         0.98391E+02
 
    0.89058E+04         0.44952E+04         0.00000E+00
    0.44952E+04        -0.84770E+04         0.00000E+00
    0.00000E+00         0.00000E+00         0.85751E+02
 
    0.88262E+04         0.74652E+04         0.00000E+00
    0.74652E+04        -0.84538E+04         0.00000E+00
    0.00000E+00         0.00000E+00         0.74492E+02
 
    0.87421E+04         0.10417E+05         0.00000E+00
    0.10417E+05        -0.84196E+04         0.00000E+00
    0.00000E+00         0.00000E+00         0.64501E+02
 
    0.86533E+04         0.13348E+05         0.00000E+00
    0.13348E+05        -0.83749E+04         0.00000E+00
    0.00000E+00         0.00000E+00         0.55666E+02
 
    0.85597E+04         0.16258E+05         0.00000E+00
    0.16258E+05        -0.83203E+04         0.00000E+00
    0.00000E+00         0.00000E+00         0.47882E+02
 
    0.84614E+04         0.19143E+05         0.00000E+00
    0.19143E+05        -0.82562E+04         0.00000E+00
    0.00000E+00         0.00000E+00         0.41046E+02
 
    0.83583E+04         0.22002E+05         0.00000E+00
    0.22002E+05        -0.81830E+04         0.00000E+00
    0.00000E+00         0.00000E+00         0.35060E+02
 
    0.82503E+04         0.24835E+05         0.00000E+00
    0.24835E+05        -0.81011E+04         0.00000E+00
    0.00000E+00         0.00000E+00         0.29834E+02
 
    0.81374E+04         0.27638E+05         0.00000E+00
    0.27638E+05        -0.80110E+04         0.00000E+00
    0.00000E+00         0.00000E+00         0.25283E+02
 
    0.80196E+04         0.30411E+05         0.00000E+00
    0.30411E+05        -0.79129E+04         0.00000E+00
    0.00000E+00         0.00000E+00         0.21326E+02
 
    0.78969E+04         0.33151E+05         0.00000E+00
    0.33151E+05        -0.78074E+04         0.00000E+00
    0.00000E+00         0.00000E+00         0.17893E+02
 
    0.77692E+04         0.35858E+05         0.00000E+00
    0.35858E+05        -0.76946E+04         0.00000E+00
    0.00000E+00         0.00000E+00         0.14916E+02
 
    0.76367E+04         0.38531E+05         0.00000E+00
    0.38531E+05        -0.75750E+04         0.00000E+00
    0.00000E+00         0.00000E+00         0.12335E+02
 
    0.74992E+04         0.41167E+05         0.00000E+00
    0.41167E+05        -0.74487E+04         0.00000E+00
    0.00000E+00         0.00000E+00         0.10094E+02
 
    0.73569E+04         0.43765E+05         0.00000E+00
    0.43765E+05        -0.73162E+04         0.00000E+00
    0.00000E+00         0.00000E+00         0.81425E+01
 
    0.72098E+04         0.46325E+05         0.00000E+00
    0.46325E+05        -0.71776E+04         0.00000E+00
    0.00000E+00         0.00000E+00         0.64350E+01
 
    0.70578E+04         0.48844E+05         0.00000E+00
    0.48844E+05        -0.70332E+04         0.00000E+00
    0.00000E+00         0.00000E+00         0.49292E+01
 
    0.69011E+04         0.51323E+05         0.00000E+00
    0.51323E+05        -0.68832E+04         0.00000E+00
    0.00000E+00         0.00000E+00         0.35865E+01
 
    0.67397E+04         0.53758E+05         0.00000E+00
    0.53758E+05        -0.67279E+04         0.00000E+00
    0.00000E+00         0.00000E+00         0.23709E+01
 
    0.65737E+04         0.56151E+05         0.00000E+00
    0.56151E+05        -0.65674E+04         0.00000E+00
    0.00000E+00         0.00000E+00         0.12487E+01
 
    0.64030E+04         0.58498E+05         0.00000E+00
    0.58498E+05        -0.64021E+04         0.00000E+00
    0.00000E+00         0.00000E+00         0.18768E+00
 
    0.62278E+04         0.60800E+05         0.00000E+00
    0.60800E+05        -0.62320E+04         0.00000E+00
    0.00000E+00         0.00000E+00        -0.84352E+00
 
    0.60481E+04         0.63055E+05         0.00000E+00
    0.63055E+05        -0.60575E+04         0.00000E+00
    0.00000E+00         0.00000E+00        -0.18759E+01
 
    0.58640E+04         0.65262E+05         0.00000E+00
    0.65262E+05        -0.58787E+04         0.00000E+00
    0.00000E+00         0.00000E+00        -0.29408E+01
 
    0.56755E+04         0.67421E+05         0.00000E+00
    0.67421E+05        -0.56959E+04         0.00000E+00
    0.00000E+00         0.00000E+00        -0.40707E+01
 
    0.54827E+04         0.69530E+05         0.00000E+00
    0.69530E+05        -0.55092E+04         0.00000E+00
    0.00000E+00         0.00000E+00        -0.52998E+01
 
    0.52857E+04         0.71588E+05         0.00000E+00
    0.71588E+05        -0.53190E+04         0.00000E+00
    0.00000E+00         0.00000E+00        -0.66649E+01
 
    0.50844E+04         0.73595E+05         0.00000E+00
    0.73595E+05        -0.51254E+04         0.00000E+00
    0.00000E+00         0.00000E+00        -0.82061E+01
 
    0.48790E+04         0.75550E+05         0.00000E+00
    0.75550E+05        -0.49288E+04         0.00000E+00
    0.00000E+00         0.00000E+00        -0.99674E+01
 
    0.46695E+04         0.77451E+05         0.00000E+00
    0.77451E+05        -0.47295E+04         0.00000E+00
    0.00000E+00         0.00000E+00        -0.11998E+02
 
    0.44559E+04         0.79299E+05         0.00000E+00
    0.79299E+05        -0.45277E+04         0.00000E+00
    0.00000E+00         0.00000E+00        -0.14353E+02
 
    0.42383E+04         0.81093E+05         0.00000E+00
    0.81093E+05        -0.43237E+04         0.00000E+00
    0.00000E+00         0.00000E+00        -0.17094E+02
 
    0.40166E+04         0.82832E+05         0.00000E+00
    0.82832E+05        -0.41181E+04         0.00000E+00
    0.00000E+00         0.00000E+00        -0.20290E+02
 
    0.37910E+04         0.84514E+05         0.00000E+00
    0.84514E+05        -0.39111E+04         0.00000E+00
    0.00000E+00         0.00000E+00        -0.24020E+02
 
    0.35613E+04         0.86141E+05         0.00000E+00
    0.86141E+05        -0.37032E+04         0.00000E+00
    0.00000E+00         0.00000E+00        -0.28373E+02
 
    0.33277E+04         0.87712E+05         0.00000E+00
    0.87712E+05        -0.34949E+04         0.00000E+00
    0.00000E+00         0.00000E+00        -0.33447E+02
 
    0.30901E+04         0.89225E+05         0.00000E+00
    0.89225E+05        -0.32868E+04         0.00000E+00
    0.00000E+00         0.00000E+00        -0.39354E+02
 
    0.28484E+04         0.90682E+05         0.00000E+00
    0.90682E+05        -0.30794E+04         0.00000E+00
    0.00000E+00         0.00000E+00        -0.46216E+02
 
    0.26025E+04         0.92081E+05         0.00000E+00
    0.92081E+05        -0.28734E+04         0.00000E+00
    0.00000E+00         0.00000E+00        -0.54172E+02
 
    0.23526E+04         0.93422E+05         0.00000E+00
    0.93422E+05        -0.26695E+04         0.00000E+00
    0.00000E+00         0.00000E+00        -0.63374E+02
 
    0.20984E+04         0.94707E+05         0.00000E+00
    0.94707E+05        -0.24683E+04         0.00000E+00
    0.00000E+00         0.00000E+00        -0.73988E+02
 
    0.18398E+04         0.95934E+05         0.00000E+00
    0.95934E+05        -0.22708E+04         0.00000E+00
    0.00000E+00         0.00000E+00        -0.86196E+02
 
    0.15769E+04         0.97104E+05         0.00000E+00
    0.97104E+05        -0.20778E+04         0.00000E+00
    0.00000E+00         0.00000E+00        -0.10020E+03
 
    0.13093E+04         0.98217E+05         0.00000E+00
    0.98217E+05        -0.18903E+04         0.00000E+00
    0.00000E+00         0.00000E+00        -0.11620E+03
 
    0.10370E+04         0.99275E+05         0.00000E+00
    0.99275E+05        -0.17092E+04         0.00000E+00
    0.00000E+00         0.00000E+00        -0.13443E+03
 
    0.75990E+03         0.10028E+06         0.00000E+00
    0.10028E+06        -0.15356E+04         0.00000E+00
    0.00000E+00         0.00000E+00        -0.15514E+03
 
    0.47772E+03         0.10122E+06         0.00000E+00
    0.10122E+06        -0.13705E+04         0.00000E+00
    0.00000E+00         0.00000E+00        -0.17856E+03
 
    0.19033E+03         0.10212E+06         0.00000E+00
    0.10212E+06        -0.12151E+04         0.00000E+00
    0.00000E+00         0.00000E+00        -0.20495E+03
 
   -0.10248E+03         0.10296E+06         0.00000E+00
    0.10296E+06        -0.10705E+04         0.00000E+00
    0.00000E+00         0.00000E+00        -0.23459E+03
 
    0.16724E+05         0.15230E+04         0.00000E+00
    0.15230E+04        -0.15778E+05         0.00000E+00
    0.00000E+00         0.00000E+00         0.18921E+03
 
    0.16580E+05         0.45369E+04         0.00000E+00
    0.45369E+04        -0.15756E+05         0.00000E+00
    0.00000E+00         0.00000E+00         0.16483E+03
 
    0.16428E+05         0.75343E+04         0.00000E+00
    0.75343E+04        -0.15712E+05         0.00000E+00
    0.00000E+00         0.00000E+00         0.14313E+03
 
    0.16267E+05         0.10513E+05         0.00000E+00
    0.10513E+05        -0.15648E+05         0.00000E+00
    0.00000E+00         0.00000E+00         0.12388E+03
 
    0.16098E+05         0.13472E+05         0.00000E+00
    0.13472E+05        -0.15564E+05         0.00000E+00
    0.00000E+00         0.00000E+00         0.10688E+03
 
    0.15921E+05         0.16408E+05         0.00000E+00
    0.16408E+05        -0.15461E+05         0.00000E+00
    0.00000E+00         0.00000E+00         0.91912E+02
 
    0.15735E+05         0.19320E+05         0.00000E+00
    0.19320E+05        -0.15341E+05         0.00000E+00
    0.00000E+00         0.00000E+00         0.78772E+02
 
    0.15540E+05         0.22206E+05         0.00000E+00
    0.22206E+05        -0.15204E+05         0.00000E+00
    0.00000E+00         0.00000E+00         0.67274E+02
 
    0.15337E+05         0.25064E+05         0.00000E+00
    0.25064E+05        -0.15051E+05         0.00000E+00
    0.00000E+00         0.00000E+00         0.57239E+02
 
    0.15124E+05         0.27894E+05         0.00000E+00
    0.27894E+05        -0.14882E+05         0.00000E+00
    0.00000E+00         0.00000E+00         0.48504E+02
 
    0.14903E+05         0.30692E+05         0.00000E+00
    0.30692E+05        -0.14699E+05         0.00000E+00
    0.00000E+00         0.00000E+00         0.40915E+02
 
    0.14673E+05         0.33458E+05         0.00000E+00
    0.33458E+05        -0.14502E+05         0.00000E+00
    0.00000E+00         0.00000E+00         0.34333E+02
 
    0.14434E+05         0.36190E+05         0.00000E+00
    0.36190E+05        -0.14291E+05         0.00000E+00
    0.00000E+00         0.00000E+00         0.28628E+02
 
    0.14186E+05         0.38887E+05         0.00000E+00
    0.38887E+05        -0.14068E+05         0.00000E+00
    0.00000E+00         0.00000E+00         0.23683E+02
 
    0.13930E+05         0.41547E+05         0.00000E+00
    0.41547E+05        -0.13833E+05         0.00000E+00
    0.00000E+00         0.00000E+00         0.19393E+02
 
    0.13664E+05         0.44169E+05         0.00000E+00
    0.44169E+05        -0.13586E+05         0.00000E+00
    0.00000E+00         0.00000E+00         0.15661E+02
 
    0.13389E+05         0.46752E+05         0.00000E+00
    0.46752E+05        -0.13327E+05         0.00000E+00
    0.00000E+00         0.00000E+00         0.12399E+02
 
    0.13106E+05         0.49295E+05         0.00000E+00
    0.49295E+05        -0.13059E+05         0.00000E+00
    0.00000E+00         0.00000E+00         0.95254E+01
 
    0.12814E+05         0.51796E+05         0.00000E+00
    0.51796E+05        -0.12779E+05         0.00000E+00
    0.00000E+00         0.00000E+00         0.69679E+01
 
    0.12514E+05         0.54254E+05         0.00000E+00
    0.54254E+05        -0.12490E+05         0.00000E+00
    0.00000E+00         0.00000E+00         0.46580E+01
 
    0.12205E+05         0.56668E+05         0.00000E+00
    0.56668E+05        -0.12192E+05         0.00000E+00
    0.00000E+00         0.00000E+00         0.25317E+01
 
    0.11887E+05         0.59037E+05         0.00000E+00
    0.59037E+05        -0.11884E+05         0.00000E+00
    0.00000E+00         0.00000E+00         0.52826E+00
 
    0.11561E+05         0.61359E+05         0.00000E+00
    0.61359E+05        -0.11568E+05         0.00000E+00
    0.00000E+00         0.00000E+00        -0.14111E+01
 
    0.11227E+05         0.63635E+05         0.00000E+00
    0.63635E+05        -0.11244E+05         0.00000E+00
    0.00000E+00         0.00000E+00        -0.33445E+01
 
    0.10884E+05         0.65862E+05         0.00000E+00
    0.65862E+05        -0.10911E+05         0.00000E+00
    0.00000E+00         0.00000E+00        -0.53304E+01
 
    0.10534E+05         0.68040E+05         0.00000E+00
    0.68040E+05        -0.10571E+05         0.00000E+00
    0.00000E+00         0.00000E+00        -0.74293E+01
 
    0.10176E+05         0.70168E+05         0.00000E+00
    0.70168E+05        -0.10224E+05         0.00000E+00
    0.00000E+00         0.00000E+00        -0.97046E+01
 
    0.98093E+04         0.72245E+05         0.00000E+00
    0.72245E+05        -0.98704E+04         0.00000E+00
    0.00000E+00         0.00000E+00        -0.12224E+02
 
    0.94352E+04         0.74270E+05         0.00000E+00
    0.74270E+05        -0.95105E+04         0.00000E+00
    0.00000E+00         0.00000E+00        -0.15062E+02
 
    0.90534E+04         0.76243E+05         0.00000E+00
    0.76243E+05        -0.91449E+04         0.00000E+00
    0.00000E+00         0.00000E+00        -0.18300E+02
 
    0.86640E+04         0.78162E+05         0.00000E+00
    0.78162E+05        -0.87742E+04         0.00000E+00
    0.00000E+00         0.00000E+00        -0.22028E+02
 
    0.82671E+04         0.80026E+05         0.00000E+00
    0.80026E+05        -0.83988E+04         0.00000E+00
    0.00000E+00         0.00000E+00        -0.26347E+02
 
    0.78626E+04         0.81836E+05         0.00000E+00
    0.81836E+05        -0.80195E+04         0.00000E+00
    0.00000E+00         0.00000E+00        -0.31372E+02
 
    0.74508E+04         0.83590E+05         0.00000E+00
    0.83590E+05        -0.76369E+04         0.00000E+00
    0.00000E+00         0.00000E+00        -0.37230E+02
 
    0.70316E+04         0.85288E+05         0.00000E+00
    0.85288E+05        -0.72519E+04         0.00000E+00
    0.00000E+00         0.00000E+00        -0.44066E+02
 
    0.66049E+04         0.86930E+05         0.00000E+00
    0.86930E+05        -0.68651E+04         0.00000E+00
    0.00000E+00         0.00000E+00        -0.52042E+02
 
    0.61709E+04         0.88514E+05         0.00000E+00
    0.88514E+05        -0.64776E+04         0.00000E+00
    0.00000E+00         0.00000E+00        -0.61341E+02
 
    0.57295E+04         0.90041E+05         0.00000E+00
    0.90041E+05        -0.60904E+04         0.00000E+00
    0.00000E+00         0.00000E+00        -0.72168E+02
 
    0.52807E+04         0.91511E+05         0.00000E+00
    0.91511E+05        -0.57045E+04         0.00000E+00
    0.00000E+00         0.00000E+00        -0.84751E+02
 
    0.48244E+04         0.92922E+05         0.00000E+00
    0.92922E+05        -0.53211E+04         0.00000E+00
    0.00000E+00         0.00000E+00        -0.99344E+02
 
    0.43604E+04         0.94276E+05         0.00000E+00
    0.94276E+05        -0.49415E+04         0.00000E+00
    0.00000E+00         0.00000E+00        -0.11623E+03
 
    0.38887E+04         0.95572E+05         0.00000E+00
    0.95572E+05        -0.45673E+04         0.00000E+00
    0.00000E+00         0.00000E+00        -0.13572E+03
 
    0.34091E+04         0.96810E+05         0.00000E+00
    0.96810E+05        -0.41998E+04         0.00000E+00
    0.00000E+00         0.00000E+00        -0.15814E+03
 
    0.29215E+04         0.97991E+05         0.00000E+00
    0.97991E+05        -0.38409E+04         0.00000E+00
    0.00000E+00         0.00000E+00        -0.18387E+03
 
    0.24256E+04         0.99114E+05         0.00000E+00
    0.99114E+05        -0.34921E+04         0.00000E+00
    0.00000E+00         0.00000E+00        -0.21330E+03
 
    0.19212E+04         0.10018E+06         0.00000E+00
    0.10018E+06        -0.31554E+04         0.00000E+00
    0.00000E+00         0.00000E+00        -0.24686E+03
 
    0.14080E+04         0.10119E+06         0.00000E+00
    0.10119E+06        -0.28329E+04         0.00000E+00
    0.00000E+00         0.00000E+00        -0.28498E+03
 
    0.88569E+03         0.10215E+06         0.00000E+00
    0.10215E+06        -0.25264E+04         0.00000E+00
    0.00000E+00         0.00000E+00        -0.32814E+03
 
    0.35404E+03         0.10305E+06         0.00000E+00
    0.10305E+06        -0.22382E+04         0.00000E+00
    0.00000E+00         0.00000E+00        -0.37682E+03
 
   -0.18731E+03         0.10390E+06         0.00000E+00
    0.10390E+06        -0.19704E+04         0.00000E+00
    0.00000E+00         0.00000E+00        -0.43153E+03
 
    0.24560E+05         0.15452E+04         0.00000E+00
    0.15452E+04        -0.23154E+05         0.00000E+00
    0.00000E+00         0.00000E+00         0.28120E+03
 
    0.24346E+05         0.46029E+04         0.00000E+00
    0.46029E+04        -0.23121E+05         0.00000E+00
    0.00000E+00         0.00000E+00         0.24492E+03
 
    0.24120E+05         0.76440E+04         0.00000E+00
    0.76440E+04        -0.23057E+05         0.00000E+00
    0.00000E+00         0.00000E+00         0.21265E+03
 
    0.23882E+05         0.10666E+05         0.00000E+00
    0.10666E+05        -0.22962E+05         0.00000E+00
    0.00000E+00         0.00000E+00         0.18404E+03
 
    0.23632E+05         0.13668E+05         0.00000E+00
    0.13668E+05        -0.22838E+05         0.00000E+00
    0.00000E+00         0.00000E+00         0.15876E+03
 
    0.23370E+05         0.16647E+05         0.00000E+00
    0.16647E+05        -0.22687E+05         0.00000E+00
    0.00000E+00         0.00000E+00         0.13651E+03
 
    0.23095E+05         0.19601E+05         0.00000E+00
    0.19601E+05        -0.22510E+05         0.00000E+00
    0.00000E+00         0.00000E+00         0.11699E+03
 
    0.22807E+05         0.22529E+05         0.00000E+00
    0.22529E+05        -0.22308E+05         0.00000E+00
    0.00000E+00         0.00000E+00         0.99905E+02
 
    0.22507E+05         0.25429E+05         0.00000E+00
    0.25429E+05        -0.22082E+05         0.00000E+00
    0.00000E+00         0.00000E+00         0.85000E+02
 
    0.22195E+05         0.28299E+05         0.00000E+00
    0.28299E+05        -0.21834E+05         0.00000E+00
    0.00000E+00         0.00000E+00         0.72028E+02
 
    0.21869E+05         0.31138E+05         0.00000E+00
    0.31138E+05        -0.21565E+05         0.00000E+00
    0.00000E+00         0.00000E+00         0.60759E+02
 
    0.21530E+05         0.33944E+05         0.00000E+00
    0.33944E+05        -0.21275E+05         0.00000E+00
    0.00000E+00         0.00000E+00         0.50987E+02
 
    0.21178E+05         0.36716E+05         0.00000E+00
    0.36716E+05        -0.20966E+05         0.00000E+00
    0.00000E+00         0.00000E+00         0.42518E+02
 
    0.20814E+05         0.39452E+05         0.00000E+00
    0.39452E+05        -0.20638E+05         0.00000E+00
    0.00000E+00         0.00000E+00         0.35181E+02
 
    0.20436E+05         0.42150E+05         0.00000E+00
    0.42150E+05        -0.20292E+05         0.00000E+00
    0.00000E+00         0.00000E+00         0.28815E+02
 
    0.20046E+05         0.44811E+05         0.00000E+00
    0.44811E+05        -0.19929E+05         0.00000E+00
    0.00000E+00         0.00000E+00         0.23279E+02
 
    0.19642E+05         0.47431E+05         0.00000E+00
    0.47431E+05        -0.19550E+05         0.00000E+00
    0.00000E+00         0.00000E+00         0.18441E+02
 
    0.19226E+05         0.50011E+05         0.00000E+00
    0.50011E+05        -0.19155E+05         0.00000E+00
    0.00000E+00         0.00000E+00         0.14183E+02
 
    0.18797E+05         0.52548E+05         0.00000E+00
    0.52548E+05        -0.18745E+05         0.00000E+00
    0.00000E+00         0.00000E+00         0.10395E+02
 
    0.18356E+05         0.55041E+05         0.00000E+00
    0.55041E+05        -0.18321E+05         0.00000E+00
    0.00000E+00         0.00000E+00         0.69770E+01
 
    0.17902E+05         0.57490E+05         0.00000E+00
    0.57490E+05        -0.17883E+05         0.00000E+00
    0.00000E+00         0.00000E+00         0.38338E+01
 
    0.17436E+05         0.59894E+05         0.00000E+00
    0.59894E+05        -0.17431E+05         0.00000E+00
    0.00000E+00         0.00000E+00         0.87602E+00
 
    0.16957E+05         0.62250E+05         0.00000E+00
    0.62250E+05        -0.16967E+05         0.00000E+00
    0.00000E+00         0.00000E+00        -0.19829E+01
 
    0.16467E+05         0.64559E+05         0.00000E+00
    0.64559E+05        -0.16491E+05         0.00000E+00
    0.00000E+00         0.00000E+00        -0.48285E+01
 
    0.15964E+05         0.66818E+05         0.00000E+00
    0.66818E+05        -0.16003E+05         0.00000E+00
    0.00000E+00         0.00000E+00        -0.77469E+01
 
    0.15450E+05         0.69028E+05         0.00000E+00
    0.69028E+05        -0.15504E+05         0.00000E+00
    0.00000E+00         0.00000E+00        -0.10827E+02
 
    0.14924E+05         0.71187E+05         0.00000E+00
    0.71187E+05        -0.14995E+05         0.00000E+00
    0.00000E+00         0.00000E+00        -0.14161E+02
 
    0.14386E+05         0.73294E+05         0.00000E+00
    0.73294E+05        -0.14475E+05         0.00000E+00
    0.00000E+00         0.00000E+00        -0.17849E+02
 
    0.13837E+05         0.75348E+05         0.00000E+00
    0.75348E+05        -0.13947E+05         0.00000E+00
    0.00000E+00         0.00000E+00        -0.21999E+02
 
    0.13277E+05         0.77349E+05         0.00000E+00
    0.77349E+05        -0.13411E+05         0.00000E+00
    0.00000E+00         0.00000E+00        -0.26731E+02
 
    0.12705E+05         0.79296E+05         0.00000E+00
    0.79296E+05        -0.12866E+05         0.00000E+00
    0.00000E+00         0.00000E+00        -0.32177E+02
 
    0.12123E+05         0.81187E+05         0.00000E+00
    0.81187E+05        -0.12315E+05         0.00000E+00
    0.00000E+00         0.00000E+00        -0.38484E+02
 
    0.11530E+05         0.83023E+05         0.00000E+00
    0.83023E+05        -0.11759E+05         0.00000E+00
    0.00000E+00         0.00000E+00        -0.45819E+02
 
    0.10925E+05         0.84803E+05         0.00000E+00
    0.84803E+05        -0.11197E+05         0.00000E+00
    0.00000E+00         0.00000E+00        -0.54370E+02
 
    0.10310E+05         0.86525E+05         0.00000E+00
    0.86525E+05        -0.10632E+05         0.00000E+00
    0.00000E+00         0.00000E+00        -0.64348E+02
 
    0.96842E+04         0.88191E+05         0.00000E+00
    0.88191E+05        -0.10064E+05         0.00000E+00
    0.00000E+00         0.00000E+00        -0.75989E+02
 
    0.90474E+04         0.89798E+05         0.00000E+00
    0.89798E+05        -0.94952E+04         0.00000E+00
    0.00000E+00         0.00000E+00        -0.89563E+02
 
    0.83999E+04         0.91347E+05         0.00000E+00
    0.91347E+05        -0.89267E+04         0.00000E+00
    0.00000E+00         0.00000E+00        -0.10537E+03
 
    0.77415E+04         0.92838E+05         0.00000E+00
    0.92838E+05        -0.83602E+04         0.00000E+00
    0.00000E+00         0.00000E+00        -0.12374E+03
 
    0.70721E+04         0.94270E+05         0.00000E+00
    0.94270E+05        -0.77973E+04         0.00000E+00
    0.00000E+00         0.00000E+00        -0.14505E+03
 
    0.63916E+04         0.95643E+05         0.00000E+00
    0.95643E+05        -0.72402E+04         0.00000E+00
    0.00000E+00         0.00000E+00        -0.16970E+03
 
    0.56999E+04         0.96958E+05         0.00000E+00
    0.96958E+05        -0.66907E+04         0.00000E+00
    0.00000E+00         0.00000E+00        -0.19817E+03
 
    0.49967E+04         0.98213E+05         0.00000E+00
    0.98213E+05        -0.61513E+04         0.00000E+00
    0.00000E+00         0.00000E+00        -0.23093E+03
 
    0.42818E+04         0.99411E+05         0.00000E+00
    0.99411E+05        -0.56244E+04         0.00000E+00
    0.00000E+00         0.00000E+00        -0.26852E+03
 
    0.35549E+04         0.10055E+06         0.00000E+00
    0.10055E+06        -0.51125E+04         0.00000E+00
    0.00000E+00         0.00000E+00        -0.31154E+03
 
    0.28156E+04         0.10163E+06         0.00000E+00
    0.10163E+06        -0.46185E+04         0.00000E+00
    0.00000E+00         0.00000E+00        -0.36059E+03
 
    0.20635E+04         0.10266E+06         0.00000E+00
    0.10266E+06        -0.41452E+04         0.00000E+00
    0.00000E+00         0.00000E+00        -0.41633E+03
 
    0.12984E+04         0.10363E+06         0.00000E+00
    0.10363E+06        -0.36957E+04         0.00000E+00
    0.00000E+00         0.00000E+00        -0.47946E+03
 
    0.51964E+03         0.10454E+06         0.00000E+00
    0.10454E+06        -0.32731E+04         0.00000E+00
    0.00000E+00         0.00000E+00        -0.55070E+03
 
   -0.27314E+03         0.10540E+06         0.00000E+00
    0.10540E+06        -0.28807E+04         0.00000E+00
    0.00000E+00         0.00000E+00        -0.63077E+03
 
    0.32531E+05         0.15757E+04         0.00000E+00
    0.15757E+04        -0.30656E+05         0.00000E+00
    0.00000E+00         0.00000E+00         0.37506E+03
 
    0.32246E+05         0.46938E+04         0.00000E+00
    0.46938E+04        -0.30612E+05         0.00000E+00
    0.00000E+00         0.00000E+00         0.32665E+03
 
    0.31944E+05         0.77948E+04         0.00000E+00
    0.77948E+04        -0.30527E+05         0.00000E+00
    0.00000E+00         0.00000E+00         0.28359E+03
 
    0.31628E+05         0.10877E+05         0.00000E+00
    0.10877E+05        -0.30401E+05         0.00000E+00
    0.00000E+00         0.00000E+00         0.24541E+03
 
    0.31295E+05         0.13937E+05         0.00000E+00
    0.13937E+05        -0.30237E+05         0.00000E+00
    0.00000E+00         0.00000E+00         0.21170E+03
 
    0.30946E+05         0.16975E+05         0.00000E+00
    0.16975E+05        -0.30036E+05         0.00000E+00
    0.00000E+00         0.00000E+00         0.18202E+03
 
    0.30581E+05         0.19987E+05         0.00000E+00
    0.19987E+05        -0.29801E+05         0.00000E+00
    0.00000E+00         0.00000E+00         0.15598E+03
 
    0.30200E+05         0.22973E+05         0.00000E+00
    0.22973E+05        -0.29534E+05         0.00000E+00
    0.00000E+00         0.00000E+00         0.13320E+03
 
    0.29801E+05         0.25929E+05         0.00000E+00
    0.25929E+05        -0.29235E+05         0.00000E+00
    0.00000E+00         0.00000E+00         0.11333E+03
 
    0.29386E+05         0.28856E+05         0.00000E+00
    0.28856E+05        -0.28906E+05         0.00000E+00
    0.00000E+00         0.00000E+00         0.96034E+02
 
    0.28954E+05         0.31751E+05         0.00000E+00
    0.31751E+05        -0.28549E+05         0.00000E+00
    0.00000E+00         0.00000E+00         0.81011E+02
 
    0.28505E+05         0.34612E+05         0.00000E+00
    0.34612E+05        -0.28165E+05         0.00000E+00
    0.00000E+00         0.00000E+00         0.67983E+02
 
    0.28039E+05         0.37438E+05         0.00000E+00
    0.37438E+05        -0.27755E+05         0.00000E+00
    0.00000E+00         0.00000E+00         0.56695E+02
 
    0.27555E+05         0.40228E+05         0.00000E+00
    0.40228E+05        -0.27321E+05         0.00000E+00
    0.00000E+00         0.00000E+00         0.46915E+02
 
    0.27055E+05         0.42980E+05         0.00000E+00
    0.42980E+05        -0.26863E+05         0.00000E+00
    0.00000E+00         0.00000E+00         0.38432E+02
 
    0.26538E+05         0.45693E+05         0.00000E+00
    0.45693E+05        -0.26382E+05         0.00000E+00
    0.00000E+00         0.00000E+00         0.31055E+02
 
    0.26003E+05         0.48365E+05         0.00000E+00
    0.48365E+05        -0.25880E+05         0.00000E+00
    0.00000E+00         0.00000E+00         0.24610E+02
 
    0.25452E+05         0.50995E+05         0.00000E+00
    0.50995E+05        -0.25357E+05         0.00000E+00
    0.00000E+00         0.00000E+00         0.18938E+02
 
    0.24884E+05         0.53582E+05         0.00000E+00
    0.53582E+05        -0.24815E+05         0.00000E+00
    0.00000E+00         0.00000E+00         0.13895E+02
 
    0.24300E+05         0.56125E+05         0.00000E+00
    0.56125E+05        -0.24253E+05         0.00000E+00
    0.00000E+00         0.00000E+00         0.93458E+01
 
    0.23699E+05         0.58622E+05         0.00000E+00
    0.58622E+05        -0.23673E+05         0.00000E+00
    0.00000E+00         0.00000E+00         0.51652E+01
 
    0.23081E+05         0.61073E+05         0.00000E+00
    0.61073E+05        -0.23075E+05         0.00000E+00
    0.00000E+00         0.00000E+00         0.12339E+01
 
    0.22448E+05         0.63476E+05         0.00000E+00
    0.63476E+05        -0.22461E+05         0.00000E+00
    0.00000E+00         0.00000E+00        -0.25630E+01
 
    0.21798E+05         0.65830E+05         0.00000E+00
    0.65830E+05        -0.21830E+05         0.00000E+00
    0.00000E+00         0.00000E+00        -0.63389E+01
 
    0.21133E+05         0.68135E+05         0.00000E+00
    0.68135E+05        -0.21184E+05         0.00000E+00
    0.00000E+00         0.00000E+00        -0.10208E+02
 
    0.20452E+05         0.70388E+05         0.00000E+00
    0.70388E+05        -0.20523E+05         0.00000E+00
    0.00000E+00         0.00000E+00        -0.14287E+02
 
    0.19755E+05         0.72590E+05         0.00000E+00
    0.72590E+05        -0.19849E+05         0.00000E+00
    0.00000E+00         0.00000E+00        -0.18701E+02
 
    0.19044E+05         0.74739E+05         0.00000E+00
    0.74739E+05        -0.19161E+05         0.00000E+00
    0.00000E+00         0.00000E+00        -0.23579E+02
 
    0.18317E+05         0.76834E+05         0.00000E+00
    0.76834E+05        -0.18462E+05         0.00000E+00
    0.00000E+00         0.00000E+00        -0.29067E+02
 
    0.17575E+05         0.78874E+05         0.00000E+00
    0.78874E+05        -0.17752E+05         0.00000E+00
    0.00000E+00         0.00000E+00        -0.35321E+02
 
    0.16818E+05         0.80860E+05         0.00000E+00
    0.80860E+05        -0.17031E+05         0.00000E+00
    0.00000E+00         0.00000E+00        -0.42516E+02
 
    0.16047E+05         0.82789E+05         0.00000E+00
    0.82789E+05        -0.16301E+05         0.00000E+00
    0.00000E+00         0.00000E+00        -0.50848E+02
 
    0.15262E+05         0.84661E+05         0.00000E+00
    0.84661E+05        -0.15564E+05         0.00000E+00
    0.00000E+00         0.00000E+00        -0.60537E+02
 
    0.14461E+05         0.86476E+05         0.00000E+00
    0.86476E+05        -0.14821E+05         0.00000E+00
    0.00000E+00         0.00000E+00        -0.71830E+02
 
    0.13647E+05         0.88233E+05         0.00000E+00
    0.88233E+05        -0.14072E+05         0.00000E+00
    0.00000E+00         0.00000E+00        -0.85007E+02
 
    0.12818E+05         0.89931E+05         0.00000E+00
    0.89931E+05        -0.13320E+05         0.00000E+00
    0.00000E+00         0.00000E+00        -0.10038E+03
 
    0.11975E+05         0.91570E+05         0.00000E+00
    0.91570E+05        -0.12567E+05         0.00000E+00
    0.00000E+00         0.00000E+00        -0.11831E+03
 
    0.11118E+05         0.93150E+05         0.00000E+00
    0.93150E+05        -0.11814E+05         0.00000E+00
    0.00000E+00         0.00000E+00        -0.13918E+03
 
    0.10246E+05         0.94670E+05         0.00000E+00
    0.94670E+05        -0.11064E+05         0.00000E+00
    0.00000E+00         0.00000E+00        -0.16344E+03
 
    0.93601E+04         0.96130E+05         0.00000E+00
    0.96130E+05        -0.10318E+05         0.00000E+00
    0.00000E+00         0.00000E+00        -0.19159E+03
 
    0.84593E+04         0.97530E+05         0.00000E+00
    0.97530E+05        -0.95801E+04         0.00000E+00
    0.00000E+00         0.00000E+00        -0.22416E+03
 
    0.75436E+04         0.98871E+05         0.00000E+00
    0.98871E+05        -0.88524E+04         0.00000E+00
    0.00000E+00         0.00000E+00        -0.26176E+03
 
    0.66128E+04         0.10015E+06         0.00000E+00
    0.10015E+06        -0.81381E+04         0.00000E+00
    0.00000E+00         0.00000E+00        -0.30505E+03
 
    0.56666E+04         0.10137E+06         0.00000E+00
    0.10137E+06        -0.74402E+04         0.00000E+00
    0.00000E+00         0.00000E+00        -0.35473E+03
 
    0.47044E+04         0.10253E+06         0.00000E+00
    0.10253E+06        -0.67623E+04         0.00000E+00
    0.00000E+00         0.00000E+00        -0.41157E+03
 
    0.37261E+04         0.10364E+06         0.00000E+00
    0.10364E+06        -0.61080E+04         0.00000E+00
    0.00000E+00         0.00000E+00        -0.47640E+03
 
    0.27309E+04         0.10468E+06         0.00000E+00
    0.10468E+06        -0.54813E+04         0.00000E+00
    0.00000E+00         0.00000E+00        -0.55009E+03
 
    0.17185E+04         0.10567E+06         0.00000E+00
    0.10567E+06        -0.48862E+04         0.00000E+00
    0.00000E+00         0.00000E+00        -0.63355E+03
 
    0.68819E+03         0.10660E+06         0.00000E+00
    0.10660E+06        -0.43269E+04         0.00000E+00
    0.00000E+00         0.00000E+00        -0.72773E+03
 
   -0.36055E+03         0.10748E+06         0.00000E+00
    0.10748E+06        -0.38076E+04         0.00000E+00
    0.00000E+00         0.00000E+00        -0.83362E+03
 
    0.40681E+05         0.16147E+04         0.00000E+00
    0.16147E+04        -0.38324E+05         0.00000E+00
    0.00000E+00         0.00000E+00         0.47150E+03
 
    0.40322E+05         0.48096E+04         0.00000E+00
    0.48096E+04        -0.38269E+05         0.00000E+00
    0.00000E+00         0.00000E+00         0.41063E+03
 
    0.39944E+05         0.79870E+04         0.00000E+00
    0.79870E+04        -0.38161E+05         0.00000E+00
    0.00000E+00         0.00000E+00         0.35647E+03
 
    0.39546E+05         0.11145E+05         0.00000E+00
    0.11145E+05        -0.38004E+05         0.00000E+00
    0.00000E+00         0.00000E+00         0.30848E+03
 
    0.39129E+05         0.14281E+05         0.00000E+00
    0.14281E+05        -0.37799E+05         0.00000E+00
    0.00000E+00         0.00000E+00         0.26609E+03
 
    0.38692E+05         0.17393E+05         0.00000E+00
    0.17393E+05        -0.37548E+05         0.00000E+00
    0.00000E+00         0.00000E+00         0.22879E+03
 
    0.38235E+05         0.20479E+05         0.00000E+00
    0.20479E+05        -0.37254E+05         0.00000E+00
    0.00000E+00         0.00000E+00         0.19605E+03
 
    0.37757E+05         0.23538E+05         0.00000E+00
    0.23538E+05        -0.36919E+05         0.00000E+00
    0.00000E+00         0.00000E+00         0.16742E+03
 
    0.37258E+05         0.26568E+05         0.00000E+00
    0.26568E+05        -0.36546E+05         0.00000E+00
    0.00000E+00         0.00000E+00         0.14244E+03
 
    0.36738E+05         0.29567E+05         0.00000E+00
    0.29567E+05        -0.36135E+05         0.00000E+00
    0.00000E+00         0.00000E+00         0.12070E+03
 
    0.36198E+05         0.32532E+05         0.00000E+00
    0.32532E+05        -0.35688E+05         0.00000E+00
    0.00000E+00         0.00000E+00         0.10182E+03
 
    0.35636E+05         0.35464E+05         0.00000E+00
    0.35464E+05        -0.35208E+05         0.00000E+00
    0.00000E+00         0.00000E+00         0.85448E+02
 
    0.35053E+05         0.38360E+05         0.00000E+00
    0.38360E+05        -0.34696E+05         0.00000E+00
    0.00000E+00         0.00000E+00         0.71263E+02
 
    0.34448E+05         0.41219E+05         0.00000E+00
    0.41219E+05        -0.34153E+05         0.00000E+00
    0.00000E+00         0.00000E+00         0.58974E+02
 
    0.33823E+05         0.44039E+05         0.00000E+00
    0.44039E+05        -0.33581E+05         0.00000E+00
    0.00000E+00         0.00000E+00         0.48315E+02
 
    0.33176E+05         0.46818E+05         0.00000E+00
    0.46818E+05        -0.32981E+05         0.00000E+00
    0.00000E+00         0.00000E+00         0.39046E+02
 
    0.32508E+05         0.49556E+05         0.00000E+00
    0.49556E+05        -0.32353E+05         0.00000E+00
    0.00000E+00         0.00000E+00         0.30950E+02
 
    0.31819E+05         0.52252E+05         0.00000E+00
    0.52252E+05        -0.31700E+05         0.00000E+00
    0.00000E+00         0.00000E+00         0.23826E+02
 
    0.31109E+05         0.54903E+05         0.00000E+00
    0.54903E+05        -0.31022E+05         0.00000E+00
    0.00000E+00         0.00000E+00         0.17493E+02
 
    0.30378E+05         0.57509E+05         0.00000E+00
    0.57509E+05        -0.30320E+05         0.00000E+00
    0.00000E+00         0.00000E+00         0.11782E+02
 
    0.29627E+05         0.60069E+05         0.00000E+00
    0.60069E+05        -0.29595E+05         0.00000E+00
    0.00000E+00         0.00000E+00         0.65351E+01
 
    0.28856E+05         0.62580E+05         0.00000E+00
    0.62580E+05        -0.28848E+05         0.00000E+00
    0.00000E+00         0.00000E+00         0.16040E+01
 
    0.28064E+05         0.65043E+05         0.00000E+00
    0.65043E+05        -0.28080E+05         0.00000E+00
    0.00000E+00         0.00000E+00        -0.31562E+01
 
    0.27252E+05         0.67456E+05         0.00000E+00
    0.67456E+05        -0.27292E+05         0.00000E+00
    0.00000E+00         0.00000E+00        -0.78872E+01
 
    0.26421E+05         0.69818E+05         0.00000E+00
    0.69818E+05        -0.26484E+05         0.00000E+00
    0.00000E+00         0.00000E+00        -0.12732E+02
 
    0.25569E+05         0.72128E+05         0.00000E+00
    0.72128E+05        -0.25659E+05         0.00000E+00
    0.00000E+00         0.00000E+00        -0.17838E+02
 
    0.24699E+05         0.74384E+05         0.00000E+00
    0.74384E+05        -0.24816E+05         0.00000E+00
    0.00000E+00         0.00000E+00        -0.23358E+02
 
    0.23809E+05         0.76587E+05         0.00000E+00
    0.76587E+05        -0.23957E+05         0.00000E+00
    0.00000E+00         0.00000E+00        -0.29458E+02
 
    0.22901E+05         0.78735E+05         0.00000E+00
    0.78735E+05        -0.23082E+05         0.00000E+00
    0.00000E+00         0.00000E+00        -0.36317E+02
 
    0.21974E+05         0.80826E+05         0.00000E+00
    0.80826E+05        -0.22194E+05         0.00000E+00
    0.00000E+00         0.00000E+00        -0.44132E+02
 
    0.21028E+05         0.82861E+05         0.00000E+00
    0.82861E+05        -0.21294E+05         0.00000E+00
    0.00000E+00         0.00000E+00        -0.53121E+02
 
    0.20064E+05         0.84839E+05         0.00000E+00
    0.84839E+05        -0.20382E+05         0.00000E+00
    0.00000E+00         0.00000E+00        -0.63529E+02
 
    0.19082E+05         0.86758E+05         0.00000E+00
    0.86758E+05        -0.19460E+05         0.00000E+00
    0.00000E+00         0.00000E+00        -0.75630E+02
 
    0.18081E+05         0.88618E+05         0.00000E+00
    0.88618E+05        -0.18530E+05         0.00000E+00
    0.00000E+00         0.00000E+00        -0.89734E+02
 
    0.17063E+05         0.90419E+05         0.00000E+00
    0.90419E+05        -0.17594E+05         0.00000E+00
    0.00000E+00         0.00000E+00        -0.10619E+03
 
    0.16027E+05         0.92160E+05         0.00000E+00
    0.92160E+05        -0.16654E+05         0.00000E+00
    0.00000E+00         0.00000E+00        -0.12539E+03
 
    0.14973E+05         0.93840E+05         0.00000E+00
    0.93840E+05        -0.15712E+05         0.00000E+00
    0.00000E+00         0.00000E+00        -0.14778E+03
 
    0.13901E+05         0.95460E+05         0.00000E+00
    0.95460E+05        -0.14770E+05         0.00000E+00
    0.00000E+00         0.00000E+00        -0.17385E+03
 
    0.12811E+05         0.97018E+05         0.00000E+00
    0.97018E+05        -0.13832E+05         0.00000E+00
    0.00000E+00         0.00000E+00        -0.20415E+03
 
    0.11703E+05         0.98514E+05         0.00000E+00
    0.98514E+05        -0.12900E+05         0.00000E+00
    0.00000E+00         0.00000E+00        -0.23930E+03
 
    0.10577E+05         0.99949E+05         0.00000E+00
    0.99949E+05        -0.11977E+05         0.00000E+00
    0.00000E+00         0.00000E+00        -0.27998E+03
 
    0.94319E+04         0.10132E+06         0.00000E+00
    0.10132E+06        -0.11067E+05         0.00000E+00
    0.00000E+00         0.00000E+00        -0.32695E+03
 
    0.82681E+04         0.10263E+06         0.00000E+00
    0.10263E+06        -0.10173E+05         0.00000E+00
    0.00000E+00         0.00000E+00        -0.38101E+03
 
    0.70849E+04         0.10389E+06         0.00000E+00
    0.10389E+06        -0.93002E+04         0.00000E+00
    0.00000E+00         0.00000E+00        -0.44307E+03
 
    0.58819E+04         0.10508E+06         0.00000E+00
    0.10508E+06        -0.84524E+04         0.00000E+00
    0.00000E+00         0.00000E+00        -0.51408E+03
 
    0.46587E+04         0.10621E+06         0.00000E+00
    0.10621E+06        -0.76341E+04         0.00000E+00
    0.00000E+00         0.00000E+00        -0.59508E+03
 
    0.34145E+04         0.10728E+06         0.00000E+00
    0.10728E+06        -0.68503E+04         0.00000E+00
    0.00000E+00         0.00000E+00        -0.68715E+03
 
    0.21488E+04         0.10829E+06         0.00000E+00
    0.10829E+06        -0.61060E+04         0.00000E+00
    0.00000E+00         0.00000E+00        -0.79144E+03
 
    0.86083E+03         0.10924E+06         0.00000E+00
    0.10924E+06        -0.54065E+04         0.00000E+00
    0.00000E+00         0.00000E+00        -0.90914E+03
 
   -0.45014E+03         0.11014E+06         0.00000E+00
    0.11014E+06        -0.47573E+04         0.00000E+00
    0.00000E+00         0.00000E+00        -0.10415E+04
 
    0.49053E+05         0.16621E+04         0.00000E+00
    0.16621E+04        -0.46197E+05         0.00000E+00
    0.00000E+00         0.00000E+00         0.57120E+03
 
    0.48618E+05         0.49507E+04         0.00000E+00
    0.49507E+04        -0.46130E+05         0.00000E+00
    0.00000E+00         0.00000E+00         0.49744E+03
 
    0.48160E+05         0.82212E+04         0.00000E+00
    0.82212E+04        -0.46001E+05         0.00000E+00
    0.00000E+00         0.00000E+00         0.43182E+03
 
    0.47680E+05         0.11471E+05         0.00000E+00
    0.11471E+05        -0.45811E+05         0.00000E+00
    0.00000E+00         0.00000E+00         0.37367E+03
 
    0.47176E+05         0.14699E+05         0.00000E+00
    0.14699E+05        -0.45564E+05         0.00000E+00
    0.00000E+00         0.00000E+00         0.32232E+03
 
    0.46648E+05         0.17902E+05         0.00000E+00
    0.17902E+05        -0.45262E+05         0.00000E+00
    0.00000E+00         0.00000E+00         0.27712E+03
 
    0.46095E+05         0.21079E+05         0.00000E+00
    0.21079E+05        -0.44908E+05         0.00000E+00
    0.00000E+00         0.00000E+00         0.23747E+03
 
    0.45519E+05         0.24228E+05         0.00000E+00
    0.24228E+05        -0.44505E+05         0.00000E+00
    0.00000E+00         0.00000E+00         0.20279E+03
 
    0.44917E+05         0.27346E+05         0.00000E+00
    0.27346E+05        -0.44054E+05         0.00000E+00
    0.00000E+00         0.00000E+00         0.17253E+03
 
    0.44290E+05         0.30433E+05         0.00000E+00
    0.30433E+05        -0.43559E+05         0.00000E+00
    0.00000E+00         0.00000E+00         0.14620E+03
 
    0.43638E+05         0.33485E+05         0.00000E+00
    0.33485E+05        -0.43022E+05         0.00000E+00
    0.00000E+00         0.00000E+00         0.12333E+03
 
    0.42961E+05         0.36503E+05         0.00000E+00
    0.36503E+05        -0.42444E+05         0.00000E+00
    0.00000E+00         0.00000E+00         0.10350E+03
 
    0.42258E+05         0.39484E+05         0.00000E+00
    0.39484E+05        -0.41827E+05         0.00000E+00
    0.00000E+00         0.00000E+00         0.86322E+02
 
    0.41530E+05         0.42427E+05         0.00000E+00
    0.42427E+05        -0.41173E+05         0.00000E+00
    0.00000E+00         0.00000E+00         0.71438E+02
 
    0.40776E+05         0.45330E+05         0.00000E+00
    0.45330E+05        -0.40484E+05         0.00000E+00
    0.00000E+00         0.00000E+00         0.58530E+02
 
    0.39997E+05         0.48192E+05         0.00000E+00
    0.48192E+05        -0.39760E+05         0.00000E+00
    0.00000E+00         0.00000E+00         0.47306E+02
 
    0.39192E+05         0.51011E+05         0.00000E+00
    0.51011E+05        -0.39005E+05         0.00000E+00
    0.00000E+00         0.00000E+00         0.37503E+02
 
    0.38362E+05         0.53786E+05         0.00000E+00
    0.53786E+05        -0.38218E+05         0.00000E+00
    0.00000E+00         0.00000E+00         0.28878E+02
 
    0.37507E+05         0.56516E+05         0.00000E+00
    0.56516E+05        -0.37401E+05         0.00000E+00
    0.00000E+00         0.00000E+00         0.21211E+02
 
    0.36627E+05         0.59199E+05         0.00000E+00
    0.59199E+05        -0.36556E+05         0.00000E+00
    0.00000E+00         0.00000E+00         0.14299E+02
 
    0.35722E+05         0.61835E+05         0.00000E+00
    0.61835E+05        -0.35682E+05         0.00000E+00
    0.00000E+00         0.00000E+00         0.79511E+01
 
    0.34793E+05         0.64421E+05         0.00000E+00
    0.64421E+05        -0.34783E+05         0.00000E+00
    0.00000E+00         0.00000E+00         0.19864E+01
 
    0.33839E+05         0.66957E+05         0.00000E+00
    0.66957E+05        -0.33858E+05         0.00000E+00
    0.00000E+00         0.00000E+00        -0.37691E+01
 
    0.32861E+05         0.69442E+05         0.00000E+00
    0.69442E+05        -0.32908E+05         0.00000E+00
    0.00000E+00         0.00000E+00        -0.94871E+01
 
    0.31859E+05         0.71875E+05         0.00000E+00
    0.71875E+05        -0.31935E+05         0.00000E+00
    0.00000E+00         0.00000E+00        -0.15340E+02
 
    0.30833E+05         0.74254E+05         0.00000E+00
    0.74254E+05        -0.30941E+05         0.00000E+00
    0.00000E+00         0.00000E+00        -0.21506E+02
 
    0.29784E+05         0.76578E+05         0.00000E+00
    0.76578E+05        -0.29925E+05         0.00000E+00
    0.00000E+00         0.00000E+00        -0.28169E+02
 
    0.28712E+05         0.78847E+05         0.00000E+00
    0.78847E+05        -0.28890E+05         0.00000E+00
    0.00000E+00         0.00000E+00        -0.35531E+02
 
    0.27617E+05         0.81059E+05         0.00000E+00
    0.81059E+05        -0.27836E+05         0.00000E+00
    0.00000E+00         0.00000E+00        -0.43805E+02
 
    0.26500E+05         0.83214E+05         0.00000E+00
    0.83214E+05        -0.26766E+05         0.00000E+00
    0.00000E+00         0.00000E+00        -0.53231E+02
 
    0.25360E+05         0.85310E+05         0.00000E+00
    0.85310E+05        -0.25680E+05         0.00000E+00
    0.00000E+00         0.00000E+00        -0.64071E+02
 
    0.24198E+05         0.87347E+05         0.00000E+00
    0.87347E+05        -0.24581E+05         0.00000E+00
    0.00000E+00         0.00000E+00        -0.76620E+02
 
    0.23014E+05         0.89325E+05         0.00000E+00
    0.89325E+05        -0.23470E+05         0.00000E+00
    0.00000E+00         0.00000E+00        -0.91210E+02
 
    0.21808E+05         0.91241E+05         0.00000E+00
    0.91241E+05        -0.22349E+05         0.00000E+00
    0.00000E+00         0.00000E+00        -0.10821E+03
 
    0.20580E+05         0.93096E+05         0.00000E+00
    0.93096E+05        -0.21221E+05         0.00000E+00
    0.00000E+00         0.00000E+00        -0.12805E+03
 
    0.19331E+05         0.94889E+05         0.00000E+00
    0.94889E+05        -0.20087E+05         0.00000E+00
    0.00000E+00         0.00000E+00        -0.15120E+03
 
    0.18060E+05         0.96620E+05         0.00000E+00
    0.96620E+05        -0.18951E+05         0.00000E+00
    0.00000E+00         0.00000E+00        -0.17819E+03
 
    0.16768E+05         0.98288E+05         0.00000E+00
    0.98288E+05        -0.17816E+05         0.00000E+00
    0.00000E+00         0.00000E+00        -0.20961E+03
 
    0.15453E+05         0.99893E+05         0.00000E+00
    0.99893E+05        -0.16684E+05         0.00000E+00
    0.00000E+00         0.00000E+00        -0.24614E+03
 
    0.14117E+05         0.10143E+06         0.00000E+00
    0.10143E+06        -0.15559E+05         0.00000E+00
    0.00000E+00         0.00000E+00        -0.28852E+03
 
    0.12758E+05         0.10291E+06         0.00000E+00
    0.10291E+06        -0.14446E+05         0.00000E+00
    0.00000E+00         0.00000E+00        -0.33756E+03
 
    0.11377E+05         0.10433E+06         0.00000E+00
    0.10433E+06        -0.13348E+05         0.00000E+00
    0.00000E+00         0.00000E+00        -0.39418E+03
 
    0.99736E+04         0.10568E+06         0.00000E+00
    0.10568E+06        -0.12270E+05         0.00000E+00
    0.00000E+00         0.00000E+00        -0.45937E+03
 
    0.85464E+04         0.10697E+06         0.00000E+00
    0.10697E+06        -0.11217E+05         0.00000E+00
    0.00000E+00         0.00000E+00        -0.53419E+03
 
    0.70954E+04         0.10819E+06         0.00000E+00
    0.10819E+06        -0.10194E+05         0.00000E+00
    0.00000E+00         0.00000E+00        -0.61981E+03
 
    0.56198E+04         0.10935E+06         0.00000E+00
    0.10935E+06        -0.92072E+04         0.00000E+00
    0.00000E+00         0.00000E+00        -0.71747E+03
 
    0.41191E+04         0.11045E+06         0.00000E+00
    0.11045E+06        -0.82615E+04         0.00000E+00
    0.00000E+00         0.00000E+00        -0.82849E+03
 
    0.25923E+04         0.11150E+06         0.00000E+00
    0.11150E+06        -0.73636E+04         0.00000E+00
    0.00000E+00         0.00000E+00        -0.95426E+03
 
    0.10387E+04         0.11248E+06         0.00000E+00
    0.11248E+06        -0.65197E+04         0.00000E+00
    0.00000E+00         0.00000E+00        -0.10962E+04
 
   -0.54254E+03         0.11340E+06         0.00000E+00
    0.11340E+06        -0.57365E+04         0.00000E+00
    0.00000E+00         0.00000E+00        -0.12558E+04
 
    0.57690E+05         0.17181E+04         0.00000E+00
    0.17181E+04        -0.54316E+05         0.00000E+00
    0.00000E+00         0.00000E+00         0.67477E+03
 
    0.57176E+05         0.51173E+04         0.00000E+00
    0.51173E+04        -0.54238E+05         0.00000E+00
    0.00000E+00         0.00000E+00         0.58761E+03
 
    0.56637E+05         0.84978E+04         0.00000E+00
    0.84978E+04        -0.54086E+05         0.00000E+00
    0.00000E+00         0.00000E+00         0.51009E+03
 
    0.56070E+05         0.11857E+05         0.00000E+00
    0.11857E+05        -0.53863E+05         0.00000E+00
    0.00000E+00         0.00000E+00         0.44139E+03
 
    0.55477E+05         0.15193E+05         0.00000E+00
    0.15193E+05        -0.53573E+05         0.00000E+00
    0.00000E+00         0.00000E+00         0.38072E+03
 
    0.54855E+05         0.18504E+05         0.00000E+00
    0.18504E+05        -0.53218E+05         0.00000E+00
    0.00000E+00         0.00000E+00         0.32733E+03
 
    0.54205E+05         0.21788E+05         0.00000E+00
    0.21788E+05        -0.52803E+05         0.00000E+00
    0.00000E+00         0.00000E+00         0.28049E+03
 
    0.53527E+05         0.25042E+05         0.00000E+00
    0.25042E+05        -0.52329E+05         0.00000E+00
    0.00000E+00         0.00000E+00         0.23952E+03
 
    0.52819E+05         0.28266E+05         0.00000E+00
    0.28266E+05        -0.51801E+05         0.00000E+00
    0.00000E+00         0.00000E+00         0.20378E+03
 
    0.52083E+05         0.31456E+05         0.00000E+00
    0.31456E+05        -0.51219E+05         0.00000E+00
    0.00000E+00         0.00000E+00         0.17268E+03
 
    0.51317E+05         0.34612E+05         0.00000E+00
    0.34612E+05        -0.50588E+05         0.00000E+00
    0.00000E+00         0.00000E+00         0.14567E+03
 
    0.50521E+05         0.37732E+05         0.00000E+00
    0.37732E+05        -0.49909E+05         0.00000E+00
    0.00000E+00         0.00000E+00         0.12225E+03
 
    0.49695E+05         0.40814E+05         0.00000E+00
    0.40814E+05        -0.49185E+05         0.00000E+00
    0.00000E+00         0.00000E+00         0.10196E+03
 
    0.48840E+05         0.43856E+05         0.00000E+00
    0.43856E+05        -0.48418E+05         0.00000E+00
    0.00000E+00         0.00000E+00         0.84381E+02
 
    0.47954E+05         0.46858E+05         0.00000E+00
    0.46858E+05        -0.47608E+05         0.00000E+00
    0.00000E+00         0.00000E+00         0.69137E+02
 
    0.47039E+05         0.49817E+05         0.00000E+00
    0.49817E+05        -0.46759E+05         0.00000E+00
    0.00000E+00         0.00000E+00         0.55882E+02
 
    0.46094E+05         0.52732E+05         0.00000E+00
    0.52732E+05        -0.45872E+05         0.00000E+00
    0.00000E+00         0.00000E+00         0.44305E+02
 
    0.45119E+05         0.55602E+05         0.00000E+00
    0.55602E+05        -0.44948E+05         0.00000E+00
    0.00000E+00         0.00000E+00         0.34121E+02
 
    0.44115E+05         0.58425E+05         0.00000E+00
    0.58425E+05        -0.43989E+05         0.00000E+00
    0.00000E+00         0.00000E+00         0.25069E+02
 
    0.43081E+05         0.61200E+05         0.00000E+00
    0.61200E+05        -0.42997E+05         0.00000E+00
    0.00000E+00         0.00000E+00         0.16909E+02
 
    0.42018E+05         0.63927E+05         0.00000E+00
    0.63927E+05        -0.41971E+05         0.00000E+00
    0.00000E+00         0.00000E+00         0.94168E+01
 
    0.40926E+05         0.66602E+05         0.00000E+00
    0.66602E+05        -0.40915E+05         0.00000E+00
    0.00000E+00         0.00000E+00         0.23783E+01
 
    0.39806E+05         0.69226E+05         0.00000E+00
    0.69226E+05        -0.39828E+05         0.00000E+00
    0.00000E+00         0.00000E+00        -0.44115E+01
 
    0.38657E+05         0.71797E+05         0.00000E+00
    0.71797E+05        -0.38713E+05         0.00000E+00
    0.00000E+00         0.00000E+00        -0.11155E+02
 
    0.37480E+05         0.74314E+05         0.00000E+00
    0.74314E+05        -0.37570E+05         0.00000E+00
    0.00000E+00         0.00000E+00        -0.18055E+02
 
    0.36275E+05         0.76776E+05         0.00000E+00
    0.76776E+05        -0.36402E+05         0.00000E+00
    0.00000E+00         0.00000E+00        -0.25322E+02
 
    0.35042E+05         0.79181E+05         0.00000E+00
    0.79181E+05        -0.35208E+05         0.00000E+00
    0.00000E+00         0.00000E+00        -0.33173E+02
 
    0.33783E+05         0.81529E+05         0.00000E+00
    0.81529E+05        -0.33992E+05         0.00000E+00
    0.00000E+00         0.00000E+00        -0.41845E+02
 
    0.32496E+05         0.83818E+05         0.00000E+00
    0.83818E+05        -0.32754E+05         0.00000E+00
    0.00000E+00         0.00000E+00        -0.51589E+02
 
    0.31182E+05         0.86048E+05         0.00000E+00
    0.86048E+05        -0.31496E+05         0.00000E+00
    0.00000E+00         0.00000E+00        -0.62687E+02
 
    0.29842E+05         0.88218E+05         0.00000E+00
    0.88218E+05        -0.30219E+05         0.00000E+00
    0.00000E+00         0.00000E+00        -0.75449E+02
 
    0.28476E+05         0.90327E+05         0.00000E+00
    0.90327E+05        -0.28927E+05         0.00000E+00
    0.00000E+00         0.00000E+00        -0.90222E+02
 
    0.27084E+05         0.92373E+05         0.00000E+00
    0.92373E+05        -0.27621E+05         0.00000E+00
    0.00000E+00         0.00000E+00        -0.10740E+03
 
    0.25666E+05         0.94357E+05         0.00000E+00
    0.94357E+05        -0.26303E+05         0.00000E+00
    0.00000E+00         0.00000E+00        -0.12741E+03
 
    0.24222E+05         0.96278E+05         0.00000E+00
    0.96278E+05        -0.24976E+05         0.00000E+00
    0.00000E+00         0.00000E+00        -0.15076E+03
 
    0.22752E+05         0.98134E+05         0.00000E+00
    0.98134E+05        -0.23642E+05         0.00000E+00
    0.00000E+00         0.00000E+00        -0.17800E+03
 
    0.21257E+05         0.99925E+05         0.00000E+00
    0.99925E+05        -0.22306E+05         0.00000E+00
    0.00000E+00         0.00000E+00        -0.20976E+03
 
    0.19736E+05         0.10165E+06         0.00000E+00
    0.10165E+06        -0.20970E+05         0.00000E+00
    0.00000E+00         0.00000E+00        -0.24675E+03
 
    0.18190E+05         0.10331E+06         0.00000E+00
    0.10331E+06        -0.19639E+05         0.00000E+00
    0.00000E+00         0.00000E+00        -0.28974E+03
 
    0.16617E+05         0.10491E+06         0.00000E+00
    0.10491E+06        -0.18316E+05         0.00000E+00
    0.00000E+00         0.00000E+00        -0.33961E+03
 
    0.15019E+05         0.10644E+06         0.00000E+00
    0.10644E+06        -0.17005E+05         0.00000E+00
    0.00000E+00         0.00000E+00        -0.39734E+03
 
    0.13394E+05         0.10790E+06         0.00000E+00
    0.10790E+06        -0.15713E+05         0.00000E+00
    0.00000E+00         0.00000E+00        -0.46397E+03
 
    0.11741E+05         0.10930E+06         0.00000E+00
    0.10930E+06        -0.14445E+05         0.00000E+00
    0.00000E+00         0.00000E+00        -0.54069E+03
 
    0.10061E+05         0.11063E+06         0.00000E+00
    0.11063E+06        -0.13205E+05         0.00000E+00
    0.00000E+00         0.00000E+00        -0.62876E+03
 
    0.83533E+04         0.11190E+06         0.00000E+00
    0.11190E+06        -0.12001E+05         0.00000E+00
    0.00000E+00         0.00000E+00        -0.72953E+03
 
    0.66163E+04         0.11310E+06         0.00000E+00
    0.11310E+06        -0.10839E+05         0.00000E+00
    0.00000E+00         0.00000E+00        -0.84449E+03
 
    0.48496E+04         0.11424E+06         0.00000E+00
    0.11424E+06        -0.97254E+04         0.00000E+00
    0.00000E+00         0.00000E+00        -0.97517E+03
 
    0.30522E+04         0.11531E+06         0.00000E+00
    0.11531E+06        -0.86682E+04         0.00000E+00
    0.00000E+00         0.00000E+00        -0.11232E+04
 
    0.12232E+04         0.11633E+06         0.00000E+00
    0.11633E+06        -0.76747E+04         0.00000E+00
    0.00000E+00         0.00000E+00        -0.12903E+04
 
   -0.63846E+03         0.11728E+06         0.00000E+00
    0.11728E+06        -0.67525E+04         0.00000E+00
    0.00000E+00         0.00000E+00        -0.14782E+04
 
    0.66637E+05         0.17828E+04         0.00000E+00
    0.17828E+04        -0.62723E+05         0.00000E+00
    0.00000E+00         0.00000E+00         0.78272E+03
 
    0.66042E+05         0.53096E+04         0.00000E+00
    0.53096E+04        -0.62634E+05         0.00000E+00
    0.00000E+00         0.00000E+00         0.68160E+03
 
    0.65417E+05         0.88169E+04         0.00000E+00
    0.88169E+04        -0.62458E+05         0.00000E+00
    0.00000E+00         0.00000E+00         0.59165E+03
 
    0.64761E+05         0.12302E+05         0.00000E+00
    0.12302E+05        -0.62202E+05         0.00000E+00
    0.00000E+00         0.00000E+00         0.51195E+03
 
    0.64075E+05         0.15764E+05         0.00000E+00
    0.15764E+05        -0.61867E+05         0.00000E+00
    0.00000E+00         0.00000E+00         0.44158E+03
 
    0.63357E+05         0.19199E+05         0.00000E+00
    0.19199E+05        -0.61458E+05         0.00000E+00
    0.00000E+00         0.00000E+00         0.37964E+03
 
    0.62606E+05         0.22606E+05         0.00000E+00
    0.22606E+05        -0.60979E+05         0.00000E+00
    0.00000E+00         0.00000E+00         0.32531E+03
 
    0.61823E+05         0.25983E+05         0.00000E+00
    0.25983E+05        -0.60434E+05         0.00000E+00
    0.00000E+00         0.00000E+00         0.27779E+03
 
    0.61006E+05         0.29328E+05         0.00000E+00
    0.29328E+05        -0.59825E+05         0.00000E+00
    0.00000E+00         0.00000E+00         0.23634E+03
 
    0.60156E+05         0.32639E+05         0.00000E+00
    0.32639E+05        -0.59155E+05         0.00000E+00
    0.00000E+00         0.00000E+00         0.20026E+03
 
    0.59273E+05         0.35914E+05         0.00000E+00
    0.35914E+05        -0.58428E+05         0.00000E+00
    0.00000E+00         0.00000E+00         0.16894E+03
 
    0.58355E+05         0.39152E+05         0.00000E+00
    0.39152E+05        -0.57646E+05         0.00000E+00
    0.00000E+00         0.00000E+00         0.14178E+03
 
    0.57403E+05         0.42351E+05         0.00000E+00
    0.42351E+05        -0.56812E+05         0.00000E+00
    0.00000E+00         0.00000E+00         0.11824E+03
 
    0.56416E+05         0.45510E+05         0.00000E+00
    0.45510E+05        -0.55927E+05         0.00000E+00
    0.00000E+00         0.00000E+00         0.97858E+02
 
    0.55396E+05         0.48626E+05         0.00000E+00
    0.48626E+05        -0.54995E+05         0.00000E+00
    0.00000E+00         0.00000E+00         0.80180E+02
 
    0.54341E+05         0.51698E+05         0.00000E+00
    0.51698E+05        -0.54017E+05         0.00000E+00
    0.00000E+00         0.00000E+00         0.64809E+02
 
    0.53251E+05         0.54725E+05         0.00000E+00
    0.54725E+05        -0.52994E+05         0.00000E+00
    0.00000E+00         0.00000E+00         0.51383E+02
 
    0.52127E+05         0.57705E+05         0.00000E+00
    0.57705E+05        -0.51929E+05         0.00000E+00
    0.00000E+00         0.00000E+00         0.39574E+02
 
    0.50969E+05         0.60637E+05         0.00000E+00
    0.60637E+05        -0.50824E+05         0.00000E+00
    0.00000E+00         0.00000E+00         0.29078E+02
 
    0.49778E+05         0.63520E+05         0.00000E+00
    0.63520E+05        -0.49680E+05         0.00000E+00
    0.00000E+00         0.00000E+00         0.19617E+02
 
    0.48552E+05         0.66352E+05         0.00000E+00
    0.66352E+05        -0.48497E+05         0.00000E+00
    0.00000E+00         0.00000E+00         0.10931E+02
 
    0.47293E+05         0.69132E+05         0.00000E+00
    0.69132E+05        -0.47279E+05         0.00000E+00
    0.00000E+00         0.00000E+00         0.27720E+01
 
    0.46001E+05         0.71858E+05         0.00000E+00
    0.71858E+05        -0.46026E+05         0.00000E+00
    0.00000E+00         0.00000E+00        -0.50971E+01
 
    0.44676E+05         0.74529E+05         0.00000E+00
    0.74529E+05        -0.44740E+05         0.00000E+00
    0.00000E+00         0.00000E+00        -0.12911E+02
 
    0.43318E+05         0.77145E+05         0.00000E+00
    0.77145E+05        -0.43422E+05         0.00000E+00
    0.00000E+00         0.00000E+00        -0.20905E+02
 
    0.41928E+05         0.79703E+05         0.00000E+00
    0.79703E+05        -0.42074E+05         0.00000E+00
    0.00000E+00         0.00000E+00        -0.29321E+02
 
    0.40506E+05         0.82203E+05         0.00000E+00
    0.82203E+05        -0.40698E+05         0.00000E+00
    0.00000E+00         0.00000E+00        -0.38413E+02
 
    0.39052E+05         0.84644E+05         0.00000E+00
    0.84644E+05        -0.39294E+05         0.00000E+00
    0.00000E+00         0.00000E+00        -0.48452E+02
 
    0.37567E+05         0.87024E+05         0.00000E+00
    0.87024E+05        -0.37865E+05         0.00000E+00
    0.00000E+00         0.00000E+00        -0.59733E+02
 
    0.36050E+05         0.89343E+05         0.00000E+00
    0.89343E+05        -0.36413E+05         0.00000E+00
    0.00000E+00         0.00000E+00        -0.72578E+02
 
    0.34503E+05         0.91599E+05         0.00000E+00
    0.91599E+05        -0.34940E+05         0.00000E+00
    0.00000E+00         0.00000E+00        -0.87348E+02
 
    0.32926E+05         0.93791E+05         0.00000E+00
    0.93791E+05        -0.33448E+05         0.00000E+00
    0.00000E+00         0.00000E+00        -0.10444E+03
 
    0.31318E+05         0.95920E+05         0.00000E+00
    0.95920E+05        -0.31939E+05         0.00000E+00
    0.00000E+00         0.00000E+00        -0.12432E+03
 
    0.29680E+05         0.97983E+05         0.00000E+00
    0.97983E+05        -0.30417E+05         0.00000E+00
    0.00000E+00         0.00000E+00        -0.14747E+03
 
    0.28012E+05         0.99980E+05         0.00000E+00
    0.99980E+05        -0.28884E+05         0.00000E+00
    0.00000E+00         0.00000E+00        -0.17449E+03
 
    0.26314E+05         0.10191E+06         0.00000E+00
    0.10191E+06        -0.27344E+05         0.00000E+00
    0.00000E+00         0.00000E+00        -0.20601E+03
 
    0.24586E+05         0.10377E+06         0.00000E+00
    0.10377E+06        -0.25800E+05         0.00000E+00
    0.00000E+00         0.00000E+00        -0.24276E+03
 
    0.22828E+05         0.10557E+06         0.00000E+00
    0.10557E+06        -0.24256E+05         0.00000E+00
    0.00000E+00         0.00000E+00        -0.28555E+03
 
    0.21041E+05         0.10730E+06         0.00000E+00
    0.10730E+06        -0.22717E+05         0.00000E+00
    0.00000E+00         0.00000E+00        -0.33528E+03
 
    0.19223E+05         0.10896E+06         0.00000E+00
    0.10896E+06        -0.21188E+05         0.00000E+00
    0.00000E+00         0.00000E+00        -0.39299E+03
 
    0.17374E+05         0.11055E+06         0.00000E+00
    0.11055E+06        -0.19673E+05         0.00000E+00
    0.00000E+00         0.00000E+00        -0.45977E+03
 
    0.15495E+05         0.11207E+06         0.00000E+00
    0.11207E+06        -0.18179E+05         0.00000E+00
    0.00000E+00         0.00000E+00        -0.53687E+03
 
    0.13584E+05         0.11352E+06         0.00000E+00
    0.11352E+06        -0.16712E+05         0.00000E+00
    0.00000E+00         0.00000E+00        -0.62563E+03
 
    0.11641E+05         0.11490E+06         0.00000E+00
    0.11490E+06        -0.15278E+05         0.00000E+00
    0.00000E+00         0.00000E+00        -0.72752E+03
 
    0.96650E+04         0.11622E+06         0.00000E+00
    0.11622E+06        -0.13886E+05         0.00000E+00
    0.00000E+00         0.00000E+00        -0.84412E+03
 
    0.76555E+04         0.11747E+06         0.00000E+00
    0.11747E+06        -0.12541E+05         0.00000E+00
    0.00000E+00         0.00000E+00        -0.97712E+03
 
    0.56115E+04         0.11865E+06         0.00000E+00
    0.11865E+06        -0.11253E+05         0.00000E+00
    0.00000E+00         0.00000E+00        -0.11283E+04
 
    0.35319E+04         0.11977E+06         0.00000E+00
    0.11977E+06        -0.10030E+05         0.00000E+00
    0.00000E+00         0.00000E+00        -0.12996E+04
 
    0.14155E+04         0.12082E+06         0.00000E+00
    0.12082E+06        -0.88803E+04         0.00000E+00
    0.00000E+00         0.00000E+00        -0.14929E+04
 
   -0.73865E+03         0.12181E+06         0.00000E+00
    0.12181E+06        -0.78132E+04         0.00000E+00
    0.00000E+00         0.00000E+00        -0.17104E+04
 
    0.75937E+05         0.18560E+04         0.00000E+00
    0.18560E+04        -0.71460E+05         0.00000E+00
    0.00000E+00         0.00000E+00         0.89541E+03
 
    0.75257E+05         0.55277E+04         0.00000E+00
    0.55277E+04        -0.71358E+05         0.00000E+00
    0.00000E+00         0.00000E+00         0.77969E+03
 
    0.74543E+05         0.91790E+04         0.00000E+00
    0.91790E+04        -0.71159E+05         0.00000E+00
    0.00000E+00         0.00000E+00         0.67678E+03
 
    0.73796E+05         0.12808E+05         0.00000E+00
    0.12808E+05        -0.70868E+05         0.00000E+00
    0.00000E+00         0.00000E+00         0.58559E+03
 
    0.73013E+05         0.16411E+05         0.00000E+00
    0.16411E+05        -0.70488E+05         0.00000E+00
    0.00000E+00         0.00000E+00         0.50507E+03
 
    0.72195E+05         0.19988E+05         0.00000E+00
    0.19988E+05        -0.70024E+05         0.00000E+00
    0.00000E+00         0.00000E+00         0.43422E+03
 
    0.71340E+05         0.23536E+05         0.00000E+00
    0.23536E+05        -0.69480E+05         0.00000E+00
    0.00000E+00         0.00000E+00         0.37207E+03
 
    0.70449E+05         0.27052E+05         0.00000E+00
    0.27052E+05        -0.68860E+05         0.00000E+00
    0.00000E+00         0.00000E+00         0.31770E+03
 
    0.69520E+05         0.30535E+05         0.00000E+00
    0.30535E+05        -0.68168E+05         0.00000E+00
    0.00000E+00         0.00000E+00         0.27029E+03
 
    0.68553E+05         0.33984E+05         0.00000E+00
    0.33984E+05        -0.67408E+05         0.00000E+00
    0.00000E+00         0.00000E+00         0.22903E+03
 
    0.67548E+05         0.37395E+05         0.00000E+00
    0.37395E+05        -0.66582E+05         0.00000E+00
    0.00000E+00         0.00000E+00         0.19320E+03
 
    0.66505E+05         0.40768E+05         0.00000E+00
    0.40768E+05        -0.65694E+05         0.00000E+00
    0.00000E+00         0.00000E+00         0.16213E+03
 
    0.65423E+05         0.44101E+05         0.00000E+00
    0.44101E+05        -0.64747E+05         0.00000E+00
    0.00000E+00         0.00000E+00         0.13522E+03
 
    0.64301E+05         0.47391E+05         0.00000E+00
    0.47391E+05        -0.63742E+05         0.00000E+00
    0.00000E+00         0.00000E+00         0.11190E+03
 
    0.63141E+05         0.50638E+05         0.00000E+00
    0.50638E+05        -0.62683E+05         0.00000E+00
    0.00000E+00         0.00000E+00         0.91683E+02
 
    0.61942E+05         0.53840E+05         0.00000E+00
    0.53840E+05        -0.61572E+05         0.00000E+00
    0.00000E+00         0.00000E+00         0.74103E+02
 
    0.60704E+05         0.56995E+05         0.00000E+00
    0.56995E+05        -0.60410E+05         0.00000E+00
    0.00000E+00         0.00000E+00         0.58749E+02
 
    0.59426E+05         0.60102E+05         0.00000E+00
    0.60102E+05        -0.59200E+05         0.00000E+00
    0.00000E+00         0.00000E+00         0.45242E+02
 
    0.58110E+05         0.63159E+05         0.00000E+00
    0.63159E+05        -0.57944E+05         0.00000E+00
    0.00000E+00         0.00000E+00         0.33238E+02
 
    0.56755E+05         0.66165E+05         0.00000E+00
    0.66165E+05        -0.56643E+05         0.00000E+00
    0.00000E+00         0.00000E+00         0.22418E+02
 
    0.55362E+05         0.69119E+05         0.00000E+00
    0.69119E+05        -0.55299E+05         0.00000E+00
    0.00000E+00         0.00000E+00         0.12484E+02
 
    0.53930E+05         0.72018E+05         0.00000E+00
    0.72018E+05        -0.53914E+05         0.00000E+00
    0.00000E+00         0.00000E+00         0.31537E+01
 
    0.52461E+05         0.74862E+05         0.00000E+00
    0.74862E+05        -0.52490E+05         0.00000E+00
    0.00000E+00         0.00000E+00        -0.58450E+01
 
    0.50953E+05         0.77649E+05         0.00000E+00
    0.77649E+05        -0.51027E+05         0.00000E+00
    0.00000E+00         0.00000E+00        -0.14780E+02
 
    0.49408E+05         0.80379E+05         0.00000E+00
    0.80379E+05        -0.49528E+05         0.00000E+00
    0.00000E+00         0.00000E+00        -0.23920E+02
 
    0.47827E+05         0.83049E+05         0.00000E+00
    0.83049E+05        -0.47994E+05         0.00000E+00
    0.00000E+00         0.00000E+00        -0.33542E+02
 
    0.46208E+05         0.85658E+05         0.00000E+00
    0.85658E+05        -0.46428E+05         0.00000E+00
    0.00000E+00         0.00000E+00        -0.43936E+02
 
    0.44553E+05         0.88206E+05         0.00000E+00
    0.88206E+05        -0.44830E+05         0.00000E+00
    0.00000E+00         0.00000E+00        -0.55412E+02
 
    0.42862E+05         0.90691E+05         0.00000E+00
    0.90691E+05        -0.43204E+05         0.00000E+00
    0.00000E+00         0.00000E+00        -0.68305E+02
 
    0.41136E+05         0.93112E+05         0.00000E+00
    0.93112E+05        -0.41551E+05         0.00000E+00
    0.00000E+00         0.00000E+00        -0.82985E+02
 
    0.39374E+05         0.95468E+05         0.00000E+00
    0.95468E+05        -0.39873E+05         0.00000E+00
    0.00000E+00         0.00000E+00        -0.99864E+02
 
    0.37576E+05         0.97758E+05         0.00000E+00
    0.97758E+05        -0.38173E+05         0.00000E+00
    0.00000E+00         0.00000E+00        -0.11940E+03
 
    0.35744E+05         0.99981E+05         0.00000E+00
    0.99981E+05        -0.36455E+05         0.00000E+00
    0.00000E+00         0.00000E+00        -0.14211E+03
 
    0.33877E+05         0.10214E+06         0.00000E+00
    0.10214E+06        -0.34720E+05         0.00000E+00
    0.00000E+00         0.00000E+00        -0.16857E+03
 
    0.31976E+05         0.10422E+06         0.00000E+00
    0.10422E+06        -0.32973E+05         0.00000E+00
    0.00000E+00         0.00000E+00        -0.19944E+03
 
    0.30040E+05         0.10624E+06         0.00000E+00
    0.10624E+06        -0.31217E+05         0.00000E+00
    0.00000E+00         0.00000E+00        -0.23545E+03
 
    0.28070E+05         0.10819E+06         0.00000E+00
    0.10819E+06        -0.29457E+05         0.00000E+00
    0.00000E+00         0.00000E+00        -0.27744E+03
 
    0.26065E+05         0.11006E+06         0.00000E+00
    0.11006E+06        -0.27697E+05         0.00000E+00
    0.00000E+00         0.00000E+00        -0.32632E+03
 
    0.24026E+05         0.11187E+06         0.00000E+00
    0.11187E+06        -0.25942E+05         0.00000E+00
    0.00000E+00         0.00000E+00        -0.38315E+03
 
    0.21951E+05         0.11360E+06         0.00000E+00
    0.11360E+06        -0.24197E+05         0.00000E+00
    0.00000E+00         0.00000E+00        -0.44908E+03
 
    0.19842E+05         0.11526E+06         0.00000E+00
    0.11526E+06        -0.22469E+05         0.00000E+00
    0.00000E+00         0.00000E+00        -0.52538E+03
 
    0.17697E+05         0.11685E+06         0.00000E+00
    0.11685E+06        -0.20764E+05         0.00000E+00
    0.00000E+00         0.00000E+00        -0.61346E+03
 
    0.15515E+05         0.11837E+06         0.00000E+00
    0.11837E+06        -0.19090E+05         0.00000E+00
    0.00000E+00         0.00000E+00        -0.71487E+03
 
    0.13297E+05         0.11981E+06         0.00000E+00
    0.11981E+06        -0.17453E+05         0.00000E+00
    0.00000E+00         0.00000E+00        -0.83128E+03
 
    0.11041E+05         0.12119E+06         0.00000E+00
    0.12119E+06        -0.15863E+05         0.00000E+00
    0.00000E+00         0.00000E+00        -0.96449E+03
 
    0.87456E+04         0.12249E+06         0.00000E+00
    0.12249E+06        -0.14328E+05         0.00000E+00
    0.00000E+00         0.00000E+00        -0.11165E+04
 
    0.64108E+04         0.12372E+06         0.00000E+00
    0.12372E+06        -0.12857E+05         0.00000E+00
    0.00000E+00         0.00000E+00        -0.12892E+04
 
    0.40351E+04         0.12489E+06         0.00000E+00
    0.12489E+06        -0.11460E+05         0.00000E+00
    0.00000E+00         0.00000E+00        -0.14849E+04
 
    0.16173E+04         0.12598E+06         0.00000E+00
    0.12598E+06        -0.10146E+05         0.00000E+00
    0.00000E+00         0.00000E+00        -0.17058E+04
 
   -0.84395E+03         0.12701E+06         0.00000E+00
    0.12701E+06        -0.89272E+04         0.00000E+00
    0.00000E+00         0.00000E+00        -0.19542E+04
 
    0.85634E+05         0.19379E+04         0.00000E+00
    0.19379E+04        -0.80569E+05         0.00000E+00
    0.00000E+00         0.00000E+00         0.10129E+04
 
    0.84865E+05         0.57715E+04         0.00000E+00
    0.57715E+04        -0.80455E+05         0.00000E+00
    0.00000E+00         0.00000E+00         0.88199E+03
 
    0.84059E+05         0.95841E+04         0.00000E+00
    0.95841E+04        -0.80232E+05         0.00000E+00
    0.00000E+00         0.00000E+00         0.76554E+03
 
    0.83216E+05         0.13373E+05         0.00000E+00
    0.13373E+05        -0.79904E+05         0.00000E+00
    0.00000E+00         0.00000E+00         0.66236E+03
 
    0.82334E+05         0.17136E+05         0.00000E+00
    0.17136E+05        -0.79478E+05         0.00000E+00
    0.00000E+00         0.00000E+00         0.57126E+03
 
    0.81412E+05         0.20872E+05         0.00000E+00
    0.20872E+05        -0.78957E+05         0.00000E+00
    0.00000E+00         0.00000E+00         0.49110E+03
 
    0.80450E+05         0.24577E+05         0.00000E+00
    0.24577E+05        -0.78346E+05         0.00000E+00
    0.00000E+00         0.00000E+00         0.42079E+03
 
    0.79447E+05         0.28250E+05         0.00000E+00
    0.28250E+05        -0.77651E+05         0.00000E+00
    0.00000E+00         0.00000E+00         0.35929E+03
 
    0.78403E+05         0.31889E+05         0.00000E+00
    0.31889E+05        -0.76874E+05         0.00000E+00
    0.00000E+00         0.00000E+00         0.30565E+03
 
    0.77316E+05         0.35492E+05         0.00000E+00
    0.35492E+05        -0.76021E+05         0.00000E+00
    0.00000E+00         0.00000E+00         0.25898E+03
 
    0.76186E+05         0.39056E+05         0.00000E+00
    0.39056E+05        -0.75094E+05         0.00000E+00
    0.00000E+00         0.00000E+00         0.21846E+03
 
    0.75013E+05         0.42581E+05         0.00000E+00
    0.42581E+05        -0.74096E+05         0.00000E+00
    0.00000E+00         0.00000E+00         0.18332E+03
 
    0.73797E+05         0.46065E+05         0.00000E+00
    0.46065E+05        -0.73032E+05         0.00000E+00
    0.00000E+00         0.00000E+00         0.15288E+03
 
    0.72537E+05         0.49505E+05         0.00000E+00
    0.49505E+05        -0.71904E+05         0.00000E+00
    0.00000E+00         0.00000E+00         0.12651E+03
 
    0.71233E+05         0.52900E+05         0.00000E+00
    0.52900E+05        -0.70714E+05         0.00000E+00
    0.00000E+00         0.00000E+00         0.10364E+03
 
    0.69885E+05         0.56249E+05         0.00000E+00
    0.56249E+05        -0.69466E+05         0.00000E+00
    0.00000E+00         0.00000E+00         0.83758E+02
 
    0.68493E+05         0.59549E+05         0.00000E+00
    0.59549E+05        -0.68161E+05         0.00000E+00
    0.00000E+00         0.00000E+00         0.66392E+02
 
    0.67057E+05         0.62799E+05         0.00000E+00
    0.62799E+05        -0.66802E+05         0.00000E+00
    0.00000E+00         0.00000E+00         0.51115E+02
 
    0.65577E+05         0.65998E+05         0.00000E+00
    0.65998E+05        -0.65390E+05         0.00000E+00
    0.00000E+00         0.00000E+00         0.37537E+02
 
    0.64054E+05         0.69144E+05         0.00000E+00
    0.69144E+05        -0.63928E+05         0.00000E+00
    0.00000E+00         0.00000E+00         0.25297E+02
 
    0.62487E+05         0.72235E+05         0.00000E+00
    0.72235E+05        -0.62417E+05         0.00000E+00
    0.00000E+00         0.00000E+00         0.14058E+02
 
    0.60877E+05         0.75271E+05         0.00000E+00
    0.75271E+05        -0.60859E+05         0.00000E+00
    0.00000E+00         0.00000E+00         0.35010E+01
 
    0.59223E+05         0.78249E+05         0.00000E+00
    0.78249E+05        -0.59257E+05         0.00000E+00
    0.00000E+00         0.00000E+00        -0.66816E+01
 
    0.57527E+05         0.81168E+05         0.00000E+00
    0.81168E+05        -0.57611E+05         0.00000E+00
    0.00000E+00         0.00000E+00        -0.16793E+02
 
    0.55789E+05         0.84028E+05         0.00000E+00
    0.84028E+05        -0.55925E+05         0.00000E+00
    0.00000E+00         0.00000E+00        -0.27138E+02
 
    0.54008E+05         0.86825E+05         0.00000E+00
    0.86825E+05        -0.54198E+05         0.00000E+00
    0.00000E+00         0.00000E+00        -0.38029E+02
 
    0.52186E+05         0.89560E+05         0.00000E+00
    0.89560E+05        -0.52435E+05         0.00000E+00
    0.00000E+00         0.00000E+00        -0.49794E+02
 
    0.50322E+05         0.92230E+05         0.00000E+00
    0.92230E+05        -0.50636E+05         0.00000E+00
    0.00000E+00         0.00000E+00        -0.62784E+02
 
    0.48417E+05         0.94835E+05         0.00000E+00
    0.94835E+05        -0.48804E+05         0.00000E+00
    0.00000E+00         0.00000E+00        -0.77379E+02
 
    0.46472E+05         0.97374E+05         0.00000E+00
    0.97374E+05        -0.46942E+05         0.00000E+00
    0.00000E+00         0.00000E+00        -0.93997E+02
 
    0.44486E+05         0.99844E+05         0.00000E+00
    0.99844E+05        -0.45051E+05         0.00000E+00
    0.00000E+00         0.00000E+00        -0.11310E+03
 
    0.42460E+05         0.10225E+06         0.00000E+00
    0.10225E+06        -0.43136E+05         0.00000E+00
    0.00000E+00         0.00000E+00        -0.13522E+03
 
    0.40394E+05         0.10458E+06         0.00000E+00
    0.10458E+06        -0.41198E+05         0.00000E+00
    0.00000E+00         0.00000E+00        -0.16092E+03
 
    0.38288E+05         0.10684E+06         0.00000E+00
    0.10684E+06        -0.39242E+05         0.00000E+00
    0.00000E+00         0.00000E+00        -0.19087E+03
 
    0.36143E+05         0.10903E+06         0.00000E+00
    0.10903E+06        -0.37272E+05         0.00000E+00
    0.00000E+00         0.00000E+00        -0.22581E+03
 
    0.33958E+05         0.11114E+06         0.00000E+00
    0.11114E+06        -0.35291E+05         0.00000E+00
    0.00000E+00         0.00000E+00        -0.26657E+03
 
    0.31734E+05         0.11319E+06         0.00000E+00
    0.11319E+06        -0.33305E+05         0.00000E+00
    0.00000E+00         0.00000E+00        -0.31409E+03
 
    0.29471E+05         0.11515E+06         0.00000E+00
    0.11515E+06        -0.31318E+05         0.00000E+00
    0.00000E+00         0.00000E+00        -0.36943E+03
 
    0.27167E+05         0.11705E+06         0.00000E+00
    0.11705E+06        -0.29336E+05         0.00000E+00
    0.00000E+00         0.00000E+00        -0.43375E+03
 
    0.24824E+05         0.11887E+06         0.00000E+00
    0.11887E+06        -0.27366E+05         0.00000E+00
    0.00000E+00         0.00000E+00        -0.50836E+03
 
    0.22441E+05         0.12061E+06         0.00000E+00
    0.12061E+06        -0.25414E+05         0.00000E+00
    0.00000E+00         0.00000E+00        -0.59471E+03
 
    0.20016E+05         0.12228E+06         0.00000E+00
    0.12228E+06        -0.23488E+05         0.00000E+00
    0.00000E+00         0.00000E+00        -0.69441E+03
 
    0.17551E+05         0.12387E+06         0.00000E+00
    0.12387E+06        -0.21596E+05         0.00000E+00
    0.00000E+00         0.00000E+00        -0.80918E+03
 
    0.15042E+05         0.12538E+06         0.00000E+00
    0.12538E+06        -0.19747E+05         0.00000E+00
    0.00000E+00         0.00000E+00        -0.94093E+03
 
    0.12491E+05         0.12682E+06         0.00000E+00
    0.12682E+06        -0.17949E+05         0.00000E+00
    0.00000E+00         0.00000E+00        -0.10917E+04
 
    0.98951E+04         0.12819E+06         0.00000E+00
    0.12819E+06        -0.16214E+05         0.00000E+00
    0.00000E+00         0.00000E+00        -0.12637E+04
 
    0.72540E+04         0.12948E+06         0.00000E+00
    0.12948E+06        -0.14550E+05         0.00000E+00
    0.00000E+00         0.00000E+00        -0.14592E+04
 
    0.45661E+04         0.13070E+06         0.00000E+00
    0.13070E+06        -0.12970E+05         0.00000E+00
    0.00000E+00         0.00000E+00        -0.16807E+04
 
    0.18302E+04         0.13185E+06         0.00000E+00
    0.13185E+06        -0.11484E+05         0.00000E+00
    0.00000E+00         0.00000E+00        -0.19307E+04
 
   -0.95528E+03         0.13292E+06         0.00000E+00
    0.13292E+06        -0.10104E+05         0.00000E+00
    0.00000E+00         0.00000E+00        -0.22119E+04
 
    0.95769E+05         0.20283E+04         0.00000E+00
    0.20283E+04        -0.90094E+05         0.00000E+00
    0.00000E+00         0.00000E+00         0.11351E+04
 
    0.94909E+05         0.60412E+04         0.00000E+00
    0.60412E+04        -0.89967E+05         0.00000E+00
    0.00000E+00         0.00000E+00         0.98831E+03
 
    0.94008E+05         0.10032E+05         0.00000E+00
    0.10032E+05        -0.89719E+05         0.00000E+00
    0.00000E+00         0.00000E+00         0.85776E+03
 
    0.93065E+05         0.13999E+05         0.00000E+00
    0.13999E+05        -0.89355E+05         0.00000E+00
    0.00000E+00         0.00000E+00         0.74211E+03
 
    0.92081E+05         0.17939E+05         0.00000E+00
    0.17939E+05        -0.88881E+05         0.00000E+00
    0.00000E+00         0.00000E+00         0.64000E+03
 
    0.91052E+05         0.21851E+05         0.00000E+00
    0.21851E+05        -0.88302E+05         0.00000E+00
    0.00000E+00         0.00000E+00         0.55016E+03
 
    0.89980E+05         0.25731E+05         0.00000E+00
    0.25731E+05        -0.87623E+05         0.00000E+00
    0.00000E+00         0.00000E+00         0.47136E+03
 
    0.88862E+05         0.29578E+05         0.00000E+00
    0.29578E+05        -0.86850E+05         0.00000E+00
    0.00000E+00         0.00000E+00         0.40245E+03
 
    0.87698E+05         0.33390E+05         0.00000E+00
    0.33390E+05        -0.85986E+05         0.00000E+00
    0.00000E+00         0.00000E+00         0.34235E+03
 
    0.86487E+05         0.37165E+05         0.00000E+00
    0.37165E+05        -0.85037E+05         0.00000E+00
    0.00000E+00         0.00000E+00         0.29005E+03
 
    0.85229E+05         0.40901E+05         0.00000E+00
    0.40901E+05        -0.84005E+05         0.00000E+00
    0.00000E+00         0.00000E+00         0.24465E+03
 
    0.83923E+05         0.44596E+05         0.00000E+00
    0.44596E+05        -0.82896E+05         0.00000E+00
    0.00000E+00         0.00000E+00         0.20528E+03
 
    0.82568E+05         0.48248E+05         0.00000E+00
    0.48248E+05        -0.81712E+05         0.00000E+00
    0.00000E+00         0.00000E+00         0.17117E+03
 
    0.81165E+05         0.51856E+05         0.00000E+00
    0.51856E+05        -0.80457E+05         0.00000E+00
    0.00000E+00         0.00000E+00         0.14163E+03
 
    0.79713E+05         0.55417E+05         0.00000E+00
    0.55417E+05        -0.79133E+05         0.00000E+00
    0.00000E+00         0.00000E+00         0.11601E+03
 
    0.78212E+05         0.58930E+05         0.00000E+00
    0.58930E+05        -0.77743E+05         0.00000E+00
    0.00000E+00         0.00000E+00         0.93733E+02
 
    0.76662E+05         0.62393E+05         0.00000E+00
    0.62393E+05        -0.76290E+05         0.00000E+00
    0.00000E+00         0.00000E+00         0.74275E+02
 
    0.75062E+05         0.65804E+05         0.00000E+00
    0.65804E+05        -0.74776E+05         0.00000E+00
    0.00000E+00         0.00000E+00         0.57157E+02
 
    0.73413E+05         0.69162E+05         0.00000E+00
    0.69162E+05        -0.73204E+05         0.00000E+00
    0.00000E+00         0.00000E+00         0.41940E+02
 
    0.71716E+05         0.72466E+05         0.00000E+00
    0.72466E+05        -0.71575E+05         0.00000E+00
    0.00000E+00         0.00000E+00         0.28220E+02
 
    0.69969E+05         0.75713E+05         0.00000E+00
    0.75713E+05        -0.69891E+05         0.00000E+00
    0.00000E+00         0.00000E+00         0.15620E+02
 
    0.68174E+05         0.78902E+05         0.00000E+00
    0.78902E+05        -0.68155E+05         0.00000E+00
    0.00000E+00         0.00000E+00         0.37809E+01
 
    0.66330E+05         0.82032E+05         0.00000E+00
    0.82032E+05        -0.66368E+05         0.00000E+00
    0.00000E+00         0.00000E+00        -0.76420E+01
 
    0.64438E+05         0.85100E+05         0.00000E+00
    0.85100E+05        -0.64533E+05         0.00000E+00
    0.00000E+00         0.00000E+00        -0.18989E+02
 
    0.62499E+05         0.88106E+05         0.00000E+00
    0.88106E+05        -0.62652E+05         0.00000E+00
    0.00000E+00         0.00000E+00        -0.30601E+02
 
    0.60511E+05         0.91048E+05         0.00000E+00
    0.91048E+05        -0.60725E+05         0.00000E+00
    0.00000E+00         0.00000E+00        -0.42830E+02
 
    0.58477E+05         0.93925E+05         0.00000E+00
    0.93925E+05        -0.58757E+05         0.00000E+00
    0.00000E+00         0.00000E+00        -0.56043E+02
 
    0.56395E+05         0.96734E+05         0.00000E+00
    0.96734E+05        -0.56749E+05         0.00000E+00
    0.00000E+00         0.00000E+00        -0.70635E+02
 
    0.54268E+05         0.99476E+05         0.00000E+00
    0.99476E+05        -0.54703E+05         0.00000E+00
    0.00000E+00         0.00000E+00        -0.87033E+02
 
    0.52094E+05         0.10215E+06         0.00000E+00
    0.10215E+06        -0.52622E+05         0.00000E+00
    0.00000E+00         0.00000E+00        -0.10571E+03
 
    0.49874E+05         0.10475E+06         0.00000E+00
    0.10475E+06        -0.50510E+05         0.00000E+00
    0.00000E+00         0.00000E+00        -0.12717E+03
 
    0.47608E+05         0.10728E+06         0.00000E+00
    0.10728E+06        -0.48369E+05         0.00000E+00
    0.00000E+00         0.00000E+00        -0.15202E+03
 
    0.45298E+05         0.10973E+06         0.00000E+00
    0.10973E+06        -0.46202E+05         0.00000E+00
    0.00000E+00         0.00000E+00        -0.18091E+03
 
    0.42942E+05         0.11211E+06         0.00000E+00
    0.11211E+06        -0.44015E+05         0.00000E+00
    0.00000E+00         0.00000E+00        -0.21457E+03
 
    0.40541E+05         0.11442E+06         0.00000E+00
    0.11442E+06        -0.41811E+05         0.00000E+00
    0.00000E+00         0.00000E+00        -0.25383E+03
 
    0.38096E+05         0.11665E+06         0.00000E+00
    0.11665E+06        -0.39594E+05         0.00000E+00
    0.00000E+00         0.00000E+00        -0.29964E+03
 
    0.35605E+05         0.11880E+06         0.00000E+00
    0.11880E+06        -0.37370E+05         0.00000E+00
    0.00000E+00         0.00000E+00        -0.35304E+03
 
    0.33070E+05         0.12088E+06         0.00000E+00
    0.12088E+06        -0.35146E+05         0.00000E+00
    0.00000E+00         0.00000E+00        -0.41522E+03
 
    0.30489E+05         0.12287E+06         0.00000E+00
    0.12287E+06        -0.32927E+05         0.00000E+00
    0.00000E+00         0.00000E+00        -0.48750E+03
 
    0.27863E+05         0.12479E+06         0.00000E+00
    0.12479E+06        -0.30720E+05         0.00000E+00
    0.00000E+00         0.00000E+00        -0.57135E+03
 
    0.25191E+05         0.12663E+06         0.00000E+00
    0.12663E+06        -0.28533E+05         0.00000E+00
    0.00000E+00         0.00000E+00        -0.66839E+03
 
    0.22472E+05         0.12838E+06         0.00000E+00
    0.12838E+06        -0.26374E+05         0.00000E+00
    0.00000E+00         0.00000E+00        -0.78042E+03
 
    0.19706E+05         0.13006E+06         0.00000E+00
    0.13006E+06        -0.24253E+05         0.00000E+00
    0.00000E+00         0.00000E+00        -0.90939E+03
 
    0.16891E+05         0.13166E+06         0.00000E+00
    0.13166E+06        -0.22179E+05         0.00000E+00
    0.00000E+00         0.00000E+00        -0.10574E+04
 
    0.14028E+05         0.13317E+06         0.00000E+00
    0.13317E+06        -0.20162E+05         0.00000E+00
    0.00000E+00         0.00000E+00        -0.12269E+04
 
    0.11114E+05         0.13461E+06         0.00000E+00
    0.13461E+06        -0.18214E+05         0.00000E+00
    0.00000E+00         0.00000E+00        -0.14201E+04
 
    0.81481E+04         0.13597E+06         0.00000E+00
    0.13597E+06        -0.16347E+05         0.00000E+00
    0.00000E+00         0.00000E+00        -0.16398E+04
 
    0.51294E+04         0.13726E+06         0.00000E+00
    0.13726E+06        -0.14573E+05         0.00000E+00
    0.00000E+00         0.00000E+00        -0.18887E+04
 
    0.20560E+04         0.13846E+06         0.00000E+00
    0.13846E+06        -0.12904E+05         0.00000E+00
    0.00000E+00         0.00000E+00        -0.21697E+04
 
   -0.10736E+04         0.13959E+06         0.00000E+00
    0.13959E+06        -0.11354E+05         0.00000E+00
    0.00000E+00         0.00000E+00        -0.24856E+04
 
    0.10639E+06         0.21272E+04         0.00000E+00
    0.21272E+04        -0.10008E+06         0.00000E+00
    0.00000E+00         0.00000E+00         0.12613E+04
 
    0.10543E+06         0.63366E+04         0.00000E+00
    0.63366E+04        -0.99940E+05         0.00000E+00
    0.00000E+00         0.00000E+00         0.10981E+04
 
    0.10443E+06         0.10523E+05         0.00000E+00
    0.10523E+05        -0.99666E+05         0.00000E+00
    0.00000E+00         0.00000E+00         0.95295E+03
 
    0.10339E+06         0.14686E+05         0.00000E+00
    0.14686E+05        -0.99265E+05         0.00000E+00
    0.00000E+00         0.00000E+00         0.82439E+03
 
    0.10230E+06         0.18820E+05         0.00000E+00
    0.18820E+05        -0.98742E+05         0.00000E+00
    0.00000E+00         0.00000E+00         0.71090E+03
 
    0.10116E+06         0.22926E+05         0.00000E+00
    0.22926E+05        -0.98103E+05         0.00000E+00
    0.00000E+00         0.00000E+00         0.61105E+03
 
    0.99972E+05         0.26999E+05         0.00000E+00
    0.26999E+05        -0.97355E+05         0.00000E+00
    0.00000E+00         0.00000E+00         0.52348E+03
 
    0.98736E+05         0.31039E+05         0.00000E+00
    0.31039E+05        -0.96502E+05         0.00000E+00
    0.00000E+00         0.00000E+00         0.44691E+03
 
    0.97449E+05         0.35042E+05         0.00000E+00
    0.35042E+05        -0.95549E+05         0.00000E+00
    0.00000E+00         0.00000E+00         0.38013E+03
 
    0.96111E+05         0.39008E+05         0.00000E+00
    0.39008E+05        -0.94501E+05         0.00000E+00
    0.00000E+00         0.00000E+00         0.32203E+03
 
    0.94721E+05         0.42933E+05         0.00000E+00
    0.42933E+05        -0.93363E+05         0.00000E+00
    0.00000E+00         0.00000E+00         0.27159E+03
 
    0.93278E+05         0.46816E+05         0.00000E+00
    0.46816E+05        -0.92139E+05         0.00000E+00
    0.00000E+00         0.00000E+00         0.22785E+03
 
    0.91782E+05         0.50655E+05         0.00000E+00
    0.50655E+05        -0.90832E+05         0.00000E+00
    0.00000E+00         0.00000E+00         0.18997E+03
 
    0.90231E+05         0.54449E+05         0.00000E+00
    0.54449E+05        -0.89445E+05         0.00000E+00
    0.00000E+00         0.00000E+00         0.15715E+03
 
    0.88627E+05         0.58194E+05         0.00000E+00
    0.58194E+05        -0.87983E+05         0.00000E+00
    0.00000E+00         0.00000E+00         0.12869E+03
 
    0.86967E+05         0.61890E+05         0.00000E+00
    0.61890E+05        -0.86448E+05         0.00000E+00
    0.00000E+00         0.00000E+00         0.10394E+03
 
    0.85254E+05         0.65534E+05         0.00000E+00
    0.65534E+05        -0.84842E+05         0.00000E+00
    0.00000E+00         0.00000E+00         0.82324E+02
 
    0.83485E+05         0.69126E+05         0.00000E+00
    0.69126E+05        -0.83169E+05         0.00000E+00
    0.00000E+00         0.00000E+00         0.63302E+02
 
    0.81662E+05         0.72662E+05         0.00000E+00
    0.72662E+05        -0.81430E+05         0.00000E+00
    0.00000E+00         0.00000E+00         0.46390E+02
 
    0.79784E+05         0.76142E+05         0.00000E+00
    0.76142E+05        -0.79628E+05         0.00000E+00
    0.00000E+00         0.00000E+00         0.31136E+02
 
    0.77851E+05         0.79563E+05         0.00000E+00
    0.79563E+05        -0.77766E+05         0.00000E+00
    0.00000E+00         0.00000E+00         0.17122E+02
 
    0.75864E+05         0.82924E+05         0.00000E+00
    0.82924E+05        -0.75844E+05         0.00000E+00
    0.00000E+00         0.00000E+00         0.39472E+01
 
    0.73823E+05         0.86224E+05         0.00000E+00
    0.86224E+05        -0.73867E+05         0.00000E+00
    0.00000E+00         0.00000E+00        -0.87715E+01
 
    0.71727E+05         0.89460E+05         0.00000E+00
    0.89460E+05        -0.71834E+05         0.00000E+00
    0.00000E+00         0.00000E+00        -0.21413E+02
 
    0.69578E+05         0.92631E+05         0.00000E+00
    0.92631E+05        -0.69750E+05         0.00000E+00
    0.00000E+00         0.00000E+00        -0.34358E+02
 
    0.67376E+05         0.95735E+05         0.00000E+00
    0.95735E+05        -0.67616E+05         0.00000E+00
    0.00000E+00         0.00000E+00        -0.47999E+02
 
    0.65120E+05         0.98772E+05         0.00000E+00
    0.98772E+05        -0.65434E+05         0.00000E+00
    0.00000E+00         0.00000E+00        -0.62745E+02
 
    0.62812E+05         0.10174E+06         0.00000E+00
    0.10174E+06        -0.63207E+05         0.00000E+00
    0.00000E+00         0.00000E+00        -0.79035E+02
 
    0.60451E+05         0.10463E+06         0.00000E+00
    0.10463E+06        -0.60938E+05         0.00000E+00
    0.00000E+00         0.00000E+00        -0.97348E+02
 
    0.58038E+05         0.10746E+06         0.00000E+00
    0.10746E+06        -0.58629E+05         0.00000E+00
    0.00000E+00         0.00000E+00        -0.11821E+03
 
    0.55574E+05         0.11020E+06         0.00000E+00
    0.11020E+06        -0.56285E+05         0.00000E+00
    0.00000E+00         0.00000E+00        -0.14219E+03
 
    0.53058E+05         0.11288E+06         0.00000E+00
    0.11288E+06        -0.53908E+05         0.00000E+00
    0.00000E+00         0.00000E+00        -0.16996E+03
 
    0.50490E+05         0.11547E+06         0.00000E+00
    0.11547E+06        -0.51502E+05         0.00000E+00
    0.00000E+00         0.00000E+00        -0.20224E+03
 
    0.47872E+05         0.11799E+06         0.00000E+00
    0.11799E+06        -0.49071E+05         0.00000E+00
    0.00000E+00         0.00000E+00        -0.23986E+03
 
    0.45203E+05         0.12043E+06         0.00000E+00
    0.12043E+06        -0.46622E+05         0.00000E+00
    0.00000E+00         0.00000E+00        -0.28374E+03
 
    0.42483E+05         0.12279E+06         0.00000E+00
    0.12279E+06        -0.44157E+05         0.00000E+00
    0.00000E+00         0.00000E+00        -0.33493E+03
 
    0.39712E+05         0.12507E+06         0.00000E+00
    0.12507E+06        -0.41685E+05         0.00000E+00
    0.00000E+00         0.00000E+00        -0.39462E+03
 
    0.36889E+05         0.12726E+06         0.00000E+00
    0.12726E+06        -0.39210E+05         0.00000E+00
    0.00000E+00         0.00000E+00        -0.46411E+03
 
    0.34016E+05         0.12937E+06         0.00000E+00
    0.12937E+06        -0.36740E+05         0.00000E+00
    0.00000E+00         0.00000E+00        -0.54489E+03
 
    0.31091E+05         0.13140E+06         0.00000E+00
    0.13140E+06        -0.34284E+05         0.00000E+00
    0.00000E+00         0.00000E+00        -0.63860E+03
 
    0.28113E+05         0.13335E+06         0.00000E+00
    0.13335E+06        -0.31848E+05         0.00000E+00
    0.00000E+00         0.00000E+00        -0.74705E+03
 
    0.25082E+05         0.13521E+06         0.00000E+00
    0.13521E+06        -0.29444E+05         0.00000E+00
    0.00000E+00         0.00000E+00        -0.87226E+03
 
    0.21998E+05         0.13698E+06         0.00000E+00
    0.13698E+06        -0.27080E+05         0.00000E+00
    0.00000E+00         0.00000E+00        -0.10164E+04
 
    0.18859E+05         0.13867E+06         0.00000E+00
    0.13867E+06        -0.24768E+05         0.00000E+00
    0.00000E+00         0.00000E+00        -0.11819E+04
 
    0.15664E+05         0.14028E+06         0.00000E+00
    0.14028E+06        -0.22520E+05         0.00000E+00
    0.00000E+00         0.00000E+00        -0.13712E+04
 
    0.12412E+05         0.14180E+06         0.00000E+00
    0.14180E+06        -0.20348E+05         0.00000E+00
    0.00000E+00         0.00000E+00        -0.15872E+04
 
    0.91008E+04         0.14324E+06         0.00000E+00
    0.14324E+06        -0.18264E+05         0.00000E+00
    0.00000E+00         0.00000E+00        -0.18327E+04
 
    0.57297E+04         0.14460E+06         0.00000E+00
    0.14460E+06        -0.16284E+05         0.00000E+00
    0.00000E+00         0.00000E+00        -0.21109E+04
 
    0.22966E+04         0.14587E+06         0.00000E+00
    0.14587E+06        -0.14421E+05         0.00000E+00
    0.00000E+00         0.00000E+00        -0.24248E+04
 
   -0.12001E+04         0.14706E+06         0.00000E+00
    0.14706E+06        -0.12689E+05         0.00000E+00
    0.00000E+00         0.00000E+00        -0.27779E+04
 
    0.11752E+06         0.22345E+04         0.00000E+00
    0.22345E+04        -0.11057E+06         0.00000E+00
    0.00000E+00         0.00000E+00         0.13902E+04
 
    0.11647E+06         0.66578E+04         0.00000E+00
    0.66578E+04        -0.11042E+06         0.00000E+00
    0.00000E+00         0.00000E+00         0.12102E+04
 
    0.11537E+06         0.11058E+05         0.00000E+00
    0.11058E+05        -0.11012E+06         0.00000E+00
    0.00000E+00         0.00000E+00         0.10501E+04
 
    0.11422E+06         0.15433E+05         0.00000E+00
    0.15433E+05        -0.10968E+06         0.00000E+00
    0.00000E+00         0.00000E+00         0.90837E+03
 
    0.11302E+06         0.19781E+05         0.00000E+00
    0.19781E+05        -0.10911E+06         0.00000E+00
    0.00000E+00         0.00000E+00         0.78323E+03
 
    0.11177E+06         0.24098E+05         0.00000E+00
    0.24098E+05        -0.10841E+06         0.00000E+00
    0.00000E+00         0.00000E+00         0.67315E+03
 
    0.11047E+06         0.28383E+05         0.00000E+00
    0.28383E+05        -0.10759E+06         0.00000E+00
    0.00000E+00         0.00000E+00         0.57661E+03
 
    0.10911E+06         0.32634E+05         0.00000E+00
    0.32634E+05        -0.10665E+06         0.00000E+00
    0.00000E+00         0.00000E+00         0.49220E+03
 
    0.10770E+06         0.36847E+05         0.00000E+00
    0.36847E+05        -0.10561E+06         0.00000E+00
    0.00000E+00         0.00000E+00         0.41860E+03
 
    0.10623E+06         0.41022E+05         0.00000E+00
    0.41022E+05        -0.10446E+06         0.00000E+00
    0.00000E+00         0.00000E+00         0.35457E+03
 
    0.10471E+06         0.45156E+05         0.00000E+00
    0.45156E+05        -0.10321E+06         0.00000E+00
    0.00000E+00         0.00000E+00         0.29897E+03
 
    0.10313E+06         0.49247E+05         0.00000E+00
    0.49247E+05        -0.10187E+06         0.00000E+00
    0.00000E+00         0.00000E+00         0.25078E+03
 
    0.10148E+06         0.53292E+05         0.00000E+00
    0.53292E+05        -0.10044E+06         0.00000E+00
    0.00000E+00         0.00000E+00         0.20903E+03
 
    0.99781E+05         0.57291E+05         0.00000E+00
    0.57291E+05        -0.98917E+05         0.00000E+00
    0.00000E+00         0.00000E+00         0.17287E+03
 
    0.98019E+05         0.61241E+05         0.00000E+00
    0.61241E+05        -0.97312E+05         0.00000E+00
    0.00000E+00         0.00000E+00         0.14151E+03
 
    0.96198E+05         0.65139E+05         0.00000E+00
    0.65139E+05        -0.95626E+05         0.00000E+00
    0.00000E+00         0.00000E+00         0.11424E+03
 
    0.94315E+05         0.68985E+05         0.00000E+00
    0.68985E+05        -0.93863E+05         0.00000E+00
    0.00000E+00         0.00000E+00         0.90416E+02
 
    0.92372E+05         0.72776E+05         0.00000E+00
    0.72776E+05        -0.92025E+05         0.00000E+00
    0.00000E+00         0.00000E+00         0.69447E+02
 
    0.90368E+05         0.76510E+05         0.00000E+00
    0.76510E+05        -0.90114E+05         0.00000E+00
    0.00000E+00         0.00000E+00         0.50796E+02
 
    0.88303E+05         0.80186E+05         0.00000E+00
    0.80186E+05        -0.88133E+05         0.00000E+00
    0.00000E+00         0.00000E+00         0.33967E+02
 
    0.86178E+05         0.83801E+05         0.00000E+00
    0.83801E+05        -0.86085E+05         0.00000E+00
    0.00000E+00         0.00000E+00         0.18494E+02
 
    0.83991E+05         0.87354E+05         0.00000E+00
    0.87354E+05        -0.83972E+05         0.00000E+00
    0.00000E+00         0.00000E+00         0.39379E+01
 
    0.81744E+05         0.90843E+05         0.00000E+00
    0.90843E+05        -0.81795E+05         0.00000E+00
    0.00000E+00         0.00000E+00        -0.10127E+02
 
    0.79437E+05         0.94266E+05         0.00000E+00
    0.94266E+05        -0.79558E+05         0.00000E+00
    0.00000E+00         0.00000E+00        -0.24121E+02
 
    0.77070E+05         0.97622E+05         0.00000E+00
    0.97622E+05        -0.77262E+05         0.00000E+00
    0.00000E+00         0.00000E+00        -0.38465E+02
 
    0.74643E+05         0.10091E+06         0.00000E+00
    0.10091E+06        -0.74911E+05         0.00000E+00
    0.00000E+00         0.00000E+00        -0.53592E+02
 
    0.72157E+05         0.10412E+06         0.00000E+00
    0.10412E+06        -0.72507E+05         0.00000E+00
    0.00000E+00         0.00000E+00        -0.69960E+02
 
    0.69611E+05         0.10727E+06         0.00000E+00
    0.10727E+06        -0.70051E+05         0.00000E+00
    0.00000E+00         0.00000E+00        -0.88054E+02
 
    0.67007E+05         0.11033E+06         0.00000E+00
    0.11033E+06        -0.67549E+05         0.00000E+00
    0.00000E+00         0.00000E+00        -0.10840E+03
 
    0.64344E+05         0.11333E+06         0.00000E+00
    0.11333E+06        -0.65002E+05         0.00000E+00
    0.00000E+00         0.00000E+00        -0.13160E+03
 
    0.61622E+05         0.11624E+06         0.00000E+00
    0.11624E+06        -0.62414E+05         0.00000E+00
    0.00000E+00         0.00000E+00        -0.15827E+03
 
    0.58843E+05         0.11907E+06         0.00000E+00
    0.11907E+06        -0.59789E+05         0.00000E+00
    0.00000E+00         0.00000E+00        -0.18916E+03
 
    0.56006E+05         0.12183E+06         0.00000E+00
    0.12183E+06        -0.57131E+05         0.00000E+00
    0.00000E+00         0.00000E+00        -0.22507E+03
 
    0.53111E+05         0.12450E+06         0.00000E+00
    0.12450E+06        -0.54446E+05         0.00000E+00
    0.00000E+00         0.00000E+00        -0.26693E+03
 
    0.50159E+05         0.12709E+06         0.00000E+00
    0.12709E+06        -0.51738E+05         0.00000E+00
    0.00000E+00         0.00000E+00        -0.31576E+03
 
    0.47149E+05         0.12960E+06         0.00000E+00
    0.12960E+06        -0.49013E+05         0.00000E+00
    0.00000E+00         0.00000E+00        -0.37273E+03
 
    0.44082E+05         0.13201E+06         0.00000E+00
    0.13201E+06        -0.46278E+05         0.00000E+00
    0.00000E+00         0.00000E+00        -0.43915E+03
 
    0.40957E+05         0.13435E+06         0.00000E+00
    0.13435E+06        -0.43539E+05         0.00000E+00
    0.00000E+00         0.00000E+00        -0.51649E+03
 
    0.37773E+05         0.13659E+06         0.00000E+00
    0.13659E+06        -0.40805E+05         0.00000E+00
    0.00000E+00         0.00000E+00        -0.60639E+03
 
    0.34531E+05         0.13875E+06         0.00000E+00
    0.13875E+06        -0.38085E+05         0.00000E+00
    0.00000E+00         0.00000E+00        -0.71068E+03
 
    0.31230E+05         0.14081E+06         0.00000E+00
    0.14081E+06        -0.35387E+05         0.00000E+00
    0.00000E+00         0.00000E+00        -0.83138E+03
 
    0.27868E+05         0.14279E+06         0.00000E+00
    0.14279E+06        -0.32722E+05         0.00000E+00
    0.00000E+00         0.00000E+00        -0.97071E+03
 
    0.24446E+05         0.14468E+06         0.00000E+00
    0.14468E+06        -0.30101E+05         0.00000E+00
    0.00000E+00         0.00000E+00        -0.11311E+04
 
    0.20961E+05         0.14648E+06         0.00000E+00
    0.14648E+06        -0.27537E+05         0.00000E+00
    0.00000E+00         0.00000E+00        -0.13152E+04
 
    0.17413E+05         0.14818E+06         0.00000E+00
    0.14818E+06        -0.25043E+05         0.00000E+00
    0.00000E+00         0.00000E+00        -0.15260E+04
 
    0.13800E+05         0.14980E+06         0.00000E+00
    0.14980E+06        -0.22631E+05         0.00000E+00
    0.00000E+00         0.00000E+00        -0.17663E+04
 
    0.10120E+05         0.15133E+06         0.00000E+00
    0.15133E+06        -0.20318E+05         0.00000E+00
    0.00000E+00         0.00000E+00        -0.20396E+04
 
    0.63722E+04         0.15277E+06         0.00000E+00
    0.15277E+06        -0.18118E+05         0.00000E+00
    0.00000E+00         0.00000E+00        -0.23491E+04
 
    0.25542E+04         0.15413E+06         0.00000E+00
    0.15413E+06        -0.16047E+05         0.00000E+00
    0.00000E+00         0.00000E+00        -0.26985E+04
 
   -0.13359E+04         0.15539E+06         0.00000E+00
    0.15539E+06        -0.14121E+05         0.00000E+00
    0.00000E+00         0.00000E+00        -0.30914E+04
 
    0.12922E+06         0.23503E+04         0.00000E+00
    0.23503E+04        -0.12162E+06         0.00000E+00
    0.00000E+00         0.00000E+00         0.15200E+04
 
    0.12807E+06         0.70050E+04         0.00000E+00
    0.70050E+04        -0.12145E+06         0.00000E+00
    0.00000E+00         0.00000E+00         0.13230E+04
 
    0.12687E+06         0.11637E+05         0.00000E+00
    0.11637E+05        -0.12113E+06         0.00000E+00
    0.00000E+00         0.00000E+00         0.11479E+04
 
    0.12561E+06         0.16243E+05         0.00000E+00
    0.16243E+05        -0.12065E+06         0.00000E+00
    0.00000E+00         0.00000E+00         0.99275E+03
 
    0.12430E+06         0.20822E+05         0.00000E+00
    0.20822E+05        -0.12003E+06         0.00000E+00
    0.00000E+00         0.00000E+00         0.85586E+03
 
    0.12294E+06         0.25370E+05         0.00000E+00
    0.25370E+05        -0.11926E+06         0.00000E+00
    0.00000E+00         0.00000E+00         0.73545E+03
 
    0.12152E+06         0.29886E+05         0.00000E+00
    0.29886E+05        -0.11837E+06         0.00000E+00
    0.00000E+00         0.00000E+00         0.62988E+03
 
    0.12004E+06         0.34367E+05         0.00000E+00
    0.34367E+05        -0.11735E+06         0.00000E+00
    0.00000E+00         0.00000E+00         0.53758E+03
 
    0.11850E+06         0.38810E+05         0.00000E+00
    0.38810E+05        -0.11622E+06         0.00000E+00
    0.00000E+00         0.00000E+00         0.45710E+03
 
    0.11690E+06         0.43214E+05         0.00000E+00
    0.43214E+05        -0.11497E+06         0.00000E+00
    0.00000E+00         0.00000E+00         0.38710E+03
 
    0.11524E+06         0.47577E+05         0.00000E+00
    0.47577E+05        -0.11361E+06         0.00000E+00
    0.00000E+00         0.00000E+00         0.32633E+03
 
    0.11351E+06         0.51896E+05         0.00000E+00
    0.51896E+05        -0.11214E+06         0.00000E+00
    0.00000E+00         0.00000E+00         0.27365E+03
 
    0.11172E+06         0.56168E+05         0.00000E+00
    0.56168E+05        -0.11058E+06         0.00000E+00
    0.00000E+00         0.00000E+00         0.22803E+03
 
    0.10986E+06         0.60393E+05         0.00000E+00
    0.60393E+05        -0.10892E+06         0.00000E+00
    0.00000E+00         0.00000E+00         0.18851E+03
 
    0.10794E+06         0.64567E+05         0.00000E+00
    0.64567E+05        -0.10717E+06         0.00000E+00
    0.00000E+00         0.00000E+00         0.15423E+03
 
    0.10595E+06         0.68690E+05         0.00000E+00
    0.68690E+05        -0.10533E+06         0.00000E+00
    0.00000E+00         0.00000E+00         0.12442E+03
 
    0.10389E+06         0.72757E+05         0.00000E+00
    0.72757E+05        -0.10340E+06         0.00000E+00
    0.00000E+00         0.00000E+00         0.98372E+02
 
    0.10177E+06         0.76769E+05         0.00000E+00
    0.76769E+05        -0.10139E+06         0.00000E+00
    0.00000E+00         0.00000E+00         0.75438E+02
 
    0.99578E+05         0.80722E+05         0.00000E+00
    0.80722E+05        -0.99303E+05         0.00000E+00
    0.00000E+00         0.00000E+00         0.55030E+02
 
    0.97320E+05         0.84615E+05         0.00000E+00
    0.84615E+05        -0.97137E+05         0.00000E+00
    0.00000E+00         0.00000E+00         0.36602E+02
 
    0.94994E+05         0.88445E+05         0.00000E+00
    0.88445E+05        -0.94896E+05         0.00000E+00
    0.00000E+00         0.00000E+00         0.19645E+02
 
    0.92601E+05         0.92211E+05         0.00000E+00
    0.92211E+05        -0.92582E+05         0.00000E+00
    0.00000E+00         0.00000E+00         0.36734E+01
 
    0.90140E+05         0.95910E+05         0.00000E+00
    0.95910E+05        -0.90199E+05         0.00000E+00
    0.00000E+00         0.00000E+00        -0.11780E+02
 
    0.87612E+05         0.99541E+05         0.00000E+00
    0.99541E+05        -0.87748E+05         0.00000E+00
    0.00000E+00         0.00000E+00        -0.27176E+02
 
    0.85017E+05         0.10310E+06         0.00000E+00
    0.10310E+06        -0.85232E+05         0.00000E+00
    0.00000E+00         0.00000E+00        -0.42980E+02
 
    0.82356E+05         0.10659E+06         0.00000E+00
    0.10659E+06        -0.82654E+05         0.00000E+00
    0.00000E+00         0.00000E+00        -0.59670E+02
 
    0.79628E+05         0.11001E+06         0.00000E+00
    0.11001E+06        -0.80017E+05         0.00000E+00
    0.00000E+00         0.00000E+00        -0.77750E+02
 
    0.76834E+05         0.11334E+06         0.00000E+00
    0.11334E+06        -0.77323E+05         0.00000E+00
    0.00000E+00         0.00000E+00        -0.97758E+02
 
    0.73974E+05         0.11660E+06         0.00000E+00
    0.11660E+06        -0.74575E+05         0.00000E+00
    0.00000E+00         0.00000E+00        -0.12028E+03
 
    0.71048E+05         0.11979E+06         0.00000E+00
    0.11979E+06        -0.71778E+05         0.00000E+00
    0.00000E+00         0.00000E+00        -0.14596E+03
 
    0.68057E+05         0.12289E+06         0.00000E+00
    0.12289E+06        -0.68935E+05         0.00000E+00
    0.00000E+00         0.00000E+00        -0.17552E+03
 
    0.65001E+05         0.12590E+06         0.00000E+00
    0.12590E+06        -0.66050E+05         0.00000E+00
    0.00000E+00         0.00000E+00        -0.20975E+03
 
    0.61880E+05         0.12884E+06         0.00000E+00
    0.12884E+06        -0.63127E+05         0.00000E+00
    0.00000E+00         0.00000E+00        -0.24956E+03
 
    0.58694E+05         0.13168E+06         0.00000E+00
    0.13168E+06        -0.60173E+05         0.00000E+00
    0.00000E+00         0.00000E+00        -0.29597E+03
 
    0.55443E+05         0.13444E+06         0.00000E+00
    0.13444E+06        -0.57193E+05         0.00000E+00
    0.00000E+00         0.00000E+00        -0.35012E+03
 
    0.52127E+05         0.13711E+06         0.00000E+00
    0.13711E+06        -0.54193E+05         0.00000E+00
    0.00000E+00         0.00000E+00        -0.41331E+03
 
    0.48746E+05         0.13969E+06         0.00000E+00
    0.13969E+06        -0.51181E+05         0.00000E+00
    0.00000E+00         0.00000E+00        -0.48698E+03
 
    0.45300E+05         0.14218E+06         0.00000E+00
    0.14218E+06        -0.48163E+05         0.00000E+00
    0.00000E+00         0.00000E+00        -0.57276E+03
 
    0.41787E+05         0.14457E+06         0.00000E+00
    0.14457E+06        -0.45150E+05         0.00000E+00
    0.00000E+00         0.00000E+00        -0.67247E+03
 
    0.38209E+05         0.14687E+06         0.00000E+00
    0.14687E+06        -0.42150E+05         0.00000E+00
    0.00000E+00         0.00000E+00        -0.78815E+03
 
    0.34563E+05         0.14908E+06         0.00000E+00
    0.14908E+06        -0.39173E+05         0.00000E+00
    0.00000E+00         0.00000E+00        -0.92203E+03
 
    0.30849E+05         0.15119E+06         0.00000E+00
    0.15119E+06        -0.36232E+05         0.00000E+00
    0.00000E+00         0.00000E+00        -0.10766E+04
 
    0.27066E+05         0.15320E+06         0.00000E+00
    0.15320E+06        -0.33339E+05         0.00000E+00
    0.00000E+00         0.00000E+00        -0.12545E+04
 
    0.23213E+05         0.15512E+06         0.00000E+00
    0.15512E+06        -0.30507E+05         0.00000E+00
    0.00000E+00         0.00000E+00        -0.14587E+04
 
    0.19288E+05         0.15695E+06         0.00000E+00
    0.15695E+06        -0.27750E+05         0.00000E+00
    0.00000E+00         0.00000E+00        -0.16925E+04
 
    0.15289E+05         0.15868E+06         0.00000E+00
    0.15868E+06        -0.25084E+05         0.00000E+00
    0.00000E+00         0.00000E+00        -0.19591E+04
 
    0.11214E+05         0.16031E+06         0.00000E+00
    0.16031E+06        -0.22525E+05         0.00000E+00
    0.00000E+00         0.00000E+00        -0.22621E+04
 
    0.70622E+04         0.16185E+06         0.00000E+00
    0.16185E+06        -0.20090E+05         0.00000E+00
    0.00000E+00         0.00000E+00        -0.26055E+04
 
    0.28309E+04         0.16329E+06         0.00000E+00
    0.16329E+06        -0.17796E+05         0.00000E+00
    0.00000E+00         0.00000E+00        -0.29930E+04
 
   -0.14821E+04         0.16464E+06         0.00000E+00
    0.16464E+06        -0.15662E+05         0.00000E+00
    0.00000E+00         0.00000E+00        -0.34288E+04
 
    0.14151E+06         0.24746E+04         0.00000E+00
    0.24746E+04        -0.13327E+06         0.00000E+00
    0.00000E+00         0.00000E+00         0.16478E+04
 
    0.14026E+06         0.73790E+04         0.00000E+00
    0.73790E+04        -0.13309E+06         0.00000E+00
    0.00000E+00         0.00000E+00         0.14340E+04
 
    0.13896E+06         0.12261E+05         0.00000E+00
    0.12261E+05        -0.13274E+06         0.00000E+00
    0.00000E+00         0.00000E+00         0.12439E+04
 
    0.13760E+06         0.17118E+05         0.00000E+00
    0.17118E+05        -0.13222E+06         0.00000E+00
    0.00000E+00         0.00000E+00         0.10756E+04
 
    0.13618E+06         0.21947E+05         0.00000E+00
    0.21947E+05        -0.13155E+06         0.00000E+00
    0.00000E+00         0.00000E+00         0.92714E+03
 
    0.13471E+06         0.26746E+05         0.00000E+00
    0.26746E+05        -0.13073E+06         0.00000E+00
    0.00000E+00         0.00000E+00         0.79654E+03
 
    0.13317E+06         0.31513E+05         0.00000E+00
    0.31513E+05        -0.12976E+06         0.00000E+00
    0.00000E+00         0.00000E+00         0.68205E+03
 
    0.13157E+06         0.36244E+05         0.00000E+00
    0.36244E+05        -0.12866E+06         0.00000E+00
    0.00000E+00         0.00000E+00         0.58197E+03
 
    0.12990E+06         0.40939E+05         0.00000E+00
    0.40939E+05        -0.12742E+06         0.00000E+00
    0.00000E+00         0.00000E+00         0.49473E+03
 
    0.12816E+06         0.45593E+05         0.00000E+00
    0.45593E+05        -0.12607E+06         0.00000E+00
    0.00000E+00         0.00000E+00         0.41885E+03
 
    0.12636E+06         0.50206E+05         0.00000E+00
    0.50206E+05        -0.12459E+06         0.00000E+00
    0.00000E+00         0.00000E+00         0.35299E+03
 
    0.12448E+06         0.54774E+05         0.00000E+00
    0.54774E+05        -0.12300E+06         0.00000E+00
    0.00000E+00         0.00000E+00         0.29590E+03
 
    0.12254E+06         0.59296E+05         0.00000E+00
    0.59296E+05        -0.12131E+06         0.00000E+00
    0.00000E+00         0.00000E+00         0.24646E+03
 
    0.12052E+06         0.63768E+05         0.00000E+00
    0.63768E+05        -0.11950E+06         0.00000E+00
    0.00000E+00         0.00000E+00         0.20363E+03
 
    0.11843E+06         0.68190E+05         0.00000E+00
    0.68190E+05        -0.11760E+06         0.00000E+00
    0.00000E+00         0.00000E+00         0.16649E+03
 
    0.11627E+06         0.72558E+05         0.00000E+00
    0.72558E+05        -0.11560E+06         0.00000E+00
    0.00000E+00         0.00000E+00         0.13418E+03
 
    0.11403E+06         0.76870E+05         0.00000E+00
    0.76870E+05        -0.11351E+06         0.00000E+00
    0.00000E+00         0.00000E+00         0.10594E+03
 
    0.11172E+06         0.81125E+05         0.00000E+00
    0.81125E+05        -0.11132E+06         0.00000E+00
    0.00000E+00         0.00000E+00         0.81068E+02
 
    0.10934E+06         0.85319E+05         0.00000E+00
    0.85319E+05        -0.10905E+06         0.00000E+00
    0.00000E+00         0.00000E+00         0.58919E+02
 
    0.10688E+06         0.89451E+05         0.00000E+00
    0.89451E+05        -0.10669E+06         0.00000E+00
    0.00000E+00         0.00000E+00         0.38900E+02
 
    0.10435E+06         0.93519E+05         0.00000E+00
    0.93519E+05        -0.10424E+06         0.00000E+00
    0.00000E+00         0.00000E+00         0.20454E+02
 
    0.10174E+06         0.97520E+05         0.00000E+00
    0.97520E+05        -0.10172E+06         0.00000E+00
    0.00000E+00         0.00000E+00         0.30543E+01
 
    0.99053E+05         0.10145E+06         0.00000E+00
    0.10145E+06        -0.99123E+05         0.00000E+00
    0.00000E+00         0.00000E+00        -0.13811E+02
 
    0.96295E+05         0.10531E+06         0.00000E+00
    0.10531E+06        -0.96448E+05         0.00000E+00
    0.00000E+00         0.00000E+00        -0.30648E+02
 
    0.93462E+05         0.10910E+06         0.00000E+00
    0.10910E+06        -0.93702E+05         0.00000E+00
    0.00000E+00         0.00000E+00        -0.47965E+02
 
    0.90555E+05         0.11282E+06         0.00000E+00
    0.11282E+06        -0.90887E+05         0.00000E+00
    0.00000E+00         0.00000E+00        -0.66288E+02
 
    0.87574E+05         0.11645E+06         0.00000E+00
    0.11645E+06        -0.88005E+05         0.00000E+00
    0.00000E+00         0.00000E+00        -0.86170E+02
 
    0.84519E+05         0.12001E+06         0.00000E+00
    0.12001E+06        -0.85060E+05         0.00000E+00
    0.00000E+00         0.00000E+00        -0.10820E+03
 
    0.81391E+05         0.12348E+06         0.00000E+00
    0.12348E+06        -0.82056E+05         0.00000E+00
    0.00000E+00         0.00000E+00        -0.13303E+03
 
    0.78189E+05         0.12688E+06         0.00000E+00
    0.12688E+06        -0.78996E+05         0.00000E+00
    0.00000E+00         0.00000E+00        -0.16137E+03
 
    0.74914E+05         0.13018E+06         0.00000E+00
    0.13018E+06        -0.75884E+05         0.00000E+00
    0.00000E+00         0.00000E+00        -0.19401E+03
 
    0.71566E+05         0.13340E+06         0.00000E+00
    0.13340E+06        -0.72725E+05         0.00000E+00
    0.00000E+00         0.00000E+00        -0.23183E+03
 
    0.68145E+05         0.13653E+06         0.00000E+00
    0.13653E+06        -0.69524E+05         0.00000E+00
    0.00000E+00         0.00000E+00        -0.27584E+03
 
    0.64651E+05         0.13957E+06         0.00000E+00
    0.13957E+06        -0.66287E+05         0.00000E+00
    0.00000E+00         0.00000E+00        -0.32715E+03
 
    0.61084E+05         0.14252E+06         0.00000E+00
    0.14252E+06        -0.63019E+05         0.00000E+00
    0.00000E+00         0.00000E+00        -0.38703E+03
 
    0.57444E+05         0.14537E+06         0.00000E+00
    0.14537E+06        -0.59729E+05         0.00000E+00
    0.00000E+00         0.00000E+00        -0.45691E+03
 
    0.53731E+05         0.14813E+06         0.00000E+00
    0.14813E+06        -0.56423E+05         0.00000E+00
    0.00000E+00         0.00000E+00        -0.53839E+03
 
    0.49944E+05         0.15079E+06         0.00000E+00
    0.15079E+06        -0.53111E+05         0.00000E+00
    0.00000E+00         0.00000E+00        -0.63327E+03
 
    0.46083E+05         0.15336E+06         0.00000E+00
    0.15336E+06        -0.49801E+05         0.00000E+00
    0.00000E+00         0.00000E+00        -0.74358E+03
 
    0.42147E+05         0.15582E+06         0.00000E+00
    0.15582E+06        -0.46505E+05         0.00000E+00
    0.00000E+00         0.00000E+00        -0.87154E+03
 
    0.38135E+05         0.15819E+06         0.00000E+00
    0.15819E+06        -0.43233E+05         0.00000E+00
    0.00000E+00         0.00000E+00        -0.10196E+04
 
    0.34045E+05         0.16045E+06         0.00000E+00
    0.16045E+06        -0.39998E+05         0.00000E+00
    0.00000E+00         0.00000E+00        -0.11906E+04
 
    0.29878E+05         0.16261E+06         0.00000E+00
    0.16261E+06        -0.36815E+05         0.00000E+00
    0.00000E+00         0.00000E+00        -0.13874E+04
 
    0.25630E+05         0.16467E+06         0.00000E+00
    0.16467E+06        -0.33697E+05         0.00000E+00
    0.00000E+00         0.00000E+00        -0.16134E+04
 
    0.21301E+05         0.16663E+06         0.00000E+00
    0.16663E+06        -0.30661E+05         0.00000E+00
    0.00000E+00         0.00000E+00        -0.18719E+04
 
    0.16889E+05         0.16848E+06         0.00000E+00
    0.16848E+06        -0.27723E+05         0.00000E+00
    0.00000E+00         0.00000E+00        -0.21668E+04
 
    0.12391E+05         0.17023E+06         0.00000E+00
    0.17023E+06        -0.24901E+05         0.00000E+00
    0.00000E+00         0.00000E+00        -0.25021E+04
 
    0.78047E+04         0.17189E+06         0.00000E+00
    0.17189E+06        -0.22214E+05         0.00000E+00
    0.00000E+00         0.00000E+00        -0.28819E+04
 
    0.31287E+04         0.17344E+06         0.00000E+00
    0.17344E+06        -0.19682E+05         0.00000E+00
    0.00000E+00         0.00000E+00        -0.33106E+04
 
   -0.16399E+04         0.17489E+06         0.00000E+00
    0.17489E+06        -0.17323E+05         0.00000E+00
    0.00000E+00         0.00000E+00        -0.37927E+04
 
    0.15443E+06         0.26079E+04         0.00000E+00
    0.26079E+04        -0.14559E+06         0.00000E+00
    0.00000E+00         0.00000E+00         0.17697E+04
 
    0.15309E+06         0.77812E+04         0.00000E+00
    0.77812E+04        -0.14539E+06         0.00000E+00
    0.00000E+00         0.00000E+00         0.15398E+04
 
    0.15169E+06         0.12933E+05         0.00000E+00
    0.12933E+05        -0.14501E+06         0.00000E+00
    0.00000E+00         0.00000E+00         0.13354E+04
 
    0.15023E+06         0.18061E+05         0.00000E+00
    0.18061E+05        -0.14446E+06         0.00000E+00
    0.00000E+00         0.00000E+00         0.11545E+04
 
    0.14871E+06         0.23161E+05         0.00000E+00
    0.23161E+05        -0.14373E+06         0.00000E+00
    0.00000E+00         0.00000E+00         0.99484E+03
 
    0.14712E+06         0.28233E+05         0.00000E+00
    0.28233E+05        -0.14285E+06         0.00000E+00
    0.00000E+00         0.00000E+00         0.85448E+03
 
    0.14546E+06         0.33272E+05         0.00000E+00
    0.33272E+05        -0.14180E+06         0.00000E+00
    0.00000E+00         0.00000E+00         0.73146E+03
 
    0.14373E+06         0.38277E+05         0.00000E+00
    0.38277E+05        -0.14061E+06         0.00000E+00
    0.00000E+00         0.00000E+00         0.62394E+03
 
    0.14194E+06         0.43245E+05         0.00000E+00
    0.43245E+05        -0.13929E+06         0.00000E+00
    0.00000E+00         0.00000E+00         0.53023E+03
 
    0.14006E+06         0.48173E+05         0.00000E+00
    0.48173E+05        -0.13782E+06         0.00000E+00
    0.00000E+00         0.00000E+00         0.44875E+03
 
    0.13812E+06         0.53058E+05         0.00000E+00
    0.53058E+05        -0.13623E+06         0.00000E+00
    0.00000E+00         0.00000E+00         0.37803E+03
 
    0.13609E+06         0.57900E+05         0.00000E+00
    0.57900E+05        -0.13451E+06         0.00000E+00
    0.00000E+00         0.00000E+00         0.31674E+03
 
    0.13399E+06         0.62694E+05         0.00000E+00
    0.62694E+05        -0.13267E+06         0.00000E+00
    0.00000E+00         0.00000E+00         0.26366E+03
 
    0.13181E+06         0.67438E+05         0.00000E+00
    0.67438E+05        -0.13072E+06         0.00000E+00
    0.00000E+00         0.00000E+00         0.21769E+03
 
    0.12955E+06         0.72131E+05         0.00000E+00
    0.72131E+05        -0.12866E+06         0.00000E+00
    0.00000E+00         0.00000E+00         0.17782E+03
 
    0.12721E+06         0.76769E+05         0.00000E+00
    0.76769E+05        -0.12650E+06         0.00000E+00
    0.00000E+00         0.00000E+00         0.14313E+03
 
    0.12479E+06         0.81350E+05         0.00000E+00
    0.81350E+05        -0.12423E+06         0.00000E+00
    0.00000E+00         0.00000E+00         0.11280E+03
 
    0.12229E+06         0.85871E+05         0.00000E+00
    0.85871E+05        -0.12186E+06         0.00000E+00
    0.00000E+00         0.00000E+00         0.86065E+02
 
    0.11970E+06         0.90331E+05         0.00000E+00
    0.90331E+05        -0.11939E+06         0.00000E+00
    0.00000E+00         0.00000E+00         0.62239E+02
 
    0.11703E+06         0.94727E+05         0.00000E+00
    0.94727E+05        -0.11683E+06         0.00000E+00
    0.00000E+00         0.00000E+00         0.40676E+02
 
    0.11428E+06         0.99056E+05         0.00000E+00
    0.99056E+05        -0.11418E+06         0.00000E+00
    0.00000E+00         0.00000E+00         0.20774E+02
 
    0.11145E+06         0.10332E+06         0.00000E+00
    0.10332E+06        -0.11144E+06         0.00000E+00
    0.00000E+00         0.00000E+00         0.19619E+01
 
    0.10853E+06         0.10750E+06         0.00000E+00
    0.10750E+06        -0.10861E+06         0.00000E+00
    0.00000E+00         0.00000E+00        -0.16317E+02
 
    0.10553E+06         0.11162E+06         0.00000E+00
    0.11162E+06        -0.10570E+06         0.00000E+00
    0.00000E+00         0.00000E+00        -0.34613E+02
 
    0.10245E+06         0.11566E+06         0.00000E+00
    0.11566E+06        -0.10271E+06         0.00000E+00
    0.00000E+00         0.00000E+00        -0.53481E+02
 
    0.99281E+05         0.11962E+06         0.00000E+00
    0.11962E+06        -0.99649E+05         0.00000E+00
    0.00000E+00         0.00000E+00        -0.73495E+02
 
    0.96034E+05         0.12350E+06         0.00000E+00
    0.12350E+06        -0.96510E+05         0.00000E+00
    0.00000E+00         0.00000E+00        -0.95261E+02
 
    0.92705E+05         0.12730E+06         0.00000E+00
    0.12730E+06        -0.93302E+05         0.00000E+00
    0.00000E+00         0.00000E+00        -0.11943E+03
 
    0.89293E+05         0.13101E+06         0.00000E+00
    0.13101E+06        -0.90027E+05         0.00000E+00
    0.00000E+00         0.00000E+00        -0.14671E+03
 
    0.85800E+05         0.13464E+06         0.00000E+00
    0.13464E+06        -0.86690E+05         0.00000E+00
    0.00000E+00         0.00000E+00        -0.17788E+03
 
    0.82226E+05         0.13817E+06         0.00000E+00
    0.13817E+06        -0.83295E+05         0.00000E+00
    0.00000E+00         0.00000E+00        -0.21381E+03
 
    0.78569E+05         0.14162E+06         0.00000E+00
    0.14162E+06        -0.79847E+05         0.00000E+00
    0.00000E+00         0.00000E+00        -0.25548E+03
 
    0.74831E+05         0.14497E+06         0.00000E+00
    0.14497E+06        -0.76351E+05         0.00000E+00
    0.00000E+00         0.00000E+00        -0.30399E+03
 
    0.71012E+05         0.14822E+06         0.00000E+00
    0.14822E+06        -0.72815E+05         0.00000E+00
    0.00000E+00         0.00000E+00        -0.36057E+03
 
    0.67111E+05         0.15138E+06         0.00000E+00
    0.15138E+06        -0.69244E+05         0.00000E+00
    0.00000E+00         0.00000E+00        -0.42662E+03
 
    0.63128E+05         0.15444E+06         0.00000E+00
    0.15444E+06        -0.65646E+05         0.00000E+00
    0.00000E+00         0.00000E+00        -0.50371E+03
 
    0.59062E+05         0.15740E+06         0.00000E+00
    0.15740E+06        -0.62031E+05         0.00000E+00
    0.00000E+00         0.00000E+00        -0.59362E+03
 
    0.54914E+05         0.16026E+06         0.00000E+00
    0.16026E+06        -0.58406E+05         0.00000E+00
    0.00000E+00         0.00000E+00        -0.69832E+03
 
    0.50682E+05         0.16301E+06         0.00000E+00
    0.16301E+06        -0.54782E+05         0.00000E+00
    0.00000E+00         0.00000E+00        -0.82005E+03
 
    0.46365E+05         0.16566E+06         0.00000E+00
    0.16566E+06        -0.51172E+05         0.00000E+00
    0.00000E+00         0.00000E+00        -0.96128E+03
 
    0.41963E+05         0.16820E+06         0.00000E+00
    0.16820E+06        -0.47586E+05         0.00000E+00
    0.00000E+00         0.00000E+00        -0.11247E+04
 
    0.37473E+05         0.17064E+06         0.00000E+00
    0.17064E+06        -0.44040E+05         0.00000E+00
    0.00000E+00         0.00000E+00        -0.13134E+04
 
    0.32895E+05         0.17296E+06         0.00000E+00
    0.17296E+06        -0.40548E+05         0.00000E+00
    0.00000E+00         0.00000E+00        -0.15307E+04
 
    0.28226E+05         0.17518E+06         0.00000E+00
    0.17518E+06        -0.37127E+05         0.00000E+00
    0.00000E+00         0.00000E+00        -0.17800E+04
 
    0.23465E+05         0.17729E+06         0.00000E+00
    0.17729E+06        -0.33792E+05         0.00000E+00
    0.00000E+00         0.00000E+00        -0.20654E+04
 
    0.18610E+05         0.17929E+06         0.00000E+00
    0.17929E+06        -0.30564E+05         0.00000E+00
    0.00000E+00         0.00000E+00        -0.23909E+04
 
    0.13657E+05         0.18118E+06         0.00000E+00
    0.18118E+06        -0.27462E+05         0.00000E+00
    0.00000E+00         0.00000E+00        -0.27609E+04
 
    0.86044E+04         0.18296E+06         0.00000E+00
    0.18296E+06        -0.24505E+05         0.00000E+00
    0.00000E+00         0.00000E+00        -0.31801E+04
 
    0.34497E+04         0.18464E+06         0.00000E+00
    0.18464E+06        -0.21716E+05         0.00000E+00
    0.00000E+00         0.00000E+00        -0.36533E+04
 
   -0.18102E+04         0.18620E+06         0.00000E+00
    0.18620E+06        -0.19116E+05         0.00000E+00
    0.00000E+00         0.00000E+00        -0.41853E+04
 
    0.16803E+06         0.27509E+04         0.00000E+00
    0.27509E+04        -0.15862E+06         0.00000E+00
    0.00000E+00         0.00000E+00         0.18808E+04
 
    0.16660E+06         0.82143E+04         0.00000E+00
    0.82143E+04        -0.15842E+06         0.00000E+00
    0.00000E+00         0.00000E+00         0.16360E+04
 
    0.16510E+06         0.13658E+05         0.00000E+00
    0.13658E+05        -0.15801E+06         0.00000E+00
    0.00000E+00         0.00000E+00         0.14184E+04
 
    0.16355E+06         0.19079E+05         0.00000E+00
    0.19079E+05        -0.15742E+06         0.00000E+00
    0.00000E+00         0.00000E+00         0.12259E+04
 
    0.16192E+06         0.24474E+05         0.00000E+00
    0.24474E+05        -0.15664E+06         0.00000E+00
    0.00000E+00         0.00000E+00         0.10561E+04
 
    0.16022E+06         0.29842E+05         0.00000E+00
    0.29842E+05        -0.15569E+06         0.00000E+00
    0.00000E+00         0.00000E+00         0.90677E+03
 
    0.15845E+06         0.35178E+05         0.00000E+00
    0.35178E+05        -0.15457E+06         0.00000E+00
    0.00000E+00         0.00000E+00         0.77595E+03
 
    0.15660E+06         0.40481E+05         0.00000E+00
    0.40481E+05        -0.15329E+06         0.00000E+00
    0.00000E+00         0.00000E+00         0.66164E+03
 
    0.15467E+06         0.45747E+05         0.00000E+00
    0.45747E+05        -0.15186E+06         0.00000E+00
    0.00000E+00         0.00000E+00         0.56203E+03
 
    0.15266E+06         0.50973E+05         0.00000E+00
    0.50973E+05        -0.15028E+06         0.00000E+00
    0.00000E+00         0.00000E+00         0.47543E+03
 
    0.15057E+06         0.56158E+05         0.00000E+00
    0.56158E+05        -0.14857E+06         0.00000E+00
    0.00000E+00         0.00000E+00         0.40029E+03
 
    0.14840E+06         0.61298E+05         0.00000E+00
    0.61298E+05        -0.14672E+06         0.00000E+00
    0.00000E+00         0.00000E+00         0.33518E+03
 
    0.14613E+06         0.66391E+05         0.00000E+00
    0.66391E+05        -0.14474E+06         0.00000E+00
    0.00000E+00         0.00000E+00         0.27881E+03
 
    0.14379E+06         0.71433E+05         0.00000E+00
    0.71433E+05        -0.14264E+06         0.00000E+00
    0.00000E+00         0.00000E+00         0.22998E+03
 
    0.14135E+06         0.76422E+05         0.00000E+00
    0.76422E+05        -0.14041E+06         0.00000E+00
    0.00000E+00         0.00000E+00         0.18763E+03
 
    0.13882E+06         0.81356E+05         0.00000E+00
    0.81356E+05        -0.13807E+06         0.00000E+00
    0.00000E+00         0.00000E+00         0.15077E+03
 
    0.13621E+06         0.86232E+05         0.00000E+00
    0.86232E+05        -0.13562E+06         0.00000E+00
    0.00000E+00         0.00000E+00         0.11853E+03
 
    0.13350E+06         0.91046E+05         0.00000E+00
    0.91046E+05        -0.13305E+06         0.00000E+00
    0.00000E+00         0.00000E+00         0.90091E+02
 
    0.13071E+06         0.95797E+05         0.00000E+00
    0.95797E+05        -0.13038E+06         0.00000E+00
    0.00000E+00         0.00000E+00         0.64714E+02
 
    0.12782E+06         0.10048E+06         0.00000E+00
    0.10048E+06        -0.12761E+06         0.00000E+00
    0.00000E+00         0.00000E+00         0.41709E+02
 
    0.12484E+06         0.10510E+06         0.00000E+00
    0.10510E+06        -0.12474E+06         0.00000E+00
    0.00000E+00         0.00000E+00         0.20430E+02
 
    0.12177E+06         0.10964E+06         0.00000E+00
    0.10964E+06        -0.12177E+06         0.00000E+00
    0.00000E+00         0.00000E+00         0.25968E+00
 
    0.11861E+06         0.11411E+06         0.00000E+00
    0.11411E+06        -0.11870E+06         0.00000E+00
    0.00000E+00         0.00000E+00        -0.19401E+02
 
    0.11535E+06         0.11851E+06         0.00000E+00
    0.11851E+06        -0.11555E+06         0.00000E+00
    0.00000E+00         0.00000E+00        -0.39147E+02
 
    0.11201E+06         0.12282E+06         0.00000E+00
    0.12282E+06        -0.11230E+06         0.00000E+00
    0.00000E+00         0.00000E+00        -0.59580E+02
 
    0.10857E+06         0.12705E+06         0.00000E+00
    0.12705E+06        -0.10898E+06         0.00000E+00
    0.00000E+00         0.00000E+00        -0.81326E+02
 
    0.10504E+06         0.13120E+06         0.00000E+00
    0.13120E+06        -0.10557E+06         0.00000E+00
    0.00000E+00         0.00000E+00        -0.10504E+03
 
    0.10142E+06         0.13527E+06         0.00000E+00
    0.13527E+06        -0.10208E+06         0.00000E+00
    0.00000E+00         0.00000E+00        -0.13144E+03
 
    0.97712E+05         0.13924E+06         0.00000E+00
    0.13924E+06        -0.98519E+05         0.00000E+00
    0.00000E+00         0.00000E+00        -0.16130E+03
 
    0.93911E+05         0.14312E+06         0.00000E+00
    0.14312E+06        -0.94889E+05         0.00000E+00
    0.00000E+00         0.00000E+00        -0.19547E+03
 
    0.90020E+05         0.14691E+06         0.00000E+00
    0.14691E+06        -0.91194E+05         0.00000E+00
    0.00000E+00         0.00000E+00        -0.23492E+03
 
    0.86037E+05         0.15060E+06         0.00000E+00
    0.15060E+06        -0.87441E+05         0.00000E+00
    0.00000E+00         0.00000E+00        -0.28070E+03
 
    0.81964E+05         0.15420E+06         0.00000E+00
    0.15420E+06        -0.83634E+05         0.00000E+00
    0.00000E+00         0.00000E+00        -0.33403E+03
 
    0.77800E+05         0.15769E+06         0.00000E+00
    0.15769E+06        -0.79781E+05         0.00000E+00
    0.00000E+00         0.00000E+00        -0.39626E+03
 
    0.73545E+05         0.16108E+06         0.00000E+00
    0.16108E+06        -0.75890E+05         0.00000E+00
    0.00000E+00         0.00000E+00        -0.46894E+03
 
    0.69198E+05         0.16437E+06         0.00000E+00
    0.16437E+06        -0.71967E+05         0.00000E+00
    0.00000E+00         0.00000E+00        -0.55380E+03
 
    0.64759E+05         0.16755E+06         0.00000E+00
    0.16755E+06        -0.68023E+05         0.00000E+00
    0.00000E+00         0.00000E+00        -0.65277E+03
 
    0.60227E+05         0.17063E+06         0.00000E+00
    0.17063E+06        -0.64067E+05         0.00000E+00
    0.00000E+00         0.00000E+00        -0.76806E+03
 
    0.55600E+05         0.17359E+06         0.00000E+00
    0.17359E+06        -0.60111E+05         0.00000E+00
    0.00000E+00         0.00000E+00        -0.90210E+03
 
    0.50879E+05         0.17644E+06         0.00000E+00
    0.17644E+06        -0.56167E+05         0.00000E+00
    0.00000E+00         0.00000E+00        -0.10576E+04
 
    0.46061E+05         0.17919E+06         0.00000E+00
    0.17919E+06        -0.52250E+05         0.00000E+00
    0.00000E+00         0.00000E+00        -0.12376E+04
 
    0.41145E+05         0.18181E+06         0.00000E+00
    0.18181E+06        -0.48373E+05         0.00000E+00
    0.00000E+00         0.00000E+00        -0.14454E+04
 
    0.36129E+05         0.18433E+06         0.00000E+00
    0.18433E+06        -0.44553E+05         0.00000E+00
    0.00000E+00         0.00000E+00        -0.16847E+04
 
    0.31011E+05         0.18672E+06         0.00000E+00
    0.18672E+06        -0.40808E+05         0.00000E+00
    0.00000E+00         0.00000E+00        -0.19594E+04
 
    0.25788E+05         0.18900E+06         0.00000E+00
    0.18900E+06        -0.37157E+05         0.00000E+00
    0.00000E+00         0.00000E+00        -0.22736E+04
 
    0.20458E+05         0.19117E+06         0.00000E+00
    0.19117E+06        -0.33619E+05         0.00000E+00
    0.00000E+00         0.00000E+00        -0.26322E+04
 
    0.15018E+05         0.19322E+06         0.00000E+00
    0.19322E+06        -0.30217E+05         0.00000E+00
    0.00000E+00         0.00000E+00        -0.30397E+04
 
    0.94647E+04         0.19515E+06         0.00000E+00
    0.19515E+06        -0.26972E+05         0.00000E+00
    0.00000E+00         0.00000E+00        -0.35014E+04
 
    0.37952E+04         0.19697E+06         0.00000E+00
    0.19697E+06        -0.23908E+05         0.00000E+00
    0.00000E+00         0.00000E+00        -0.40225E+04
 
   -0.19937E+04         0.19867E+06         0.00000E+00
    0.19867E+06        -0.21049E+05         0.00000E+00
    0.00000E+00         0.00000E+00        -0.46085E+04
 
    0.18233E+06         0.29049E+04         0.00000E+00
    0.29049E+04        -0.17246E+06         0.00000E+00
    0.00000E+00         0.00000E+00         0.19749E+04
 
    0.18082E+06         0.86829E+04         0.00000E+00
    0.86829E+04        -0.17224E+06         0.00000E+00
    0.00000E+00         0.00000E+00         0.17172E+04
 
    0.17925E+06         0.14444E+05         0.00000E+00
    0.14444E+05        -0.17181E+06         0.00000E+00
    0.00000E+00         0.00000E+00         0.14883E+04
 
    0.17760E+06         0.20184E+05         0.00000E+00
    0.20184E+05        -0.17117E+06         0.00000E+00
    0.00000E+00         0.00000E+00         0.12858E+04
 
    0.17587E+06         0.25901E+05         0.00000E+00
    0.25901E+05        -0.17034E+06         0.00000E+00
    0.00000E+00         0.00000E+00         0.11073E+04
 
    0.17407E+06         0.31591E+05         0.00000E+00
    0.31591E+05        -0.16932E+06         0.00000E+00
    0.00000E+00         0.00000E+00         0.95033E+03
 
    0.17218E+06         0.37252E+05         0.00000E+00
    0.37252E+05        -0.16812E+06         0.00000E+00
    0.00000E+00         0.00000E+00         0.81285E+03
 
    0.17021E+06         0.42881E+05         0.00000E+00
    0.42881E+05        -0.16675E+06         0.00000E+00
    0.00000E+00         0.00000E+00         0.69277E+03
 
    0.16816E+06         0.48473E+05         0.00000E+00
    0.48473E+05        -0.16522E+06         0.00000E+00
    0.00000E+00         0.00000E+00         0.58815E+03
 
    0.16601E+06         0.54028E+05         0.00000E+00
    0.54028E+05        -0.16353E+06         0.00000E+00
    0.00000E+00         0.00000E+00         0.49723E+03
 
    0.16377E+06         0.59540E+05         0.00000E+00
    0.59540E+05        -0.16168E+06         0.00000E+00
    0.00000E+00         0.00000E+00         0.41835E+03
 
    0.16144E+06         0.65008E+05         0.00000E+00
    0.65008E+05        -0.15969E+06         0.00000E+00
    0.00000E+00         0.00000E+00         0.35002E+03
 
    0.15902E+06         0.70428E+05         0.00000E+00
    0.70428E+05        -0.15756E+06         0.00000E+00
    0.00000E+00         0.00000E+00         0.29087E+03
 
    0.15649E+06         0.75796E+05         0.00000E+00
    0.75796E+05        -0.15530E+06         0.00000E+00
    0.00000E+00         0.00000E+00         0.23963E+03
 
    0.15387E+06         0.81112E+05         0.00000E+00
    0.81112E+05        -0.15290E+06         0.00000E+00
    0.00000E+00         0.00000E+00         0.19519E+03
 
    0.15115E+06         0.86370E+05         0.00000E+00
    0.86370E+05        -0.15037E+06         0.00000E+00
    0.00000E+00         0.00000E+00         0.15650E+03
 
    0.14834E+06         0.91568E+05         0.00000E+00
    0.91568E+05        -0.14772E+06         0.00000E+00
    0.00000E+00         0.00000E+00         0.12264E+03
 
    0.14542E+06         0.96704E+05         0.00000E+00
    0.96704E+05        -0.14496E+06         0.00000E+00
    0.00000E+00         0.00000E+00         0.92739E+02
 
    0.14240E+06         0.10177E+06         0.00000E+00
    0.10177E+06        -0.14207E+06         0.00000E+00
    0.00000E+00         0.00000E+00         0.66017E+02
 
    0.13928E+06         0.10677E+06         0.00000E+00
    0.10677E+06        -0.13907E+06         0.00000E+00
    0.00000E+00         0.00000E+00         0.41741E+02
 
    0.13606E+06         0.11170E+06         0.00000E+00
    0.11170E+06        -0.13597E+06         0.00000E+00
    0.00000E+00         0.00000E+00         0.19221E+02
 
    0.13274E+06         0.11656E+06         0.00000E+00
    0.11656E+06        -0.13275E+06         0.00000E+00
    0.00000E+00         0.00000E+00        -0.22006E+01
 
    0.12932E+06         0.12134E+06         0.00000E+00
    0.12134E+06        -0.12944E+06         0.00000E+00
    0.00000E+00         0.00000E+00        -0.23166E+02
 
    0.12580E+06         0.12604E+06         0.00000E+00
    0.12604E+06        -0.12602E+06         0.00000E+00
    0.00000E+00         0.00000E+00        -0.44315E+02
 
    0.12217E+06         0.13065E+06         0.00000E+00
    0.13065E+06        -0.12250E+06         0.00000E+00
    0.00000E+00         0.00000E+00        -0.66296E+02
 
    0.11845E+06         0.13518E+06         0.00000E+00
    0.13518E+06        -0.11890E+06         0.00000E+00
    0.00000E+00         0.00000E+00        -0.89786E+02
 
    0.11462E+06         0.13962E+06         0.00000E+00
    0.13962E+06        -0.11520E+06         0.00000E+00
    0.00000E+00         0.00000E+00        -0.11550E+03
 
    0.11070E+06         0.14398E+06         0.00000E+00
    0.14398E+06        -0.11142E+06         0.00000E+00
    0.00000E+00         0.00000E+00        -0.14421E+03
 
    0.10667E+06         0.14823E+06         0.00000E+00
    0.14823E+06        -0.10755E+06         0.00000E+00
    0.00000E+00         0.00000E+00        -0.17677E+03
 
    0.10254E+06         0.15240E+06         0.00000E+00
    0.15240E+06        -0.10361E+06         0.00000E+00
    0.00000E+00         0.00000E+00        -0.21410E+03
 
    0.98314E+05         0.15646E+06         0.00000E+00
    0.15646E+06        -0.99601E+05         0.00000E+00
    0.00000E+00         0.00000E+00        -0.25725E+03
 
    0.93986E+05         0.16043E+06         0.00000E+00
    0.16043E+06        -0.95523E+05         0.00000E+00
    0.00000E+00         0.00000E+00        -0.30740E+03
 
    0.89558E+05         0.16429E+06         0.00000E+00
    0.16429E+06        -0.91387E+05         0.00000E+00
    0.00000E+00         0.00000E+00        -0.36587E+03
 
    0.85028E+05         0.16804E+06         0.00000E+00
    0.16804E+06        -0.87199E+05         0.00000E+00
    0.00000E+00         0.00000E+00        -0.43415E+03
 
    0.80397E+05         0.17169E+06         0.00000E+00
    0.17169E+06        -0.82967E+05         0.00000E+00
    0.00000E+00         0.00000E+00        -0.51392E+03
 
    0.75665E+05         0.17523E+06         0.00000E+00
    0.17523E+06        -0.78700E+05         0.00000E+00
    0.00000E+00         0.00000E+00        -0.60708E+03
 
    0.70829E+05         0.17865E+06         0.00000E+00
    0.17865E+06        -0.74408E+05         0.00000E+00
    0.00000E+00         0.00000E+00        -0.71579E+03
 
    0.65890E+05         0.18197E+06         0.00000E+00
    0.18197E+06        -0.70102E+05         0.00000E+00
    0.00000E+00         0.00000E+00        -0.84243E+03
 
    0.60846E+05         0.18517E+06         0.00000E+00
    0.18517E+06        -0.65794E+05         0.00000E+00
    0.00000E+00         0.00000E+00        -0.98969E+03
 
    0.55695E+05         0.18825E+06         0.00000E+00
    0.18825E+06        -0.61498E+05         0.00000E+00
    0.00000E+00         0.00000E+00        -0.11606E+04
 
    0.50436E+05         0.19121E+06         0.00000E+00
    0.19121E+06        -0.57228E+05         0.00000E+00
    0.00000E+00         0.00000E+00        -0.13584E+04
 
    0.45067E+05         0.19405E+06         0.00000E+00
    0.19405E+06        -0.53001E+05         0.00000E+00
    0.00000E+00         0.00000E+00        -0.15867E+04
 
    0.39586E+05         0.19677E+06         0.00000E+00
    0.19677E+06        -0.48834E+05         0.00000E+00
    0.00000E+00         0.00000E+00        -0.18496E+04
 
    0.33989E+05         0.19937E+06         0.00000E+00
    0.19937E+06        -0.44746E+05         0.00000E+00
    0.00000E+00         0.00000E+00        -0.21515E+04
 
    0.28274E+05         0.20185E+06         0.00000E+00
    0.20185E+06        -0.40758E+05         0.00000E+00
    0.00000E+00         0.00000E+00        -0.24969E+04
 
    0.22437E+05         0.20420E+06         0.00000E+00
    0.20420E+06        -0.36892E+05         0.00000E+00
    0.00000E+00         0.00000E+00        -0.28909E+04
 
    0.16476E+05         0.20643E+06         0.00000E+00
    0.20643E+06        -0.33170E+05         0.00000E+00
    0.00000E+00         0.00000E+00        -0.33388E+04
 
    0.10387E+05         0.20854E+06         0.00000E+00
    0.20854E+06        -0.29618E+05         0.00000E+00
    0.00000E+00         0.00000E+00        -0.38462E+04
 
    0.41662E+04         0.21052E+06         0.00000E+00
    0.21052E+06        -0.26261E+05         0.00000E+00
    0.00000E+00         0.00000E+00        -0.44189E+04
 
   -0.21907E+04         0.21238E+06         0.00000E+00
    0.21238E+06        -0.23124E+05         0.00000E+00
    0.00000E+00         0.00000E+00        -0.50630E+04
 
    0.19739E+06         0.30723E+04         0.00000E+00
    0.30723E+04        -0.18717E+06         0.00000E+00
    0.00000E+00         0.00000E+00         0.20444E+04
 
    0.19582E+06         0.91942E+04         0.00000E+00
    0.91942E+04        -0.18694E+06         0.00000E+00
    0.00000E+00         0.00000E+00         0.17770E+04
 
    0.19417E+06         0.15302E+05         0.00000E+00
    0.15302E+05        -0.18648E+06         0.00000E+00
    0.00000E+00         0.00000E+00         0.15395E+04
 
    0.19245E+06         0.21393E+05         0.00000E+00
    0.21393E+05        -0.18580E+06         0.00000E+00
    0.00000E+00         0.00000E+00         0.13294E+04
 
    0.19063E+06         0.27463E+05         0.00000E+00
    0.27463E+05        -0.18491E+06         0.00000E+00
    0.00000E+00         0.00000E+00         0.11442E+04
 
    0.18873E+06         0.33509E+05         0.00000E+00
    0.33509E+05        -0.18382E+06         0.00000E+00
    0.00000E+00         0.00000E+00         0.98153E+03
 
    0.18674E+06         0.39527E+05         0.00000E+00
    0.39527E+05        -0.18254E+06         0.00000E+00
    0.00000E+00         0.00000E+00         0.83905E+03
 
    0.18465E+06         0.45515E+05         0.00000E+00
    0.45515E+05        -0.18107E+06         0.00000E+00
    0.00000E+00         0.00000E+00         0.71464E+03
 
    0.18246E+06         0.51467E+05         0.00000E+00
    0.51467E+05        -0.17943E+06         0.00000E+00
    0.00000E+00         0.00000E+00         0.60630E+03
 
    0.18018E+06         0.57382E+05         0.00000E+00
    0.57382E+05        -0.17761E+06         0.00000E+00
    0.00000E+00         0.00000E+00         0.51217E+03
 
    0.17779E+06         0.63255E+05         0.00000E+00
    0.63255E+05        -0.17564E+06         0.00000E+00
    0.00000E+00         0.00000E+00         0.43054E+03
 
    0.17530E+06         0.69084E+05         0.00000E+00
    0.69084E+05        -0.17350E+06         0.00000E+00
    0.00000E+00         0.00000E+00         0.35984E+03
 
    0.17270E+06         0.74863E+05         0.00000E+00
    0.74863E+05        -0.17121E+06         0.00000E+00
    0.00000E+00         0.00000E+00         0.29864E+03
 
    0.16999E+06         0.80591E+05         0.00000E+00
    0.80591E+05        -0.16877E+06         0.00000E+00
    0.00000E+00         0.00000E+00         0.24565E+03
 
    0.16718E+06         0.86264E+05         0.00000E+00
    0.86264E+05        -0.16618E+06         0.00000E+00
    0.00000E+00         0.00000E+00         0.19967E+03
 
    0.16426E+06         0.91878E+05         0.00000E+00
    0.91878E+05        -0.16346E+06         0.00000E+00
    0.00000E+00         0.00000E+00         0.15963E+03
 
    0.16123E+06         0.97430E+05         0.00000E+00
    0.97430E+05        -0.16060E+06         0.00000E+00
    0.00000E+00         0.00000E+00         0.12456E+03
 
    0.15808E+06         0.10292E+06         0.00000E+00
    0.10292E+06        -0.15762E+06         0.00000E+00
    0.00000E+00         0.00000E+00         0.93552E+02
 
    0.15483E+06         0.10834E+06         0.00000E+00
    0.10834E+06        -0.15450E+06         0.00000E+00
    0.00000E+00         0.00000E+00         0.65785E+02
 
    0.15146E+06         0.11368E+06         0.00000E+00
    0.11368E+06        -0.15126E+06         0.00000E+00
    0.00000E+00         0.00000E+00         0.40488E+02
 
    0.14799E+06         0.11895E+06         0.00000E+00
    0.11895E+06        -0.14790E+06         0.00000E+00
    0.00000E+00         0.00000E+00         0.16936E+02
 
    0.14440E+06         0.12415E+06         0.00000E+00
    0.12415E+06        -0.14443E+06         0.00000E+00
    0.00000E+00         0.00000E+00        -0.55691E+01
 
    0.14070E+06         0.12926E+06         0.00000E+00
    0.12926E+06        -0.14084E+06         0.00000E+00
    0.00000E+00         0.00000E+00        -0.27709E+02
 
    0.13689E+06         0.13429E+06         0.00000E+00
    0.13429E+06        -0.13714E+06         0.00000E+00
    0.00000E+00         0.00000E+00        -0.50164E+02
 
    0.13297E+06         0.13923E+06         0.00000E+00
    0.13923E+06        -0.13334E+06         0.00000E+00
    0.00000E+00         0.00000E+00        -0.73633E+02
 
    0.12893E+06         0.14409E+06         0.00000E+00
    0.14409E+06        -0.12943E+06         0.00000E+00
    0.00000E+00         0.00000E+00        -0.98842E+02
 
    0.12479E+06         0.14885E+06         0.00000E+00
    0.14885E+06        -0.12542E+06         0.00000E+00
    0.00000E+00         0.00000E+00        -0.12656E+03
 
    0.12054E+06         0.15351E+06         0.00000E+00
    0.15351E+06        -0.12133E+06         0.00000E+00
    0.00000E+00         0.00000E+00        -0.15763E+03
 
    0.11617E+06         0.15808E+06         0.00000E+00
    0.15808E+06        -0.11714E+06         0.00000E+00
    0.00000E+00         0.00000E+00        -0.19297E+03
 
    0.11170E+06         0.16254E+06         0.00000E+00
    0.16254E+06        -0.11287E+06         0.00000E+00
    0.00000E+00         0.00000E+00        -0.23359E+03
 
    0.10711E+06         0.16691E+06         0.00000E+00
    0.16691E+06        -0.10852E+06         0.00000E+00
    0.00000E+00         0.00000E+00        -0.28064E+03
 
    0.10242E+06         0.17116E+06         0.00000E+00
    0.17116E+06        -0.10409E+06         0.00000E+00
    0.00000E+00         0.00000E+00        -0.33538E+03
 
    0.97612E+05         0.17531E+06         0.00000E+00
    0.17531E+06        -0.99608E+05         0.00000E+00
    0.00000E+00         0.00000E+00        -0.39928E+03
 
    0.92694E+05         0.17935E+06         0.00000E+00
    0.17935E+06        -0.95064E+05         0.00000E+00
    0.00000E+00         0.00000E+00        -0.47396E+03
 
    0.87666E+05         0.18328E+06         0.00000E+00
    0.18328E+06        -0.90472E+05         0.00000E+00
    0.00000E+00         0.00000E+00        -0.56126E+03
 
    0.82524E+05         0.18709E+06         0.00000E+00
    0.18709E+06        -0.85840E+05         0.00000E+00
    0.00000E+00         0.00000E+00        -0.66327E+03
 
    0.77269E+05         0.19078E+06         0.00000E+00
    0.19078E+06        -0.81181E+05         0.00000E+00
    0.00000E+00         0.00000E+00        -0.78233E+03
 
    0.71899E+05         0.19435E+06         0.00000E+00
    0.19435E+06        -0.76504E+05         0.00000E+00
    0.00000E+00         0.00000E+00        -0.92106E+03
 
    0.66412E+05         0.19781E+06         0.00000E+00
    0.19781E+06        -0.71824E+05         0.00000E+00
    0.00000E+00         0.00000E+00        -0.10824E+04
 
    0.60807E+05         0.20114E+06         0.00000E+00
    0.20114E+06        -0.67156E+05         0.00000E+00
    0.00000E+00         0.00000E+00        -0.12697E+04
 
    0.55082E+05         0.20434E+06         0.00000E+00
    0.20434E+06        -0.62514E+05         0.00000E+00
    0.00000E+00         0.00000E+00        -0.14865E+04
 
    0.49233E+05         0.20742E+06         0.00000E+00
    0.20742E+06        -0.57917E+05         0.00000E+00
    0.00000E+00         0.00000E+00        -0.17368E+04
 
    0.43258E+05         0.21038E+06         0.00000E+00
    0.21038E+06        -0.53383E+05         0.00000E+00
    0.00000E+00         0.00000E+00        -0.20250E+04
 
    0.37154E+05         0.21320E+06         0.00000E+00
    0.21320E+06        -0.48934E+05         0.00000E+00
    0.00000E+00         0.00000E+00        -0.23558E+04
 
    0.30918E+05         0.21590E+06         0.00000E+00
    0.21590E+06        -0.44590E+05         0.00000E+00
    0.00000E+00         0.00000E+00        -0.27345E+04
 
    0.24544E+05         0.21846E+06         0.00000E+00
    0.21846E+06        -0.40376E+05         0.00000E+00
    0.00000E+00         0.00000E+00        -0.31664E+04
 
    0.18030E+05         0.22090E+06         0.00000E+00
    0.22090E+06        -0.36318E+05         0.00000E+00
    0.00000E+00         0.00000E+00        -0.36575E+04
 
    0.11371E+05         0.22321E+06         0.00000E+00
    0.22321E+06        -0.32440E+05         0.00000E+00
    0.00000E+00         0.00000E+00        -0.42138E+04
 
    0.45623E+04         0.22538E+06         0.00000E+00
    0.22538E+06        -0.28771E+05         0.00000E+00
    0.00000E+00         0.00000E+00        -0.48417E+04
 
   -0.24006E+04         0.22743E+06         0.00000E+00
    0.22743E+06        -0.25338E+05         0.00000E+00
    0.00000E+00         0.00000E+00        -0.55478E+04
 
    0.21327E+06         0.32568E+04         0.00000E+00
    0.32568E+04        -0.20287E+06         0.00000E+00
    0.00000E+00         0.00000E+00         0.20813E+04
 
    0.21166E+06         0.97595E+04         0.00000E+00
    0.97595E+04        -0.20262E+06         0.00000E+00
    0.00000E+00         0.00000E+00         0.18080E+04
 
    0.20995E+06         0.16253E+05         0.00000E+00
    0.16253E+05        -0.20213E+06         0.00000E+00
    0.00000E+00         0.00000E+00         0.15656E+04
 
    0.20816E+06         0.22733E+05         0.00000E+00
    0.22733E+05        -0.20140E+06         0.00000E+00
    0.00000E+00         0.00000E+00         0.13511E+04
 
    0.20627E+06         0.29195E+05         0.00000E+00
    0.29195E+05        -0.20046E+06         0.00000E+00
    0.00000E+00         0.00000E+00         0.11622E+04
 
    0.20427E+06         0.35636E+05         0.00000E+00
    0.35636E+05        -0.19929E+06         0.00000E+00
    0.00000E+00         0.00000E+00         0.99629E+03
 
    0.20218E+06         0.42051E+05         0.00000E+00
    0.42051E+05        -0.19792E+06         0.00000E+00
    0.00000E+00         0.00000E+00         0.85104E+03
 
    0.19997E+06         0.48437E+05         0.00000E+00
    0.48437E+05        -0.19635E+06         0.00000E+00
    0.00000E+00         0.00000E+00         0.72427E+03
 
    0.19766E+06         0.54790E+05         0.00000E+00
    0.54790E+05        -0.19459E+06         0.00000E+00
    0.00000E+00         0.00000E+00         0.61391E+03
 
    0.19523E+06         0.61104E+05         0.00000E+00
    0.61104E+05        -0.19264E+06         0.00000E+00
    0.00000E+00         0.00000E+00         0.51807E+03
 
    0.19268E+06         0.67377E+05         0.00000E+00
    0.67377E+05        -0.19051E+06         0.00000E+00
    0.00000E+00         0.00000E+00         0.43499E+03
 
    0.19002E+06         0.73604E+05         0.00000E+00
    0.73604E+05        -0.18821E+06         0.00000E+00
    0.00000E+00         0.00000E+00         0.36307E+03
 
    0.18725E+06         0.79782E+05         0.00000E+00
    0.79782E+05        -0.18574E+06         0.00000E+00
    0.00000E+00         0.00000E+00         0.30082E+03
 
    0.18435E+06         0.85905E+05         0.00000E+00
    0.85905E+05        -0.18311E+06         0.00000E+00
    0.00000E+00         0.00000E+00         0.24692E+03
 
    0.18133E+06         0.91972E+05         0.00000E+00
    0.91972E+05        -0.18033E+06         0.00000E+00
    0.00000E+00         0.00000E+00         0.20015E+03
 
    0.17819E+06         0.97977E+05         0.00000E+00
    0.97977E+05        -0.17739E+06         0.00000E+00
    0.00000E+00         0.00000E+00         0.15941E+03
 
    0.17492E+06         0.10392E+06         0.00000E+00
    0.10392E+06        -0.17430E+06         0.00000E+00
    0.00000E+00         0.00000E+00         0.12368E+03
 
    0.17154E+06         0.10979E+06         0.00000E+00
    0.10979E+06        -0.17108E+06         0.00000E+00
    0.00000E+00         0.00000E+00         0.92038E+02
 
    0.16803E+06         0.11559E+06         0.00000E+00
    0.11559E+06        -0.16771E+06         0.00000E+00
    0.00000E+00         0.00000E+00         0.63632E+02
 
    0.16439E+06         0.12131E+06         0.00000E+00
    0.12131E+06        -0.16421E+06         0.00000E+00
    0.00000E+00         0.00000E+00         0.37660E+02
 
    0.16064E+06         0.12695E+06         0.00000E+00
    0.12695E+06        -0.16057E+06         0.00000E+00
    0.00000E+00         0.00000E+00         0.13366E+02
 
    0.15676E+06         0.13251E+06         0.00000E+00
    0.13251E+06        -0.15681E+06         0.00000E+00
    0.00000E+00         0.00000E+00        -0.99800E+01
 
    0.15276E+06         0.13799E+06         0.00000E+00
    0.13799E+06        -0.15293E+06         0.00000E+00
    0.00000E+00         0.00000E+00        -0.33097E+02
 
    0.14864E+06         0.14338E+06         0.00000E+00
    0.14338E+06        -0.14892E+06         0.00000E+00
    0.00000E+00         0.00000E+00        -0.56705E+02
 
    0.14440E+06         0.14867E+06         0.00000E+00
    0.14867E+06        -0.14480E+06         0.00000E+00
    0.00000E+00         0.00000E+00        -0.81546E+02
 
    0.14003E+06         0.15387E+06         0.00000E+00
    0.15387E+06        -0.14057E+06         0.00000E+00
    0.00000E+00         0.00000E+00        -0.10840E+03
 
    0.13555E+06         0.15897E+06         0.00000E+00
    0.15897E+06        -0.13624E+06         0.00000E+00
    0.00000E+00         0.00000E+00        -0.13808E+03
 
    0.13094E+06         0.16397E+06         0.00000E+00
    0.16397E+06        -0.13180E+06         0.00000E+00
    0.00000E+00         0.00000E+00        -0.17151E+03
 
    0.12621E+06         0.16887E+06         0.00000E+00
    0.16887E+06        -0.12726E+06         0.00000E+00
    0.00000E+00         0.00000E+00        -0.20967E+03
 
    0.12137E+06         0.17366E+06         0.00000E+00
    0.17366E+06        -0.12264E+06         0.00000E+00
    0.00000E+00         0.00000E+00        -0.25367E+03
 
    0.11640E+06         0.17834E+06         0.00000E+00
    0.17834E+06        -0.11792E+06         0.00000E+00
    0.00000E+00         0.00000E+00        -0.30473E+03
 
    0.11131E+06         0.18291E+06         0.00000E+00
    0.18291E+06        -0.11314E+06         0.00000E+00
    0.00000E+00         0.00000E+00        -0.36426E+03
 
    0.10611E+06         0.18737E+06         0.00000E+00
    0.18737E+06        -0.10828E+06         0.00000E+00
    0.00000E+00         0.00000E+00        -0.43383E+03
 
    0.10078E+06         0.19171E+06         0.00000E+00
    0.19171E+06        -0.10335E+06         0.00000E+00
    0.00000E+00         0.00000E+00        -0.51521E+03
 
    0.95326E+05         0.19593E+06         0.00000E+00
    0.19593E+06        -0.98378E+05         0.00000E+00
    0.00000E+00         0.00000E+00        -0.61042E+03
 
    0.89751E+05         0.20003E+06         0.00000E+00
    0.20003E+06        -0.93360E+05         0.00000E+00
    0.00000E+00         0.00000E+00        -0.72173E+03
 
    0.84053E+05         0.20401E+06         0.00000E+00
    0.20401E+06        -0.88311E+05         0.00000E+00
    0.00000E+00         0.00000E+00        -0.85169E+03
 
    0.78228E+05         0.20786E+06         0.00000E+00
    0.20786E+06        -0.83244E+05         0.00000E+00
    0.00000E+00         0.00000E+00        -0.10032E+04
 
    0.72275E+05         0.21159E+06         0.00000E+00
    0.21159E+06        -0.78172E+05         0.00000E+00
    0.00000E+00         0.00000E+00        -0.11794E+04
 
    0.66191E+05         0.21519E+06         0.00000E+00
    0.21519E+06        -0.73111E+05         0.00000E+00
    0.00000E+00         0.00000E+00        -0.13840E+04
 
    0.59975E+05         0.21866E+06         0.00000E+00
    0.21866E+06        -0.68079E+05         0.00000E+00
    0.00000E+00         0.00000E+00        -0.16208E+04
 
    0.53622E+05         0.22200E+06         0.00000E+00
    0.22200E+06        -0.63093E+05         0.00000E+00
    0.00000E+00         0.00000E+00        -0.18943E+04
 
    0.47128E+05         0.22521E+06         0.00000E+00
    0.22521E+06        -0.58175E+05         0.00000E+00
    0.00000E+00         0.00000E+00        -0.22093E+04
 
    0.40491E+05         0.22829E+06         0.00000E+00
    0.22829E+06        -0.53346E+05         0.00000E+00
    0.00000E+00         0.00000E+00        -0.25709E+04
 
    0.33706E+05         0.23123E+06         0.00000E+00
    0.23123E+06        -0.48629E+05         0.00000E+00
    0.00000E+00         0.00000E+00        -0.29847E+04
 
    0.26767E+05         0.23403E+06         0.00000E+00
    0.23403E+06        -0.44051E+05         0.00000E+00
    0.00000E+00         0.00000E+00        -0.34568E+04
 
    0.19671E+05         0.23670E+06         0.00000E+00
    0.23670E+06        -0.39638E+05         0.00000E+00
    0.00000E+00         0.00000E+00        -0.39935E+04
 
    0.12410E+05         0.23923E+06         0.00000E+00
    0.23923E+06        -0.35418E+05         0.00000E+00
    0.00000E+00         0.00000E+00        -0.46016E+04
 
    0.49816E+04         0.24163E+06         0.00000E+00
    0.24163E+06        -0.31421E+05         0.00000E+00
    0.00000E+00         0.00000E+00        -0.52879E+04
 
   -0.26219E+04         0.24389E+06         0.00000E+00
    0.24389E+06        -0.27677E+05         0.00000E+00
    0.00000E+00         0.00000E+00        -0.60598E+04
 
    0.23005E+06         0.34637E+04         0.00000E+00
    0.34637E+04        -0.21967E+06         0.00000E+00
    0.00000E+00         0.00000E+00         0.20765E+04
 
    0.22842E+06         0.10395E+05         0.00000E+00
    0.10395E+05        -0.21940E+06         0.00000E+00
    0.00000E+00         0.00000E+00         0.18028E+04
 
    0.22668E+06         0.17322E+05         0.00000E+00
    0.17322E+05        -0.21888E+06         0.00000E+00
    0.00000E+00         0.00000E+00         0.15600E+04
 
    0.22483E+06         0.24240E+05         0.00000E+00
    0.24240E+05        -0.21811E+06         0.00000E+00
    0.00000E+00         0.00000E+00         0.13453E+04
 
    0.22287E+06         0.31144E+05         0.00000E+00
    0.31144E+05        -0.21709E+06         0.00000E+00
    0.00000E+00         0.00000E+00         0.11563E+04
 
    0.22080E+06         0.38030E+05         0.00000E+00
    0.38030E+05        -0.21585E+06         0.00000E+00
    0.00000E+00         0.00000E+00         0.99038E+03
 
    0.21860E+06         0.44892E+05         0.00000E+00
    0.44892E+05        -0.21437E+06         0.00000E+00
    0.00000E+00         0.00000E+00         0.84520E+03
 
    0.21628E+06         0.51725E+05         0.00000E+00
    0.51725E+05        -0.21269E+06         0.00000E+00
    0.00000E+00         0.00000E+00         0.71854E+03
 
    0.21383E+06         0.58525E+05         0.00000E+00
    0.58525E+05        -0.21079E+06         0.00000E+00
    0.00000E+00         0.00000E+00         0.60835E+03
 
    0.21125E+06         0.65287E+05         0.00000E+00
    0.65287E+05        -0.20869E+06         0.00000E+00
    0.00000E+00         0.00000E+00         0.51270E+03
 
    0.20855E+06         0.72006E+05         0.00000E+00
    0.72006E+05        -0.20640E+06         0.00000E+00
    0.00000E+00         0.00000E+00         0.42983E+03
 
    0.20570E+06         0.78678E+05         0.00000E+00
    0.78678E+05        -0.20391E+06         0.00000E+00
    0.00000E+00         0.00000E+00         0.35811E+03
 
    0.20273E+06         0.85297E+05         0.00000E+00
    0.85297E+05        -0.20125E+06         0.00000E+00
    0.00000E+00         0.00000E+00         0.29606E+03
 
    0.19962E+06         0.91859E+05         0.00000E+00
    0.91859E+05        -0.19841E+06         0.00000E+00
    0.00000E+00         0.00000E+00         0.24234E+03
 
    0.19637E+06         0.98360E+05         0.00000E+00
    0.98360E+05        -0.19539E+06         0.00000E+00
    0.00000E+00         0.00000E+00         0.19572E+03
 
    0.19299E+06         0.10479E+06         0.00000E+00
    0.10479E+06        -0.19221E+06         0.00000E+00
    0.00000E+00         0.00000E+00         0.15508E+03
 
    0.18947E+06         0.11116E+06         0.00000E+00
    0.11116E+06        -0.18887E+06         0.00000E+00
    0.00000E+00         0.00000E+00         0.11939E+03
 
    0.18582E+06         0.11745E+06         0.00000E+00
    0.11745E+06        -0.18538E+06         0.00000E+00
    0.00000E+00         0.00000E+00         0.87722E+02
 
    0.18202E+06         0.12366E+06         0.00000E+00
    0.12366E+06        -0.18173E+06         0.00000E+00
    0.00000E+00         0.00000E+00         0.59195E+02
 
    0.17810E+06         0.12980E+06         0.00000E+00
    0.12980E+06        -0.17793E+06         0.00000E+00
    0.00000E+00         0.00000E+00         0.32994E+02
 
    0.17404E+06         0.13584E+06         0.00000E+00
    0.13584E+06        -0.17399E+06         0.00000E+00
    0.00000E+00         0.00000E+00         0.83392E+01
 
    0.16984E+06         0.14180E+06         0.00000E+00
    0.14180E+06        -0.16992E+06         0.00000E+00
    0.00000E+00         0.00000E+00        -0.15526E+02
 
    0.16551E+06         0.14766E+06         0.00000E+00
    0.14766E+06        -0.16571E+06         0.00000E+00
    0.00000E+00         0.00000E+00        -0.39348E+02
 
    0.16105E+06         0.15343E+06         0.00000E+00
    0.15343E+06        -0.16137E+06         0.00000E+00
    0.00000E+00         0.00000E+00        -0.63884E+02
 
    0.15645E+06         0.15910E+06         0.00000E+00
    0.15910E+06        -0.15690E+06         0.00000E+00
    0.00000E+00         0.00000E+00        -0.89916E+02
 
    0.15172E+06         0.16467E+06         0.00000E+00
    0.16467E+06        -0.15232E+06         0.00000E+00
    0.00000E+00         0.00000E+00        -0.11827E+03
 
    0.14687E+06         0.17013E+06         0.00000E+00
    0.17013E+06        -0.14762E+06         0.00000E+00
    0.00000E+00         0.00000E+00        -0.14982E+03
 
    0.14188E+06         0.17549E+06         0.00000E+00
    0.17549E+06        -0.14281E+06         0.00000E+00
    0.00000E+00         0.00000E+00        -0.18554E+03
 
    0.13676E+06         0.18073E+06         0.00000E+00
    0.18073E+06        -0.13789E+06         0.00000E+00
    0.00000E+00         0.00000E+00        -0.22650E+03
 
    0.13151E+06         0.18587E+06         0.00000E+00
    0.18587E+06        -0.13288E+06         0.00000E+00
    0.00000E+00         0.00000E+00        -0.27388E+03
 
    0.12614E+06         0.19088E+06         0.00000E+00
    0.19088E+06        -0.12778E+06         0.00000E+00
    0.00000E+00         0.00000E+00        -0.32902E+03
 
    0.12063E+06         0.19578E+06         0.00000E+00
    0.19578E+06        -0.12260E+06         0.00000E+00
    0.00000E+00         0.00000E+00        -0.39343E+03
 
    0.11499E+06         0.20056E+06         0.00000E+00
    0.20056E+06        -0.11734E+06         0.00000E+00
    0.00000E+00         0.00000E+00        -0.46882E+03
 
    0.10923E+06         0.20522E+06         0.00000E+00
    0.20522E+06        -0.11201E+06         0.00000E+00
    0.00000E+00         0.00000E+00        -0.55710E+03
 
    0.10333E+06         0.20975E+06         0.00000E+00
    0.20975E+06        -0.10663E+06         0.00000E+00
    0.00000E+00         0.00000E+00        -0.66048E+03
 
    0.97294E+05         0.21416E+06         0.00000E+00
    0.21416E+06        -0.10120E+06         0.00000E+00
    0.00000E+00         0.00000E+00        -0.78142E+03
 
    0.91128E+05         0.21844E+06         0.00000E+00
    0.21844E+06        -0.95742E+05         0.00000E+00
    0.00000E+00         0.00000E+00        -0.92269E+03
 
    0.84825E+05         0.22259E+06         0.00000E+00
    0.22259E+06        -0.90262E+05         0.00000E+00
    0.00000E+00         0.00000E+00        -0.10874E+04
 
    0.78383E+05         0.22661E+06         0.00000E+00
    0.22661E+06        -0.84779E+05         0.00000E+00
    0.00000E+00         0.00000E+00        -0.12791E+04
 
    0.71799E+05         0.23050E+06         0.00000E+00
    0.23050E+06        -0.79308E+05         0.00000E+00
    0.00000E+00         0.00000E+00        -0.15017E+04
 
    0.65069E+05         0.23425E+06         0.00000E+00
    0.23425E+06        -0.73867E+05         0.00000E+00
    0.00000E+00         0.00000E+00        -0.17595E+04
 
    0.58190E+05         0.23787E+06         0.00000E+00
    0.23787E+06        -0.68476E+05         0.00000E+00
    0.00000E+00         0.00000E+00        -0.20571E+04
 
    0.51157E+05         0.24135E+06         0.00000E+00
    0.24135E+06        -0.63157E+05         0.00000E+00
    0.00000E+00         0.00000E+00        -0.23999E+04
 
    0.43965E+05         0.24469E+06         0.00000E+00
    0.24469E+06        -0.57933E+05         0.00000E+00
    0.00000E+00         0.00000E+00        -0.27936E+04
 
    0.36609E+05         0.24790E+06         0.00000E+00
    0.24790E+06        -0.52829E+05         0.00000E+00
    0.00000E+00         0.00000E+00        -0.32441E+04
 
    0.29082E+05         0.25097E+06         0.00000E+00
    0.25097E+06        -0.47873E+05         0.00000E+00
    0.00000E+00         0.00000E+00        -0.37581E+04
 
    0.21380E+05         0.25389E+06         0.00000E+00
    0.25389E+06        -0.43093E+05         0.00000E+00
    0.00000E+00         0.00000E+00        -0.43425E+04
 
    0.13495E+05         0.25668E+06         0.00000E+00
    0.25668E+06        -0.38518E+05         0.00000E+00
    0.00000E+00         0.00000E+00        -0.50047E+04
 
    0.54199E+04         0.25932E+06         0.00000E+00
    0.25932E+06        -0.34180E+05         0.00000E+00
    0.00000E+00         0.00000E+00        -0.57521E+04
 
   -0.28515E+04         0.26183E+06         0.00000E+00
    0.26183E+06        -0.30112E+05         0.00000E+00
    0.00000E+00         0.00000E+00        -0.65926E+04
 
    0.24784E+06         0.37008E+04         0.00000E+00
    0.37008E+04        -0.23773E+06         0.00000E+00
    0.00000E+00         0.00000E+00         0.20220E+04
 
    0.24622E+06         0.11124E+05         0.00000E+00
    0.11124E+05        -0.23745E+06         0.00000E+00
    0.00000E+00         0.00000E+00         0.17541E+04
 
    0.24447E+06         0.18548E+05         0.00000E+00
    0.18548E+05        -0.23689E+06         0.00000E+00
    0.00000E+00         0.00000E+00         0.15165E+04
 
    0.24259E+06         0.25968E+05         0.00000E+00
    0.25968E+05        -0.23606E+06         0.00000E+00
    0.00000E+00         0.00000E+00         0.13066E+04
 
    0.24058E+06         0.33377E+05         0.00000E+00
    0.33377E+05        -0.23497E+06         0.00000E+00
    0.00000E+00         0.00000E+00         0.11219E+04
 
    0.23842E+06         0.40771E+05         0.00000E+00
    0.40771E+05        -0.23363E+06         0.00000E+00
    0.00000E+00         0.00000E+00         0.95985E+03
 
    0.23613E+06         0.48141E+05         0.00000E+00
    0.48141E+05        -0.23204E+06         0.00000E+00
    0.00000E+00         0.00000E+00         0.81814E+03
 
    0.23369E+06         0.55483E+05         0.00000E+00
    0.55483E+05        -0.23021E+06         0.00000E+00
    0.00000E+00         0.00000E+00         0.69459E+03
 
    0.23110E+06         0.62791E+05         0.00000E+00
    0.62791E+05        -0.22816E+06         0.00000E+00
    0.00000E+00         0.00000E+00         0.58717E+03
 
    0.22836E+06         0.70059E+05         0.00000E+00
    0.70059E+05        -0.22589E+06         0.00000E+00
    0.00000E+00         0.00000E+00         0.49398E+03
 
    0.22547E+06         0.77280E+05         0.00000E+00
    0.77280E+05        -0.22340E+06         0.00000E+00
    0.00000E+00         0.00000E+00         0.41329E+03
 
    0.22243E+06         0.84450E+05         0.00000E+00
    0.84450E+05        -0.22071E+06         0.00000E+00
    0.00000E+00         0.00000E+00         0.34350E+03
 
    0.21923E+06         0.91562E+05         0.00000E+00
    0.91562E+05        -0.21781E+06         0.00000E+00
    0.00000E+00         0.00000E+00         0.28315E+03
 
    0.21588E+06         0.98613E+05         0.00000E+00
    0.98613E+05        -0.21473E+06         0.00000E+00
    0.00000E+00         0.00000E+00         0.23090E+03
 
    0.21238E+06         0.10559E+06         0.00000E+00
    0.10559E+06        -0.21145E+06         0.00000E+00
    0.00000E+00         0.00000E+00         0.18555E+03
 
    0.20872E+06         0.11250E+06         0.00000E+00
    0.11250E+06        -0.20799E+06         0.00000E+00
    0.00000E+00         0.00000E+00         0.14598E+03
 
    0.20492E+06         0.11934E+06         0.00000E+00
    0.11934E+06        -0.20436E+06         0.00000E+00
    0.00000E+00         0.00000E+00         0.11118E+03
 
    0.20096E+06         0.12609E+06         0.00000E+00
    0.12609E+06        -0.20056E+06         0.00000E+00
    0.00000E+00         0.00000E+00         0.80208E+02
 
    0.19685E+06         0.13275E+06         0.00000E+00
    0.13275E+06        -0.19659E+06         0.00000E+00
    0.00000E+00         0.00000E+00         0.52191E+02
 
    0.19259E+06         0.13933E+06         0.00000E+00
    0.13933E+06        -0.19246E+06         0.00000E+00
    0.00000E+00         0.00000E+00         0.26305E+02
 
    0.18818E+06         0.14580E+06         0.00000E+00
    0.14580E+06        -0.18817E+06         0.00000E+00
    0.00000E+00         0.00000E+00         0.17598E+01
 
    0.18363E+06         0.15219E+06         0.00000E+00
    0.15219E+06        -0.18374E+06         0.00000E+00
    0.00000E+00         0.00000E+00        -0.22217E+02
 
    0.17893E+06         0.15846E+06         0.00000E+00
    0.15846E+06        -0.17916E+06         0.00000E+00
    0.00000E+00         0.00000E+00        -0.46396E+02
 
    0.17408E+06         0.16464E+06         0.00000E+00
    0.16464E+06        -0.17444E+06         0.00000E+00
    0.00000E+00         0.00000E+00        -0.71559E+02
 
    0.16910E+06         0.17070E+06         0.00000E+00
    0.17070E+06        -0.16959E+06         0.00000E+00
    0.00000E+00         0.00000E+00        -0.98524E+02
 
    0.16397E+06         0.17666E+06         0.00000E+00
    0.17666E+06        -0.16461E+06         0.00000E+00
    0.00000E+00         0.00000E+00        -0.12816E+03
 
    0.15870E+06         0.18250E+06         0.00000E+00
    0.18250E+06        -0.15951E+06         0.00000E+00
    0.00000E+00         0.00000E+00        -0.16139E+03
 
    0.15329E+06         0.18823E+06         0.00000E+00
    0.18823E+06        -0.15429E+06         0.00000E+00
    0.00000E+00         0.00000E+00        -0.19926E+03
 
    0.14775E+06         0.19383E+06         0.00000E+00
    0.19383E+06        -0.14896E+06         0.00000E+00
    0.00000E+00         0.00000E+00        -0.24290E+03
 
    0.14206E+06         0.19932E+06         0.00000E+00
    0.19932E+06        -0.14353E+06         0.00000E+00
    0.00000E+00         0.00000E+00        -0.29358E+03
 
    0.13624E+06         0.20468E+06         0.00000E+00
    0.20468E+06        -0.13801E+06         0.00000E+00
    0.00000E+00         0.00000E+00        -0.35274E+03
 
    0.13028E+06         0.20992E+06         0.00000E+00
    0.20992E+06        -0.13239E+06         0.00000E+00
    0.00000E+00         0.00000E+00        -0.42200E+03
 
    0.12419E+06         0.21503E+06         0.00000E+00
    0.21503E+06        -0.12670E+06         0.00000E+00
    0.00000E+00         0.00000E+00        -0.50321E+03
 
    0.11795E+06         0.22001E+06         0.00000E+00
    0.22001E+06        -0.12095E+06         0.00000E+00
    0.00000E+00         0.00000E+00        -0.59845E+03
 
    0.11158E+06         0.22486E+06         0.00000E+00
    0.22486E+06        -0.11513E+06         0.00000E+00
    0.00000E+00         0.00000E+00        -0.71007E+03
 
    0.10507E+06         0.22958E+06         0.00000E+00
    0.22958E+06        -0.10927E+06         0.00000E+00
    0.00000E+00         0.00000E+00        -0.84076E+03
 
    0.98408E+05         0.23417E+06         0.00000E+00
    0.23417E+06        -0.10338E+06         0.00000E+00
    0.00000E+00         0.00000E+00        -0.99351E+03
 
    0.91605E+05         0.23862E+06         0.00000E+00
    0.23862E+06        -0.97464E+05         0.00000E+00
    0.00000E+00         0.00000E+00        -0.11717E+04
 
    0.84654E+05         0.24294E+06         0.00000E+00
    0.24294E+06        -0.91549E+05         0.00000E+00
    0.00000E+00         0.00000E+00        -0.13792E+04
 
    0.77550E+05         0.24713E+06         0.00000E+00
    0.24713E+06        -0.85650E+05         0.00000E+00
    0.00000E+00         0.00000E+00        -0.16201E+04
 
    0.70290E+05         0.25117E+06         0.00000E+00
    0.25117E+06        -0.79785E+05         0.00000E+00
    0.00000E+00         0.00000E+00        -0.18991E+04
 
    0.62868E+05         0.25508E+06         0.00000E+00
    0.25508E+06        -0.73975E+05         0.00000E+00
    0.00000E+00         0.00000E+00        -0.22215E+04
 
    0.55280E+05         0.25885E+06         0.00000E+00
    0.25885E+06        -0.68244E+05         0.00000E+00
    0.00000E+00         0.00000E+00        -0.25928E+04
 
    0.47519E+05         0.26248E+06         0.00000E+00
    0.26248E+06        -0.62614E+05         0.00000E+00
    0.00000E+00         0.00000E+00        -0.30192E+04
 
    0.39578E+05         0.26597E+06         0.00000E+00
    0.26597E+06        -0.57114E+05         0.00000E+00
    0.00000E+00         0.00000E+00        -0.35072E+04
 
    0.31451E+05         0.26932E+06         0.00000E+00
    0.26932E+06        -0.51771E+05         0.00000E+00
    0.00000E+00         0.00000E+00        -0.40641E+04
 
    0.23129E+05         0.27253E+06         0.00000E+00
    0.27253E+06        -0.46616E+05         0.00000E+00
    0.00000E+00         0.00000E+00        -0.46974E+04
 
    0.14605E+05         0.27560E+06         0.00000E+00
    0.27560E+06        -0.41679E+05         0.00000E+00
    0.00000E+00         0.00000E+00        -0.54148E+04
 
    0.58701E+04         0.27853E+06         0.00000E+00
    0.27853E+06        -0.36994E+05         0.00000E+00
    0.00000E+00         0.00000E+00        -0.62248E+04
 
   -0.30843E+04         0.28131E+06         0.00000E+00
    0.28131E+06        -0.32594E+05         0.00000E+00
    0.00000E+00         0.00000E+00        -0.71357E+04
 
    0.26682E+06         0.39788E+04         0.00000E+00
    0.39788E+04        -0.25726E+06         0.00000E+00
    0.00000E+00         0.00000E+00         0.19110E+04
 
    0.26524E+06         0.11977E+05         0.00000E+00
    0.11977E+05        -0.25696E+06         0.00000E+00
    0.00000E+00         0.00000E+00         0.16561E+04
 
    0.26350E+06         0.19982E+05         0.00000E+00
    0.19982E+05        -0.25635E+06         0.00000E+00
    0.00000E+00         0.00000E+00         0.14303E+04
 
    0.26160E+06         0.27988E+05         0.00000E+00
    0.27988E+05        -0.25545E+06         0.00000E+00
    0.00000E+00         0.00000E+00         0.12309E+04
 
    0.25954E+06         0.35985E+05         0.00000E+00
    0.35985E+05        -0.25427E+06         0.00000E+00
    0.00000E+00         0.00000E+00         0.10555E+04
 
    0.25732E+06         0.43967E+05         0.00000E+00
    0.43967E+05        -0.25281E+06         0.00000E+00
    0.00000E+00         0.00000E+00         0.90171E+03
 
    0.25492E+06         0.51926E+05         0.00000E+00
    0.51926E+05        -0.25108E+06         0.00000E+00
    0.00000E+00         0.00000E+00         0.76734E+03
 
    0.25234E+06         0.59854E+05         0.00000E+00
    0.59854E+05        -0.24909E+06         0.00000E+00
    0.00000E+00         0.00000E+00         0.65028E+03
 
    0.24960E+06         0.67743E+05         0.00000E+00
    0.67743E+05        -0.24685E+06         0.00000E+00
    0.00000E+00         0.00000E+00         0.54857E+03
 
    0.24667E+06         0.75588E+05         0.00000E+00
    0.75588E+05        -0.24437E+06         0.00000E+00
    0.00000E+00         0.00000E+00         0.46042E+03
 
    0.24357E+06         0.83381E+05         0.00000E+00
    0.83381E+05        -0.24165E+06         0.00000E+00
    0.00000E+00         0.00000E+00         0.38415E+03
 
    0.24030E+06         0.91114E+05         0.00000E+00
    0.91114E+05        -0.23871E+06         0.00000E+00
    0.00000E+00         0.00000E+00         0.31822E+03
 
    0.23685E+06         0.98782E+05         0.00000E+00
    0.98782E+05        -0.23554E+06         0.00000E+00
    0.00000E+00         0.00000E+00         0.26124E+03
 
    0.23322E+06         0.10638E+06         0.00000E+00
    0.10638E+06        -0.23216E+06         0.00000E+00
    0.00000E+00         0.00000E+00         0.21193E+03
 
    0.22942E+06         0.11390E+06         0.00000E+00
    0.11390E+06        -0.22857E+06         0.00000E+00
    0.00000E+00         0.00000E+00         0.16911E+03
 
    0.22545E+06         0.12133E+06         0.00000E+00
    0.12133E+06        -0.22479E+06         0.00000E+00
    0.00000E+00         0.00000E+00         0.13171E+03
 
    0.22130E+06         0.12868E+06         0.00000E+00
    0.12868E+06        -0.22081E+06         0.00000E+00
    0.00000E+00         0.00000E+00         0.98741E+02
 
    0.21699E+06         0.13593E+06         0.00000E+00
    0.13593E+06        -0.21664E+06         0.00000E+00
    0.00000E+00         0.00000E+00         0.69293E+02
 
    0.21251E+06         0.14308E+06         0.00000E+00
    0.14308E+06        -0.21230E+06         0.00000E+00
    0.00000E+00         0.00000E+00         0.42505E+02
 
    0.20787E+06         0.15013E+06         0.00000E+00
    0.15013E+06        -0.20778E+06         0.00000E+00
    0.00000E+00         0.00000E+00         0.17561E+02
 
    0.20306E+06         0.15707E+06         0.00000E+00
    0.15707E+06        -0.20309E+06         0.00000E+00
    0.00000E+00         0.00000E+00        -0.63266E+01
 
    0.19809E+06         0.16391E+06         0.00000E+00
    0.16391E+06        -0.19824E+06         0.00000E+00
    0.00000E+00         0.00000E+00        -0.29934E+02
 
    0.19297E+06         0.17062E+06         0.00000E+00
    0.17062E+06        -0.19324E+06         0.00000E+00
    0.00000E+00         0.00000E+00        -0.54041E+02
 
    0.18770E+06         0.17722E+06         0.00000E+00
    0.17722E+06        -0.18809E+06         0.00000E+00
    0.00000E+00         0.00000E+00        -0.79453E+02
 
    0.18227E+06         0.18370E+06         0.00000E+00
    0.18370E+06        -0.18280E+06         0.00000E+00
    0.00000E+00         0.00000E+00        -0.10701E+03
 
    0.17669E+06         0.19005E+06         0.00000E+00
    0.19005E+06        -0.17738E+06         0.00000E+00
    0.00000E+00         0.00000E+00        -0.13762E+03
 
    0.17096E+06         0.19628E+06         0.00000E+00
    0.19628E+06        -0.17182E+06         0.00000E+00
    0.00000E+00         0.00000E+00        -0.17227E+03
 
    0.16509E+06         0.20238E+06         0.00000E+00
    0.20238E+06        -0.16615E+06         0.00000E+00
    0.00000E+00         0.00000E+00        -0.21202E+03
 
    0.15907E+06         0.20835E+06         0.00000E+00
    0.20835E+06        -0.16036E+06         0.00000E+00
    0.00000E+00         0.00000E+00        -0.25810E+03
 
    0.15291E+06         0.21419E+06         0.00000E+00
    0.21419E+06        -0.15447E+06         0.00000E+00
    0.00000E+00         0.00000E+00        -0.31186E+03
 
    0.14660E+06         0.21990E+06         0.00000E+00
    0.21990E+06        -0.14848E+06         0.00000E+00
    0.00000E+00         0.00000E+00        -0.37484E+03
 
    0.14016E+06         0.22548E+06         0.00000E+00
    0.22548E+06        -0.14240E+06         0.00000E+00
    0.00000E+00         0.00000E+00        -0.44875E+03
 
    0.13357E+06         0.23092E+06         0.00000E+00
    0.23092E+06        -0.13624E+06         0.00000E+00
    0.00000E+00         0.00000E+00        -0.53559E+03
 
    0.12683E+06         0.23622E+06         0.00000E+00
    0.23622E+06        -0.13002E+06         0.00000E+00
    0.00000E+00         0.00000E+00        -0.63758E+03
 
    0.11996E+06         0.24139E+06         0.00000E+00
    0.24139E+06        -0.12374E+06         0.00000E+00
    0.00000E+00         0.00000E+00        -0.75726E+03
 
    0.11293E+06         0.24642E+06         0.00000E+00
    0.24642E+06        -0.11742E+06         0.00000E+00
    0.00000E+00         0.00000E+00        -0.89750E+03
 
    0.10576E+06         0.25131E+06         0.00000E+00
    0.25131E+06        -0.11107E+06         0.00000E+00
    0.00000E+00         0.00000E+00        -0.10615E+04
 
    0.98438E+05         0.25606E+06         0.00000E+00
    0.25606E+06        -0.10470E+06         0.00000E+00
    0.00000E+00         0.00000E+00        -0.12530E+04
 
    0.90961E+05         0.26068E+06         0.00000E+00
    0.26068E+06        -0.98341E+05         0.00000E+00
    0.00000E+00         0.00000E+00        -0.14760E+04
 
    0.83324E+05         0.26516E+06         0.00000E+00
    0.26516E+06        -0.91999E+05         0.00000E+00
    0.00000E+00         0.00000E+00        -0.17351E+04
 
    0.75522E+05         0.26950E+06         0.00000E+00
    0.26950E+06        -0.85698E+05         0.00000E+00
    0.00000E+00         0.00000E+00        -0.20352E+04
 
    0.67550E+05         0.27371E+06         0.00000E+00
    0.27371E+06        -0.79460E+05         0.00000E+00
    0.00000E+00         0.00000E+00        -0.23820E+04
 
    0.59401E+05         0.27777E+06         0.00000E+00
    0.27777E+06        -0.73308E+05         0.00000E+00
    0.00000E+00         0.00000E+00        -0.27815E+04
 
    0.51067E+05         0.28170E+06         0.00000E+00
    0.28170E+06        -0.67269E+05         0.00000E+00
    0.00000E+00         0.00000E+00        -0.32404E+04
 
    0.42540E+05         0.28548E+06         0.00000E+00
    0.28548E+06        -0.61369E+05         0.00000E+00
    0.00000E+00         0.00000E+00        -0.37658E+04
 
    0.33812E+05         0.28913E+06         0.00000E+00
    0.28913E+06        -0.55639E+05         0.00000E+00
    0.00000E+00         0.00000E+00        -0.43653E+04
 
    0.24873E+05         0.29264E+06         0.00000E+00
    0.29264E+06        -0.50109E+05         0.00000E+00
    0.00000E+00         0.00000E+00        -0.50471E+04
 
    0.15713E+05         0.29601E+06         0.00000E+00
    0.29601E+06        -0.44811E+05         0.00000E+00
    0.00000E+00         0.00000E+00        -0.58197E+04
 
    0.63211E+04         0.29925E+06         0.00000E+00
    0.29925E+06        -0.39781E+05         0.00000E+00
    0.00000E+00         0.00000E+00        -0.66920E+04
 
   -0.33130E+04         0.30234E+06         0.00000E+00
    0.30234E+06        -0.35052E+05         0.00000E+00
    0.00000E+00         0.00000E+00        -0.76731E+04
 
    0.28720E+06         0.43125E+04         0.00000E+00
    0.43125E+04        -0.27850E+06         0.00000E+00
    0.00000E+00         0.00000E+00         0.17408E+04
 
    0.28570E+06         0.12997E+05         0.00000E+00
    0.12997E+05        -0.27817E+06         0.00000E+00
    0.00000E+00         0.00000E+00         0.15068E+04
 
    0.28400E+06         0.21694E+05         0.00000E+00
    0.21694E+05        -0.27750E+06         0.00000E+00
    0.00000E+00         0.00000E+00         0.12995E+04
 
    0.28210E+06         0.30394E+05         0.00000E+00
    0.30394E+05        -0.27652E+06         0.00000E+00
    0.00000E+00         0.00000E+00         0.11166E+04
 
    0.27999E+06         0.39086E+05         0.00000E+00
    0.39086E+05        -0.27522E+06         0.00000E+00
    0.00000E+00         0.00000E+00         0.95583E+03
 
    0.27768E+06         0.47760E+05         0.00000E+00
    0.47760E+05        -0.27361E+06         0.00000E+00
    0.00000E+00         0.00000E+00         0.81499E+03
 
    0.27517E+06         0.56408E+05         0.00000E+00
    0.56408E+05        -0.27171E+06         0.00000E+00
    0.00000E+00         0.00000E+00         0.69202E+03
 
    0.27244E+06         0.65019E+05         0.00000E+00
    0.65019E+05        -0.26952E+06         0.00000E+00
    0.00000E+00         0.00000E+00         0.58499E+03
 
    0.26951E+06         0.73585E+05         0.00000E+00
    0.73585E+05        -0.26704E+06         0.00000E+00
    0.00000E+00         0.00000E+00         0.49210E+03
 
    0.26636E+06         0.82096E+05         0.00000E+00
    0.82096E+05        -0.26430E+06         0.00000E+00
    0.00000E+00         0.00000E+00         0.41166E+03
 
    0.26301E+06         0.90543E+05         0.00000E+00
    0.90543E+05        -0.26130E+06         0.00000E+00
    0.00000E+00         0.00000E+00         0.34213E+03
 
    0.25945E+06         0.98920E+05         0.00000E+00
    0.98920E+05        -0.25804E+06         0.00000E+00
    0.00000E+00         0.00000E+00         0.28209E+03
 
    0.25569E+06         0.10722E+06         0.00000E+00
    0.10722E+06        -0.25454E+06         0.00000E+00
    0.00000E+00         0.00000E+00         0.23024E+03
 
    0.25173E+06         0.11543E+06         0.00000E+00
    0.11543E+06        -0.25080E+06         0.00000E+00
    0.00000E+00         0.00000E+00         0.18537E+03
 
    0.24757E+06         0.12354E+06         0.00000E+00
    0.12354E+06        -0.24684E+06         0.00000E+00
    0.00000E+00         0.00000E+00         0.14640E+03
 
    0.24322E+06         0.13156E+06         0.00000E+00
    0.13156E+06        -0.24265E+06         0.00000E+00
    0.00000E+00         0.00000E+00         0.11231E+03
 
    0.23867E+06         0.13947E+06         0.00000E+00
    0.13947E+06        -0.23826E+06         0.00000E+00
    0.00000E+00         0.00000E+00         0.82169E+02
 
    0.23393E+06         0.14727E+06         0.00000E+00
    0.14727E+06        -0.23366E+06         0.00000E+00
    0.00000E+00         0.00000E+00         0.55112E+02
 
    0.22902E+06         0.15495E+06         0.00000E+00
    0.15495E+06        -0.22886E+06         0.00000E+00
    0.00000E+00         0.00000E+00         0.30313E+02
 
    0.22392E+06         0.16251E+06         0.00000E+00
    0.16251E+06        -0.22388E+06         0.00000E+00
    0.00000E+00         0.00000E+00         0.69837E+01
 
    0.21864E+06         0.16995E+06         0.00000E+00
    0.16995E+06        -0.21872E+06         0.00000E+00
    0.00000E+00         0.00000E+00        -0.15647E+02
 
    0.21320E+06         0.17725E+06         0.00000E+00
    0.17725E+06        -0.21339E+06         0.00000E+00
    0.00000E+00         0.00000E+00        -0.38347E+02
 
    0.20758E+06         0.18443E+06         0.00000E+00
    0.18443E+06        -0.20789E+06         0.00000E+00
    0.00000E+00         0.00000E+00        -0.61898E+02
 
    0.20180E+06         0.19146E+06         0.00000E+00
    0.19146E+06        -0.20224E+06         0.00000E+00
    0.00000E+00         0.00000E+00        -0.87110E+02
 
    0.19587E+06         0.19836E+06         0.00000E+00
    0.19836E+06        -0.19644E+06         0.00000E+00
    0.00000E+00         0.00000E+00        -0.11485E+03
 
    0.18977E+06         0.20512E+06         0.00000E+00
    0.20512E+06        -0.19050E+06         0.00000E+00
    0.00000E+00         0.00000E+00        -0.14604E+03
 
    0.18352E+06         0.21174E+06         0.00000E+00
    0.21174E+06        -0.18443E+06         0.00000E+00
    0.00000E+00         0.00000E+00        -0.18170E+03
 
    0.17713E+06         0.21821E+06         0.00000E+00
    0.21821E+06        -0.17824E+06         0.00000E+00
    0.00000E+00         0.00000E+00        -0.22297E+03
 
    0.17058E+06         0.22454E+06         0.00000E+00
    0.22454E+06        -0.17194E+06         0.00000E+00
    0.00000E+00         0.00000E+00        -0.27111E+03
 
    0.16389E+06         0.23072E+06         0.00000E+00
    0.23072E+06        -0.16552E+06         0.00000E+00
    0.00000E+00         0.00000E+00        -0.32755E+03
 
    0.15705E+06         0.23676E+06         0.00000E+00
    0.23676E+06        -0.15902E+06         0.00000E+00
    0.00000E+00         0.00000E+00        -0.39392E+03
 
    0.15007E+06         0.24266E+06         0.00000E+00
    0.24266E+06        -0.15243E+06         0.00000E+00
    0.00000E+00         0.00000E+00        -0.47206E+03
 
    0.14295E+06         0.24841E+06         0.00000E+00
    0.24841E+06        -0.14577E+06         0.00000E+00
    0.00000E+00         0.00000E+00        -0.56405E+03
 
    0.13568E+06         0.25401E+06         0.00000E+00
    0.25401E+06        -0.13904E+06         0.00000E+00
    0.00000E+00         0.00000E+00        -0.67228E+03
 
    0.12827E+06         0.25948E+06         0.00000E+00
    0.25948E+06        -0.13226E+06         0.00000E+00
    0.00000E+00         0.00000E+00        -0.79945E+03
 
    0.12071E+06         0.26480E+06         0.00000E+00
    0.26480E+06        -0.12545E+06         0.00000E+00
    0.00000E+00         0.00000E+00        -0.94862E+03
 
    0.11300E+06         0.26998E+06         0.00000E+00
    0.26998E+06        -0.11862E+06         0.00000E+00
    0.00000E+00         0.00000E+00        -0.11232E+04
 
    0.10514E+06         0.27501E+06         0.00000E+00
    0.27501E+06        -0.11178E+06         0.00000E+00
    0.00000E+00         0.00000E+00        -0.13272E+04
 
    0.97129E+05         0.27991E+06         0.00000E+00
    0.27991E+06        -0.10495E+06         0.00000E+00
    0.00000E+00         0.00000E+00        -0.15649E+04
 
    0.88952E+05         0.28467E+06         0.00000E+00
    0.28467E+06        -0.98157E+05         0.00000E+00
    0.00000E+00         0.00000E+00        -0.18411E+04
 
    0.80607E+05         0.28929E+06         0.00000E+00
    0.28929E+06        -0.91413E+05         0.00000E+00
    0.00000E+00         0.00000E+00        -0.21612E+04
 
    0.72087E+05         0.29378E+06         0.00000E+00
    0.29378E+06        -0.84743E+05         0.00000E+00
    0.00000E+00         0.00000E+00        -0.25312E+04
 
    0.63384E+05         0.29813E+06         0.00000E+00
    0.29813E+06        -0.78172E+05         0.00000E+00
    0.00000E+00         0.00000E+00        -0.29575E+04
 
    0.54489E+05         0.30234E+06         0.00000E+00
    0.30234E+06        -0.71726E+05         0.00000E+00
    0.00000E+00         0.00000E+00        -0.34473E+04
 
    0.45392E+05         0.30643E+06         0.00000E+00
    0.30643E+06        -0.65434E+05         0.00000E+00
    0.00000E+00         0.00000E+00        -0.40082E+04
 
    0.36083E+05         0.31038E+06         0.00000E+00
    0.31038E+06        -0.59325E+05         0.00000E+00
    0.00000E+00         0.00000E+00        -0.46484E+04
 
    0.26549E+05         0.31420E+06         0.00000E+00
    0.31420E+06        -0.53431E+05         0.00000E+00
    0.00000E+00         0.00000E+00        -0.53765E+04
 
    0.16778E+05         0.31789E+06         0.00000E+00
    0.31789E+06        -0.47786E+05         0.00000E+00
    0.00000E+00         0.00000E+00        -0.62017E+04
 
    0.67570E+04         0.32145E+06         0.00000E+00
    0.32145E+06        -0.42425E+05         0.00000E+00
    0.00000E+00         0.00000E+00        -0.71336E+04
 
   -0.35268E+04         0.32489E+06         0.00000E+00
    0.32489E+06        -0.37382E+05         0.00000E+00
    0.00000E+00         0.00000E+00        -0.81818E+04
 
    0.30934E+06         0.47209E+04         0.00000E+00
    0.47209E+04        -0.30177E+06         0.00000E+00
    0.00000E+00         0.00000E+00         0.15154E+04
 
    0.30794E+06         0.14239E+05         0.00000E+00
    0.14239E+05        -0.30139E+06         0.00000E+00
    0.00000E+00         0.00000E+00         0.13096E+04
 
    0.30629E+06         0.23772E+05         0.00000E+00
    0.23772E+05        -0.30065E+06         0.00000E+00
    0.00000E+00         0.00000E+00         0.11274E+04
 
    0.30439E+06         0.33308E+05         0.00000E+00
    0.33308E+05        -0.29955E+06         0.00000E+00
    0.00000E+00         0.00000E+00         0.96679E+03
 
    0.30223E+06         0.42832E+05         0.00000E+00
    0.42832E+05        -0.29810E+06         0.00000E+00
    0.00000E+00         0.00000E+00         0.82567E+03
 
    0.29982E+06         0.52333E+05         0.00000E+00
    0.52333E+05        -0.29631E+06         0.00000E+00
    0.00000E+00         0.00000E+00         0.70215E+03
 
    0.29715E+06         0.61798E+05         0.00000E+00
    0.61798E+05        -0.29418E+06         0.00000E+00
    0.00000E+00         0.00000E+00         0.59441E+03
 
    0.29423E+06         0.71214E+05         0.00000E+00
    0.71214E+05        -0.29173E+06         0.00000E+00
    0.00000E+00         0.00000E+00         0.50073E+03
 
    0.29106E+06         0.80572E+05         0.00000E+00
    0.80572E+05        -0.28896E+06         0.00000E+00
    0.00000E+00         0.00000E+00         0.41952E+03
 
    0.28764E+06         0.89859E+05         0.00000E+00
    0.89859E+05        -0.28589E+06         0.00000E+00
    0.00000E+00         0.00000E+00         0.34929E+03
 
    0.28397E+06         0.99065E+05         0.00000E+00
    0.99065E+05        -0.28253E+06         0.00000E+00
    0.00000E+00         0.00000E+00         0.28866E+03
 
    0.28006E+06         0.10818E+06         0.00000E+00
    0.10818E+06        -0.27888E+06         0.00000E+00
    0.00000E+00         0.00000E+00         0.23637E+03
 
    0.27591E+06         0.11719E+06         0.00000E+00
    0.11719E+06        -0.27496E+06         0.00000E+00
    0.00000E+00         0.00000E+00         0.19125E+03
 
    0.27154E+06         0.12610E+06         0.00000E+00
    0.12610E+06        -0.27078E+06         0.00000E+00
    0.00000E+00         0.00000E+00         0.15222E+03
 
    0.26693E+06         0.13489E+06         0.00000E+00
    0.13489E+06        -0.26634E+06         0.00000E+00
    0.00000E+00         0.00000E+00         0.11831E+03
 
    0.26211E+06         0.14355E+06         0.00000E+00
    0.14355E+06        -0.26166E+06         0.00000E+00
    0.00000E+00         0.00000E+00         0.88584E+02
 
    0.25707E+06         0.15209E+06         0.00000E+00
    0.15209E+06        -0.25675E+06         0.00000E+00
    0.00000E+00         0.00000E+00         0.62198E+02
 
    0.25182E+06         0.16048E+06         0.00000E+00
    0.16048E+06        -0.25162E+06         0.00000E+00
    0.00000E+00         0.00000E+00         0.38346E+02
 
    0.24636E+06         0.16873E+06         0.00000E+00
    0.16873E+06        -0.24628E+06         0.00000E+00
    0.00000E+00         0.00000E+00         0.16260E+02
 
    0.24072E+06         0.17684E+06         0.00000E+00
    0.17684E+06        -0.24074E+06         0.00000E+00
    0.00000E+00         0.00000E+00        -0.48064E+01
 
    0.23488E+06         0.18479E+06         0.00000E+00
    0.18479E+06        -0.23501E+06         0.00000E+00
    0.00000E+00         0.00000E+00        -0.25590E+02
 
    0.22886E+06         0.19259E+06         0.00000E+00
    0.19259E+06        -0.22909E+06         0.00000E+00
    0.00000E+00         0.00000E+00        -0.46836E+02
 
    0.22266E+06         0.20023E+06         0.00000E+00
    0.20023E+06        -0.22301E+06         0.00000E+00
    0.00000E+00         0.00000E+00        -0.69314E+02
 
    0.21629E+06         0.20771E+06         0.00000E+00
    0.20771E+06        -0.21676E+06         0.00000E+00
    0.00000E+00         0.00000E+00        -0.93831E+02
 
    0.20976E+06         0.21503E+06         0.00000E+00
    0.21503E+06        -0.21037E+06         0.00000E+00
    0.00000E+00         0.00000E+00        -0.12126E+03
 
    0.20307E+06         0.22218E+06         0.00000E+00
    0.22218E+06        -0.20383E+06         0.00000E+00
    0.00000E+00         0.00000E+00        -0.15254E+03
 
    0.19622E+06         0.22917E+06         0.00000E+00
    0.22917E+06        -0.19716E+06         0.00000E+00
    0.00000E+00         0.00000E+00        -0.18872E+03
 
    0.18922E+06         0.23600E+06         0.00000E+00
    0.23600E+06        -0.19038E+06         0.00000E+00
    0.00000E+00         0.00000E+00        -0.23097E+03
 
    0.18208E+06         0.24266E+06         0.00000E+00
    0.24266E+06        -0.18348E+06         0.00000E+00
    0.00000E+00         0.00000E+00        -0.28061E+03
 
    0.17479E+06         0.24916E+06         0.00000E+00
    0.24916E+06        -0.17649E+06         0.00000E+00
    0.00000E+00         0.00000E+00        -0.33913E+03
 
    0.16736E+06         0.25550E+06         0.00000E+00
    0.25550E+06        -0.16940E+06         0.00000E+00
    0.00000E+00         0.00000E+00        -0.40823E+03
 
    0.15979E+06         0.26169E+06         0.00000E+00
    0.26169E+06        -0.16224E+06         0.00000E+00
    0.00000E+00         0.00000E+00        -0.48984E+03
 
    0.15209E+06         0.26771E+06         0.00000E+00
    0.26771E+06        -0.15502E+06         0.00000E+00
    0.00000E+00         0.00000E+00        -0.58616E+03
 
    0.14425E+06         0.27358E+06         0.00000E+00
    0.27358E+06        -0.14775E+06         0.00000E+00
    0.00000E+00         0.00000E+00        -0.69970E+03
 
    0.13627E+06         0.27930E+06         0.00000E+00
    0.27930E+06        -0.14043E+06         0.00000E+00
    0.00000E+00         0.00000E+00        -0.83330E+03
 
    0.12815E+06         0.28487E+06         0.00000E+00
    0.28487E+06        -0.13310E+06         0.00000E+00
    0.00000E+00         0.00000E+00        -0.99018E+03
 
    0.11989E+06         0.29029E+06         0.00000E+00
    0.29029E+06        -0.12576E+06         0.00000E+00
    0.00000E+00         0.00000E+00        -0.11740E+04
 
    0.11148E+06         0.29557E+06         0.00000E+00
    0.29557E+06        -0.11843E+06         0.00000E+00
    0.00000E+00         0.00000E+00        -0.13889E+04
 
    0.10292E+06         0.30070E+06         0.00000E+00
    0.30070E+06        -0.11112E+06         0.00000E+00
    0.00000E+00         0.00000E+00        -0.16394E+04
 
    0.94210E+05         0.30571E+06         0.00000E+00
    0.30571E+06        -0.10386E+06         0.00000E+00
    0.00000E+00         0.00000E+00        -0.19307E+04
 
    0.85332E+05         0.31057E+06         0.00000E+00
    0.31057E+06        -0.96674E+05         0.00000E+00
    0.00000E+00         0.00000E+00        -0.22684E+04
 
    0.76281E+05         0.31531E+06         0.00000E+00
    0.31531E+06        -0.89576E+05         0.00000E+00
    0.00000E+00         0.00000E+00        -0.26590E+04
 
    0.67049E+05         0.31992E+06         0.00000E+00
    0.31992E+06        -0.82595E+05         0.00000E+00
    0.00000E+00         0.00000E+00        -0.31091E+04
 
    0.57624E+05         0.32440E+06         0.00000E+00
    0.32440E+06        -0.75757E+05         0.00000E+00
    0.00000E+00         0.00000E+00        -0.36264E+04
 
    0.47995E+05         0.32877E+06         0.00000E+00
    0.32877E+06        -0.69090E+05         0.00000E+00
    0.00000E+00         0.00000E+00        -0.42190E+04
 
    0.38148E+05         0.33301E+06         0.00000E+00
    0.33301E+06        -0.62625E+05         0.00000E+00
    0.00000E+00         0.00000E+00        -0.48954E+04
 
    0.28070E+05         0.33714E+06         0.00000E+00
    0.33714E+06        -0.56394E+05         0.00000E+00
    0.00000E+00         0.00000E+00        -0.56649E+04
 
    0.17744E+05         0.34115E+06         0.00000E+00
    0.34115E+06        -0.50430E+05         0.00000E+00
    0.00000E+00         0.00000E+00        -0.65372E+04
 
    0.71560E+04         0.34505E+06         0.00000E+00
    0.34505E+06        -0.44768E+05         0.00000E+00
    0.00000E+00         0.00000E+00        -0.75224E+04
 
   -0.37115E+04         0.34884E+06         0.00000E+00
    0.34884E+06        -0.39443E+05         0.00000E+00
    0.00000E+00         0.00000E+00        -0.86309E+04
 
    0.33369E+06         0.52284E+04         0.00000E+00
    0.52284E+04        -0.32744E+06         0.00000E+00
    0.00000E+00         0.00000E+00         0.12492E+04
 
    0.33241E+06         0.15771E+05         0.00000E+00
    0.15771E+05        -0.32702E+06         0.00000E+00
    0.00000E+00         0.00000E+00         0.10775E+04
 
    0.33081E+06         0.26328E+05         0.00000E+00
    0.26328E+05        -0.32618E+06         0.00000E+00
    0.00000E+00         0.00000E+00         0.92554E+03
 
    0.32889E+06         0.36881E+05         0.00000E+00
    0.36881E+05        -0.32493E+06         0.00000E+00
    0.00000E+00         0.00000E+00         0.79158E+03
 
    0.32665E+06         0.47414E+05         0.00000E+00
    0.47414E+05        -0.32328E+06         0.00000E+00
    0.00000E+00         0.00000E+00         0.67396E+03
 
    0.32409E+06         0.57910E+05         0.00000E+00
    0.57910E+05        -0.32123E+06         0.00000E+00
    0.00000E+00         0.00000E+00         0.57107E+03
 
    0.32122E+06         0.68353E+05         0.00000E+00
    0.68353E+05        -0.31881E+06         0.00000E+00
    0.00000E+00         0.00000E+00         0.48141E+03
 
    0.31804E+06         0.78728E+05         0.00000E+00
    0.78728E+05        -0.31602E+06         0.00000E+00
    0.00000E+00         0.00000E+00         0.40354E+03
 
    0.31455E+06         0.89022E+05         0.00000E+00
    0.89022E+05        -0.31287E+06         0.00000E+00
    0.00000E+00         0.00000E+00         0.33612E+03
 
    0.31077E+06         0.99220E+05         0.00000E+00
    0.99220E+05        -0.30938E+06         0.00000E+00
    0.00000E+00         0.00000E+00         0.27790E+03
 
    0.30669E+06         0.10931E+06         0.00000E+00
    0.10931E+06        -0.30555E+06         0.00000E+00
    0.00000E+00         0.00000E+00         0.22773E+03
 
    0.30233E+06         0.11928E+06         0.00000E+00
    0.11928E+06        -0.30141E+06         0.00000E+00
    0.00000E+00         0.00000E+00         0.18452E+03
 
    0.29769E+06         0.12912E+06         0.00000E+00
    0.12912E+06        -0.29695E+06         0.00000E+00
    0.00000E+00         0.00000E+00         0.14728E+03
 
    0.29278E+06         0.13881E+06         0.00000E+00
    0.13881E+06        -0.29221E+06         0.00000E+00
    0.00000E+00         0.00000E+00         0.11509E+03
 
    0.28762E+06         0.14835E+06         0.00000E+00
    0.14835E+06        -0.28718E+06         0.00000E+00
    0.00000E+00         0.00000E+00         0.87096E+02
 
    0.28220E+06         0.15774E+06         0.00000E+00
    0.15774E+06        -0.28189E+06         0.00000E+00
    0.00000E+00         0.00000E+00         0.62495E+02
 
    0.27655E+06         0.16696E+06         0.00000E+00
    0.16696E+06        -0.27634E+06         0.00000E+00
    0.00000E+00         0.00000E+00         0.40534E+02
 
    0.27066E+06         0.17600E+06         0.00000E+00
    0.17600E+06        -0.27056E+06         0.00000E+00
    0.00000E+00         0.00000E+00         0.20492E+02
 
    0.26455E+06         0.18487E+06         0.00000E+00
    0.18487E+06        -0.26454E+06         0.00000E+00
    0.00000E+00         0.00000E+00         0.16717E+01
 
    0.25823E+06         0.19355E+06         0.00000E+00
    0.19355E+06        -0.25831E+06         0.00000E+00
    0.00000E+00         0.00000E+00        -0.16614E+02
 
    0.25171E+06         0.20204E+06         0.00000E+00
    0.20204E+06        -0.25188E+06         0.00000E+00
    0.00000E+00         0.00000E+00        -0.35057E+02
 
    0.24499E+06         0.21034E+06         0.00000E+00
    0.21034E+06        -0.24526E+06         0.00000E+00
    0.00000E+00         0.00000E+00        -0.54366E+02
 
    0.23809E+06         0.21845E+06         0.00000E+00
    0.21845E+06        -0.23847E+06         0.00000E+00
    0.00000E+00         0.00000E+00        -0.75286E+02
 
    0.23102E+06         0.22637E+06         0.00000E+00
    0.22637E+06        -0.23151E+06         0.00000E+00
    0.00000E+00         0.00000E+00        -0.98610E+02
 
    0.22378E+06         0.23409E+06         0.00000E+00
    0.23409E+06        -0.22440E+06         0.00000E+00
    0.00000E+00         0.00000E+00        -0.12520E+03
 
    0.21638E+06         0.24162E+06         0.00000E+00
    0.24162E+06        -0.21716E+06         0.00000E+00
    0.00000E+00         0.00000E+00        -0.15601E+03
 
    0.20883E+06         0.24895E+06         0.00000E+00
    0.24895E+06        -0.20979E+06         0.00000E+00
    0.00000E+00         0.00000E+00        -0.19210E+03
 
    0.20114E+06         0.25610E+06         0.00000E+00
    0.25610E+06        -0.20231E+06         0.00000E+00
    0.00000E+00         0.00000E+00        -0.23465E+03
 
    0.19331E+06         0.26305E+06         0.00000E+00
    0.26305E+06        -0.19473E+06         0.00000E+00
    0.00000E+00         0.00000E+00        -0.28503E+03
 
    0.18534E+06         0.26982E+06         0.00000E+00
    0.26982E+06        -0.18707E+06         0.00000E+00
    0.00000E+00         0.00000E+00        -0.34477E+03
 
    0.17725E+06         0.27641E+06         0.00000E+00
    0.27641E+06        -0.17933E+06         0.00000E+00
    0.00000E+00         0.00000E+00        -0.41562E+03
 
    0.16903E+06         0.28282E+06         0.00000E+00
    0.28282E+06        -0.17153E+06         0.00000E+00
    0.00000E+00         0.00000E+00        -0.49958E+03
 
    0.16069E+06         0.28906E+06         0.00000E+00
    0.28906E+06        -0.16369E+06         0.00000E+00
    0.00000E+00         0.00000E+00        -0.59894E+03
 
    0.15223E+06         0.29512E+06         0.00000E+00
    0.29512E+06        -0.15581E+06         0.00000E+00
    0.00000E+00         0.00000E+00        -0.71630E+03
 
    0.14365E+06         0.30103E+06         0.00000E+00
    0.30103E+06        -0.14792E+06         0.00000E+00
    0.00000E+00         0.00000E+00        -0.85462E+03
 
    0.13494E+06         0.30678E+06         0.00000E+00
    0.30678E+06        -0.14003E+06         0.00000E+00
    0.00000E+00         0.00000E+00        -0.10173E+04
 
    0.12611E+06         0.31237E+06         0.00000E+00
    0.31237E+06        -0.13215E+06         0.00000E+00
    0.00000E+00         0.00000E+00        -0.12080E+04
 
    0.11714E+06         0.31782E+06         0.00000E+00
    0.31782E+06        -0.12430E+06         0.00000E+00
    0.00000E+00         0.00000E+00        -0.14312E+04
 
    0.10805E+06         0.32313E+06         0.00000E+00
    0.32313E+06        -0.11651E+06         0.00000E+00
    0.00000E+00         0.00000E+00        -0.16916E+04
 
    0.98810E+05         0.32831E+06         0.00000E+00
    0.32831E+06        -0.10878E+06         0.00000E+00
    0.00000E+00         0.00000E+00        -0.19945E+04
 
    0.89424E+05         0.33336E+06         0.00000E+00
    0.33336E+06        -0.10115E+06         0.00000E+00
    0.00000E+00         0.00000E+00        -0.23460E+04
 
    0.79878E+05         0.33828E+06         0.00000E+00
    0.33828E+06        -0.93641E+05         0.00000E+00
    0.00000E+00         0.00000E+00        -0.27526E+04
 
    0.70163E+05         0.34310E+06         0.00000E+00
    0.34310E+06        -0.86270E+05         0.00000E+00
    0.00000E+00         0.00000E+00        -0.32214E+04
 
    0.60264E+05         0.34780E+06         0.00000E+00
    0.34780E+06        -0.79066E+05         0.00000E+00
    0.00000E+00         0.00000E+00        -0.37603E+04
 
    0.50169E+05         0.35240E+06         0.00000E+00
    0.35240E+06        -0.72059E+05         0.00000E+00
    0.00000E+00         0.00000E+00        -0.43779E+04
 
    0.39862E+05         0.35690E+06         0.00000E+00
    0.35690E+06        -0.65277E+05         0.00000E+00
    0.00000E+00         0.00000E+00        -0.50830E+04
 
    0.29325E+05         0.36130E+06         0.00000E+00
    0.36130E+06        -0.58753E+05         0.00000E+00
    0.00000E+00         0.00000E+00        -0.58855E+04
 
    0.18541E+05         0.36562E+06         0.00000E+00
    0.36562E+06        -0.52518E+05         0.00000E+00
    0.00000E+00         0.00000E+00        -0.67954E+04
 
    0.74896E+04         0.36984E+06         0.00000E+00
    0.36984E+06        -0.46606E+05         0.00000E+00
    0.00000E+00         0.00000E+00        -0.78233E+04
 
   -0.38486E+04         0.37398E+06         0.00000E+00
    0.37398E+06        -0.41052E+05         0.00000E+00
    0.00000E+00         0.00000E+00        -0.89801E+04
 
    0.36087E+06         0.58653E+04         0.00000E+00
    0.58653E+04        -0.35601E+06         0.00000E+00
    0.00000E+00         0.00000E+00         0.97232E+03
 
    0.35970E+06         0.17679E+05         0.00000E+00
    0.17679E+05        -0.35552E+06         0.00000E+00
    0.00000E+00         0.00000E+00         0.83712E+03
 
    0.35813E+06         0.29498E+05         0.00000E+00
    0.29498E+05        -0.35454E+06         0.00000E+00
    0.00000E+00         0.00000E+00         0.71733E+03
 
    0.35614E+06         0.41300E+05         0.00000E+00
    0.41300E+05        -0.35309E+06         0.00000E+00
    0.00000E+00         0.00000E+00         0.61165E+03
 
    0.35376E+06         0.53062E+05         0.00000E+00
    0.53062E+05        -0.35117E+06         0.00000E+00
    0.00000E+00         0.00000E+00         0.51881E+03
 
    0.35099E+06         0.64764E+05         0.00000E+00
    0.64764E+05        -0.34880E+06         0.00000E+00
    0.00000E+00         0.00000E+00         0.43760E+03
 
    0.34782E+06         0.76386E+05         0.00000E+00
    0.76386E+05        -0.34599E+06         0.00000E+00
    0.00000E+00         0.00000E+00         0.36684E+03
 
    0.34428E+06         0.87909E+05         0.00000E+00
    0.87909E+05        -0.34275E+06         0.00000E+00
    0.00000E+00         0.00000E+00         0.30543E+03
 
    0.34037E+06         0.99315E+05         0.00000E+00
    0.99315E+05        -0.33911E+06         0.00000E+00
    0.00000E+00         0.00000E+00         0.25231E+03
 
    0.33610E+06         0.11059E+06         0.00000E+00
    0.11059E+06        -0.33506E+06         0.00000E+00
    0.00000E+00         0.00000E+00         0.20651E+03
 
    0.33148E+06         0.12171E+06         0.00000E+00
    0.12171E+06        -0.33064E+06         0.00000E+00
    0.00000E+00         0.00000E+00         0.16710E+03
 
    0.32652E+06         0.13267E+06         0.00000E+00
    0.13267E+06        -0.32586E+06         0.00000E+00
    0.00000E+00         0.00000E+00         0.13323E+03
 
    0.32125E+06         0.14345E+06         0.00000E+00
    0.14345E+06        -0.32073E+06         0.00000E+00
    0.00000E+00         0.00000E+00         0.10408E+03
 
    0.31566E+06         0.15405E+06         0.00000E+00
    0.15405E+06        -0.31527E+06         0.00000E+00
    0.00000E+00         0.00000E+00         0.78900E+02
 
    0.30978E+06         0.16445E+06         0.00000E+00
    0.16445E+06        -0.30949E+06         0.00000E+00
    0.00000E+00         0.00000E+00         0.56984E+02
 
    0.30361E+06         0.17463E+06         0.00000E+00
    0.17463E+06        -0.30342E+06         0.00000E+00
    0.00000E+00         0.00000E+00         0.37657E+02
 
    0.29718E+06         0.18460E+06         0.00000E+00
    0.18460E+06        -0.29708E+06         0.00000E+00
    0.00000E+00         0.00000E+00         0.20275E+02
 
    0.29049E+06         0.19435E+06         0.00000E+00
    0.19435E+06        -0.29047E+06         0.00000E+00
    0.00000E+00         0.00000E+00         0.42111E+01
 
    0.28356E+06         0.20387E+06         0.00000E+00
    0.20387E+06        -0.28362E+06         0.00000E+00
    0.00000E+00         0.00000E+00        -0.11153E+02
 
    0.27641E+06         0.21316E+06         0.00000E+00
    0.21316E+06        -0.27654E+06         0.00000E+00
    0.00000E+00         0.00000E+00        -0.26439E+02
 
    0.26904E+06         0.22221E+06         0.00000E+00
    0.22221E+06        -0.26925E+06         0.00000E+00
    0.00000E+00         0.00000E+00        -0.42284E+02
 
    0.26147E+06         0.23102E+06         0.00000E+00
    0.23102E+06        -0.26177E+06         0.00000E+00
    0.00000E+00         0.00000E+00        -0.59352E+02
 
    0.25372E+06         0.23959E+06         0.00000E+00
    0.23959E+06        -0.25411E+06         0.00000E+00
    0.00000E+00         0.00000E+00        -0.78354E+02
 
    0.24580E+06         0.24792E+06         0.00000E+00
    0.24792E+06        -0.24630E+06         0.00000E+00
    0.00000E+00         0.00000E+00        -0.10006E+03
 
    0.23771E+06         0.25602E+06         0.00000E+00
    0.25602E+06        -0.23834E+06         0.00000E+00
    0.00000E+00         0.00000E+00        -0.12531E+03
 
    0.22947E+06         0.26388E+06         0.00000E+00
    0.26388E+06        -0.23025E+06         0.00000E+00
    0.00000E+00         0.00000E+00        -0.15505E+03
 
    0.22110E+06         0.27151E+06         0.00000E+00
    0.27151E+06        -0.22205E+06         0.00000E+00
    0.00000E+00         0.00000E+00        -0.19033E+03
 
    0.21259E+06         0.27891E+06         0.00000E+00
    0.27891E+06        -0.21375E+06         0.00000E+00
    0.00000E+00         0.00000E+00        -0.23236E+03
 
    0.20397E+06         0.28608E+06         0.00000E+00
    0.28608E+06        -0.20538E+06         0.00000E+00
    0.00000E+00         0.00000E+00        -0.28251E+03
 
    0.19523E+06         0.29304E+06         0.00000E+00
    0.29304E+06        -0.19694E+06         0.00000E+00
    0.00000E+00         0.00000E+00        -0.34231E+03
 
    0.18638E+06         0.29980E+06         0.00000E+00
    0.29980E+06        -0.18845E+06         0.00000E+00
    0.00000E+00         0.00000E+00        -0.41357E+03
 
    0.17743E+06         0.30634E+06         0.00000E+00
    0.30634E+06        -0.17993E+06         0.00000E+00
    0.00000E+00         0.00000E+00        -0.49832E+03
 
    0.16839E+06         0.31270E+06         0.00000E+00
    0.31270E+06        -0.17139E+06         0.00000E+00
    0.00000E+00         0.00000E+00        -0.59888E+03
 
    0.15925E+06         0.31886E+06         0.00000E+00
    0.31886E+06        -0.16284E+06         0.00000E+00
    0.00000E+00         0.00000E+00        -0.71793E+03
 
    0.15002E+06         0.32485E+06         0.00000E+00
    0.32485E+06        -0.15431E+06         0.00000E+00
    0.00000E+00         0.00000E+00        -0.85849E+03
 
    0.14070E+06         0.33068E+06         0.00000E+00
    0.33068E+06        -0.14582E+06         0.00000E+00
    0.00000E+00         0.00000E+00        -0.10240E+04
 
    0.13128E+06         0.33634E+06         0.00000E+00
    0.33634E+06        -0.13737E+06         0.00000E+00
    0.00000E+00         0.00000E+00        -0.12184E+04
 
    0.12176E+06         0.34186E+06         0.00000E+00
    0.34186E+06        -0.12899E+06         0.00000E+00
    0.00000E+00         0.00000E+00        -0.14460E+04
 
    0.11214E+06         0.34723E+06         0.00000E+00
    0.34723E+06        -0.12069E+06         0.00000E+00
    0.00000E+00         0.00000E+00        -0.17117E+04
 
    0.10240E+06         0.35248E+06         0.00000E+00
    0.35248E+06        -0.11251E+06         0.00000E+00
    0.00000E+00         0.00000E+00        -0.20212E+04
 
    0.92549E+05         0.35761E+06         0.00000E+00
    0.35761E+06        -0.10445E+06         0.00000E+00
    0.00000E+00         0.00000E+00        -0.23804E+04
 
    0.82565E+05         0.36263E+06         0.00000E+00
    0.36263E+06        -0.96546E+05         0.00000E+00
    0.00000E+00         0.00000E+00        -0.27962E+04
 
    0.72438E+05         0.36756E+06         0.00000E+00
    0.36756E+06        -0.88817E+05         0.00000E+00
    0.00000E+00         0.00000E+00        -0.32759E+04
 
    0.62152E+05         0.37239E+06         0.00000E+00
    0.37239E+06        -0.81290E+05         0.00000E+00
    0.00000E+00         0.00000E+00        -0.38276E+04
 
    0.51693E+05         0.37715E+06         0.00000E+00
    0.37715E+06        -0.73992E+05         0.00000E+00
    0.00000E+00         0.00000E+00        -0.44600E+04
 
    0.41040E+05         0.38183E+06         0.00000E+00
    0.38183E+06        -0.66953E+05         0.00000E+00
    0.00000E+00         0.00000E+00        -0.51824E+04
 
    0.30176E+05         0.38645E+06         0.00000E+00
    0.38645E+06        -0.60200E+05         0.00000E+00
    0.00000E+00         0.00000E+00        -0.60049E+04
 
    0.19078E+05         0.39102E+06         0.00000E+00
    0.39102E+06        -0.53767E+05         0.00000E+00
    0.00000E+00         0.00000E+00        -0.69378E+04
 
    0.77220E+04         0.39553E+06         0.00000E+00
    0.39553E+06        -0.47682E+05         0.00000E+00
    0.00000E+00         0.00000E+00        -0.79920E+04
 
   -0.39149E+04         0.40000E+06         0.00000E+00
    0.40000E+06        -0.41979E+05         0.00000E+00
    0.00000E+00         0.00000E+00        -0.91788E+04
 
    0.39173E+06         0.66679E+04         0.00000E+00
    0.66679E+04        -0.38804E+06         0.00000E+00
    0.00000E+00         0.00000E+00         0.73709E+03
 
    0.39063E+06         0.20063E+05         0.00000E+00
    0.20063E+05        -0.38745E+06         0.00000E+00
    0.00000E+00         0.00000E+00         0.63455E+03
 
    0.38901E+06         0.33443E+05         0.00000E+00
    0.33443E+05        -0.38629E+06         0.00000E+00
    0.00000E+00         0.00000E+00         0.54329E+03
 
    0.38688E+06         0.46780E+05         0.00000E+00
    0.46780E+05        -0.38457E+06         0.00000E+00
    0.00000E+00         0.00000E+00         0.46247E+03
 
    0.38425E+06         0.60046E+05         0.00000E+00
    0.60046E+05        -0.38230E+06         0.00000E+00
    0.00000E+00         0.00000E+00         0.39123E+03
 
    0.38113E+06         0.73214E+05         0.00000E+00
    0.73214E+05        -0.37949E+06         0.00000E+00
    0.00000E+00         0.00000E+00         0.32873E+03
 
    0.37754E+06         0.86260E+05         0.00000E+00
    0.86260E+05        -0.37617E+06         0.00000E+00
    0.00000E+00         0.00000E+00         0.27416E+03
 
    0.37349E+06         0.99159E+05         0.00000E+00
    0.99159E+05        -0.37236E+06         0.00000E+00
    0.00000E+00         0.00000E+00         0.22673E+03
 
    0.36899E+06         0.11189E+06         0.00000E+00
    0.11189E+06        -0.36806E+06         0.00000E+00
    0.00000E+00         0.00000E+00         0.18567E+03
 
    0.36406E+06         0.12443E+06         0.00000E+00
    0.12443E+06        -0.36331E+06         0.00000E+00
    0.00000E+00         0.00000E+00         0.15027E+03
 
    0.35872E+06         0.13677E+06         0.00000E+00
    0.13677E+06        -0.35812E+06         0.00000E+00
    0.00000E+00         0.00000E+00         0.11982E+03
 
    0.35298E+06         0.14888E+06         0.00000E+00
    0.14888E+06        -0.35252E+06         0.00000E+00
    0.00000E+00         0.00000E+00         0.93680E+02
 
    0.34687E+06         0.16076E+06         0.00000E+00
    0.16076E+06        -0.34652E+06         0.00000E+00
    0.00000E+00         0.00000E+00         0.71209E+02
 
    0.34040E+06         0.17238E+06         0.00000E+00
    0.17238E+06        -0.34015E+06         0.00000E+00
    0.00000E+00         0.00000E+00         0.51815E+02
 
    0.33360E+06         0.18373E+06         0.00000E+00
    0.18373E+06        -0.33343E+06         0.00000E+00
    0.00000E+00         0.00000E+00         0.34924E+02
 
    0.32648E+06         0.19481E+06         0.00000E+00
    0.19481E+06        -0.32638E+06         0.00000E+00
    0.00000E+00         0.00000E+00         0.19979E+02
 
    0.31906E+06         0.20561E+06         0.00000E+00
    0.20561E+06        -0.31903E+06         0.00000E+00
    0.00000E+00         0.00000E+00         0.64371E+01
 
    0.31136E+06         0.21612E+06         0.00000E+00
    0.21612E+06        -0.31139E+06         0.00000E+00
    0.00000E+00         0.00000E+00        -0.62419E+01
 
    0.30341E+06         0.22633E+06         0.00000E+00
    0.22633E+06        -0.30350E+06         0.00000E+00
    0.00000E+00         0.00000E+00        -0.18602E+02
 
    0.29521E+06         0.23625E+06         0.00000E+00
    0.23625E+06        -0.29537E+06         0.00000E+00
    0.00000E+00         0.00000E+00        -0.31203E+02
 
    0.28680E+06         0.24586E+06         0.00000E+00
    0.24586E+06        -0.28702E+06         0.00000E+00
    0.00000E+00         0.00000E+00        -0.44628E+02
 
    0.27819E+06         0.25517E+06         0.00000E+00
    0.25517E+06        -0.27849E+06         0.00000E+00
    0.00000E+00         0.00000E+00        -0.59498E+02
 
    0.26939E+06         0.26419E+06         0.00000E+00
    0.26419E+06        -0.26978E+06         0.00000E+00
    0.00000E+00         0.00000E+00        -0.76484E+02
 
    0.26043E+06         0.27290E+06         0.00000E+00
    0.27290E+06        -0.26091E+06         0.00000E+00
    0.00000E+00         0.00000E+00        -0.96323E+02
 
    0.25132E+06         0.28132E+06         0.00000E+00
    0.28132E+06        -0.25192E+06         0.00000E+00
    0.00000E+00         0.00000E+00        -0.11983E+03
 
    0.24208E+06         0.28945E+06         0.00000E+00
    0.28945E+06        -0.24282E+06         0.00000E+00
    0.00000E+00         0.00000E+00        -0.14794E+03
 
    0.23272E+06         0.29729E+06         0.00000E+00
    0.29729E+06        -0.23363E+06         0.00000E+00
    0.00000E+00         0.00000E+00        -0.18167E+03
 
    0.22326E+06         0.30486E+06         0.00000E+00
    0.30486E+06        -0.22437E+06         0.00000E+00
    0.00000E+00         0.00000E+00        -0.22222E+03
 
    0.21370E+06         0.31216E+06         0.00000E+00
    0.31216E+06        -0.21506E+06         0.00000E+00
    0.00000E+00         0.00000E+00        -0.27093E+03
 
    0.20407E+06         0.31921E+06         0.00000E+00
    0.31921E+06        -0.20571E+06         0.00000E+00
    0.00000E+00         0.00000E+00        -0.32937E+03
 
    0.19436E+06         0.32601E+06         0.00000E+00
    0.32601E+06        -0.19635E+06         0.00000E+00
    0.00000E+00         0.00000E+00        -0.39929E+03
 
    0.18459E+06         0.33257E+06         0.00000E+00
    0.33257E+06        -0.18700E+06         0.00000E+00
    0.00000E+00         0.00000E+00        -0.48274E+03
 
    0.17476E+06         0.33891E+06         0.00000E+00
    0.33891E+06        -0.17767E+06         0.00000E+00
    0.00000E+00         0.00000E+00        -0.58205E+03
 
    0.16488E+06         0.34504E+06         0.00000E+00
    0.34504E+06        -0.16838E+06         0.00000E+00
    0.00000E+00         0.00000E+00        -0.69987E+03
 
    0.15496E+06         0.35097E+06         0.00000E+00
    0.35097E+06        -0.15915E+06         0.00000E+00
    0.00000E+00         0.00000E+00        -0.83924E+03
 
    0.14498E+06         0.35672E+06         0.00000E+00
    0.35672E+06        -0.15000E+06         0.00000E+00
    0.00000E+00         0.00000E+00        -0.10036E+04
 
    0.13496E+06         0.36230E+06         0.00000E+00
    0.36230E+06        -0.14095E+06         0.00000E+00
    0.00000E+00         0.00000E+00        -0.11969E+04
 
    0.12489E+06         0.36773E+06         0.00000E+00
    0.36773E+06        -0.13201E+06         0.00000E+00
    0.00000E+00         0.00000E+00        -0.14235E+04
 
    0.11476E+06         0.37302E+06         0.00000E+00
    0.37302E+06        -0.12321E+06         0.00000E+00
    0.00000E+00         0.00000E+00        -0.16884E+04
 
    0.10458E+06         0.37819E+06         0.00000E+00
    0.37819E+06        -0.11456E+06         0.00000E+00
    0.00000E+00         0.00000E+00        -0.19971E+04
 
    0.94316E+05         0.38326E+06         0.00000E+00
    0.38326E+06        -0.10609E+06         0.00000E+00
    0.00000E+00         0.00000E+00        -0.23557E+04
 
    0.83974E+05         0.38823E+06         0.00000E+00
    0.38823E+06        -0.97829E+05         0.00000E+00
    0.00000E+00         0.00000E+00        -0.27711E+04
 
    0.73535E+05         0.39313E+06         0.00000E+00
    0.39313E+06        -0.89788E+05         0.00000E+00
    0.00000E+00         0.00000E+00        -0.32506E+04
 
    0.62984E+05         0.39796E+06         0.00000E+00
    0.39796E+06        -0.81996E+05         0.00000E+00
    0.00000E+00         0.00000E+00        -0.38025E+04
 
    0.52301E+05         0.40275E+06         0.00000E+00
    0.40275E+06        -0.74478E+05         0.00000E+00
    0.00000E+00         0.00000E+00        -0.44355E+04
 
    0.41466E+05         0.40750E+06         0.00000E+00
    0.40750E+06        -0.67261E+05         0.00000E+00
    0.00000E+00         0.00000E+00        -0.51590E+04
 
    0.30456E+05         0.41223E+06         0.00000E+00
    0.41223E+06        -0.60371E+05         0.00000E+00
    0.00000E+00         0.00000E+00        -0.59830E+04
 
    0.19246E+05         0.41696E+06         0.00000E+00
    0.41696E+06        -0.53837E+05         0.00000E+00
    0.00000E+00         0.00000E+00        -0.69182E+04
 
    0.78099E+04         0.42168E+06         0.00000E+00
    0.42168E+06        -0.47687E+05         0.00000E+00
    0.00000E+00         0.00000E+00        -0.79755E+04
 
   -0.38826E+04         0.42642E+06         0.00000E+00
    0.42642E+06        -0.41949E+05         0.00000E+00
    0.00000E+00         0.00000E+00        -0.91663E+04
 
    0.42734E+06         0.76781E+04         0.00000E+00
    0.76781E+04        -0.42421E+06         0.00000E+00
    0.00000E+00         0.00000E+00         0.62567E+03
 
    0.42620E+06         0.23037E+05         0.00000E+00
    0.23037E+05        -0.42349E+06         0.00000E+00
    0.00000E+00         0.00000E+00         0.54207E+03
 
    0.42442E+06         0.38347E+05         0.00000E+00
    0.38347E+05        -0.42209E+06         0.00000E+00
    0.00000E+00         0.00000E+00         0.46683E+03
 
    0.42200E+06         0.53569E+05         0.00000E+00
    0.53569E+05        -0.42000E+06         0.00000E+00
    0.00000E+00         0.00000E+00         0.39949E+03
 
    0.41896E+06         0.68671E+05         0.00000E+00
    0.68671E+05        -0.41727E+06         0.00000E+00
    0.00000E+00         0.00000E+00         0.33957E+03
 
    0.41533E+06         0.83617E+05         0.00000E+00
    0.83617E+05        -0.41389E+06         0.00000E+00
    0.00000E+00         0.00000E+00         0.28654E+03
 
    0.41111E+06         0.98379E+05         0.00000E+00
    0.98379E+05        -0.40991E+06         0.00000E+00
    0.00000E+00         0.00000E+00         0.23987E+03
 
    0.40633E+06         0.11293E+06         0.00000E+00
    0.11293E+06        -0.40534E+06         0.00000E+00
    0.00000E+00         0.00000E+00         0.19902E+03
 
    0.40102E+06         0.12723E+06         0.00000E+00
    0.12723E+06        -0.40021E+06         0.00000E+00
    0.00000E+00         0.00000E+00         0.16344E+03
 
    0.39520E+06         0.14128E+06         0.00000E+00
    0.14128E+06        -0.39454E+06         0.00000E+00
    0.00000E+00         0.00000E+00         0.13261E+03
 
    0.38889E+06         0.15503E+06         0.00000E+00
    0.15503E+06        -0.38836E+06         0.00000E+00
    0.00000E+00         0.00000E+00         0.10599E+03
 
    0.38213E+06         0.16849E+06         0.00000E+00
    0.16849E+06        -0.38171E+06         0.00000E+00
    0.00000E+00         0.00000E+00         0.83074E+02
 
    0.37493E+06         0.18161E+06         0.00000E+00
    0.18161E+06        -0.37461E+06         0.00000E+00
    0.00000E+00         0.00000E+00         0.63349E+02
 
    0.36732E+06         0.19440E+06         0.00000E+00
    0.19440E+06        -0.36709E+06         0.00000E+00
    0.00000E+00         0.00000E+00         0.46322E+02
 
    0.35933E+06         0.20684E+06         0.00000E+00
    0.20684E+06        -0.35917E+06         0.00000E+00
    0.00000E+00         0.00000E+00         0.31505E+02
 
    0.35099E+06         0.21891E+06         0.00000E+00
    0.21891E+06        -0.35090E+06         0.00000E+00
    0.00000E+00         0.00000E+00         0.18416E+02
 
    0.34232E+06         0.23062E+06         0.00000E+00
    0.23062E+06        -0.34229E+06         0.00000E+00
    0.00000E+00         0.00000E+00         0.65725E+01
 
    0.33336E+06         0.24195E+06         0.00000E+00
    0.24195E+06        -0.33338E+06         0.00000E+00
    0.00000E+00         0.00000E+00        -0.45121E+01
 
    0.32412E+06         0.25289E+06         0.00000E+00
    0.25289E+06        -0.32419E+06         0.00000E+00
    0.00000E+00         0.00000E+00        -0.15337E+02
 
    0.31463E+06         0.26345E+06         0.00000E+00
    0.26345E+06        -0.31476E+06         0.00000E+00
    0.00000E+00         0.00000E+00        -0.26423E+02
 
    0.30493E+06         0.27363E+06         0.00000E+00
    0.27363E+06        -0.30512E+06         0.00000E+00
    0.00000E+00         0.00000E+00        -0.38318E+02
 
    0.29502E+06         0.28342E+06         0.00000E+00
    0.28342E+06        -0.29528E+06         0.00000E+00
    0.00000E+00         0.00000E+00        -0.51610E+02
 
    0.28495E+06         0.29283E+06         0.00000E+00
    0.29283E+06        -0.28529E+06         0.00000E+00
    0.00000E+00         0.00000E+00        -0.66942E+02
 
    0.27473E+06         0.30187E+06         0.00000E+00
    0.30187E+06        -0.27516E+06         0.00000E+00
    0.00000E+00         0.00000E+00        -0.85021E+02
 
    0.26439E+06         0.31053E+06         0.00000E+00
    0.31053E+06        -0.26492E+06         0.00000E+00
    0.00000E+00         0.00000E+00        -0.10664E+03
 
    0.25394E+06         0.31884E+06         0.00000E+00
    0.31884E+06        -0.25460E+06         0.00000E+00
    0.00000E+00         0.00000E+00        -0.13267E+03
 
    0.24340E+06         0.32680E+06         0.00000E+00
    0.32680E+06        -0.24422E+06         0.00000E+00
    0.00000E+00         0.00000E+00        -0.16414E+03
 
    0.23280E+06         0.33442E+06         0.00000E+00
    0.33442E+06        -0.23381E+06         0.00000E+00
    0.00000E+00         0.00000E+00        -0.20218E+03
 
    0.22215E+06         0.34172E+06         0.00000E+00
    0.34172E+06        -0.22339E+06         0.00000E+00
    0.00000E+00         0.00000E+00        -0.24812E+03
 
    0.21147E+06         0.34870E+06         0.00000E+00
    0.34870E+06        -0.21298E+06         0.00000E+00
    0.00000E+00         0.00000E+00        -0.30344E+03
 
    0.20077E+06         0.35539E+06         0.00000E+00
    0.35539E+06        -0.20261E+06         0.00000E+00
    0.00000E+00         0.00000E+00        -0.36988E+03
 
    0.19006E+06         0.36180E+06         0.00000E+00
    0.36180E+06        -0.19230E+06         0.00000E+00
    0.00000E+00         0.00000E+00        -0.44941E+03
 
    0.17935E+06         0.36795E+06         0.00000E+00
    0.36795E+06        -0.18207E+06         0.00000E+00
    0.00000E+00         0.00000E+00        -0.54430E+03
 
    0.16865E+06         0.37386E+06         0.00000E+00
    0.37386E+06        -0.17194E+06         0.00000E+00
    0.00000E+00         0.00000E+00        -0.65713E+03
 
    0.15797E+06         0.37955E+06         0.00000E+00
    0.37955E+06        -0.16193E+06         0.00000E+00
    0.00000E+00         0.00000E+00        -0.79087E+03
 
    0.14731E+06         0.38503E+06         0.00000E+00
    0.38503E+06        -0.15206E+06         0.00000E+00
    0.00000E+00         0.00000E+00        -0.94887E+03
 
    0.13668E+06         0.39033E+06         0.00000E+00
    0.39033E+06        -0.14235E+06         0.00000E+00
    0.00000E+00         0.00000E+00        -0.11349E+04
 
    0.12606E+06         0.39548E+06         0.00000E+00
    0.39548E+06        -0.13283E+06         0.00000E+00
    0.00000E+00         0.00000E+00        -0.13534E+04
 
    0.11546E+06         0.40048E+06         0.00000E+00
    0.40048E+06        -0.12351E+06         0.00000E+00
    0.00000E+00         0.00000E+00        -0.16090E+04
 
    0.10487E+06         0.40537E+06         0.00000E+00
    0.40537E+06        -0.11441E+06         0.00000E+00
    0.00000E+00         0.00000E+00        -0.19073E+04
 
    0.94288E+05         0.41016E+06         0.00000E+00
    0.41016E+06        -0.10556E+06         0.00000E+00
    0.00000E+00         0.00000E+00        -0.22541E+04
 
    0.83693E+05         0.41488E+06         0.00000E+00
    0.41488E+06        -0.96974E+05         0.00000E+00
    0.00000E+00         0.00000E+00        -0.26562E+04
 
    0.73074E+05         0.41955E+06         0.00000E+00
    0.41955E+06        -0.88679E+05         0.00000E+00
    0.00000E+00         0.00000E+00        -0.31209E+04
 
    0.62415E+05         0.42419E+06         0.00000E+00
    0.42419E+06        -0.80695E+05         0.00000E+00
    0.00000E+00         0.00000E+00        -0.36560E+04
 
    0.51694E+05         0.42883E+06         0.00000E+00
    0.42883E+06        -0.73046E+05         0.00000E+00
    0.00000E+00         0.00000E+00        -0.42703E+04
 
    0.40889E+05         0.43347E+06         0.00000E+00
    0.43347E+06        -0.65754E+05         0.00000E+00
    0.00000E+00         0.00000E+00        -0.49730E+04
 
    0.29975E+05         0.43815E+06         0.00000E+00
    0.43815E+06        -0.58845E+05         0.00000E+00
    0.00000E+00         0.00000E+00        -0.57739E+04
 
    0.18923E+05         0.44288E+06         0.00000E+00
    0.44288E+06        -0.52341E+05         0.00000E+00
    0.00000E+00         0.00000E+00        -0.66835E+04
 
    0.77027E+04         0.44768E+06         0.00000E+00
    0.44768E+06        -0.46265E+05         0.00000E+00
    0.00000E+00         0.00000E+00        -0.77125E+04
 
   -0.37200E+04         0.45256E+06         0.00000E+00
    0.45256E+06        -0.40641E+05         0.00000E+00
    0.00000E+00         0.00000E+00        -0.88722E+04
 
    0.46908E+06         0.89426E+04         0.00000E+00
    0.89426E+04        -0.46528E+06         0.00000E+00
    0.00000E+00         0.00000E+00         0.75943E+03
 
    0.46773E+06         0.26727E+05         0.00000E+00
    0.26727E+05        -0.46440E+06         0.00000E+00
    0.00000E+00         0.00000E+00         0.66628E+03
 
    0.46558E+06         0.44405E+05         0.00000E+00
    0.44405E+05        -0.46267E+06         0.00000E+00
    0.00000E+00         0.00000E+00         0.58129E+03
 
    0.46264E+06         0.61930E+05         0.00000E+00
    0.61930E+05        -0.46012E+06         0.00000E+00
    0.00000E+00         0.00000E+00         0.50425E+03
 
    0.45895E+06         0.79259E+05         0.00000E+00
    0.79259E+05        -0.45678E+06         0.00000E+00
    0.00000E+00         0.00000E+00         0.43484E+03
 
    0.45453E+06         0.96352E+05         0.00000E+00
    0.96352E+05        -0.45266E+06         0.00000E+00
    0.00000E+00         0.00000E+00         0.37269E+03
 
    0.44941E+06         0.11317E+06         0.00000E+00
    0.11317E+06        -0.44782E+06         0.00000E+00
    0.00000E+00         0.00000E+00         0.31737E+03
 
    0.44362E+06         0.12968E+06         0.00000E+00
    0.12968E+06        -0.44228E+06         0.00000E+00
    0.00000E+00         0.00000E+00         0.26842E+03
 
    0.43720E+06         0.14586E+06         0.00000E+00
    0.14586E+06        -0.43608E+06         0.00000E+00
    0.00000E+00         0.00000E+00         0.22536E+03
 
    0.43018E+06         0.16166E+06         0.00000E+00
    0.16166E+06        -0.42924E+06         0.00000E+00
    0.00000E+00         0.00000E+00         0.18767E+03
 
    0.42259E+06         0.17707E+06         0.00000E+00
    0.17707E+06        -0.42182E+06         0.00000E+00
    0.00000E+00         0.00000E+00         0.15486E+03
 
    0.41448E+06         0.19207E+06         0.00000E+00
    0.19207E+06        -0.41384E+06         0.00000E+00
    0.00000E+00         0.00000E+00         0.12639E+03
 
    0.40586E+06         0.20664E+06         0.00000E+00
    0.20664E+06        -0.40535E+06         0.00000E+00
    0.00000E+00         0.00000E+00         0.10177E+03
 
    0.39679E+06         0.22075E+06         0.00000E+00
    0.22075E+06        -0.39638E+06         0.00000E+00
    0.00000E+00         0.00000E+00         0.80476E+02
 
    0.38729E+06         0.23440E+06         0.00000E+00
    0.23440E+06        -0.38698E+06         0.00000E+00
    0.00000E+00         0.00000E+00         0.62001E+02
 
    0.37740E+06         0.24757E+06         0.00000E+00
    0.24757E+06        -0.37717E+06         0.00000E+00
    0.00000E+00         0.00000E+00         0.45840E+02
 
    0.36717E+06         0.26026E+06         0.00000E+00
    0.26026E+06        -0.36701E+06         0.00000E+00
    0.00000E+00         0.00000E+00         0.31489E+02
 
    0.35661E+06         0.27246E+06         0.00000E+00
    0.27246E+06        -0.35652E+06         0.00000E+00
    0.00000E+00         0.00000E+00         0.18439E+02
 
    0.34577E+06         0.28417E+06         0.00000E+00
    0.28417E+06        -0.34574E+06         0.00000E+00
    0.00000E+00         0.00000E+00         0.61704E+01
 
    0.33469E+06         0.29539E+06         0.00000E+00
    0.29539E+06        -0.33472E+06         0.00000E+00
    0.00000E+00         0.00000E+00        -0.58495E+01
 
    0.32339E+06         0.30611E+06         0.00000E+00
    0.30611E+06        -0.32348E+06         0.00000E+00
    0.00000E+00         0.00000E+00        -0.18179E+02
 
    0.31191E+06         0.31635E+06         0.00000E+00
    0.31635E+06        -0.31207E+06         0.00000E+00
    0.00000E+00         0.00000E+00        -0.31410E+02
 
    0.30028E+06         0.32610E+06         0.00000E+00
    0.32610E+06        -0.30051E+06         0.00000E+00
    0.00000E+00         0.00000E+00        -0.46177E+02
 
    0.28853E+06         0.33539E+06         0.00000E+00
    0.33539E+06        -0.28885E+06         0.00000E+00
    0.00000E+00         0.00000E+00        -0.63176E+02
 
    0.27669E+06         0.34421E+06         0.00000E+00
    0.34421E+06        -0.27711E+06         0.00000E+00
    0.00000E+00         0.00000E+00        -0.83171E+02
 
    0.26479E+06         0.35258E+06         0.00000E+00
    0.35258E+06        -0.26532E+06         0.00000E+00
    0.00000E+00         0.00000E+00        -0.10702E+03
 
    0.25285E+06         0.36052E+06         0.00000E+00
    0.36052E+06        -0.25353E+06         0.00000E+00
    0.00000E+00         0.00000E+00        -0.13568E+03
 
    0.24090E+06         0.36805E+06         0.00000E+00
    0.36805E+06        -0.24175E+06         0.00000E+00
    0.00000E+00         0.00000E+00        -0.17023E+03
 
    0.22896E+06         0.37517E+06         0.00000E+00
    0.37517E+06        -0.23002E+06         0.00000E+00
    0.00000E+00         0.00000E+00        -0.21193E+03
 
    0.21705E+06         0.38191E+06         0.00000E+00
    0.38191E+06        -0.21836E+06         0.00000E+00
    0.00000E+00         0.00000E+00        -0.26219E+03
 
    0.20520E+06         0.38830E+06         0.00000E+00
    0.38830E+06        -0.20681E+06         0.00000E+00
    0.00000E+00         0.00000E+00        -0.32262E+03
 
    0.19341E+06         0.39435E+06         0.00000E+00
    0.39435E+06        -0.19539E+06         0.00000E+00
    0.00000E+00         0.00000E+00        -0.39509E+03
 
    0.18171E+06         0.40009E+06         0.00000E+00
    0.40009E+06        -0.18412E+06         0.00000E+00
    0.00000E+00         0.00000E+00        -0.48170E+03
 
    0.17010E+06         0.40555E+06         0.00000E+00
    0.40555E+06        -0.17302E+06         0.00000E+00
    0.00000E+00         0.00000E+00        -0.58489E+03
 
    0.15860E+06         0.41075E+06         0.00000E+00
    0.41075E+06        -0.16213E+06         0.00000E+00
    0.00000E+00         0.00000E+00        -0.70743E+03
 
    0.14721E+06         0.41571E+06         0.00000E+00
    0.41571E+06        -0.15147E+06         0.00000E+00
    0.00000E+00         0.00000E+00        -0.85246E+03
 
    0.13594E+06         0.42048E+06         0.00000E+00
    0.42048E+06        -0.14105E+06         0.00000E+00
    0.00000E+00         0.00000E+00        -0.10236E+04
 
    0.12478E+06         0.42507E+06         0.00000E+00
    0.42507E+06        -0.13091E+06         0.00000E+00
    0.00000E+00         0.00000E+00        -0.12247E+04
 
    0.11375E+06         0.42952E+06         0.00000E+00
    0.42952E+06        -0.12105E+06         0.00000E+00
    0.00000E+00         0.00000E+00        -0.14605E+04
 
    0.10283E+06         0.43385E+06         0.00000E+00
    0.43385E+06        -0.11151E+06         0.00000E+00
    0.00000E+00         0.00000E+00        -0.17360E+04
 
    0.92011E+05         0.43810E+06         0.00000E+00
    0.43810E+06        -0.10230E+06         0.00000E+00
    0.00000E+00         0.00000E+00        -0.20569E+04
 
    0.81292E+05         0.44231E+06         0.00000E+00
    0.44231E+06        -0.93438E+05         0.00000E+00
    0.00000E+00         0.00000E+00        -0.24293E+04
 
    0.70655E+05         0.44648E+06         0.00000E+00
    0.44648E+06        -0.84955E+05         0.00000E+00
    0.00000E+00         0.00000E+00        -0.28602E+04
 
    0.60082E+05         0.45067E+06         0.00000E+00
    0.45067E+06        -0.76867E+05         0.00000E+00
    0.00000E+00         0.00000E+00        -0.33570E+04
 
    0.49553E+05         0.45490E+06         0.00000E+00
    0.45490E+06        -0.69193E+05         0.00000E+00
    0.00000E+00         0.00000E+00        -0.39280E+04
 
    0.39044E+05         0.45919E+06         0.00000E+00
    0.45919E+06        -0.61953E+05         0.00000E+00
    0.00000E+00         0.00000E+00        -0.45818E+04
 
    0.28528E+05         0.46358E+06         0.00000E+00
    0.46358E+06        -0.55167E+05         0.00000E+00
    0.00000E+00         0.00000E+00        -0.53278E+04
 
    0.17973E+05         0.46809E+06         0.00000E+00
    0.46809E+06        -0.48852E+05         0.00000E+00
    0.00000E+00         0.00000E+00        -0.61759E+04
 
    0.73453E+04         0.47275E+06         0.00000E+00
    0.47275E+06        -0.43027E+05         0.00000E+00
    0.00000E+00         0.00000E+00        -0.71363E+04
 
   -0.33924E+04         0.47758E+06         0.00000E+00
    0.47758E+06        -0.37706E+05         0.00000E+00
    0.00000E+00         0.00000E+00        -0.82198E+04
 
    0.51868E+06         0.10510E+05         0.00000E+00
    0.10510E+05        -0.51213E+06         0.00000E+00
    0.00000E+00         0.00000E+00         0.13091E+04
 
    0.51682E+06         0.31261E+05         0.00000E+00
    0.31261E+05        -0.51103E+06         0.00000E+00
    0.00000E+00         0.00000E+00         0.11569E+04
 
    0.51397E+06         0.51818E+05         0.00000E+00
    0.51818E+05        -0.50888E+06         0.00000E+00
    0.00000E+00         0.00000E+00         0.10177E+04
 
    0.51018E+06         0.72127E+05         0.00000E+00
    0.72127E+05        -0.50573E+06         0.00000E+00
    0.00000E+00         0.00000E+00         0.89101E+03
 
    0.50548E+06         0.92133E+05         0.00000E+00
    0.92133E+05        -0.50160E+06         0.00000E+00
    0.00000E+00         0.00000E+00         0.77643E+03
 
    0.49991E+06         0.11179E+06         0.00000E+00
    0.11179E+06        -0.49654E+06         0.00000E+00
    0.00000E+00         0.00000E+00         0.67340E+03
 
    0.49352E+06         0.13105E+06         0.00000E+00
    0.13105E+06        -0.49061E+06         0.00000E+00
    0.00000E+00         0.00000E+00         0.58126E+03
 
    0.48634E+06         0.14988E+06         0.00000E+00
    0.14988E+06        -0.48384E+06         0.00000E+00
    0.00000E+00         0.00000E+00         0.49930E+03
 
    0.47841E+06         0.16824E+06         0.00000E+00
    0.16824E+06        -0.47628E+06         0.00000E+00
    0.00000E+00         0.00000E+00         0.42680E+03
 
    0.46980E+06         0.18610E+06         0.00000E+00
    0.18610E+06        -0.46798E+06         0.00000E+00
    0.00000E+00         0.00000E+00         0.36298E+03
 
    0.46053E+06         0.20343E+06         0.00000E+00
    0.20343E+06        -0.45900E+06         0.00000E+00
    0.00000E+00         0.00000E+00         0.30708E+03
 
    0.45066E+06         0.22020E+06         0.00000E+00
    0.22020E+06        -0.44937E+06         0.00000E+00
    0.00000E+00         0.00000E+00         0.25833E+03
 
    0.44023E+06         0.23640E+06         0.00000E+00
    0.23640E+06        -0.43915E+06         0.00000E+00
    0.00000E+00         0.00000E+00         0.21597E+03
 
    0.42929E+06         0.25200E+06         0.00000E+00
    0.25200E+06        -0.42840E+06         0.00000E+00
    0.00000E+00         0.00000E+00         0.17927E+03
 
    0.41789E+06         0.26700E+06         0.00000E+00
    0.26700E+06        -0.41715E+06         0.00000E+00
    0.00000E+00         0.00000E+00         0.14751E+03
 
    0.40607E+06         0.28138E+06         0.00000E+00
    0.28138E+06        -0.40547E+06         0.00000E+00
    0.00000E+00         0.00000E+00         0.11999E+03
 
    0.39387E+06         0.29514E+06         0.00000E+00
    0.29514E+06        -0.39339E+06         0.00000E+00
    0.00000E+00         0.00000E+00         0.96027E+02
 
    0.38135E+06         0.30826E+06         0.00000E+00
    0.30826E+06        -0.38098E+06         0.00000E+00
    0.00000E+00         0.00000E+00         0.74961E+02
 
    0.36855E+06         0.32076E+06         0.00000E+00
    0.32076E+06        -0.36827E+06         0.00000E+00
    0.00000E+00         0.00000E+00         0.56139E+02
 
    0.35550E+06         0.33263E+06         0.00000E+00
    0.33263E+06        -0.35531E+06         0.00000E+00
    0.00000E+00         0.00000E+00         0.38916E+02
 
    0.34226E+06         0.34387E+06         0.00000E+00
    0.34387E+06        -0.34215E+06         0.00000E+00
    0.00000E+00         0.00000E+00         0.22645E+02
 
    0.32886E+06         0.35450E+06         0.00000E+00
    0.35450E+06        -0.32883E+06         0.00000E+00
    0.00000E+00         0.00000E+00         0.66637E+01
 
    0.31534E+06         0.36453E+06         0.00000E+00
    0.36453E+06        -0.31539E+06         0.00000E+00
    0.00000E+00         0.00000E+00        -0.97089E+01
 
    0.30175E+06         0.37396E+06         0.00000E+00
    0.37396E+06        -0.30189E+06         0.00000E+00
    0.00000E+00         0.00000E+00        -0.27190E+02
 
    0.28812E+06         0.38282E+06         0.00000E+00
    0.38282E+06        -0.28835E+06         0.00000E+00
    0.00000E+00         0.00000E+00        -0.46547E+02
 
    0.27448E+06         0.39111E+06         0.00000E+00
    0.39111E+06        -0.27482E+06         0.00000E+00
    0.00000E+00         0.00000E+00        -0.68610E+02
 
    0.26087E+06         0.39887E+06         0.00000E+00
    0.39887E+06        -0.26134E+06         0.00000E+00
    0.00000E+00         0.00000E+00        -0.94291E+02
 
    0.24732E+06         0.40612E+06         0.00000E+00
    0.40612E+06        -0.24795E+06         0.00000E+00
    0.00000E+00         0.00000E+00        -0.12461E+03
 
    0.23387E+06         0.41287E+06         0.00000E+00
    0.41287E+06        -0.23467E+06         0.00000E+00
    0.00000E+00         0.00000E+00        -0.16069E+03
 
    0.22053E+06         0.41915E+06         0.00000E+00
    0.41915E+06        -0.22155E+06         0.00000E+00
    0.00000E+00         0.00000E+00        -0.20383E+03
 
    0.20733E+06         0.42500E+06         0.00000E+00
    0.42500E+06        -0.20861E+06         0.00000E+00
    0.00000E+00         0.00000E+00        -0.25548E+03
 
    0.19430E+06         0.43045E+06         0.00000E+00
    0.43045E+06        -0.19589E+06         0.00000E+00
    0.00000E+00         0.00000E+00        -0.31730E+03
 
    0.18146E+06         0.43551E+06         0.00000E+00
    0.43551E+06        -0.18342E+06         0.00000E+00
    0.00000E+00         0.00000E+00        -0.39117E+03
 
    0.16883E+06         0.44024E+06         0.00000E+00
    0.44024E+06        -0.17123E+06         0.00000E+00
    0.00000E+00         0.00000E+00        -0.47924E+03
 
    0.15642E+06         0.44465E+06         0.00000E+00
    0.44465E+06        -0.15934E+06         0.00000E+00
    0.00000E+00         0.00000E+00        -0.58398E+03
 
    0.14424E+06         0.44880E+06         0.00000E+00
    0.44880E+06        -0.14778E+06         0.00000E+00
    0.00000E+00         0.00000E+00        -0.70815E+03
 
    0.13230E+06         0.45271E+06         0.00000E+00
    0.45271E+06        -0.13658E+06         0.00000E+00
    0.00000E+00         0.00000E+00        -0.85491E+03
 
    0.12062E+06         0.45643E+06         0.00000E+00
    0.45643E+06        -0.12576E+06         0.00000E+00
    0.00000E+00         0.00000E+00        -0.10278E+04
 
    0.10918E+06         0.45999E+06         0.00000E+00
    0.45999E+06        -0.11534E+06         0.00000E+00
    0.00000E+00         0.00000E+00        -0.12309E+04
 
    0.97998E+05         0.46344E+06         0.00000E+00
    0.46344E+06        -0.10534E+06         0.00000E+00
    0.00000E+00         0.00000E+00        -0.14687E+04
 
    0.87061E+05         0.46681E+06         0.00000E+00
    0.46681E+06        -0.95792E+05         0.00000E+00
    0.00000E+00         0.00000E+00        -0.17461E+04
 
    0.76363E+05         0.47014E+06         0.00000E+00
    0.47014E+06        -0.86707E+05         0.00000E+00
    0.00000E+00         0.00000E+00        -0.20688E+04
 
    0.65893E+05         0.47348E+06         0.00000E+00
    0.47348E+06        -0.78107E+05         0.00000E+00
    0.00000E+00         0.00000E+00        -0.24428E+04
 
    0.55634E+05         0.47687E+06         0.00000E+00
    0.47687E+06        -0.70008E+05         0.00000E+00
    0.00000E+00         0.00000E+00        -0.28749E+04
 
    0.45567E+05         0.48035E+06         0.00000E+00
    0.48035E+06        -0.62428E+05         0.00000E+00
    0.00000E+00         0.00000E+00        -0.33723E+04
 
    0.35668E+05         0.48395E+06         0.00000E+00
    0.48395E+06        -0.55382E+05         0.00000E+00
    0.00000E+00         0.00000E+00        -0.39428E+04
 
    0.25909E+05         0.48772E+06         0.00000E+00
    0.48772E+06        -0.48883E+05         0.00000E+00
    0.00000E+00         0.00000E+00        -0.45949E+04
 
    0.16259E+05         0.49169E+06         0.00000E+00
    0.49169E+06        -0.42946E+05         0.00000E+00
    0.00000E+00         0.00000E+00        -0.53373E+04
 
    0.66808E+04         0.49591E+06         0.00000E+00
    0.49591E+06        -0.37579E+05         0.00000E+00
    0.00000E+00         0.00000E+00        -0.61795E+04
 
   -0.28652E+04         0.50040E+06         0.00000E+00
    0.50040E+06        -0.32790E+05         0.00000E+00
    0.00000E+00         0.00000E+00        -0.71311E+04
 
    0.57818E+06         0.12425E+05         0.00000E+00
    0.12425E+05        -0.56565E+06         0.00000E+00
    0.00000E+00         0.00000E+00         0.25053E+04
 
    0.57535E+06         0.36754E+05         0.00000E+00
    0.36754E+05        -0.56427E+06         0.00000E+00
    0.00000E+00         0.00000E+00         0.22162E+04
 
    0.57135E+06         0.60765E+05         0.00000E+00
    0.60765E+05        -0.56159E+06         0.00000E+00
    0.00000E+00         0.00000E+00         0.19526E+04
 
    0.56623E+06         0.84391E+05         0.00000E+00
    0.84391E+05        -0.55767E+06         0.00000E+00
    0.00000E+00         0.00000E+00         0.17136E+04
 
    0.56005E+06         0.10757E+06         0.00000E+00
    0.10757E+06        -0.55256E+06         0.00000E+00
    0.00000E+00         0.00000E+00         0.14981E+04
 
    0.55284E+06         0.13025E+06         0.00000E+00
    0.13025E+06        -0.54632E+06         0.00000E+00
    0.00000E+00         0.00000E+00         0.13045E+04
 
    0.54467E+06         0.15238E+06         0.00000E+00
    0.15238E+06        -0.53902E+06         0.00000E+00
    0.00000E+00         0.00000E+00         0.11317E+04
 
    0.53560E+06         0.17391E+06         0.00000E+00
    0.17391E+06        -0.53071E+06         0.00000E+00
    0.00000E+00         0.00000E+00         0.97800E+03
 
    0.52569E+06         0.19480E+06         0.00000E+00
    0.19480E+06        -0.52148E+06         0.00000E+00
    0.00000E+00         0.00000E+00         0.84199E+03
 
    0.51498E+06         0.21502E+06         0.00000E+00
    0.21502E+06        -0.51137E+06         0.00000E+00
    0.00000E+00         0.00000E+00         0.72217E+03
 
    0.50354E+06         0.23453E+06         0.00000E+00
    0.23453E+06        -0.50046E+06         0.00000E+00
    0.00000E+00         0.00000E+00         0.61705E+03
 
    0.49144E+06         0.25331E+06         0.00000E+00
    0.25331E+06        -0.48881E+06         0.00000E+00
    0.00000E+00         0.00000E+00         0.52523E+03
 
    0.47871E+06         0.27134E+06         0.00000E+00
    0.27134E+06        -0.47649E+06         0.00000E+00
    0.00000E+00         0.00000E+00         0.44533E+03
 
    0.46544E+06         0.28860E+06         0.00000E+00
    0.28860E+06        -0.46356E+06         0.00000E+00
    0.00000E+00         0.00000E+00         0.37604E+03
 
    0.45166E+06         0.30508E+06         0.00000E+00
    0.30508E+06        -0.45008E+06         0.00000E+00
    0.00000E+00         0.00000E+00         0.31613E+03
 
    0.43745E+06         0.32077E+06         0.00000E+00
    0.32077E+06        -0.43613E+06         0.00000E+00
    0.00000E+00         0.00000E+00         0.26443E+03
 
    0.42285E+06         0.33566E+06         0.00000E+00
    0.33566E+06        -0.42175E+06         0.00000E+00
    0.00000E+00         0.00000E+00         0.21984E+03
 
    0.40793E+06         0.34976E+06         0.00000E+00
    0.34976E+06        -0.40702E+06         0.00000E+00
    0.00000E+00         0.00000E+00         0.18135E+03
 
    0.39273E+06         0.36306E+06         0.00000E+00
    0.36306E+06        -0.39199E+06         0.00000E+00
    0.00000E+00         0.00000E+00         0.14798E+03
 
    0.37731E+06         0.37557E+06         0.00000E+00
    0.37557E+06        -0.37672E+06         0.00000E+00
    0.00000E+00         0.00000E+00         0.11880E+03
 
    0.36172E+06         0.38729E+06         0.00000E+00
    0.38729E+06        -0.36126E+06         0.00000E+00
    0.00000E+00         0.00000E+00         0.92964E+02
 
    0.34602E+06         0.39825E+06         0.00000E+00
    0.39825E+06        -0.34567E+06         0.00000E+00
    0.00000E+00         0.00000E+00         0.69616E+02
 
    0.33025E+06         0.40845E+06         0.00000E+00
    0.40845E+06        -0.33001E+06         0.00000E+00
    0.00000E+00         0.00000E+00         0.47943E+02
 
    0.31446E+06         0.41792E+06         0.00000E+00
    0.41792E+06        -0.31433E+06         0.00000E+00
    0.00000E+00         0.00000E+00         0.27136E+02
 
    0.29870E+06         0.42667E+06         0.00000E+00
    0.42667E+06        -0.29867E+06         0.00000E+00
    0.00000E+00         0.00000E+00         0.63793E+01
 
    0.28301E+06         0.43473E+06         0.00000E+00
    0.43473E+06        -0.28309E+06         0.00000E+00
    0.00000E+00         0.00000E+00        -0.15164E+02
 
    0.26743E+06         0.44213E+06         0.00000E+00
    0.44213E+06        -0.26762E+06         0.00000E+00
    0.00000E+00         0.00000E+00        -0.38369E+02
 
    0.25201E+06         0.44889E+06         0.00000E+00
    0.44889E+06        -0.25233E+06         0.00000E+00
    0.00000E+00         0.00000E+00        -0.64171E+02
 
    0.23677E+06         0.45504E+06         0.00000E+00
    0.45504E+06        -0.23724E+06         0.00000E+00
    0.00000E+00         0.00000E+00        -0.93578E+02
 
    0.22176E+06         0.46062E+06         0.00000E+00
    0.46062E+06        -0.22240E+06         0.00000E+00
    0.00000E+00         0.00000E+00        -0.12770E+03
 
    0.20701E+06         0.46567E+06         0.00000E+00
    0.46567E+06        -0.20785E+06         0.00000E+00
    0.00000E+00         0.00000E+00        -0.16777E+03
 
    0.19255E+06         0.47022E+06         0.00000E+00
    0.47022E+06        -0.19363E+06         0.00000E+00
    0.00000E+00         0.00000E+00        -0.21516E+03
 
    0.17841E+06         0.47431E+06         0.00000E+00
    0.47431E+06        -0.17977E+06         0.00000E+00
    0.00000E+00         0.00000E+00        -0.27142E+03
 
    0.16462E+06         0.47798E+06         0.00000E+00
    0.47798E+06        -0.16631E+06         0.00000E+00
    0.00000E+00         0.00000E+00        -0.33831E+03
 
    0.15118E+06         0.48128E+06         0.00000E+00
    0.48128E+06        -0.15327E+06         0.00000E+00
    0.00000E+00         0.00000E+00        -0.41781E+03
 
    0.13814E+06         0.48425E+06         0.00000E+00
    0.48425E+06        -0.14070E+06         0.00000E+00
    0.00000E+00         0.00000E+00        -0.51216E+03
 
    0.12549E+06         0.48695E+06         0.00000E+00
    0.48695E+06        -0.12861E+06         0.00000E+00
    0.00000E+00         0.00000E+00        -0.62392E+03
 
    0.11326E+06         0.48941E+06         0.00000E+00
    0.48941E+06        -0.11704E+06         0.00000E+00
    0.00000E+00         0.00000E+00        -0.75595E+03
 
    0.10145E+06         0.49169E+06         0.00000E+00
    0.49169E+06        -0.10601E+06         0.00000E+00
    0.00000E+00         0.00000E+00        -0.91148E+03
 
    0.90073E+05         0.49384E+06         0.00000E+00
    0.49384E+06        -0.95544E+05         0.00000E+00
    0.00000E+00         0.00000E+00        -0.10941E+04
 
    0.79121E+05         0.49590E+06         0.00000E+00
    0.49590E+06        -0.85661E+05         0.00000E+00
    0.00000E+00         0.00000E+00        -0.13080E+04
 
    0.68594E+05         0.49795E+06         0.00000E+00
    0.49795E+06        -0.76382E+05         0.00000E+00
    0.00000E+00         0.00000E+00        -0.15575E+04
 
    0.58486E+05         0.50002E+06         0.00000E+00
    0.50002E+06        -0.67725E+05         0.00000E+00
    0.00000E+00         0.00000E+00        -0.18477E+04
 
    0.48786E+05         0.50217E+06         0.00000E+00
    0.50217E+06        -0.59706E+05         0.00000E+00
    0.00000E+00         0.00000E+00        -0.21840E+04
 
    0.39476E+05         0.50445E+06         0.00000E+00
    0.50445E+06        -0.52338E+05         0.00000E+00
    0.00000E+00         0.00000E+00        -0.25724E+04
 
    0.30537E+05         0.50692E+06         0.00000E+00
    0.50692E+06        -0.45633E+05         0.00000E+00
    0.00000E+00         0.00000E+00        -0.30193E+04
 
    0.21942E+05         0.50963E+06         0.00000E+00
    0.50963E+06        -0.39600E+05         0.00000E+00
    0.00000E+00         0.00000E+00        -0.35316E+04
 
    0.13660E+05         0.51264E+06         0.00000E+00
    0.51264E+06        -0.34244E+05         0.00000E+00
    0.00000E+00         0.00000E+00        -0.41168E+04
 
    0.56574E+04         0.51599E+06         0.00000E+00
    0.51599E+06        -0.29570E+05         0.00000E+00
    0.00000E+00         0.00000E+00        -0.47824E+04
 
   -0.21083E+04         0.51973E+06         0.00000E+00
    0.51973E+06        -0.25576E+05         0.00000E+00
    0.00000E+00         0.00000E+00        -0.55368E+04
 
    0.64998E+06         0.14727E+05         0.00000E+00
    0.14727E+05        -0.62674E+06         0.00000E+00
    0.00000E+00         0.00000E+00         0.46483E+04
 
    0.64555E+06         0.43294E+05         0.00000E+00
    0.43294E+05        -0.62501E+06         0.00000E+00
    0.00000E+00         0.00000E+00         0.41068E+04
 
    0.63975E+06         0.71372E+05         0.00000E+00
    0.71372E+05        -0.62167E+06         0.00000E+00
    0.00000E+00         0.00000E+00         0.36155E+04
 
    0.63265E+06         0.98884E+05         0.00000E+00
    0.98884E+05        -0.61679E+06         0.00000E+00
    0.00000E+00         0.00000E+00         0.31719E+04
 
    0.62433E+06         0.12576E+06         0.00000E+00
    0.12576E+06        -0.61046E+06         0.00000E+00
    0.00000E+00         0.00000E+00         0.27731E+04
 
    0.61485E+06         0.15194E+06         0.00000E+00
    0.15194E+06        -0.60277E+06         0.00000E+00
    0.00000E+00         0.00000E+00         0.24163E+04
 
    0.60428E+06         0.17736E+06         0.00000E+00
    0.17736E+06        -0.59379E+06         0.00000E+00
    0.00000E+00         0.00000E+00         0.20983E+04
 
    0.59270E+06         0.20197E+06         0.00000E+00
    0.20197E+06        -0.58362E+06         0.00000E+00
    0.00000E+00         0.00000E+00         0.18162E+04
 
    0.58018E+06         0.22574E+06         0.00000E+00
    0.22574E+06        -0.57235E+06         0.00000E+00
    0.00000E+00         0.00000E+00         0.15669E+04
 
    0.56679E+06         0.24862E+06         0.00000E+00
    0.24862E+06        -0.56005E+06         0.00000E+00
    0.00000E+00         0.00000E+00         0.13474E+04
 
    0.55259E+06         0.27058E+06         0.00000E+00
    0.27058E+06        -0.54682E+06         0.00000E+00
    0.00000E+00         0.00000E+00         0.11550E+04
 
    0.53767E+06         0.29160E+06         0.00000E+00
    0.29160E+06        -0.53274E+06         0.00000E+00
    0.00000E+00         0.00000E+00         0.98688E+03
 
    0.52210E+06         0.31165E+06         0.00000E+00
    0.31165E+06        -0.51790E+06         0.00000E+00
    0.00000E+00         0.00000E+00         0.84057E+03
 
    0.50594E+06         0.33073E+06         0.00000E+00
    0.33073E+06        -0.50237E+06         0.00000E+00
    0.00000E+00         0.00000E+00         0.71366E+03
 
    0.48927E+06         0.34881E+06         0.00000E+00
    0.34881E+06        -0.48625E+06         0.00000E+00
    0.00000E+00         0.00000E+00         0.60396E+03
 
    0.47215E+06         0.36590E+06         0.00000E+00
    0.36590E+06        -0.46960E+06         0.00000E+00
    0.00000E+00         0.00000E+00         0.50940E+03
 
    0.45465E+06         0.38198E+06         0.00000E+00
    0.38198E+06        -0.45251E+06         0.00000E+00
    0.00000E+00         0.00000E+00         0.42813E+03
 
    0.43684E+06         0.39708E+06         0.00000E+00
    0.39708E+06        -0.43505E+06         0.00000E+00
    0.00000E+00         0.00000E+00         0.35842E+03
 
    0.41879E+06         0.41118E+06         0.00000E+00
    0.41118E+06        -0.41729E+06         0.00000E+00
    0.00000E+00         0.00000E+00         0.29872E+03
 
    0.40055E+06         0.42430E+06         0.00000E+00
    0.42430E+06        -0.39931E+06         0.00000E+00
    0.00000E+00         0.00000E+00         0.24760E+03
 
    0.38219E+06         0.43645E+06         0.00000E+00
    0.43645E+06        -0.38117E+06         0.00000E+00
    0.00000E+00         0.00000E+00         0.20376E+03
 
    0.36377E+06         0.44766E+06         0.00000E+00
    0.44766E+06        -0.36294E+06         0.00000E+00
    0.00000E+00         0.00000E+00         0.16601E+03
 
    0.34535E+06         0.45794E+06         0.00000E+00
    0.45794E+06        -0.34469E+06         0.00000E+00
    0.00000E+00         0.00000E+00         0.13327E+03
 
    0.32699E+06         0.46732E+06         0.00000E+00
    0.46732E+06        -0.32647E+06         0.00000E+00
    0.00000E+00         0.00000E+00         0.10451E+03
 
    0.30874E+06         0.47581E+06         0.00000E+00
    0.47581E+06        -0.30834E+06         0.00000E+00
    0.00000E+00         0.00000E+00         0.78796E+02
 
    0.29065E+06         0.48346E+06         0.00000E+00
    0.48346E+06        -0.29038E+06         0.00000E+00
    0.00000E+00         0.00000E+00         0.55219E+02
 
    0.27278E+06         0.49030E+06         0.00000E+00
    0.49030E+06        -0.27262E+06         0.00000E+00
    0.00000E+00         0.00000E+00         0.32907E+02
 
    0.25517E+06         0.49636E+06         0.00000E+00
    0.49636E+06        -0.25512E+06         0.00000E+00
    0.00000E+00         0.00000E+00         0.10997E+02
 
    0.23788E+06         0.50168E+06         0.00000E+00
    0.50168E+06        -0.23793E+06         0.00000E+00
    0.00000E+00         0.00000E+00        -0.11383E+02
 
    0.22094E+06         0.50629E+06         0.00000E+00
    0.50629E+06        -0.22111E+06         0.00000E+00
    0.00000E+00         0.00000E+00        -0.35131E+02
 
    0.20439E+06         0.51025E+06         0.00000E+00
    0.51025E+06        -0.20470E+06         0.00000E+00
    0.00000E+00         0.00000E+00        -0.61195E+02
 
    0.18829E+06         0.51360E+06         0.00000E+00
    0.51360E+06        -0.18874E+06         0.00000E+00
    0.00000E+00         0.00000E+00        -0.90591E+02
 
    0.17265E+06         0.51639E+06         0.00000E+00
    0.51639E+06        -0.17328E+06         0.00000E+00
    0.00000E+00         0.00000E+00        -0.12443E+03
 
    0.15753E+06         0.51866E+06         0.00000E+00
    0.51866E+06        -0.15835E+06         0.00000E+00
    0.00000E+00         0.00000E+00        -0.16392E+03
 
    0.14294E+06         0.52048E+06         0.00000E+00
    0.52048E+06        -0.14400E+06         0.00000E+00
    0.00000E+00         0.00000E+00        -0.21044E+03
 
    0.12893E+06         0.52189E+06         0.00000E+00
    0.52189E+06        -0.13025E+06         0.00000E+00
    0.00000E+00         0.00000E+00        -0.26549E+03
 
    0.11550E+06         0.52295E+06         0.00000E+00
    0.52295E+06        -0.11715E+06         0.00000E+00
    0.00000E+00         0.00000E+00        -0.33080E+03
 
    0.10269E+06         0.52373E+06         0.00000E+00
    0.52373E+06        -0.10473E+06         0.00000E+00
    0.00000E+00         0.00000E+00        -0.40829E+03
 
    0.90507E+05         0.52428E+06         0.00000E+00
    0.52428E+06        -0.93008E+05         0.00000E+00
    0.00000E+00         0.00000E+00        -0.50013E+03
 
    0.78971E+05         0.52466E+06         0.00000E+00
    0.52466E+06        -0.82014E+05         0.00000E+00
    0.00000E+00         0.00000E+00        -0.60875E+03
 
    0.68089E+05         0.52495E+06         0.00000E+00
    0.52495E+06        -0.71773E+05         0.00000E+00
    0.00000E+00         0.00000E+00        -0.73690E+03
 
    0.57867E+05         0.52520E+06         0.00000E+00
    0.52520E+06        -0.62305E+05         0.00000E+00
    0.00000E+00         0.00000E+00        -0.88762E+03
 
    0.48306E+05         0.52548E+06         0.00000E+00
    0.52548E+06        -0.53627E+05         0.00000E+00
    0.00000E+00         0.00000E+00        -0.10643E+04
 
    0.39402E+05         0.52586E+06         0.00000E+00
    0.52586E+06        -0.45755E+05         0.00000E+00
    0.00000E+00         0.00000E+00        -0.12707E+04
 
    0.31146E+05         0.52641E+06         0.00000E+00
    0.52641E+06        -0.38701E+05         0.00000E+00
    0.00000E+00         0.00000E+00        -0.15109E+04
 
    0.23525E+05         0.52720E+06         0.00000E+00
    0.52720E+06        -0.32472E+05         0.00000E+00
    0.00000E+00         0.00000E+00        -0.17895E+04
 
    0.16517E+05         0.52829E+06         0.00000E+00
    0.52829E+06        -0.27074E+05         0.00000E+00
    0.00000E+00         0.00000E+00        -0.21113E+04
 
    0.10099E+05         0.52977E+06         0.00000E+00
    0.52977E+06        -0.22507E+05         0.00000E+00
    0.00000E+00         0.00000E+00        -0.24816E+04
 
    0.42382E+04         0.53169E+06         0.00000E+00
    0.53169E+06        -0.18768E+05         0.00000E+00
    0.00000E+00         0.00000E+00        -0.29060E+04
 
   -0.11028E+04         0.53412E+06         0.00000E+00
    0.53412E+06        -0.15849E+05         0.00000E+00
    0.00000E+00         0.00000E+00        -0.33904E+04
 
    0.73677E+06         0.17433E+05         0.00000E+00
    0.17433E+05        -0.69620E+06         0.00000E+00
    0.00000E+00         0.00000E+00         0.81151E+04
 
    0.72984E+06         0.50911E+05         0.00000E+00
    0.50911E+05        -0.69404E+06         0.00000E+00
    0.00000E+00         0.00000E+00         0.71585E+04
 
    0.72136E+06         0.83672E+05         0.00000E+00
    0.83672E+05        -0.68989E+06         0.00000E+00
    0.00000E+00         0.00000E+00         0.62939E+04
 
    0.71144E+06         0.11563E+06         0.00000E+00
    0.11563E+06        -0.68386E+06         0.00000E+00
    0.00000E+00         0.00000E+00         0.55158E+04
 
    0.70015E+06         0.14671E+06         0.00000E+00
    0.14671E+06        -0.67606E+06         0.00000E+00
    0.00000E+00         0.00000E+00         0.48185E+04
 
    0.68759E+06         0.17683E+06         0.00000E+00
    0.17683E+06        -0.66661E+06         0.00000E+00
    0.00000E+00         0.00000E+00         0.41962E+04
 
    0.67385E+06         0.20595E+06         0.00000E+00
    0.20595E+06        -0.65563E+06         0.00000E+00
    0.00000E+00         0.00000E+00         0.36431E+04
 
    0.65900E+06         0.23401E+06         0.00000E+00
    0.23401E+06        -0.64323E+06         0.00000E+00
    0.00000E+00         0.00000E+00         0.31532E+04
 
    0.64314E+06         0.26097E+06         0.00000E+00
    0.26097E+06        -0.62954E+06         0.00000E+00
    0.00000E+00         0.00000E+00         0.27210E+04
 
    0.62635E+06         0.28678E+06         0.00000E+00
    0.28678E+06        -0.61465E+06         0.00000E+00
    0.00000E+00         0.00000E+00         0.23411E+04
 
    0.60873E+06         0.31142E+06         0.00000E+00
    0.31142E+06        -0.59869E+06         0.00000E+00
    0.00000E+00         0.00000E+00         0.20083E+04
 
    0.59035E+06         0.33487E+06         0.00000E+00
    0.33487E+06        -0.58176E+06         0.00000E+00
    0.00000E+00         0.00000E+00         0.17177E+04
 
    0.57130E+06         0.35710E+06         0.00000E+00
    0.35710E+06        -0.56397E+06         0.00000E+00
    0.00000E+00         0.00000E+00         0.14648E+04
 
    0.55166E+06         0.37811E+06         0.00000E+00
    0.37811E+06        -0.54543E+06         0.00000E+00
    0.00000E+00         0.00000E+00         0.12455E+04
 
    0.53151E+06         0.39789E+06         0.00000E+00
    0.39789E+06        -0.52623E+06         0.00000E+00
    0.00000E+00         0.00000E+00         0.10559E+04
 
    0.51094E+06         0.41643E+06         0.00000E+00
    0.41643E+06        -0.50647E+06         0.00000E+00
    0.00000E+00         0.00000E+00         0.89248E+03
 
    0.49001E+06         0.43374E+06         0.00000E+00
    0.43374E+06        -0.48625E+06         0.00000E+00
    0.00000E+00         0.00000E+00         0.75211E+03
 
    0.46882E+06         0.44984E+06         0.00000E+00
    0.44984E+06        -0.46566E+06         0.00000E+00
    0.00000E+00         0.00000E+00         0.63192E+03
 
    0.44743E+06         0.46472E+06         0.00000E+00
    0.46472E+06        -0.44478E+06         0.00000E+00
    0.00000E+00         0.00000E+00         0.52936E+03
 
    0.42591E+06         0.47841E+06         0.00000E+00
    0.47841E+06        -0.42370E+06         0.00000E+00
    0.00000E+00         0.00000E+00         0.44216E+03
 
    0.40435E+06         0.49093E+06         0.00000E+00
    0.49093E+06        -0.40250E+06         0.00000E+00
    0.00000E+00         0.00000E+00         0.36830E+03
 
    0.38280E+06         0.50230E+06         0.00000E+00
    0.50230E+06        -0.38127E+06         0.00000E+00
    0.00000E+00         0.00000E+00         0.30600E+03
 
    0.36133E+06         0.51255E+06         0.00000E+00
    0.51255E+06        -0.36006E+06         0.00000E+00
    0.00000E+00         0.00000E+00         0.25367E+03
 
    0.34001E+06         0.52170E+06         0.00000E+00
    0.52170E+06        -0.33896E+06         0.00000E+00
    0.00000E+00         0.00000E+00         0.20995E+03
 
    0.31891E+06         0.52980E+06         0.00000E+00
    0.52980E+06        -0.31804E+06         0.00000E+00
    0.00000E+00         0.00000E+00         0.17361E+03
 
    0.29809E+06         0.53688E+06         0.00000E+00
    0.53688E+06        -0.29737E+06         0.00000E+00
    0.00000E+00         0.00000E+00         0.14359E+03
 
    0.27760E+06         0.54297E+06         0.00000E+00
    0.54297E+06        -0.27700E+06         0.00000E+00
    0.00000E+00         0.00000E+00         0.11894E+03
 
    0.25750E+06         0.54812E+06         0.00000E+00
    0.54812E+06        -0.25701E+06         0.00000E+00
    0.00000E+00         0.00000E+00         0.98842E+02
 
    0.23785E+06         0.55237E+06         0.00000E+00
    0.55237E+06        -0.23744E+06         0.00000E+00
    0.00000E+00         0.00000E+00         0.82544E+02
 
    0.21871E+06         0.55577E+06         0.00000E+00
    0.55577E+06        -0.21836E+06         0.00000E+00
    0.00000E+00         0.00000E+00         0.69373E+02
 
    0.20012E+06         0.55837E+06         0.00000E+00
    0.55837E+06        -0.19982E+06         0.00000E+00
    0.00000E+00         0.00000E+00         0.58710E+02
 
    0.18213E+06         0.56023E+06         0.00000E+00
    0.56023E+06        -0.18188E+06         0.00000E+00
    0.00000E+00         0.00000E+00         0.49971E+02
 
    0.16479E+06         0.56140E+06         0.00000E+00
    0.56140E+06        -0.16458E+06         0.00000E+00
    0.00000E+00         0.00000E+00         0.42591E+02
 
    0.14815E+06         0.56193E+06         0.00000E+00
    0.56193E+06        -0.14797E+06         0.00000E+00
    0.00000E+00         0.00000E+00         0.36007E+02
 
    0.13224E+06         0.56190E+06         0.00000E+00
    0.56190E+06        -0.13209E+06         0.00000E+00
    0.00000E+00         0.00000E+00         0.29642E+02
 
    0.11711E+06         0.56135E+06         0.00000E+00
    0.56135E+06        -0.11700E+06         0.00000E+00
    0.00000E+00         0.00000E+00         0.22889E+02
 
    0.10279E+06         0.56037E+06         0.00000E+00
    0.56037E+06        -0.10272E+06         0.00000E+00
    0.00000E+00         0.00000E+00         0.15088E+02
 
    0.89317E+05         0.55901E+06         0.00000E+00
    0.55901E+06        -0.89289E+05         0.00000E+00
    0.00000E+00         0.00000E+00         0.55164E+01
 
    0.76717E+05         0.55735E+06         0.00000E+00
    0.55735E+06        -0.76750E+05         0.00000E+00
    0.00000E+00         0.00000E+00        -0.66381E+01
 
    0.65019E+05         0.55546E+06         0.00000E+00
    0.55546E+06        -0.65130E+05         0.00000E+00
    0.00000E+00         0.00000E+00        -0.22292E+02
 
    0.54243E+05         0.55343E+06         0.00000E+00
    0.55343E+06        -0.54456E+05         0.00000E+00
    0.00000E+00         0.00000E+00        -0.42489E+02
 
    0.44409E+05         0.55132E+06         0.00000E+00
    0.55132E+06        -0.44751E+05         0.00000E+00
    0.00000E+00         0.00000E+00        -0.68418E+02
 
    0.35530E+05         0.54923E+06         0.00000E+00
    0.54923E+06        -0.36037E+05         0.00000E+00
    0.00000E+00         0.00000E+00        -0.10144E+03
 
    0.27615E+05         0.54722E+06         0.00000E+00
    0.54722E+06        -0.28330E+05         0.00000E+00
    0.00000E+00         0.00000E+00        -0.14310E+03
 
    0.20667E+05         0.54540E+06         0.00000E+00
    0.54540E+06        -0.21642E+05         0.00000E+00
    0.00000E+00         0.00000E+00        -0.19517E+03
 
    0.14684E+05         0.54384E+06         0.00000E+00
    0.54384E+06        -0.15982E+05         0.00000E+00
    0.00000E+00         0.00000E+00        -0.25964E+03
 
    0.96586E+04         0.54263E+06         0.00000E+00
    0.54263E+06        -0.11352E+05         0.00000E+00
    0.00000E+00         0.00000E+00        -0.33877E+03
 
    0.55762E+04         0.54187E+06         0.00000E+00
    0.54187E+06        -0.77516E+04         0.00000E+00
    0.00000E+00         0.00000E+00        -0.43507E+03
 
    0.24155E+04         0.54164E+06         0.00000E+00
    0.54164E+06        -0.51724E+04         0.00000E+00
    0.00000E+00         0.00000E+00        -0.55138E+03
 
    0.14785E+03         0.54203E+06         0.00000E+00
    0.54203E+06        -0.36020E+04         0.00000E+00
    0.00000E+00         0.00000E+00        -0.69082E+03
 
    0.84140E+06         0.20531E+05         0.00000E+00
    0.20531E+05        -0.77459E+06         0.00000E+00
    0.00000E+00         0.00000E+00         0.13362E+05
 
    0.83077E+06         0.59543E+05         0.00000E+00
    0.59543E+05        -0.77193E+06         0.00000E+00
    0.00000E+00         0.00000E+00         0.11770E+05
 
    0.81849E+06         0.97542E+05         0.00000E+00
    0.97542E+05        -0.76681E+06         0.00000E+00
    0.00000E+00         0.00000E+00         0.10335E+05
 
    0.80465E+06         0.13444E+06         0.00000E+00
    0.13444E+06        -0.75941E+06         0.00000E+00
    0.00000E+00         0.00000E+00         0.90469E+04
 
    0.78936E+06         0.17015E+06         0.00000E+00
    0.17015E+06        -0.74988E+06         0.00000E+00
    0.00000E+00         0.00000E+00         0.78956E+04
 
    0.77273E+06         0.20461E+06         0.00000E+00
    0.20461E+06        -0.73838E+06         0.00000E+00
    0.00000E+00         0.00000E+00         0.68703E+04
 
    0.75486E+06         0.23776E+06         0.00000E+00
    0.23776E+06        -0.72506E+06         0.00000E+00
    0.00000E+00         0.00000E+00         0.59607E+04
 
    0.73586E+06         0.26954E+06         0.00000E+00
    0.26954E+06        -0.71007E+06         0.00000E+00
    0.00000E+00         0.00000E+00         0.51567E+04
 
    0.71582E+06         0.29991E+06         0.00000E+00
    0.29991E+06        -0.69358E+06         0.00000E+00
    0.00000E+00         0.00000E+00         0.44483E+04
 
    0.69484E+06         0.32885E+06         0.00000E+00
    0.32885E+06        -0.67571E+06         0.00000E+00
    0.00000E+00         0.00000E+00         0.38264E+04
 
    0.67303E+06         0.35632E+06         0.00000E+00
    0.35632E+06        -0.65662E+06         0.00000E+00
    0.00000E+00         0.00000E+00         0.32820E+04
 
    0.65048E+06         0.38231E+06         0.00000E+00
    0.38231E+06        -0.63645E+06         0.00000E+00
    0.00000E+00         0.00000E+00         0.28071E+04
 
    0.62729E+06         0.40681E+06         0.00000E+00
    0.40681E+06        -0.61532E+06         0.00000E+00
    0.00000E+00         0.00000E+00         0.23940E+04
 
    0.60354E+06         0.42981E+06         0.00000E+00
    0.42981E+06        -0.59336E+06         0.00000E+00
    0.00000E+00         0.00000E+00         0.20357E+04
 
    0.57934E+06         0.45131E+06         0.00000E+00
    0.45131E+06        -0.57071E+06         0.00000E+00
    0.00000E+00         0.00000E+00         0.17258E+04
 
    0.55476E+06         0.47132E+06         0.00000E+00
    0.47132E+06        -0.54747E+06         0.00000E+00
    0.00000E+00         0.00000E+00         0.14587E+04
 
    0.52990E+06         0.48984E+06         0.00000E+00
    0.48984E+06        -0.52375E+06         0.00000E+00
    0.00000E+00         0.00000E+00         0.12292E+04
 
    0.50484E+06         0.50691E+06         0.00000E+00
    0.50691E+06        -0.49967E+06         0.00000E+00
    0.00000E+00         0.00000E+00         0.10326E+04
 
    0.47966E+06         0.52253E+06         0.00000E+00
    0.52253E+06        -0.47533E+06         0.00000E+00
    0.00000E+00         0.00000E+00         0.86488E+03
 
    0.45444E+06         0.53673E+06         0.00000E+00
    0.53673E+06        -0.45083E+06         0.00000E+00
    0.00000E+00         0.00000E+00         0.72241E+03
 
    0.42926E+06         0.54954E+06         0.00000E+00
    0.54954E+06        -0.42625E+06         0.00000E+00
    0.00000E+00         0.00000E+00         0.60207E+03
 
    0.40420E+06         0.56098E+06         0.00000E+00
    0.56098E+06        -0.40170E+06         0.00000E+00
    0.00000E+00         0.00000E+00         0.50112E+03
 
    0.37933E+06         0.57110E+06         0.00000E+00
    0.57110E+06        -0.37725E+06         0.00000E+00
    0.00000E+00         0.00000E+00         0.41723E+03
 
    0.35473E+06         0.57992E+06         0.00000E+00
    0.57992E+06        -0.35299E+06         0.00000E+00
    0.00000E+00         0.00000E+00         0.34838E+03
 
    0.33046E+06         0.58749E+06         0.00000E+00
    0.58749E+06        -0.32899E+06         0.00000E+00
    0.00000E+00         0.00000E+00         0.29292E+03
 
    0.30659E+06         0.59385E+06         0.00000E+00
    0.59385E+06        -0.30534E+06         0.00000E+00
    0.00000E+00         0.00000E+00         0.24945E+03
 
    0.28318E+06         0.59904E+06         0.00000E+00
    0.59904E+06        -0.28210E+06         0.00000E+00
    0.00000E+00         0.00000E+00         0.21685E+03
 
    0.26032E+06         0.60312E+06         0.00000E+00
    0.60312E+06        -0.25935E+06         0.00000E+00
    0.00000E+00         0.00000E+00         0.19423E+03
 
    0.23805E+06         0.60612E+06         0.00000E+00
    0.60612E+06        -0.23715E+06         0.00000E+00
    0.00000E+00         0.00000E+00         0.18094E+03
 
    0.21644E+06         0.60812E+06         0.00000E+00
    0.60812E+06        -0.21556E+06         0.00000E+00
    0.00000E+00         0.00000E+00         0.17649E+03
 
    0.19555E+06         0.60915E+06         0.00000E+00
    0.60915E+06        -0.19465E+06         0.00000E+00
    0.00000E+00         0.00000E+00         0.18063E+03
 
    0.17545E+06         0.60927E+06         0.00000E+00
    0.60927E+06        -0.17448E+06         0.00000E+00
    0.00000E+00         0.00000E+00         0.19322E+03
 
    0.15618E+06         0.60856E+06         0.00000E+00
    0.60856E+06        -0.15510E+06         0.00000E+00
    0.00000E+00         0.00000E+00         0.21433E+03
 
    0.13780E+06         0.60706E+06         0.00000E+00
    0.60706E+06        -0.13658E+06         0.00000E+00
    0.00000E+00         0.00000E+00         0.24416E+03
 
    0.12037E+06         0.60485E+06         0.00000E+00
    0.60485E+06        -0.11895E+06         0.00000E+00
    0.00000E+00         0.00000E+00         0.28303E+03
 
    0.10394E+06         0.60201E+06         0.00000E+00
    0.60201E+06        -0.10228E+06         0.00000E+00
    0.00000E+00         0.00000E+00         0.33142E+03
 
    0.88560E+05         0.59859E+06         0.00000E+00
    0.59859E+06        -0.86610E+05         0.00000E+00
    0.00000E+00         0.00000E+00         0.38992E+03
 
    0.74278E+05         0.59468E+06         0.00000E+00
    0.59468E+06        -0.71982E+05         0.00000E+00
    0.00000E+00         0.00000E+00         0.45924E+03
 
    0.61140E+05         0.59035E+06         0.00000E+00
    0.59035E+06        -0.58439E+05         0.00000E+00
    0.00000E+00         0.00000E+00         0.54019E+03
 
    0.49189E+05         0.58570E+06         0.00000E+00
    0.58570E+06        -0.46020E+05         0.00000E+00
    0.00000E+00         0.00000E+00         0.63368E+03
 
    0.38464E+05         0.58080E+06         0.00000E+00
    0.58080E+06        -0.34760E+05         0.00000E+00
    0.00000E+00         0.00000E+00         0.74070E+03
 
    0.29001E+05         0.57576E+06         0.00000E+00
    0.57576E+06        -0.24690E+05         0.00000E+00
    0.00000E+00         0.00000E+00         0.86230E+03
 
    0.20835E+05         0.57065E+06         0.00000E+00
    0.57065E+06        -0.15837E+05         0.00000E+00
    0.00000E+00         0.00000E+00         0.99957E+03
 
    0.13991E+05         0.56559E+06         0.00000E+00
    0.56559E+06        -0.82232E+04         0.00000E+00
    0.00000E+00         0.00000E+00         0.11536E+04
 
    0.84946E+04         0.56067E+06         0.00000E+00
    0.56067E+06        -0.18669E+04         0.00000E+00
    0.00000E+00         0.00000E+00         0.13255E+04
 
    0.43622E+04         0.55599E+06         0.00000E+00
    0.55599E+06         0.32197E+04         0.00000E+00
    0.00000E+00         0.00000E+00         0.15164E+04
 
    0.16057E+04         0.55168E+06         0.00000E+00
    0.55168E+06         0.70296E+04         0.00000E+00
    0.00000E+00         0.00000E+00         0.17271E+04
 
    0.23005E+03         0.54783E+06         0.00000E+00
    0.54783E+06         0.95618E+04         0.00000E+00
    0.00000E+00         0.00000E+00         0.19584E+04
 
    0.23255E+03         0.54456E+06         0.00000E+00
    0.54456E+06         0.10822E+05         0.00000E+00
    0.00000E+00         0.00000E+00         0.22109E+04
 
    0.16024E+04         0.54200E+06         0.00000E+00
    0.54200E+06         0.10822E+05         0.00000E+00
    0.00000E+00         0.00000E+00         0.24849E+04
 
    0.96667E+06         0.23964E+05         0.00000E+00
    0.23964E+05        -0.86208E+06         0.00000E+00
    0.00000E+00         0.00000E+00         0.20917E+05
 
    0.95084E+06         0.68992E+05         0.00000E+00
    0.68992E+05        -0.85883E+06         0.00000E+00
    0.00000E+00         0.00000E+00         0.18402E+05
 
    0.93331E+06         0.11264E+06         0.00000E+00
    0.11264E+06        -0.85261E+06         0.00000E+00
    0.00000E+00         0.00000E+00         0.16140E+05
 
    0.91420E+06         0.15482E+06         0.00000E+00
    0.15482E+06        -0.84363E+06         0.00000E+00
    0.00000E+00         0.00000E+00         0.14114E+05
 
    0.89365E+06         0.19545E+06         0.00000E+00
    0.19545E+06        -0.83212E+06         0.00000E+00
    0.00000E+00         0.00000E+00         0.12306E+05
 
    0.87177E+06         0.23447E+06         0.00000E+00
    0.23447E+06        -0.81827E+06         0.00000E+00
    0.00000E+00         0.00000E+00         0.10700E+05
 
    0.84868E+06         0.27181E+06         0.00000E+00
    0.27181E+06        -0.80230E+06         0.00000E+00
    0.00000E+00         0.00000E+00         0.92763E+04
 
    0.82450E+06         0.30744E+06         0.00000E+00
    0.30744E+06        -0.78440E+06         0.00000E+00
    0.00000E+00         0.00000E+00         0.80200E+04
 
    0.79934E+06         0.34132E+06         0.00000E+00
    0.34132E+06        -0.76476E+06         0.00000E+00
    0.00000E+00         0.00000E+00         0.69146E+04
 
    0.77331E+06         0.37343E+06         0.00000E+00
    0.37343E+06        -0.74358E+06         0.00000E+00
    0.00000E+00         0.00000E+00         0.59451E+04
 
    0.74651E+06         0.40374E+06         0.00000E+00
    0.40374E+06        -0.72103E+06         0.00000E+00
    0.00000E+00         0.00000E+00         0.50974E+04
 
    0.71907E+06         0.43227E+06         0.00000E+00
    0.43227E+06        -0.69727E+06         0.00000E+00
    0.00000E+00         0.00000E+00         0.43582E+04
 
    0.69106E+06         0.45899E+06         0.00000E+00
    0.45899E+06        -0.67249E+06         0.00000E+00
    0.00000E+00         0.00000E+00         0.37155E+04
 
    0.66261E+06         0.48393E+06         0.00000E+00
    0.48393E+06        -0.64682E+06         0.00000E+00
    0.00000E+00         0.00000E+00         0.31581E+04
 
    0.63380E+06         0.50708E+06         0.00000E+00
    0.50708E+06        -0.62042E+06         0.00000E+00
    0.00000E+00         0.00000E+00         0.26760E+04
 
    0.60472E+06         0.52848E+06         0.00000E+00
    0.52848E+06        -0.59342E+06         0.00000E+00
    0.00000E+00         0.00000E+00         0.22602E+04
 
    0.57547E+06         0.54814E+06         0.00000E+00
    0.54814E+06        -0.56596E+06         0.00000E+00
    0.00000E+00         0.00000E+00         0.19026E+04
 
    0.54614E+06         0.56609E+06         0.00000E+00
    0.56609E+06        -0.53816E+06         0.00000E+00
    0.00000E+00         0.00000E+00         0.15959E+04
 
    0.51681E+06         0.58235E+06         0.00000E+00
    0.58235E+06        -0.51014E+06         0.00000E+00
    0.00000E+00         0.00000E+00         0.13339E+04
 
    0.48756E+06         0.59697E+06         0.00000E+00
    0.59697E+06        -0.48200E+06         0.00000E+00
    0.00000E+00         0.00000E+00         0.11110E+04
 
    0.45847E+06         0.60998E+06         0.00000E+00
    0.60998E+06        -0.45386E+06         0.00000E+00
    0.00000E+00         0.00000E+00         0.92238E+03
 
    0.42963E+06         0.62141E+06         0.00000E+00
    0.62141E+06        -0.42581E+06         0.00000E+00
    0.00000E+00         0.00000E+00         0.76393E+03
 
    0.40111E+06         0.63131E+06         0.00000E+00
    0.63131E+06        -0.39795E+06         0.00000E+00
    0.00000E+00         0.00000E+00         0.63212E+03
 
    0.37298E+06         0.63972E+06         0.00000E+00
    0.63972E+06        -0.37036E+06         0.00000E+00
    0.00000E+00         0.00000E+00         0.52402E+03
 
    0.34532E+06         0.64669E+06         0.00000E+00
    0.64669E+06        -0.34314E+06         0.00000E+00
    0.00000E+00         0.00000E+00         0.43722E+03
 
    0.31820E+06         0.65226E+06         0.00000E+00
    0.65226E+06        -0.31635E+06         0.00000E+00
    0.00000E+00         0.00000E+00         0.36978E+03
 
    0.29169E+06         0.65648E+06         0.00000E+00
    0.65648E+06        -0.29008E+06         0.00000E+00
    0.00000E+00         0.00000E+00         0.32020E+03
 
    0.26585E+06         0.65941E+06         0.00000E+00
    0.65941E+06        -0.26441E+06         0.00000E+00
    0.00000E+00         0.00000E+00         0.28742E+03
 
    0.24076E+06         0.66109E+06         0.00000E+00
    0.66109E+06        -0.23941E+06         0.00000E+00
    0.00000E+00         0.00000E+00         0.27074E+03
 
    0.21649E+06         0.66158E+06         0.00000E+00
    0.66158E+06        -0.21514E+06         0.00000E+00
    0.00000E+00         0.00000E+00         0.26983E+03
 
    0.19310E+06         0.66093E+06         0.00000E+00
    0.66093E+06        -0.19167E+06         0.00000E+00
    0.00000E+00         0.00000E+00         0.28470E+03
 
    0.17066E+06         0.65921E+06         0.00000E+00
    0.65921E+06        -0.16908E+06         0.00000E+00
    0.00000E+00         0.00000E+00         0.31572E+03
 
    0.14924E+06         0.65648E+06         0.00000E+00
    0.65648E+06        -0.14742E+06         0.00000E+00
    0.00000E+00         0.00000E+00         0.36355E+03
 
    0.12890E+06         0.65279E+06         0.00000E+00
    0.65279E+06        -0.12675E+06         0.00000E+00
    0.00000E+00         0.00000E+00         0.42920E+03
 
    0.10971E+06         0.64822E+06         0.00000E+00
    0.64822E+06        -0.10714E+06         0.00000E+00
    0.00000E+00         0.00000E+00         0.51400E+03
 
    0.91750E+05         0.64284E+06         0.00000E+00
    0.64284E+06        -0.88652E+05         0.00000E+00
    0.00000E+00         0.00000E+00         0.61958E+03
 
    0.75072E+05         0.63673E+06         0.00000E+00
    0.63673E+06        -0.71332E+05         0.00000E+00
    0.00000E+00         0.00000E+00         0.74791E+03
 
    0.59746E+05         0.62995E+06         0.00000E+00
    0.62995E+06        -0.55240E+05         0.00000E+00
    0.00000E+00         0.00000E+00         0.90129E+03
 
    0.45838E+05         0.62260E+06         0.00000E+00
    0.62260E+06        -0.40426E+05         0.00000E+00
    0.00000E+00         0.00000E+00         0.10823E+04
 
    0.33413E+05         0.61477E+06         0.00000E+00
    0.61477E+06        -0.26943E+05         0.00000E+00
    0.00000E+00         0.00000E+00         0.12940E+04
 
    0.22533E+05         0.60653E+06         0.00000E+00
    0.60653E+06        -0.14835E+05         0.00000E+00
    0.00000E+00         0.00000E+00         0.15395E+04
 
    0.13260E+05         0.59801E+06         0.00000E+00
    0.59801E+06        -0.41473E+04         0.00000E+00
    0.00000E+00         0.00000E+00         0.18225E+04
 
    0.56530E+04         0.58929E+06         0.00000E+00
    0.58929E+06         0.50810E+04         0.00000E+00
    0.00000E+00         0.00000E+00         0.21468E+04
 
   -0.23216E+03         0.58049E+06         0.00000E+00
    0.58049E+06         0.12814E+05         0.00000E+00
    0.00000E+00         0.00000E+00         0.25165E+04
 
   -0.43434E+04         0.57172E+06         0.00000E+00
    0.57172E+06         0.19023E+05         0.00000E+00
    0.00000E+00         0.00000E+00         0.29358E+04
 
   -0.66333E+04         0.56311E+06         0.00000E+00
    0.56311E+06         0.23680E+05         0.00000E+00
    0.00000E+00         0.00000E+00         0.34094E+04
 
   -0.70596E+04         0.55478E+06         0.00000E+00
    0.55478E+06         0.26768E+05         0.00000E+00
    0.00000E+00         0.00000E+00         0.39417E+04
 
   -0.55869E+04         0.54687E+06         0.00000E+00
    0.54687E+06         0.28273E+05         0.00000E+00
    0.00000E+00         0.00000E+00         0.45372E+04
 
   -0.21870E+04         0.53952E+06         0.00000E+00
    0.53952E+06         0.28189E+05         0.00000E+00
    0.00000E+00         0.00000E+00         0.52004E+04
 
    0.31596E+04         0.53288E+06         0.00000E+00
    0.53288E+06         0.26517E+05         0.00000E+00
    0.00000E+00         0.00000E+00         0.59354E+04
 
    0.11150E+07         0.27610E+05         0.00000E+00
    0.27610E+05        -0.95822E+06         0.00000E+00
    0.00000E+00         0.00000E+00         0.31366E+05
 
    0.10921E+07         0.78880E+05         0.00000E+00
    0.78880E+05        -0.95429E+06         0.00000E+00
    0.00000E+00         0.00000E+00         0.27566E+05
 
    0.10676E+07         0.12833E+06         0.00000E+00
    0.12833E+06        -0.94683E+06         0.00000E+00
    0.00000E+00         0.00000E+00         0.24154E+05
 
    0.10416E+07         0.17587E+06         0.00000E+00
    0.17587E+06        -0.93610E+06         0.00000E+00
    0.00000E+00         0.00000E+00         0.21103E+05
 
    0.10143E+07         0.22144E+06         0.00000E+00
    0.22144E+06        -0.92239E+06         0.00000E+00
    0.00000E+00         0.00000E+00         0.18384E+05
 
    0.98582E+06         0.26497E+06         0.00000E+00
    0.26497E+06        -0.90596E+06         0.00000E+00
    0.00000E+00         0.00000E+00         0.15972E+05
 
    0.95627E+06         0.30643E+06         0.00000E+00
    0.30643E+06        -0.88708E+06         0.00000E+00
    0.00000E+00         0.00000E+00         0.13838E+05
 
    0.92579E+06         0.34578E+06         0.00000E+00
    0.34578E+06        -0.86601E+06         0.00000E+00
    0.00000E+00         0.00000E+00         0.11956E+05
 
    0.89450E+06         0.38301E+06         0.00000E+00
    0.38301E+06        -0.84298E+06         0.00000E+00
    0.00000E+00         0.00000E+00         0.10303E+05
 
    0.86251E+06         0.41811E+06         0.00000E+00
    0.41811E+06        -0.81824E+06         0.00000E+00
    0.00000E+00         0.00000E+00         0.88541E+04
 
    0.82994E+06         0.45107E+06         0.00000E+00
    0.45107E+06        -0.79200E+06         0.00000E+00
    0.00000E+00         0.00000E+00         0.75882E+04
 
    0.79690E+06         0.48191E+06         0.00000E+00
    0.48191E+06        -0.76448E+06         0.00000E+00
    0.00000E+00         0.00000E+00         0.64850E+04
 
    0.76349E+06         0.51064E+06         0.00000E+00
    0.51064E+06        -0.73586E+06         0.00000E+00
    0.00000E+00         0.00000E+00         0.55261E+04
 
    0.72980E+06         0.53729E+06         0.00000E+00
    0.53729E+06        -0.70633E+06         0.00000E+00
    0.00000E+00         0.00000E+00         0.46946E+04
 
    0.69595E+06         0.56188E+06         0.00000E+00
    0.56188E+06        -0.67607E+06         0.00000E+00
    0.00000E+00         0.00000E+00         0.39753E+04
 
    0.66201E+06         0.58445E+06         0.00000E+00
    0.58445E+06        -0.64524E+06         0.00000E+00
    0.00000E+00         0.00000E+00         0.33545E+04
 
    0.62808E+06         0.60504E+06         0.00000E+00
    0.60504E+06        -0.61398E+06         0.00000E+00
    0.00000E+00         0.00000E+00         0.28199E+04
 
    0.59423E+06         0.62369E+06         0.00000E+00
    0.62369E+06        -0.58243E+06         0.00000E+00
    0.00000E+00         0.00000E+00         0.23608E+04
 
    0.56057E+06         0.64044E+06         0.00000E+00
    0.64044E+06        -0.55073E+06         0.00000E+00
    0.00000E+00         0.00000E+00         0.19677E+04
 
    0.52715E+06         0.65535E+06         0.00000E+00
    0.65535E+06        -0.51899E+06         0.00000E+00
    0.00000E+00         0.00000E+00         0.16323E+04
 
    0.49405E+06         0.66844E+06         0.00000E+00
    0.66844E+06        -0.48732E+06         0.00000E+00
    0.00000E+00         0.00000E+00         0.13474E+04
 
    0.46136E+06         0.67978E+06         0.00000E+00
    0.67978E+06        -0.45583E+06         0.00000E+00
    0.00000E+00         0.00000E+00         0.11069E+04
 
    0.42914E+06         0.68942E+06         0.00000E+00
    0.68942E+06        -0.42461E+06         0.00000E+00
    0.00000E+00         0.00000E+00         0.90558E+03
 
    0.39746E+06         0.69739E+06         0.00000E+00
    0.69739E+06        -0.39376E+06         0.00000E+00
    0.00000E+00         0.00000E+00         0.73911E+03
 
    0.36638E+06         0.70376E+06         0.00000E+00
    0.70376E+06        -0.36336E+06         0.00000E+00
    0.00000E+00         0.00000E+00         0.60398E+03
 
    0.33598E+06         0.70858E+06         0.00000E+00
    0.70858E+06        -0.33350E+06         0.00000E+00
    0.00000E+00         0.00000E+00         0.49736E+03
 
    0.30633E+06         0.71188E+06         0.00000E+00
    0.71188E+06        -0.30424E+06         0.00000E+00
    0.00000E+00         0.00000E+00         0.41714E+03
 
    0.27749E+06         0.71373E+06         0.00000E+00
    0.71373E+06        -0.27568E+06         0.00000E+00
    0.00000E+00         0.00000E+00         0.36180E+03
 
    0.24952E+06         0.71417E+06         0.00000E+00
    0.71417E+06        -0.24787E+06         0.00000E+00
    0.00000E+00         0.00000E+00         0.33045E+03
 
    0.22250E+06         0.71325E+06         0.00000E+00
    0.71325E+06        -0.22089E+06         0.00000E+00
    0.00000E+00         0.00000E+00         0.32271E+03
 
    0.19650E+06         0.71103E+06         0.00000E+00
    0.71103E+06        -0.19481E+06         0.00000E+00
    0.00000E+00         0.00000E+00         0.33878E+03
 
    0.17160E+06         0.70757E+06         0.00000E+00
    0.70757E+06        -0.16970E+06         0.00000E+00
    0.00000E+00         0.00000E+00         0.37937E+03
 
    0.14785E+06         0.70290E+06         0.00000E+00
    0.70290E+06        -0.14562E+06         0.00000E+00
    0.00000E+00         0.00000E+00         0.44570E+03
 
    0.12535E+06         0.69710E+06         0.00000E+00
    0.69710E+06        -0.12265E+06         0.00000E+00
    0.00000E+00         0.00000E+00         0.53950E+03
 
    0.10417E+06         0.69022E+06         0.00000E+00
    0.69022E+06        -0.10085E+06         0.00000E+00
    0.00000E+00         0.00000E+00         0.66304E+03
 
    0.84386E+05         0.68232E+06         0.00000E+00
    0.68232E+06        -0.80290E+05         0.00000E+00
    0.00000E+00         0.00000E+00         0.81911E+03
 
    0.66090E+05         0.67348E+06         0.00000E+00
    0.67348E+06        -0.61035E+05         0.00000E+00
    0.00000E+00         0.00000E+00         0.10110E+04
 
    0.49368E+05         0.66376E+06         0.00000E+00
    0.66376E+06        -0.43154E+05         0.00000E+00
    0.00000E+00         0.00000E+00         0.12427E+04
 
    0.34307E+05         0.65324E+06         0.00000E+00
    0.65324E+06        -0.26714E+05         0.00000E+00
    0.00000E+00         0.00000E+00         0.15185E+04
 
    0.20998E+05         0.64200E+06         0.00000E+00
    0.64200E+06        -0.11781E+05         0.00000E+00
    0.00000E+00         0.00000E+00         0.18435E+04
 
    0.95351E+04         0.63014E+06         0.00000E+00
    0.63014E+06         0.15812E+04         0.00000E+00
    0.00000E+00         0.00000E+00         0.22233E+04
 
    0.11402E+02         0.61775E+06         0.00000E+00
    0.61775E+06         0.13308E+05         0.00000E+00
    0.00000E+00         0.00000E+00         0.26639E+04
 
   -0.74786E+04         0.60494E+06         0.00000E+00
    0.60494E+06         0.23339E+05         0.00000E+00
    0.00000E+00         0.00000E+00         0.31721E+04
 
   -0.12841E+05         0.59182E+06         0.00000E+00
    0.59182E+06         0.31616E+05         0.00000E+00
    0.00000E+00         0.00000E+00         0.37551E+04
 
   -0.15982E+05         0.57851E+06         0.00000E+00
    0.57851E+06         0.38085E+05         0.00000E+00
    0.00000E+00         0.00000E+00         0.44204E+04
 
   -0.16813E+05         0.56515E+06         0.00000E+00
    0.56515E+06         0.42694E+05         0.00000E+00
    0.00000E+00         0.00000E+00         0.51762E+04
 
   -0.15246E+05         0.55189E+06         0.00000E+00
    0.55189E+06         0.45399E+05         0.00000E+00
    0.00000E+00         0.00000E+00         0.60306E+04
 
   -0.11199E+05         0.53888E+06         0.00000E+00
    0.53888E+06         0.46159E+05         0.00000E+00
    0.00000E+00         0.00000E+00         0.69920E+04
 
   -0.45977E+04         0.52628E+06         0.00000E+00
    0.52628E+06         0.44942E+05         0.00000E+00
    0.00000E+00         0.00000E+00         0.80688E+04
 
    0.46261E+04         0.51427E+06         0.00000E+00
    0.51427E+06         0.41720E+05         0.00000E+00
    0.00000E+00         0.00000E+00         0.92693E+04
 
    0.12882E+07         0.31267E+05         0.00000E+00
    0.31267E+05        -0.10616E+07         0.00000E+00
    0.00000E+00         0.00000E+00         0.45322E+05
 
    0.12560E+07         0.88597E+05         0.00000E+00
    0.88597E+05        -0.10570E+07         0.00000E+00
    0.00000E+00         0.00000E+00         0.39795E+05
 
    0.12224E+07         0.14359E+06         0.00000E+00
    0.14359E+06        -0.10482E+07         0.00000E+00
    0.00000E+00         0.00000E+00         0.34840E+05
 
    0.11876E+07         0.19618E+06         0.00000E+00
    0.19618E+06        -0.10356E+07         0.00000E+00
    0.00000E+00         0.00000E+00         0.30415E+05
 
    0.11519E+07         0.24630E+06         0.00000E+00
    0.24630E+06        -0.10195E+07         0.00000E+00
    0.00000E+00         0.00000E+00         0.26479E+05
 
    0.11153E+07         0.29393E+06         0.00000E+00
    0.29393E+06        -0.10003E+07         0.00000E+00
    0.00000E+00         0.00000E+00         0.22989E+05
 
    0.10779E+07         0.33904E+06         0.00000E+00
    0.33904E+06        -0.97837E+06         0.00000E+00
    0.00000E+00         0.00000E+00         0.19905E+05
 
    0.10399E+07         0.38162E+06         0.00000E+00
    0.38162E+06        -0.95399E+06         0.00000E+00
    0.00000E+00         0.00000E+00         0.17190E+05
 
    0.10015E+07         0.42168E+06         0.00000E+00
    0.42168E+06        -0.92746E+06         0.00000E+00
    0.00000E+00         0.00000E+00         0.14805E+05
 
    0.96267E+06         0.45924E+06         0.00000E+00
    0.45924E+06        -0.89908E+06         0.00000E+00
    0.00000E+00         0.00000E+00         0.12718E+05
 
    0.92360E+06         0.49431E+06         0.00000E+00
    0.49431E+06        -0.86912E+06         0.00000E+00
    0.00000E+00         0.00000E+00         0.10895E+05
 
    0.88437E+06         0.52694E+06         0.00000E+00
    0.52694E+06        -0.83783E+06         0.00000E+00
    0.00000E+00         0.00000E+00         0.93074E+04
 
    0.84508E+06         0.55717E+06         0.00000E+00
    0.55717E+06        -0.80544E+06         0.00000E+00
    0.00000E+00         0.00000E+00         0.79277E+04
 
    0.80583E+06         0.58504E+06         0.00000E+00
    0.58504E+06        -0.77217E+06         0.00000E+00
    0.00000E+00         0.00000E+00         0.67313E+04
 
    0.76669E+06         0.61061E+06         0.00000E+00
    0.61061E+06        -0.73821E+06         0.00000E+00
    0.00000E+00         0.00000E+00         0.56959E+04
 
    0.72776E+06         0.63394E+06         0.00000E+00
    0.63394E+06        -0.70375E+06         0.00000E+00
    0.00000E+00         0.00000E+00         0.48016E+04
 
    0.68910E+06         0.65508E+06         0.00000E+00
    0.65508E+06        -0.66895E+06         0.00000E+00
    0.00000E+00         0.00000E+00         0.40307E+04
 
    0.65080E+06         0.67411E+06         0.00000E+00
    0.67411E+06        -0.63396E+06         0.00000E+00
    0.00000E+00         0.00000E+00         0.33674E+04
 
    0.61290E+06         0.69107E+06         0.00000E+00
    0.69107E+06        -0.59891E+06         0.00000E+00
    0.00000E+00         0.00000E+00         0.27979E+04
 
    0.57549E+06         0.70605E+06         0.00000E+00
    0.70605E+06        -0.56394E+06         0.00000E+00
    0.00000E+00         0.00000E+00         0.23102E+04
 
    0.53861E+06         0.71908E+06         0.00000E+00
    0.71908E+06        -0.52914E+06         0.00000E+00
    0.00000E+00         0.00000E+00         0.18940E+04
 
    0.50233E+06         0.73025E+06         0.00000E+00
    0.73025E+06        -0.49463E+06         0.00000E+00
    0.00000E+00         0.00000E+00         0.15403E+04
 
    0.46669E+06         0.73960E+06         0.00000E+00
    0.73960E+06        -0.46049E+06         0.00000E+00
    0.00000E+00         0.00000E+00         0.12415E+04
 
    0.43176E+06         0.74719E+06         0.00000E+00
    0.74719E+06        -0.42680E+06         0.00000E+00
    0.00000E+00         0.00000E+00         0.99151E+03
 
    0.39758E+06         0.75308E+06         0.00000E+00
    0.75308E+06        -0.39365E+06         0.00000E+00
    0.00000E+00         0.00000E+00         0.78502E+03
 
    0.36420E+06         0.75731E+06         0.00000E+00
    0.75731E+06        -0.36111E+06         0.00000E+00
    0.00000E+00         0.00000E+00         0.61795E+03
 
    0.33168E+06         0.75994E+06         0.00000E+00
    0.75994E+06        -0.32924E+06         0.00000E+00
    0.00000E+00         0.00000E+00         0.48714E+03
 
    0.30007E+06         0.76101E+06         0.00000E+00
    0.76101E+06        -0.29812E+06         0.00000E+00
    0.00000E+00         0.00000E+00         0.39029E+03
 
    0.26943E+06         0.76055E+06         0.00000E+00
    0.76055E+06        -0.26780E+06         0.00000E+00
    0.00000E+00         0.00000E+00         0.32597E+03
 
    0.23982E+06         0.75862E+06         0.00000E+00
    0.75862E+06        -0.23836E+06         0.00000E+00
    0.00000E+00         0.00000E+00         0.29349E+03
 
    0.21131E+06         0.75525E+06         0.00000E+00
    0.75525E+06        -0.20984E+06         0.00000E+00
    0.00000E+00         0.00000E+00         0.29293E+03
 
    0.18395E+06         0.75048E+06         0.00000E+00
    0.75048E+06        -0.18233E+06         0.00000E+00
    0.00000E+00         0.00000E+00         0.32509E+03
 
    0.15783E+06         0.74434E+06         0.00000E+00
    0.74434E+06        -0.15588E+06         0.00000E+00
    0.00000E+00         0.00000E+00         0.39150E+03
 
    0.13303E+06         0.73688E+06         0.00000E+00
    0.73688E+06        -0.13056E+06         0.00000E+00
    0.00000E+00         0.00000E+00         0.49437E+03
 
    0.10963E+06         0.72813E+06         0.00000E+00
    0.72813E+06        -0.10645E+06         0.00000E+00
    0.00000E+00         0.00000E+00         0.63665E+03
 
    0.87722E+05         0.71813E+06         0.00000E+00
    0.71813E+06        -0.83612E+05         0.00000E+00
    0.00000E+00         0.00000E+00         0.82203E+03
 
    0.67410E+05         0.70694E+06         0.00000E+00
    0.70694E+06        -0.62136E+05         0.00000E+00
    0.00000E+00         0.00000E+00         0.10549E+04
 
    0.48801E+05         0.69460E+06         0.00000E+00
    0.69460E+06        -0.42098E+05         0.00000E+00
    0.00000E+00         0.00000E+00         0.13405E+04
 
    0.32008E+05         0.68116E+06         0.00000E+00
    0.68116E+06        -0.23585E+05         0.00000E+00
    0.00000E+00         0.00000E+00         0.16848E+04
 
    0.17154E+05         0.66670E+06         0.00000E+00
    0.66670E+06        -0.66817E+04         0.00000E+00
    0.00000E+00         0.00000E+00         0.20945E+04
 
    0.43662E+04         0.65128E+06         0.00000E+00
    0.65128E+06         0.85200E+04         0.00000E+00
    0.00000E+00         0.00000E+00         0.25772E+04
 
   -0.62212E+04         0.63498E+06         0.00000E+00
    0.63498E+06         0.21928E+05         0.00000E+00
    0.00000E+00         0.00000E+00         0.31414E+04
 
   -0.14468E+05         0.61790E+06         0.00000E+00
    0.61790E+06         0.33448E+05         0.00000E+00
    0.00000E+00         0.00000E+00         0.37960E+04
 
   -0.20231E+05         0.60014E+06         0.00000E+00
    0.60014E+06         0.42986E+05         0.00000E+00
    0.00000E+00         0.00000E+00         0.45512E+04
 
   -0.23361E+05         0.58182E+06         0.00000E+00
    0.58182E+06         0.50447E+05         0.00000E+00
    0.00000E+00         0.00000E+00         0.54173E+04
 
   -0.23709E+05         0.56307E+06         0.00000E+00
    0.56307E+06         0.55737E+05         0.00000E+00
    0.00000E+00         0.00000E+00         0.64056E+04
 
   -0.21127E+05         0.54405E+06         0.00000E+00
    0.54405E+06         0.58765E+05         0.00000E+00
    0.00000E+00         0.00000E+00         0.75276E+04
 
   -0.15464E+05         0.52492E+06         0.00000E+00
    0.52492E+06         0.59440E+05         0.00000E+00
    0.00000E+00         0.00000E+00         0.87952E+04
 
   -0.65772E+04         0.50587E+06         0.00000E+00
    0.50587E+06         0.57678E+05         0.00000E+00
    0.00000E+00         0.00000E+00         0.10220E+05
 
    0.56727E+04         0.48710E+06         0.00000E+00
    0.48710E+06         0.53400E+05         0.00000E+00
    0.00000E+00         0.00000E+00         0.11814E+05
 
    0.14867E+07         0.34641E+05         0.00000E+00
    0.34641E+05        -0.11698E+07         0.00000E+00
    0.00000E+00         0.00000E+00         0.63390E+05
 
    0.14425E+07         0.97276E+05         0.00000E+00
    0.97276E+05        -0.11644E+07         0.00000E+00
    0.00000E+00         0.00000E+00         0.55618E+05
 
    0.13974E+07         0.15699E+06         0.00000E+00
    0.15699E+06        -0.11541E+07         0.00000E+00
    0.00000E+00         0.00000E+00         0.48659E+05
 
    0.13518E+07         0.21373E+06         0.00000E+00
    0.21373E+06        -0.11395E+07         0.00000E+00
    0.00000E+00         0.00000E+00         0.42452E+05
 
    0.13057E+07         0.26749E+06         0.00000E+00
    0.26749E+06        -0.11210E+07         0.00000E+00
    0.00000E+00         0.00000E+00         0.36935E+05
 
    0.12593E+07         0.31824E+06         0.00000E+00
    0.31824E+06        -0.10991E+07         0.00000E+00
    0.00000E+00         0.00000E+00         0.32049E+05
 
    0.12127E+07         0.36600E+06         0.00000E+00
    0.36600E+06        -0.10740E+07         0.00000E+00
    0.00000E+00         0.00000E+00         0.27737E+05
 
    0.11661E+07         0.41079E+06         0.00000E+00
    0.41079E+06        -0.10464E+07         0.00000E+00
    0.00000E+00         0.00000E+00         0.23942E+05
 
    0.11195E+07         0.45266E+06         0.00000E+00
    0.45266E+06        -0.10164E+07         0.00000E+00
    0.00000E+00         0.00000E+00         0.20613E+05
 
    0.10731E+07         0.49166E+06         0.00000E+00
    0.49166E+06        -0.98457E+06         0.00000E+00
    0.00000E+00         0.00000E+00         0.17700E+05
 
    0.10269E+07         0.52785E+06         0.00000E+00
    0.52785E+06        -0.95111E+06         0.00000E+00
    0.00000E+00         0.00000E+00         0.15158E+05
 
    0.98107E+06         0.56129E+06         0.00000E+00
    0.56129E+06        -0.91635E+06         0.00000E+00
    0.00000E+00         0.00000E+00         0.12944E+05
 
    0.93568E+06         0.59208E+06         0.00000E+00
    0.59208E+06        -0.88058E+06         0.00000E+00
    0.00000E+00         0.00000E+00         0.11021E+05
 
    0.89079E+06         0.62030E+06         0.00000E+00
    0.62030E+06        -0.84403E+06         0.00000E+00
    0.00000E+00         0.00000E+00         0.93523E+04
 
    0.84647E+06         0.64604E+06         0.00000E+00
    0.64604E+06        -0.80693E+06         0.00000E+00
    0.00000E+00         0.00000E+00         0.79078E+04
 
    0.80278E+06         0.66938E+06         0.00000E+00
    0.66938E+06        -0.76948E+06         0.00000E+00
    0.00000E+00         0.00000E+00         0.66591E+04
 
    0.75976E+06         0.69043E+06         0.00000E+00
    0.69043E+06        -0.73185E+06         0.00000E+00
    0.00000E+00         0.00000E+00         0.55810E+04
 
    0.71746E+06         0.70927E+06         0.00000E+00
    0.70927E+06        -0.69420E+06         0.00000E+00
    0.00000E+00         0.00000E+00         0.46514E+04
 
    0.67592E+06         0.72599E+06         0.00000E+00
    0.72599E+06        -0.65666E+06         0.00000E+00
    0.00000E+00         0.00000E+00         0.38510E+04
 
    0.63516E+06         0.74069E+06         0.00000E+00
    0.74069E+06        -0.61935E+06         0.00000E+00
    0.00000E+00         0.00000E+00         0.31628E+04
 
    0.59523E+06         0.75343E+06         0.00000E+00
    0.75343E+06        -0.58236E+06         0.00000E+00
    0.00000E+00         0.00000E+00         0.25722E+04
 
    0.55612E+06         0.76431E+06         0.00000E+00
    0.76431E+06        -0.54579E+06         0.00000E+00
    0.00000E+00         0.00000E+00         0.20665E+04
 
    0.51788E+06         0.77339E+06         0.00000E+00
    0.77339E+06        -0.50970E+06         0.00000E+00
    0.00000E+00         0.00000E+00         0.16351E+04
 
    0.48051E+06         0.78074E+06         0.00000E+00
    0.78074E+06        -0.47417E+06         0.00000E+00
    0.00000E+00         0.00000E+00         0.12690E+04
 
    0.44404E+06         0.78640E+06         0.00000E+00
    0.78640E+06        -0.43923E+06         0.00000E+00
    0.00000E+00         0.00000E+00         0.96075E+03
 
    0.40848E+06         0.79043E+06         0.00000E+00
    0.79043E+06        -0.40495E+06         0.00000E+00
    0.00000E+00         0.00000E+00         0.70424E+03
 
    0.37385E+06         0.79288E+06         0.00000E+00
    0.79288E+06        -0.37137E+06         0.00000E+00
    0.00000E+00         0.00000E+00         0.49474E+03
 
    0.34017E+06         0.79377E+06         0.00000E+00
    0.79377E+06        -0.33853E+06         0.00000E+00
    0.00000E+00         0.00000E+00         0.32864E+03
 
    0.30749E+06         0.79313E+06         0.00000E+00
    0.79313E+06        -0.30647E+06         0.00000E+00
    0.00000E+00         0.00000E+00         0.20344E+03
 
    0.27582E+06         0.79098E+06         0.00000E+00
    0.79098E+06        -0.27523E+06         0.00000E+00
    0.00000E+00         0.00000E+00         0.11763E+03
 
    0.24521E+06         0.78734E+06         0.00000E+00
    0.78734E+06        -0.24486E+06         0.00000E+00
    0.00000E+00         0.00000E+00         0.70693E+02
 
    0.21572E+06         0.78221E+06         0.00000E+00
    0.78221E+06        -0.21541E+06         0.00000E+00
    0.00000E+00         0.00000E+00         0.63001E+02
 
    0.18740E+06         0.77560E+06         0.00000E+00
    0.77560E+06        -0.18693E+06         0.00000E+00
    0.00000E+00         0.00000E+00         0.95838E+02
 
    0.16033E+06         0.76752E+06         0.00000E+00
    0.76752E+06        -0.15947E+06         0.00000E+00
    0.00000E+00         0.00000E+00         0.17137E+03
 
    0.13459E+06         0.75795E+06         0.00000E+00
    0.75795E+06        -0.13312E+06         0.00000E+00
    0.00000E+00         0.00000E+00         0.29266E+03
 
    0.11027E+06         0.74691E+06         0.00000E+00
    0.74691E+06        -0.10795E+06         0.00000E+00
    0.00000E+00         0.00000E+00         0.46364E+03
 
    0.87479E+05         0.73440E+06         0.00000E+00
    0.73440E+06        -0.84033E+05         0.00000E+00
    0.00000E+00         0.00000E+00         0.68917E+03
 
    0.66350E+05         0.72042E+06         0.00000E+00
    0.72042E+06        -0.61474E+05         0.00000E+00
    0.00000E+00         0.00000E+00         0.97505E+03
 
    0.47016E+05         0.70498E+06         0.00000E+00
    0.70498E+06        -0.40376E+05         0.00000E+00
    0.00000E+00         0.00000E+00         0.13280E+04
 
    0.29630E+05         0.68810E+06         0.00000E+00
    0.68810E+06        -0.20851E+05         0.00000E+00
    0.00000E+00         0.00000E+00         0.17557E+04
 
    0.14359E+05         0.66982E+06         0.00000E+00
    0.66982E+06        -0.30239E+04         0.00000E+00
    0.00000E+00         0.00000E+00         0.22670E+04
 
    0.13835E+04         0.65016E+06         0.00000E+00
    0.65016E+06         0.12973E+05         0.00000E+00
    0.00000E+00         0.00000E+00         0.28713E+04
 
   -0.91012E+04         0.62920E+06         0.00000E+00
    0.62920E+06         0.26998E+05         0.00000E+00
    0.00000E+00         0.00000E+00         0.35793E+04
 
   -0.16889E+05         0.60700E+06         0.00000E+00
    0.60700E+06         0.38902E+05         0.00000E+00
    0.00000E+00         0.00000E+00         0.44026E+04
 
   -0.21761E+05         0.58365E+06         0.00000E+00
    0.58365E+06         0.48529E+05         0.00000E+00
    0.00000E+00         0.00000E+00         0.53535E+04
 
   -0.23491E+05         0.55927E+06         0.00000E+00
    0.55927E+06         0.55716E+05         0.00000E+00
    0.00000E+00         0.00000E+00         0.64450E+04
 
   -0.21844E+05         0.53398E+06         0.00000E+00
    0.53398E+06         0.60298E+05         0.00000E+00
    0.00000E+00         0.00000E+00         0.76907E+04
 
   -0.16579E+05         0.50796E+06         0.00000E+00
    0.50796E+06         0.62103E+05         0.00000E+00
    0.00000E+00         0.00000E+00         0.91047E+04
 
   -0.74545E+04         0.48139E+06         0.00000E+00
    0.48139E+06         0.60959E+05         0.00000E+00
    0.00000E+00         0.00000E+00         0.10701E+05
 
    0.57719E+04         0.45450E+06         0.00000E+00
    0.45450E+06         0.56696E+05         0.00000E+00
    0.00000E+00         0.00000E+00         0.12494E+05
 
    0.17092E+07         0.37348E+05         0.00000E+00
    0.37348E+05        -0.12785E+07         0.00000E+00
    0.00000E+00         0.00000E+00         0.86137E+05
 
    0.16500E+07         0.10379E+06         0.00000E+00
    0.10379E+06        -0.12723E+07         0.00000E+00
    0.00000E+00         0.00000E+00         0.75532E+05
 
    0.15909E+07         0.16666E+06         0.00000E+00
    0.16666E+06        -0.12607E+07         0.00000E+00
    0.00000E+00         0.00000E+00         0.66045E+05
 
    0.15320E+07         0.22594E+06         0.00000E+00
    0.22594E+06        -0.12441E+07         0.00000E+00
    0.00000E+00         0.00000E+00         0.57591E+05
 
    0.14736E+07         0.28166E+06         0.00000E+00
    0.28166E+06        -0.12231E+07         0.00000E+00
    0.00000E+00         0.00000E+00         0.50083E+05
 
    0.14156E+07         0.33383E+06         0.00000E+00
    0.33383E+06        -0.11984E+07         0.00000E+00
    0.00000E+00         0.00000E+00         0.43440E+05
 
    0.13584E+07         0.38253E+06         0.00000E+00
    0.38253E+06        -0.11704E+07         0.00000E+00
    0.00000E+00         0.00000E+00         0.37580E+05
 
    0.13018E+07         0.42781E+06         0.00000E+00
    0.42781E+06        -0.11397E+07         0.00000E+00
    0.00000E+00         0.00000E+00         0.32427E+05
 
    0.12462E+07         0.46976E+06         0.00000E+00
    0.46976E+06        -0.11067E+07         0.00000E+00
    0.00000E+00         0.00000E+00         0.27908E+05
 
    0.11915E+07         0.50850E+06         0.00000E+00
    0.50850E+06        -0.10718E+07         0.00000E+00
    0.00000E+00         0.00000E+00         0.23956E+05
 
    0.11379E+07         0.54414E+06         0.00000E+00
    0.54414E+06        -0.10354E+07         0.00000E+00
    0.00000E+00         0.00000E+00         0.20507E+05
 
    0.10854E+07         0.57680E+06         0.00000E+00
    0.57680E+06        -0.99784E+06         0.00000E+00
    0.00000E+00         0.00000E+00         0.17504E+05
 
    0.10340E+07         0.60662E+06         0.00000E+00
    0.60662E+06        -0.95951E+06         0.00000E+00
    0.00000E+00         0.00000E+00         0.14895E+05
 
    0.98380E+06         0.63374E+06         0.00000E+00
    0.63374E+06        -0.92065E+06         0.00000E+00
    0.00000E+00         0.00000E+00         0.12630E+05
 
    0.93485E+06         0.65830E+06         0.00000E+00
    0.65830E+06        -0.88151E+06         0.00000E+00
    0.00000E+00         0.00000E+00         0.10668E+05
 
    0.88715E+06         0.68045E+06         0.00000E+00
    0.68045E+06        -0.84230E+06         0.00000E+00
    0.00000E+00         0.00000E+00         0.89698E+04
 
    0.84070E+06         0.70033E+06         0.00000E+00
    0.70033E+06        -0.80320E+06         0.00000E+00
    0.00000E+00         0.00000E+00         0.75012E+04
 
    0.79550E+06         0.71807E+06         0.00000E+00
    0.71807E+06        -0.76434E+06         0.00000E+00
    0.00000E+00         0.00000E+00         0.62320E+04
 
    0.75154E+06         0.73381E+06         0.00000E+00
    0.73381E+06        -0.72587E+06         0.00000E+00
    0.00000E+00         0.00000E+00         0.51356E+04
 
    0.70880E+06         0.74766E+06         0.00000E+00
    0.74766E+06        -0.68785E+06         0.00000E+00
    0.00000E+00         0.00000E+00         0.41889E+04
 
    0.66724E+06         0.75974E+06         0.00000E+00
    0.75974E+06        -0.65038E+06         0.00000E+00
    0.00000E+00         0.00000E+00         0.33716E+04
 
    0.62683E+06         0.77015E+06         0.00000E+00
    0.77015E+06        -0.61350E+06         0.00000E+00
    0.00000E+00         0.00000E+00         0.26665E+04
 
    0.58753E+06         0.77897E+06         0.00000E+00
    0.77897E+06        -0.57724E+06         0.00000E+00
    0.00000E+00         0.00000E+00         0.20586E+04
 
    0.54931E+06         0.78628E+06         0.00000E+00
    0.78628E+06        -0.54163E+06         0.00000E+00
    0.00000E+00         0.00000E+00         0.15352E+04
 
    0.51211E+06         0.79215E+06         0.00000E+00
    0.79215E+06        -0.50668E+06         0.00000E+00
    0.00000E+00         0.00000E+00         0.10857E+04
 
    0.47589E+06         0.79661E+06         0.00000E+00
    0.79661E+06        -0.47239E+06         0.00000E+00
    0.00000E+00         0.00000E+00         0.70139E+03
 
    0.44062E+06         0.79970E+06         0.00000E+00
    0.79970E+06        -0.43875E+06         0.00000E+00
    0.00000E+00         0.00000E+00         0.37491E+03
 
    0.40627E+06         0.80142E+06         0.00000E+00
    0.80142E+06        -0.40577E+06         0.00000E+00
    0.00000E+00         0.00000E+00         0.10059E+03
 
    0.37281E+06         0.80180E+06         0.00000E+00
    0.80180E+06        -0.37344E+06         0.00000E+00
    0.00000E+00         0.00000E+00        -0.12599E+03
 
    0.34021E+06         0.80080E+06         0.00000E+00
    0.80080E+06        -0.34175E+06         0.00000E+00
    0.00000E+00         0.00000E+00        -0.30797E+03
 
    0.30849E+06         0.79841E+06         0.00000E+00
    0.79841E+06        -0.31073E+06         0.00000E+00
    0.00000E+00         0.00000E+00        -0.44737E+03
 
    0.27764E+06         0.79458E+06         0.00000E+00
    0.79458E+06        -0.28037E+06         0.00000E+00
    0.00000E+00         0.00000E+00        -0.54514E+03
 
    0.24769E+06         0.78927E+06         0.00000E+00
    0.78927E+06        -0.25070E+06         0.00000E+00
    0.00000E+00         0.00000E+00        -0.60119E+03
 
    0.21869E+06         0.78243E+06         0.00000E+00
    0.78243E+06        -0.22176E+06         0.00000E+00
    0.00000E+00         0.00000E+00        -0.61445E+03
 
    0.19069E+06         0.77399E+06         0.00000E+00
    0.77399E+06        -0.19360E+06         0.00000E+00
    0.00000E+00         0.00000E+00        -0.58284E+03
 
    0.16378E+06         0.76387E+06         0.00000E+00
    0.76387E+06        -0.16629E+06         0.00000E+00
    0.00000E+00         0.00000E+00        -0.50335E+03
 
    0.13805E+06         0.75202E+06         0.00000E+00
    0.75202E+06        -0.13991E+06         0.00000E+00
    0.00000E+00         0.00000E+00        -0.37196E+03
 
    0.11365E+06         0.73837E+06         0.00000E+00
    0.73837E+06        -0.11456E+06         0.00000E+00
    0.00000E+00         0.00000E+00        -0.18370E+03
 
    0.90712E+05         0.72283E+06         0.00000E+00
    0.72283E+06        -0.90375E+05         0.00000E+00
    0.00000E+00         0.00000E+00         0.67441E+02
 
    0.69426E+05         0.70537E+06         0.00000E+00
    0.70537E+06        -0.67484E+05         0.00000E+00
    0.00000E+00         0.00000E+00         0.38844E+03
 
    0.49992E+05         0.68592E+06         0.00000E+00
    0.68592E+06        -0.46055E+05         0.00000E+00
    0.00000E+00         0.00000E+00         0.78733E+03
 
    0.32639E+05         0.66445E+06         0.00000E+00
    0.66445E+06        -0.26274E+05         0.00000E+00
    0.00000E+00         0.00000E+00         0.12731E+04
 
    0.17623E+05         0.64095E+06         0.00000E+00
    0.64095E+06        -0.83442E+04         0.00000E+00
    0.00000E+00         0.00000E+00         0.18558E+04
 
    0.52223E+04         0.61540E+06         0.00000E+00
    0.61540E+06         0.75091E+04         0.00000E+00
    0.00000E+00         0.00000E+00         0.25463E+04
 
   -0.42597E+04         0.58785E+06         0.00000E+00
    0.58785E+06         0.21042E+05         0.00000E+00
    0.00000E+00         0.00000E+00         0.33564E+04
 
   -0.10498E+05         0.55834E+06         0.00000E+00
    0.55834E+06         0.31991E+05         0.00000E+00
    0.00000E+00         0.00000E+00         0.42986E+04
 
   -0.13148E+05         0.52696E+06         0.00000E+00
    0.52696E+06         0.40079E+05         0.00000E+00
    0.00000E+00         0.00000E+00         0.53861E+04
 
   -0.11848E+05         0.49384E+06         0.00000E+00
    0.49384E+06         0.45010E+05         0.00000E+00
    0.00000E+00         0.00000E+00         0.66323E+04
 
   -0.62236E+04         0.45913E+06         0.00000E+00
    0.45913E+06         0.46477E+05         0.00000E+00
    0.00000E+00         0.00000E+00         0.80508E+04
 
    0.41115E+04         0.42304E+06         0.00000E+00
    0.42304E+06         0.44163E+05         0.00000E+00
    0.00000E+00         0.00000E+00         0.96550E+04
 
    0.19523E+07         0.38942E+05         0.00000E+00
    0.38942E+05        -0.13818E+07         0.00000E+00
    0.00000E+00         0.00000E+00         0.11411E+06
 
    0.18749E+07         0.10680E+06         0.00000E+00
    0.10680E+06        -0.13748E+07         0.00000E+00
    0.00000E+00         0.00000E+00         0.10002E+06
 
    0.17987E+07         0.17036E+06         0.00000E+00
    0.17036E+06        -0.13616E+07         0.00000E+00
    0.00000E+00         0.00000E+00         0.87426E+05
 
    0.17241E+07         0.22967E+06         0.00000E+00
    0.22967E+06        -0.13430E+07         0.00000E+00
    0.00000E+00         0.00000E+00         0.76207E+05
 
    0.16510E+07         0.28476E+06         0.00000E+00
    0.28476E+06        -0.13197E+07         0.00000E+00
    0.00000E+00         0.00000E+00         0.66250E+05
 
    0.15797E+07         0.33574E+06         0.00000E+00
    0.33574E+06        -0.12925E+07         0.00000E+00
    0.00000E+00         0.00000E+00         0.57442E+05
 
    0.15102E+07         0.38270E+06         0.00000E+00
    0.38270E+06        -0.12618E+07         0.00000E+00
    0.00000E+00         0.00000E+00         0.49676E+05
 
    0.14427E+07         0.42579E+06         0.00000E+00
    0.42579E+06        -0.12285E+07         0.00000E+00
    0.00000E+00         0.00000E+00         0.42847E+05
 
    0.13772E+07         0.46517E+06         0.00000E+00
    0.46517E+06        -0.11929E+07         0.00000E+00
    0.00000E+00         0.00000E+00         0.36859E+05
 
    0.13139E+07         0.50102E+06         0.00000E+00
    0.50102E+06        -0.11558E+07         0.00000E+00
    0.00000E+00         0.00000E+00         0.31622E+05
 
    0.12527E+07         0.53353E+06         0.00000E+00
    0.53353E+06        -0.11174E+07         0.00000E+00
    0.00000E+00         0.00000E+00         0.27051E+05
 
    0.11937E+07         0.56291E+06         0.00000E+00
    0.56291E+06        -0.10783E+07         0.00000E+00
    0.00000E+00         0.00000E+00         0.23069E+05
 
    0.11369E+07         0.58939E+06         0.00000E+00
    0.58939E+06        -0.10389E+07         0.00000E+00
    0.00000E+00         0.00000E+00         0.19607E+05
 
    0.10823E+07         0.61318E+06         0.00000E+00
    0.61318E+06        -0.99933E+06         0.00000E+00
    0.00000E+00         0.00000E+00         0.16600E+05
 
    0.10299E+07         0.63450E+06         0.00000E+00
    0.63450E+06        -0.95999E+06         0.00000E+00
    0.00000E+00         0.00000E+00         0.13992E+05
 
    0.97970E+06         0.65358E+06         0.00000E+00
    0.65358E+06        -0.92105E+06         0.00000E+00
    0.00000E+00         0.00000E+00         0.11731E+05
 
    0.93154E+06         0.67062E+06         0.00000E+00
    0.67062E+06        -0.88268E+06         0.00000E+00
    0.00000E+00         0.00000E+00         0.97725E+04
 
    0.88539E+06         0.68584E+06         0.00000E+00
    0.68584E+06        -0.84501E+06         0.00000E+00
    0.00000E+00         0.00000E+00         0.80755E+04
 
    0.84115E+06         0.69941E+06         0.00000E+00
    0.69941E+06        -0.80812E+06         0.00000E+00
    0.00000E+00         0.00000E+00         0.66048E+04
 
    0.79871E+06         0.71152E+06         0.00000E+00
    0.71152E+06        -0.77206E+06         0.00000E+00
    0.00000E+00         0.00000E+00         0.53294E+04
 
    0.75797E+06         0.72232E+06         0.00000E+00
    0.72232E+06        -0.73685E+06         0.00000E+00
    0.00000E+00         0.00000E+00         0.42222E+04
 
    0.71878E+06         0.73194E+06         0.00000E+00
    0.73194E+06        -0.70248E+06         0.00000E+00
    0.00000E+00         0.00000E+00         0.32597E+04
 
    0.68103E+06         0.74050E+06         0.00000E+00
    0.74050E+06        -0.66892E+06         0.00000E+00
    0.00000E+00         0.00000E+00         0.24214E+04
 
    0.64456E+06         0.74809E+06         0.00000E+00
    0.74809E+06        -0.63611E+06         0.00000E+00
    0.00000E+00         0.00000E+00         0.16897E+04
 
    0.60924E+06         0.75477E+06         0.00000E+00
    0.75477E+06        -0.60399E+06         0.00000E+00
    0.00000E+00         0.00000E+00         0.10497E+04
 
    0.57493E+06         0.76058E+06         0.00000E+00
    0.76058E+06        -0.57249E+06         0.00000E+00
    0.00000E+00         0.00000E+00         0.48830E+03
 
    0.54150E+06         0.76554E+06         0.00000E+00
    0.76554E+06        -0.54153E+06         0.00000E+00
    0.00000E+00         0.00000E+00        -0.52378E+01
 
    0.50882E+06         0.76964E+06         0.00000E+00
    0.76964E+06        -0.51102E+06         0.00000E+00
    0.00000E+00         0.00000E+00        -0.44011E+03
 
    0.47677E+06         0.77284E+06         0.00000E+00
    0.77284E+06        -0.48089E+06         0.00000E+00
    0.00000E+00         0.00000E+00        -0.82390E+03
 
    0.44524E+06         0.77509E+06         0.00000E+00
    0.77509E+06        -0.45106E+06         0.00000E+00
    0.00000E+00         0.00000E+00        -0.11628E+04
 
    0.41416E+06         0.77629E+06         0.00000E+00
    0.77629E+06        -0.42146E+06         0.00000E+00
    0.00000E+00         0.00000E+00        -0.14619E+04
 
    0.38344E+06         0.77635E+06         0.00000E+00
    0.77635E+06        -0.39206E+06         0.00000E+00
    0.00000E+00         0.00000E+00        -0.17248E+04
 
    0.35304E+06         0.77514E+06         0.00000E+00
    0.77514E+06        -0.36281E+06         0.00000E+00
    0.00000E+00         0.00000E+00        -0.19543E+04
 
    0.32295E+06         0.77252E+06         0.00000E+00
    0.77252E+06        -0.33371E+06         0.00000E+00
    0.00000E+00         0.00000E+00        -0.21523E+04
 
    0.29317E+06         0.76833E+06         0.00000E+00
    0.76833E+06        -0.30476E+06         0.00000E+00
    0.00000E+00         0.00000E+00        -0.23196E+04
 
    0.26373E+06         0.76239E+06         0.00000E+00
    0.76239E+06        -0.27601E+06         0.00000E+00
    0.00000E+00         0.00000E+00        -0.24560E+04
 
    0.23471E+06         0.75453E+06         0.00000E+00
    0.75453E+06        -0.24752E+06         0.00000E+00
    0.00000E+00         0.00000E+00        -0.25608E+04
 
    0.20622E+06         0.74457E+06         0.00000E+00
    0.74457E+06        -0.21938E+06         0.00000E+00
    0.00000E+00         0.00000E+00        -0.26321E+04
 
    0.17840E+06         0.73230E+06         0.00000E+00
    0.73230E+06        -0.19174E+06         0.00000E+00
    0.00000E+00         0.00000E+00        -0.26672E+04
 
    0.15144E+06         0.71755E+06         0.00000E+00
    0.71755E+06        -0.16476E+06         0.00000E+00
    0.00000E+00         0.00000E+00        -0.26629E+04
 
    0.12556E+06         0.70014E+06         0.00000E+00
    0.70014E+06        -0.13863E+06         0.00000E+00
    0.00000E+00         0.00000E+00        -0.26148E+04
 
    0.10103E+06         0.67989E+06         0.00000E+00
    0.67989E+06        -0.11362E+06         0.00000E+00
    0.00000E+00         0.00000E+00        -0.25178E+04
 
    0.78157E+05         0.65667E+06         0.00000E+00
    0.65667E+06        -0.89988E+05         0.00000E+00
    0.00000E+00         0.00000E+00        -0.23661E+04
 
    0.57302E+05         0.63033E+06         0.00000E+00
    0.63033E+06        -0.68068E+05         0.00000E+00
    0.00000E+00         0.00000E+00        -0.21532E+04
 
    0.38860E+05         0.60079E+06         0.00000E+00
    0.60079E+06        -0.48219E+05         0.00000E+00
    0.00000E+00         0.00000E+00        -0.18718E+04
 
    0.23267E+05         0.56799E+06         0.00000E+00
    0.56799E+06        -0.30838E+05         0.00000E+00
    0.00000E+00         0.00000E+00        -0.15142E+04
 
    0.11001E+05         0.53190E+06         0.00000E+00
    0.53190E+06        -0.16362E+05         0.00000E+00
    0.00000E+00         0.00000E+00        -0.10723E+04
 
    0.25757E+04         0.49254E+06         0.00000E+00
    0.49254E+06        -0.52638E+04         0.00000E+00
    0.00000E+00         0.00000E+00        -0.53763E+03
 
   -0.14613E+04         0.45001E+06         0.00000E+00
    0.45001E+06         0.19523E+04         0.00000E+00
    0.00000E+00         0.00000E+00         0.98203E+02
 
   -0.53413E+03         0.40444E+06         0.00000E+00
    0.40444E+06         0.47507E+04         0.00000E+00
    0.00000E+00         0.00000E+00         0.84332E+03
 
    0.22106E+07         0.38979E+05         0.00000E+00
    0.38979E+05        -0.14707E+07         0.00000E+00
    0.00000E+00         0.00000E+00         0.14798E+06
 
    0.21112E+07         0.10489E+06         0.00000E+00
    0.10489E+06        -0.14628E+07         0.00000E+00
    0.00000E+00         0.00000E+00         0.12968E+06
 
    0.20147E+07         0.16568E+06         0.00000E+00
    0.16568E+06        -0.14481E+07         0.00000E+00
    0.00000E+00         0.00000E+00         0.11332E+06
 
    0.19213E+07         0.22139E+06         0.00000E+00
    0.22139E+06        -0.14276E+07         0.00000E+00
    0.00000E+00         0.00000E+00         0.98749E+05
 
    0.18311E+07         0.27215E+06         0.00000E+00
    0.27215E+06        -0.14020E+07         0.00000E+00
    0.00000E+00         0.00000E+00         0.85816E+05
 
    0.17443E+07         0.31809E+06         0.00000E+00
    0.31809E+06        -0.13724E+07         0.00000E+00
    0.00000E+00         0.00000E+00         0.74372E+05
 
    0.16610E+07         0.35943E+06         0.00000E+00
    0.35943E+06        -0.13396E+07         0.00000E+00
    0.00000E+00         0.00000E+00         0.64277E+05
 
    0.15813E+07         0.39640E+06         0.00000E+00
    0.39640E+06        -0.13043E+07         0.00000E+00
    0.00000E+00         0.00000E+00         0.55398E+05
 
    0.15053E+07         0.42926E+06         0.00000E+00
    0.42926E+06        -0.12672E+07         0.00000E+00
    0.00000E+00         0.00000E+00         0.47607E+05
 
    0.14330E+07         0.45832E+06         0.00000E+00
    0.45832E+06        -0.12291E+07         0.00000E+00
    0.00000E+00         0.00000E+00         0.40787E+05
 
    0.13645E+07         0.48389E+06         0.00000E+00
    0.48389E+06        -0.11904E+07         0.00000E+00
    0.00000E+00         0.00000E+00         0.34830E+05
 
    0.12998E+07         0.50631E+06         0.00000E+00
    0.50631E+06        -0.11517E+07         0.00000E+00
    0.00000E+00         0.00000E+00         0.29635E+05
 
    0.12389E+07         0.52592E+06         0.00000E+00
    0.52592E+06        -0.11133E+07         0.00000E+00
    0.00000E+00         0.00000E+00         0.25113E+05
 
    0.11816E+07         0.54307E+06         0.00000E+00
    0.54307E+06        -0.10756E+07         0.00000E+00
    0.00000E+00         0.00000E+00         0.21181E+05
 
    0.11278E+07         0.55810E+06         0.00000E+00
    0.55810E+06        -0.10390E+07         0.00000E+00
    0.00000E+00         0.00000E+00         0.17765E+05
 
    0.10774E+07         0.57134E+06         0.00000E+00
    0.57134E+06        -0.10034E+07         0.00000E+00
    0.00000E+00         0.00000E+00         0.14799E+05
 
    0.10303E+07         0.58312E+06         0.00000E+00
    0.58312E+06        -0.96922E+06         0.00000E+00
    0.00000E+00         0.00000E+00         0.12225E+05
 
    0.98631E+06         0.59372E+06         0.00000E+00
    0.59372E+06        -0.93636E+06         0.00000E+00
    0.00000E+00         0.00000E+00         0.99892E+04
 
    0.94512E+06         0.60343E+06         0.00000E+00
    0.60343E+06        -0.90489E+06         0.00000E+00
    0.00000E+00         0.00000E+00         0.80466E+04
 
    0.90656E+06         0.61249E+06         0.00000E+00
    0.61249E+06        -0.87478E+06         0.00000E+00
    0.00000E+00         0.00000E+00         0.63559E+04
 
    0.87035E+06         0.62111E+06         0.00000E+00
    0.62111E+06        -0.84595E+06         0.00000E+00
    0.00000E+00         0.00000E+00         0.48813E+04
 
    0.83625E+06         0.62949E+06         0.00000E+00
    0.62949E+06        -0.81830E+06         0.00000E+00
    0.00000E+00         0.00000E+00         0.35911E+04
 
    0.80397E+06         0.63776E+06         0.00000E+00
    0.63776E+06        -0.79168E+06         0.00000E+00
    0.00000E+00         0.00000E+00         0.24575E+04
 
    0.77322E+06         0.64603E+06         0.00000E+00
    0.64603E+06        -0.76594E+06         0.00000E+00
    0.00000E+00         0.00000E+00         0.14563E+04
 
    0.74373E+06         0.65439E+06         0.00000E+00
    0.65439E+06        -0.74090E+06         0.00000E+00
    0.00000E+00         0.00000E+00         0.56606E+03
 
    0.71521E+06         0.66286E+06         0.00000E+00
    0.66286E+06        -0.71637E+06         0.00000E+00
    0.00000E+00         0.00000E+00        -0.23203E+03
 
    0.68738E+06         0.67144E+06         0.00000E+00
    0.67144E+06        -0.69215E+06         0.00000E+00
    0.00000E+00         0.00000E+00        -0.95451E+03
 
    0.65996E+06         0.68008E+06         0.00000E+00
    0.68008E+06        -0.66804E+06         0.00000E+00
    0.00000E+00         0.00000E+00        -0.16160E+04
 
    0.63270E+06         0.68869E+06         0.00000E+00
    0.68869E+06        -0.64385E+06         0.00000E+00
    0.00000E+00         0.00000E+00        -0.22294E+04
 
    0.60536E+06         0.69717E+06         0.00000E+00
    0.69717E+06        -0.61939E+06         0.00000E+00
    0.00000E+00         0.00000E+00        -0.28063E+04
 
    0.57772E+06         0.70534E+06         0.00000E+00
    0.70534E+06        -0.59450E+06         0.00000E+00
    0.00000E+00         0.00000E+00        -0.33568E+04
 
    0.54957E+06         0.71302E+06         0.00000E+00
    0.71302E+06        -0.56903E+06         0.00000E+00
    0.00000E+00         0.00000E+00        -0.38902E+04
 
    0.52077E+06         0.71997E+06         0.00000E+00
    0.71997E+06        -0.54285E+06         0.00000E+00
    0.00000E+00         0.00000E+00        -0.44148E+04
 
    0.49117E+06         0.72594E+06         0.00000E+00
    0.72594E+06        -0.51586E+06         0.00000E+00
    0.00000E+00         0.00000E+00        -0.49381E+04
 
    0.46068E+06         0.73064E+06         0.00000E+00
    0.73064E+06        -0.48802E+06         0.00000E+00
    0.00000E+00         0.00000E+00        -0.54669E+04
 
    0.42925E+06         0.73377E+06         0.00000E+00
    0.73377E+06        -0.45928E+06         0.00000E+00
    0.00000E+00         0.00000E+00        -0.60075E+04
 
    0.39686E+06         0.73497E+06         0.00000E+00
    0.73497E+06        -0.42969E+06         0.00000E+00
    0.00000E+00         0.00000E+00        -0.65658E+04
 
    0.36356E+06         0.73391E+06         0.00000E+00
    0.73391E+06        -0.39929E+06         0.00000E+00
    0.00000E+00         0.00000E+00        -0.71471E+04
 
    0.32944E+06         0.73021E+06         0.00000E+00
    0.73021E+06        -0.36823E+06         0.00000E+00
    0.00000E+00         0.00000E+00        -0.77565E+04
 
    0.29466E+06         0.72351E+06         0.00000E+00
    0.72351E+06        -0.33666E+06         0.00000E+00
    0.00000E+00         0.00000E+00        -0.83985E+04
 
    0.25943E+06         0.71343E+06         0.00000E+00
    0.71343E+06        -0.30482E+06         0.00000E+00
    0.00000E+00         0.00000E+00        -0.90777E+04
 
    0.22402E+06         0.69960E+06         0.00000E+00
    0.69960E+06        -0.27302E+06         0.00000E+00
    0.00000E+00         0.00000E+00        -0.97983E+04
 
    0.18878E+06         0.68166E+06         0.00000E+00
    0.68166E+06        -0.24160E+06         0.00000E+00
    0.00000E+00         0.00000E+00        -0.10564E+05
 
    0.15412E+06         0.65929E+06         0.00000E+00
    0.65929E+06        -0.21102E+06         0.00000E+00
    0.00000E+00         0.00000E+00        -0.11379E+05
 
    0.12051E+06         0.63216E+06         0.00000E+00
    0.63216E+06        -0.18175E+06         0.00000E+00
    0.00000E+00         0.00000E+00        -0.12247E+05
 
    0.88513E+05         0.60001E+06         0.00000E+00
    0.60001E+06        -0.15437E+06         0.00000E+00
    0.00000E+00         0.00000E+00        -0.13172E+05
 
    0.58740E+05         0.56262E+06         0.00000E+00
    0.56262E+06        -0.12953E+06         0.00000E+00
    0.00000E+00         0.00000E+00        -0.14157E+05
 
    0.31883E+05         0.51983E+06         0.00000E+00
    0.51983E+06        -0.10792E+06         0.00000E+00
    0.00000E+00         0.00000E+00        -0.15207E+05
 
    0.86951E+04         0.47154E+06         0.00000E+00
    0.47154E+06        -0.90318E+05         0.00000E+00
    0.00000E+00         0.00000E+00        -0.16325E+05
 
   -0.10006E+05         0.41773E+06         0.00000E+00
    0.41773E+06        -0.77571E+05         0.00000E+00
    0.00000E+00         0.00000E+00        -0.17515E+05
 
    0.24776E+07         0.37150E+05         0.00000E+00
    0.37150E+05        -0.15332E+07         0.00000E+00
    0.00000E+00         0.00000E+00         0.18888E+06
 
    0.23516E+07         0.96772E+05         0.00000E+00
    0.96772E+05        -0.15242E+07         0.00000E+00
    0.00000E+00         0.00000E+00         0.16548E+06
 
    0.22305E+07         0.15012E+06         0.00000E+00
    0.15012E+06        -0.15078E+07         0.00000E+00
    0.00000E+00         0.00000E+00         0.14455E+06
 
    0.21145E+07         0.19731E+06         0.00000E+00
    0.19731E+06        -0.14851E+07         0.00000E+00
    0.00000E+00         0.00000E+00         0.12588E+06
 
    0.20039E+07         0.23851E+06         0.00000E+00
    0.23851E+06        -0.14574E+07         0.00000E+00
    0.00000E+00         0.00000E+00         0.10930E+06
 
    0.18989E+07         0.27401E+06         0.00000E+00
    0.27401E+06        -0.14259E+07         0.00000E+00
    0.00000E+00         0.00000E+00         0.94602E+05
 
    0.17997E+07         0.30415E+06         0.00000E+00
    0.30415E+06        -0.13916E+07         0.00000E+00
    0.00000E+00         0.00000E+00         0.81623E+05
 
    0.17064E+07         0.32932E+06         0.00000E+00
    0.32932E+06        -0.13555E+07         0.00000E+00
    0.00000E+00         0.00000E+00         0.70188E+05
 
    0.16192E+07         0.34999E+06         0.00000E+00
    0.34999E+06        -0.13186E+07         0.00000E+00
    0.00000E+00         0.00000E+00         0.60138E+05
 
    0.15382E+07         0.36664E+06         0.00000E+00
    0.36664E+06        -0.12815E+07         0.00000E+00
    0.00000E+00         0.00000E+00         0.51326E+05
 
    0.14632E+07         0.37981E+06         0.00000E+00
    0.37981E+06        -0.12451E+07         0.00000E+00
    0.00000E+00         0.00000E+00         0.43616E+05
 
    0.13942E+07         0.39002E+06         0.00000E+00
    0.39002E+06        -0.12098E+07         0.00000E+00
    0.00000E+00         0.00000E+00         0.36881E+05
 
    0.13311E+07         0.39781E+06         0.00000E+00
    0.39781E+06        -0.11760E+07         0.00000E+00
    0.00000E+00         0.00000E+00         0.31009E+05
 
    0.12737E+07         0.40371E+06         0.00000E+00
    0.40371E+06        -0.11442E+07         0.00000E+00
    0.00000E+00         0.00000E+00         0.25895E+05
 
    0.12218E+07         0.40825E+06         0.00000E+00
    0.40825E+06        -0.11146E+07         0.00000E+00
    0.00000E+00         0.00000E+00         0.21447E+05
 
    0.11751E+07         0.41192E+06         0.00000E+00
    0.41192E+06        -0.10872E+07         0.00000E+00
    0.00000E+00         0.00000E+00         0.17580E+05
 
    0.11332E+07         0.41517E+06         0.00000E+00
    0.41517E+06        -0.10621E+07         0.00000E+00
    0.00000E+00         0.00000E+00         0.14219E+05
 
    0.10959E+07         0.41844E+06         0.00000E+00
    0.41844E+06        -0.10394E+07         0.00000E+00
    0.00000E+00         0.00000E+00         0.11298E+05
 
    0.10626E+07         0.42210E+06         0.00000E+00
    0.42210E+06        -0.10188E+07         0.00000E+00
    0.00000E+00         0.00000E+00         0.87564E+04
 
    0.10330E+07         0.42650E+06         0.00000E+00
    0.42650E+06        -0.10003E+07         0.00000E+00
    0.00000E+00         0.00000E+00         0.65406E+04
 
    0.10067E+07         0.43191E+06         0.00000E+00
    0.43191E+06        -0.98364E+06         0.00000E+00
    0.00000E+00         0.00000E+00         0.46033E+04
 
    0.98306E+06         0.43857E+06         0.00000E+00
    0.43857E+06        -0.96855E+06         0.00000E+00
    0.00000E+00         0.00000E+00         0.29019E+04
 
    0.96174E+06         0.44667E+06         0.00000E+00
    0.44667E+06        -0.95475E+06         0.00000E+00
    0.00000E+00         0.00000E+00         0.13986E+04
 
    0.94222E+06         0.45634E+06         0.00000E+00
    0.45634E+06        -0.94192E+06         0.00000E+00
    0.00000E+00         0.00000E+00         0.59158E+02
 
    0.92400E+06         0.46764E+06         0.00000E+00
    0.46764E+06        -0.92973E+06         0.00000E+00
    0.00000E+00         0.00000E+00        -0.11470E+04
 
    0.90660E+06         0.48060E+06         0.00000E+00
    0.48060E+06        -0.91784E+06         0.00000E+00
    0.00000E+00         0.00000E+00        -0.22476E+04
 
    0.88955E+06         0.49518E+06         0.00000E+00
    0.49518E+06        -0.90589E+06         0.00000E+00
    0.00000E+00         0.00000E+00        -0.32681E+04
 
    0.87236E+06         0.51130E+06         0.00000E+00
    0.51130E+06        -0.89352E+06         0.00000E+00
    0.00000E+00         0.00000E+00        -0.42318E+04
 
    0.85460E+06         0.52880E+06         0.00000E+00
    0.52880E+06        -0.88041E+06         0.00000E+00
    0.00000E+00         0.00000E+00        -0.51603E+04
 
    0.83583E+06         0.54750E+06         0.00000E+00
    0.54750E+06        -0.86620E+06         0.00000E+00
    0.00000E+00         0.00000E+00        -0.60739E+04
 
    0.81564E+06         0.56715E+06         0.00000E+00
    0.56715E+06        -0.85060E+06         0.00000E+00
    0.00000E+00         0.00000E+00        -0.69919E+04
 
    0.79366E+06         0.58744E+06         0.00000E+00
    0.58744E+06        -0.83332E+06         0.00000E+00
    0.00000E+00         0.00000E+00        -0.79328E+04
 
    0.76952E+06         0.60803E+06         0.00000E+00
    0.60803E+06        -0.81410E+06         0.00000E+00
    0.00000E+00         0.00000E+00        -0.89148E+04
 
    0.74294E+06         0.62853E+06         0.00000E+00
    0.62853E+06        -0.79272E+06         0.00000E+00
    0.00000E+00         0.00000E+00        -0.99557E+04
 
    0.71364E+06         0.64848E+06         0.00000E+00
    0.64848E+06        -0.76901E+06         0.00000E+00
    0.00000E+00         0.00000E+00        -0.11073E+05
 
    0.68141E+06         0.66742E+06         0.00000E+00
    0.66742E+06        -0.74284E+06         0.00000E+00
    0.00000E+00         0.00000E+00        -0.12285E+05
 
    0.64610E+06         0.68480E+06         0.00000E+00
    0.68480E+06        -0.71414E+06         0.00000E+00
    0.00000E+00         0.00000E+00        -0.13609E+05
 
    0.60759E+06         0.70007E+06         0.00000E+00
    0.70007E+06        -0.68292E+06         0.00000E+00
    0.00000E+00         0.00000E+00        -0.15065E+05
 
    0.56588E+06         0.71264E+06         0.00000E+00
    0.71264E+06        -0.64923E+06         0.00000E+00
    0.00000E+00         0.00000E+00        -0.16671E+05
 
    0.52098E+06         0.72189E+06         0.00000E+00
    0.72189E+06        -0.61322E+06         0.00000E+00
    0.00000E+00         0.00000E+00        -0.18448E+05
 
    0.47304E+06         0.72716E+06         0.00000E+00
    0.72716E+06        -0.57512E+06         0.00000E+00
    0.00000E+00         0.00000E+00        -0.20416E+05
 
    0.42227E+06         0.72782E+06         0.00000E+00
    0.72782E+06        -0.53525E+06         0.00000E+00
    0.00000E+00         0.00000E+00        -0.22596E+05
 
    0.36896E+06         0.72320E+06         0.00000E+00
    0.72320E+06        -0.49402E+06         0.00000E+00
    0.00000E+00         0.00000E+00        -0.25011E+05
 
    0.31353E+06         0.71264E+06         0.00000E+00
    0.71264E+06        -0.45196E+06         0.00000E+00
    0.00000E+00         0.00000E+00        -0.27685E+05
 
    0.25649E+06         0.69552E+06         0.00000E+00
    0.69552E+06        -0.40969E+06         0.00000E+00
    0.00000E+00         0.00000E+00        -0.30641E+05
 
    0.19845E+06         0.67123E+06         0.00000E+00
    0.67123E+06        -0.36798E+06         0.00000E+00
    0.00000E+00         0.00000E+00        -0.33905E+05
 
    0.14016E+06         0.63920E+06         0.00000E+00
    0.63920E+06        -0.32767E+06         0.00000E+00
    0.00000E+00         0.00000E+00        -0.37502E+05
 
    0.82469E+05         0.59893E+06         0.00000E+00
    0.59893E+06        -0.28977E+06         0.00000E+00
    0.00000E+00         0.00000E+00        -0.41460E+05
 
    0.26342E+05         0.54998E+06         0.00000E+00
    0.54998E+06        -0.25537E+06         0.00000E+00
    0.00000E+00         0.00000E+00        -0.45805E+05
 
   -0.27127E+05         0.49203E+06         0.00000E+00
    0.49203E+06        -0.22571E+06         0.00000E+00
    0.00000E+00         0.00000E+00        -0.50567E+05
 
    0.27468E+07         0.33435E+05         0.00000E+00
    0.33435E+05        -0.15522E+07         0.00000E+00
    0.00000E+00         0.00000E+00         0.23894E+06
 
    0.25874E+07         0.81295E+05         0.00000E+00
    0.81295E+05        -0.15418E+07         0.00000E+00
    0.00000E+00         0.00000E+00         0.20912E+06
 
    0.24352E+07         0.12102E+06         0.00000E+00
    0.12102E+06        -0.15233E+07         0.00000E+00
    0.00000E+00         0.00000E+00         0.18237E+06
 
    0.22908E+07         0.15283E+06         0.00000E+00
    0.15283E+06        -0.14985E+07         0.00000E+00
    0.00000E+00         0.00000E+00         0.15848E+06
 
    0.21549E+07         0.17711E+06         0.00000E+00
    0.17711E+06        -0.14690E+07         0.00000E+00
    0.00000E+00         0.00000E+00         0.13718E+06
 
    0.20278E+07         0.19438E+06         0.00000E+00
    0.19438E+06        -0.14365E+07         0.00000E+00
    0.00000E+00         0.00000E+00         0.11826E+06
 
    0.19099E+07         0.20528E+06         0.00000E+00
    0.20528E+06        -0.14023E+07         0.00000E+00
    0.00000E+00         0.00000E+00         0.10151E+06
 
    0.18013E+07         0.21055E+06         0.00000E+00
    0.21055E+06        -0.13678E+07         0.00000E+00
    0.00000E+00         0.00000E+00         0.86703E+05
 
    0.17024E+07         0.21098E+06         0.00000E+00
    0.21098E+06        -0.13341E+07         0.00000E+00
    0.00000E+00         0.00000E+00         0.73659E+05
 
    0.16130E+07         0.20741E+06         0.00000E+00
    0.20741E+06        -0.13020E+07         0.00000E+00
    0.00000E+00         0.00000E+00         0.62194E+05
 
    0.15330E+07         0.20069E+06         0.00000E+00
    0.20069E+06        -0.12723E+07         0.00000E+00
    0.00000E+00         0.00000E+00         0.52141E+05
 
    0.14623E+07         0.19167E+06         0.00000E+00
    0.19167E+06        -0.12456E+07         0.00000E+00
    0.00000E+00         0.00000E+00         0.43345E+05
 
    0.14006E+07         0.18120E+06         0.00000E+00
    0.18120E+06        -0.12222E+07         0.00000E+00
    0.00000E+00         0.00000E+00         0.35666E+05
 
    0.13474E+07         0.17005E+06         0.00000E+00
    0.17005E+06        -0.12025E+07         0.00000E+00
    0.00000E+00         0.00000E+00         0.28974E+05
 
    0.13023E+07         0.15899E+06         0.00000E+00
    0.15899E+06        -0.11865E+07         0.00000E+00
    0.00000E+00         0.00000E+00         0.23152E+05
 
    0.12647E+07         0.14870E+06         0.00000E+00
    0.14870E+06        -0.11742E+07         0.00000E+00
    0.00000E+00         0.00000E+00         0.18094E+05
 
    0.12341E+07         0.13982E+06         0.00000E+00
    0.13982E+06        -0.11655E+07         0.00000E+00
    0.00000E+00         0.00000E+00         0.13704E+05
 
    0.12097E+07         0.13289E+06         0.00000E+00
    0.13289E+06        -0.11603E+07         0.00000E+00
    0.00000E+00         0.00000E+00         0.98942E+04
 
    0.11910E+07         0.12841E+06         0.00000E+00
    0.12841E+06        -0.11581E+07         0.00000E+00
    0.00000E+00         0.00000E+00         0.65867E+04
 
    0.11772E+07         0.12679E+06         0.00000E+00
    0.12679E+06        -0.11587E+07         0.00000E+00
    0.00000E+00         0.00000E+00         0.37101E+04
 
    0.11676E+07         0.12837E+06         0.00000E+00
    0.12837E+06        -0.11616E+07         0.00000E+00
    0.00000E+00         0.00000E+00         0.12000E+04
 
    0.11615E+07         0.13340E+06         0.00000E+00
    0.13340E+06        -0.11665E+07         0.00000E+00
    0.00000E+00         0.00000E+00        -0.10019E+04
 
    0.11581E+07         0.14209E+06         0.00000E+00
    0.14209E+06        -0.11728E+07         0.00000E+00
    0.00000E+00         0.00000E+00        -0.29490E+04
 
    0.11566E+07         0.15455E+06         0.00000E+00
    0.15455E+06        -0.11800E+07         0.00000E+00
    0.00000E+00         0.00000E+00        -0.46898E+04
 
    0.11564E+07         0.17084E+06         0.00000E+00
    0.17084E+06        -0.11877E+07         0.00000E+00
    0.00000E+00         0.00000E+00        -0.62692E+04
 
    0.11566E+07         0.19095E+06         0.00000E+00
    0.19095E+06        -0.11952E+07         0.00000E+00
    0.00000E+00         0.00000E+00        -0.77288E+04
 
    0.11566E+07         0.21478E+06         0.00000E+00
    0.21478E+06        -0.12022E+07         0.00000E+00
    0.00000E+00         0.00000E+00        -0.91076E+04
 
    0.11557E+07         0.24220E+06         0.00000E+00
    0.24220E+06        -0.12079E+07         0.00000E+00
    0.00000E+00         0.00000E+00        -0.10442E+05
 
    0.11532E+07         0.27300E+06         0.00000E+00
    0.27300E+06        -0.12121E+07         0.00000E+00
    0.00000E+00         0.00000E+00        -0.11769E+05
 
    0.11484E+07         0.30690E+06         0.00000E+00
    0.30690E+06        -0.12140E+07         0.00000E+00
    0.00000E+00         0.00000E+00        -0.13121E+05
 
    0.11407E+07         0.34356E+06         0.00000E+00
    0.34356E+06        -0.12134E+07         0.00000E+00
    0.00000E+00         0.00000E+00        -0.14533E+05
 
    0.11295E+07         0.38260E+06         0.00000E+00
    0.38260E+06        -0.12097E+07         0.00000E+00
    0.00000E+00         0.00000E+00        -0.16038E+05
 
    0.11141E+07         0.42354E+06         0.00000E+00
    0.42354E+06        -0.12024E+07         0.00000E+00
    0.00000E+00         0.00000E+00        -0.17671E+05
 
    0.10940E+07         0.46586E+06         0.00000E+00
    0.46586E+06        -0.11914E+07         0.00000E+00
    0.00000E+00         0.00000E+00        -0.19467E+05
 
    0.10688E+07         0.50897E+06         0.00000E+00
    0.50897E+06        -0.11761E+07         0.00000E+00
    0.00000E+00         0.00000E+00        -0.21460E+05
 
    0.10379E+07         0.55220E+06         0.00000E+00
    0.55220E+06        -0.11563E+07         0.00000E+00
    0.00000E+00         0.00000E+00        -0.23690E+05
 
    0.10009E+07         0.59484E+06         0.00000E+00
    0.59484E+06        -0.11319E+07         0.00000E+00
    0.00000E+00         0.00000E+00        -0.26195E+05
 
    0.95753E+06         0.63610E+06         0.00000E+00
    0.63610E+06        -0.11026E+07         0.00000E+00
    0.00000E+00         0.00000E+00        -0.29015E+05
 
    0.90747E+06         0.67514E+06         0.00000E+00
    0.67514E+06        -0.10684E+07         0.00000E+00
    0.00000E+00         0.00000E+00        -0.32195E+05
 
    0.85053E+06         0.71104E+06         0.00000E+00
    0.71104E+06        -0.10294E+07         0.00000E+00
    0.00000E+00         0.00000E+00        -0.35779E+05
 
    0.78661E+06         0.74285E+06         0.00000E+00
    0.74285E+06        -0.98569E+06         0.00000E+00
    0.00000E+00         0.00000E+00        -0.39817E+05
 
    0.71571E+06         0.76955E+06         0.00000E+00
    0.76955E+06        -0.93750E+06         0.00000E+00
    0.00000E+00         0.00000E+00        -0.44358E+05
 
    0.63796E+06         0.79008E+06         0.00000E+00
    0.79008E+06        -0.88524E+06         0.00000E+00
    0.00000E+00         0.00000E+00        -0.49457E+05
 
    0.55361E+06         0.80336E+06         0.00000E+00
    0.80336E+06        -0.82945E+06         0.00000E+00
    0.00000E+00         0.00000E+00        -0.55169E+05
 
    0.46307E+06         0.80828E+06         0.00000E+00
    0.80828E+06        -0.77083E+06         0.00000E+00
    0.00000E+00         0.00000E+00        -0.61553E+05
 
    0.36690E+06         0.80372E+06         0.00000E+00
    0.80372E+06        -0.71025E+06         0.00000E+00
    0.00000E+00         0.00000E+00        -0.68669E+05
 
    0.26584E+06         0.78859E+06         0.00000E+00
    0.78859E+06        -0.64874E+06         0.00000E+00
    0.00000E+00         0.00000E+00        -0.76580E+05
 
    0.16082E+06         0.76180E+06         0.00000E+00
    0.76180E+06        -0.58756E+06         0.00000E+00
    0.00000E+00         0.00000E+00        -0.85349E+05
 
    0.52951E+05         0.72236E+06         0.00000E+00
    0.72236E+06        -0.52817E+06         0.00000E+00
    0.00000E+00         0.00000E+00        -0.95043E+05
 
   -0.56430E+05         0.66931E+06         0.00000E+00
    0.66931E+06        -0.47219E+06         0.00000E+00
    0.00000E+00         0.00000E+00        -0.10572E+06
 
    0.30116E+07         0.28155E+05         0.00000E+00
    0.28155E+05        -0.15056E+07         0.00000E+00
    0.00000E+00         0.00000E+00         0.30120E+06
 
    0.28059E+07         0.56839E+05         0.00000E+00
    0.56839E+05        -0.14935E+07         0.00000E+00
    0.00000E+00         0.00000E+00         0.26248E+06
 
    0.26111E+07         0.73980E+05         0.00000E+00
    0.73980E+05        -0.14730E+07         0.00000E+00
    0.00000E+00         0.00000E+00         0.22762E+06
 
    0.24286E+07         0.80209E+05         0.00000E+00
    0.80209E+05        -0.14469E+07         0.00000E+00
    0.00000E+00         0.00000E+00         0.19633E+06
 
    0.22593E+07         0.76493E+05         0.00000E+00
    0.76493E+05        -0.14176E+07         0.00000E+00
    0.00000E+00         0.00000E+00         0.16834E+06
 
    0.21042E+07         0.63984E+05         0.00000E+00
    0.63984E+05        -0.13872E+07         0.00000E+00
    0.00000E+00         0.00000E+00         0.14339E+06
 
    0.19636E+07         0.43976E+05         0.00000E+00
    0.43976E+05        -0.13576E+07         0.00000E+00
    0.00000E+00         0.00000E+00         0.12120E+06
 
    0.18380E+07         0.17859E+05         0.00000E+00
    0.17859E+05        -0.13303E+07         0.00000E+00
    0.00000E+00         0.00000E+00         0.10155E+06
 
    0.17273E+07        -0.12934E+05         0.00000E+00
   -0.12934E+05        -0.13064E+07         0.00000E+00
    0.00000E+00         0.00000E+00         0.84187E+05
 
    0.16314E+07        -0.46980E+05         0.00000E+00
   -0.46980E+05        -0.12869E+07         0.00000E+00
    0.00000E+00         0.00000E+00         0.68904E+05
 
    0.15499E+07        -0.82897E+05         0.00000E+00
   -0.82897E+05        -0.12724E+07         0.00000E+00
    0.00000E+00         0.00000E+00         0.55494E+05
 
    0.14822E+07        -0.11938E+06         0.00000E+00
   -0.11938E+06        -0.12634E+07         0.00000E+00
    0.00000E+00         0.00000E+00         0.43765E+05
 
    0.14276E+07        -0.15522E+06         0.00000E+00
   -0.15522E+06        -0.12599E+07         0.00000E+00
    0.00000E+00         0.00000E+00         0.33539E+05
 
    0.13853E+07        -0.18932E+06         0.00000E+00
   -0.18932E+06        -0.12621E+07         0.00000E+00
    0.00000E+00         0.00000E+00         0.24650E+05
 
    0.13543E+07        -0.22069E+06         0.00000E+00
   -0.22069E+06        -0.12696E+07         0.00000E+00
    0.00000E+00         0.00000E+00         0.16946E+05
 
    0.13337E+07        -0.24847E+06         0.00000E+00
   -0.24847E+06        -0.12823E+07         0.00000E+00
    0.00000E+00         0.00000E+00         0.10286E+05
 
    0.13224E+07        -0.27193E+06         0.00000E+00
   -0.27193E+06        -0.12997E+07         0.00000E+00
    0.00000E+00         0.00000E+00         0.45407E+04
 
    0.13193E+07        -0.29046E+06         0.00000E+00
   -0.29046E+06        -0.13214E+07         0.00000E+00
    0.00000E+00         0.00000E+00        -0.40798E+03
 
    0.13234E+07        -0.30353E+06         0.00000E+00
   -0.30353E+06        -0.13467E+07         0.00000E+00
    0.00000E+00         0.00000E+00        -0.46688E+04
 
    0.13335E+07        -0.31077E+06         0.00000E+00
   -0.31077E+06        -0.13752E+07         0.00000E+00
    0.00000E+00         0.00000E+00        -0.83411E+04
 
    0.13486E+07        -0.31187E+06         0.00000E+00
   -0.31187E+06        -0.14061E+07         0.00000E+00
    0.00000E+00         0.00000E+00        -0.11516E+05
 
    0.13675E+07        -0.30663E+06         0.00000E+00
   -0.30663E+06        -0.14389E+07         0.00000E+00
    0.00000E+00         0.00000E+00        -0.14277E+05
 
    0.13894E+07        -0.29491E+06         0.00000E+00
   -0.29491E+06        -0.14729E+07         0.00000E+00
    0.00000E+00         0.00000E+00        -0.16701E+05
 
    0.14131E+07        -0.27668E+06         0.00000E+00
   -0.27668E+06        -0.15074E+07         0.00000E+00
    0.00000E+00         0.00000E+00        -0.18859E+05
 
    0.14376E+07        -0.25196E+06         0.00000E+00
   -0.25196E+06        -0.15417E+07         0.00000E+00
    0.00000E+00         0.00000E+00        -0.20818E+05
 
    0.14621E+07        -0.22083E+06         0.00000E+00
   -0.22083E+06        -0.15752E+07         0.00000E+00
    0.00000E+00         0.00000E+00        -0.22639E+05
 
    0.14854E+07        -0.18344E+06         0.00000E+00
   -0.18344E+06        -0.16073E+07         0.00000E+00
    0.00000E+00         0.00000E+00        -0.24383E+05
 
    0.15068E+07        -0.14002E+06         0.00000E+00
   -0.14002E+06        -0.16373E+07         0.00000E+00
    0.00000E+00         0.00000E+00        -0.26106E+05
 
    0.15252E+07        -0.90815E+05         0.00000E+00
   -0.90815E+05        -0.16645E+07         0.00000E+00
    0.00000E+00         0.00000E+00        -0.27864E+05
 
    0.15398E+07        -0.36166E+05         0.00000E+00
   -0.36166E+05        -0.16884E+07         0.00000E+00
    0.00000E+00         0.00000E+00        -0.29712E+05
 
    0.15498E+07         0.23542E+05         0.00000E+00
    0.23542E+05        -0.17083E+07         0.00000E+00
    0.00000E+00         0.00000E+00        -0.31706E+05
 
    0.15542E+07         0.87857E+05         0.00000E+00
    0.87857E+05        -0.17237E+07         0.00000E+00
    0.00000E+00         0.00000E+00        -0.33903E+05
 
    0.15521E+07         0.15626E+06         0.00000E+00
    0.15626E+06        -0.17339E+07         0.00000E+00
    0.00000E+00         0.00000E+00        -0.36362E+05
 
    0.15428E+07         0.22816E+06         0.00000E+00
    0.22816E+06        -0.17385E+07         0.00000E+00
    0.00000E+00         0.00000E+00        -0.39144E+05
 
    0.15253E+07         0.30288E+06         0.00000E+00
    0.30288E+06        -0.17369E+07         0.00000E+00
    0.00000E+00         0.00000E+00        -0.42312E+05
 
    0.14989E+07         0.37967E+06         0.00000E+00
    0.37967E+06        -0.17286E+07         0.00000E+00
    0.00000E+00         0.00000E+00        -0.45936E+05
 
    0.14629E+07         0.45768E+06         0.00000E+00
    0.45768E+06        -0.17133E+07         0.00000E+00
    0.00000E+00         0.00000E+00        -0.50088E+05
 
    0.14163E+07         0.53597E+06         0.00000E+00
    0.53597E+06        -0.16905E+07         0.00000E+00
    0.00000E+00         0.00000E+00        -0.54843E+05
 
    0.13586E+07         0.61349E+06         0.00000E+00
    0.61349E+06        -0.16601E+07         0.00000E+00
    0.00000E+00         0.00000E+00        -0.60286E+05
 
    0.12892E+07         0.68908E+06         0.00000E+00
    0.68908E+06        -0.16217E+07         0.00000E+00
    0.00000E+00         0.00000E+00        -0.66501E+05
 
    0.12073E+07         0.76147E+06         0.00000E+00
    0.76147E+06        -0.15753E+07         0.00000E+00
    0.00000E+00         0.00000E+00        -0.73583E+05
 
    0.11127E+07         0.82927E+06         0.00000E+00
    0.82927E+06        -0.15209E+07         0.00000E+00
    0.00000E+00         0.00000E+00        -0.81629E+05
 
    0.10050E+07         0.89100E+06         0.00000E+00
    0.89100E+06        -0.14587E+07         0.00000E+00
    0.00000E+00         0.00000E+00        -0.90741E+05
 
    0.88391E+06         0.94503E+06         0.00000E+00
    0.94503E+06        -0.13890E+07         0.00000E+00
    0.00000E+00         0.00000E+00        -0.10103E+06
 
    0.74954E+06         0.98964E+06         0.00000E+00
    0.98964E+06        -0.13125E+07         0.00000E+00
    0.00000E+00         0.00000E+00        -0.11260E+06
 
    0.60207E+06         0.10230E+07         0.00000E+00
    0.10230E+07        -0.12299E+07         0.00000E+00
    0.00000E+00         0.00000E+00        -0.12557E+06
 
    0.44192E+06         0.10434E+07         0.00000E+00
    0.10434E+07        -0.11422E+07         0.00000E+00
    0.00000E+00         0.00000E+00        -0.14006E+06
 
    0.26983E+06         0.10486E+07         0.00000E+00
    0.10486E+07        -0.10508E+07         0.00000E+00
    0.00000E+00         0.00000E+00        -0.15619E+06
 
    0.86832E+05         0.10369E+07         0.00000E+00
    0.10369E+07        -0.95719E+06         0.00000E+00
    0.00000E+00         0.00000E+00        -0.17407E+06
 
   -0.10573E+06         0.10062E+07         0.00000E+00
    0.10062E+07        -0.86348E+06         0.00000E+00
    0.00000E+00         0.00000E+00        -0.19384E+06
 
    0.32499E+07         0.21227E+05         0.00000E+00
    0.21227E+05        -0.13738E+07         0.00000E+00
    0.00000E+00         0.00000E+00         0.37523E+06
 
    0.29729E+07         0.18261E+05         0.00000E+00
    0.18261E+05        -0.13604E+07         0.00000E+00
    0.00000E+00         0.00000E+00         0.32250E+06
 
    0.27145E+07        -0.24290E+04         0.00000E+00
   -0.24290E+04        -0.13406E+07         0.00000E+00
    0.00000E+00         0.00000E+00         0.27477E+06
 
    0.24771E+07        -0.38586E+05         0.00000E+00
   -0.38586E+05        -0.13181E+07         0.00000E+00
    0.00000E+00         0.00000E+00         0.23179E+06
 
    0.22623E+07        -0.87844E+05         0.00000E+00
   -0.87844E+05        -0.12962E+07         0.00000E+00
    0.00000E+00         0.00000E+00         0.19322E+06
 
    0.20712E+07        -0.14758E+06         0.00000E+00
   -0.14758E+06        -0.12775E+07         0.00000E+00
    0.00000E+00         0.00000E+00         0.15874E+06
 
    0.19043E+07        -0.21511E+06         0.00000E+00
   -0.21511E+06        -0.12639E+07         0.00000E+00
    0.00000E+00         0.00000E+00         0.12806E+06
 
    0.17613E+07        -0.28779E+06         0.00000E+00
   -0.28779E+06        -0.12569E+07         0.00000E+00
    0.00000E+00         0.00000E+00         0.10089E+06
 
    0.16418E+07        -0.36314E+06         0.00000E+00
   -0.36314E+06        -0.12572E+07         0.00000E+00
    0.00000E+00         0.00000E+00         0.76932E+05
 
    0.15449E+07        -0.43891E+06         0.00000E+00
   -0.43891E+06        -0.12653E+07         0.00000E+00
    0.00000E+00         0.00000E+00         0.55909E+05
 
    0.14691E+07        -0.51306E+06         0.00000E+00
   -0.51306E+06        -0.12814E+07         0.00000E+00
    0.00000E+00         0.00000E+00         0.37547E+05
 
    0.14133E+07        -0.58381E+06         0.00000E+00
   -0.58381E+06        -0.13053E+07         0.00000E+00
    0.00000E+00         0.00000E+00         0.21586E+05
 
    0.13756E+07        -0.64965E+06         0.00000E+00
   -0.64965E+06        -0.13367E+07         0.00000E+00
    0.00000E+00         0.00000E+00         0.77786E+04
 
    0.13543E+07        -0.70931E+06         0.00000E+00
   -0.70931E+06        -0.13749E+07         0.00000E+00
    0.00000E+00         0.00000E+00        -0.41089E+04
 
    0.13478E+07        -0.76179E+06         0.00000E+00
   -0.76179E+06        -0.14193E+07         0.00000E+00
    0.00000E+00         0.00000E+00        -0.14296E+05
 
    0.13543E+07        -0.80626E+06         0.00000E+00
   -0.80626E+06        -0.14693E+07         0.00000E+00
    0.00000E+00         0.00000E+00        -0.22988E+05
 
    0.13720E+07        -0.84214E+06         0.00000E+00
   -0.84214E+06        -0.15239E+07         0.00000E+00
    0.00000E+00         0.00000E+00        -0.30375E+05
 
    0.13993E+07        -0.86900E+06         0.00000E+00
   -0.86900E+06        -0.15824E+07         0.00000E+00
    0.00000E+00         0.00000E+00        -0.36633E+05
 
    0.14345E+07        -0.88655E+06         0.00000E+00
   -0.88655E+06        -0.16441E+07         0.00000E+00
    0.00000E+00         0.00000E+00        -0.41922E+05
 
    0.14761E+07        -0.89464E+06         0.00000E+00
   -0.89464E+06        -0.17081E+07         0.00000E+00
    0.00000E+00         0.00000E+00        -0.46390E+05
 
    0.15228E+07        -0.89320E+06         0.00000E+00
   -0.89320E+06        -0.17736E+07         0.00000E+00
    0.00000E+00         0.00000E+00        -0.50173E+05
 
    0.15730E+07        -0.88228E+06         0.00000E+00
   -0.88228E+06        -0.18400E+07         0.00000E+00
    0.00000E+00         0.00000E+00        -0.53393E+05
 
    0.16256E+07        -0.86196E+06         0.00000E+00
   -0.86196E+06        -0.19064E+07         0.00000E+00
    0.00000E+00         0.00000E+00        -0.56164E+05
 
    0.16793E+07        -0.83237E+06         0.00000E+00
   -0.83237E+06        -0.19723E+07         0.00000E+00
    0.00000E+00         0.00000E+00        -0.58589E+05
 
    0.17330E+07        -0.79371E+06         0.00000E+00
   -0.79371E+06        -0.20368E+07         0.00000E+00
    0.00000E+00         0.00000E+00        -0.60765E+05
 
    0.17856E+07        -0.74619E+06         0.00000E+00
   -0.74619E+06        -0.20995E+07         0.00000E+00
    0.00000E+00         0.00000E+00        -0.62783E+05
 
    0.18360E+07        -0.69004E+06         0.00000E+00
   -0.69004E+06        -0.21596E+07         0.00000E+00
    0.00000E+00         0.00000E+00        -0.64729E+05
 
    0.18831E+07        -0.62553E+06         0.00000E+00
   -0.62553E+06        -0.22166E+07         0.00000E+00
    0.00000E+00         0.00000E+00        -0.66687E+05
 
    0.19260E+07        -0.55294E+06         0.00000E+00
   -0.55294E+06        -0.22697E+07         0.00000E+00
    0.00000E+00         0.00000E+00        -0.68740E+05
 
    0.19636E+07        -0.47259E+06         0.00000E+00
   -0.47259E+06        -0.23184E+07         0.00000E+00
    0.00000E+00         0.00000E+00        -0.70970E+05
 
    0.19948E+07        -0.38481E+06         0.00000E+00
   -0.38481E+06        -0.23621E+07         0.00000E+00
    0.00000E+00         0.00000E+00        -0.73463E+05
 
    0.20186E+07        -0.28999E+06         0.00000E+00
   -0.28999E+06        -0.24001E+07         0.00000E+00
    0.00000E+00         0.00000E+00        -0.76307E+05
 
    0.20338E+07        -0.18857E+06         0.00000E+00
   -0.18857E+06        -0.24318E+07         0.00000E+00
    0.00000E+00         0.00000E+00        -0.79594E+05
 
    0.20394E+07        -0.81022E+05         0.00000E+00
   -0.81022E+05        -0.24565E+07         0.00000E+00
    0.00000E+00         0.00000E+00        -0.83423E+05
 
    0.20341E+07         0.32078E+05         0.00000E+00
    0.32078E+05        -0.24736E+07         0.00000E+00
    0.00000E+00         0.00000E+00        -0.87901E+05
 
    0.20167E+07         0.15008E+06         0.00000E+00
    0.15008E+06        -0.24824E+07         0.00000E+00
    0.00000E+00         0.00000E+00        -0.93139E+05
 
    0.19859E+07         0.27221E+06         0.00000E+00
    0.27221E+06        -0.24822E+07         0.00000E+00
    0.00000E+00         0.00000E+00        -0.99261E+05
 
    0.19404E+07         0.39758E+06         0.00000E+00
    0.39758E+06        -0.24724E+07         0.00000E+00
    0.00000E+00         0.00000E+00        -0.10640E+06
 
    0.18789E+07         0.52516E+06         0.00000E+00
    0.52516E+06        -0.24523E+07         0.00000E+00
    0.00000E+00         0.00000E+00        -0.11469E+06
 
    0.18000E+07         0.65372E+06         0.00000E+00
    0.65372E+06        -0.24214E+07         0.00000E+00
    0.00000E+00         0.00000E+00        -0.12429E+06
 
    0.17023E+07         0.78188E+06         0.00000E+00
    0.78188E+06        -0.23791E+07         0.00000E+00
    0.00000E+00         0.00000E+00        -0.13535E+06
 
    0.15846E+07         0.90802E+06         0.00000E+00
    0.90802E+06        -0.23249E+07         0.00000E+00
    0.00000E+00         0.00000E+00        -0.14805E+06
 
    0.14457E+07         0.10303E+07         0.00000E+00
    0.10303E+07        -0.22585E+07         0.00000E+00
    0.00000E+00         0.00000E+00        -0.16257E+06
 
    0.12843E+07         0.11467E+07         0.00000E+00
    0.11467E+07        -0.21798E+07         0.00000E+00
    0.00000E+00         0.00000E+00        -0.17909E+06
 
    0.10996E+07         0.12548E+07         0.00000E+00
    0.12548E+07        -0.20886E+07         0.00000E+00
    0.00000E+00         0.00000E+00        -0.19781E+06
 
    0.89077E+06         0.13520E+07         0.00000E+00
    0.13520E+07        -0.19853E+07         0.00000E+00
    0.00000E+00         0.00000E+00        -0.21891E+06
 
    0.65736E+06         0.14355E+07         0.00000E+00
    0.14355E+07        -0.18704E+07         0.00000E+00
    0.00000E+00         0.00000E+00        -0.24260E+06
 
    0.39925E+06         0.15021E+07         0.00000E+00
    0.15021E+07        -0.17447E+07         0.00000E+00
    0.00000E+00         0.00000E+00        -0.26909E+06
 
    0.11668E+06         0.15485E+07         0.00000E+00
    0.15485E+07        -0.16096E+07         0.00000E+00
    0.00000E+00         0.00000E+00        -0.29858E+06
 
   -0.18950E+06         0.15711E+07         0.00000E+00
    0.15711E+07        -0.14666E+07         0.00000E+00
    0.00000E+00         0.00000E+00        -0.33122E+06
 
    0.33599E+07         0.85251E+04         0.00000E+00
    0.85251E+04        -0.11765E+07         0.00000E+00
    0.00000E+00         0.00000E+00         0.43668E+06
 
    0.29666E+07        -0.52506E+05         0.00000E+00
   -0.52506E+05        -0.11675E+07         0.00000E+00
    0.00000E+00         0.00000E+00         0.35982E+06
 
    0.26110E+07        -0.13960E+06         0.00000E+00
   -0.13960E+06        -0.11589E+07         0.00000E+00
    0.00000E+00         0.00000E+00         0.29042E+06
 
    0.22956E+07        -0.24735E+06         0.00000E+00
   -0.24735E+06        -0.11562E+07         0.00000E+00
    0.00000E+00         0.00000E+00         0.22788E+06
 
    0.20221E+07        -0.36964E+06         0.00000E+00
   -0.36964E+06        -0.11624E+07         0.00000E+00
    0.00000E+00         0.00000E+00         0.17193E+06
 
    0.17902E+07        -0.50084E+06         0.00000E+00
   -0.50084E+06        -0.11791E+07         0.00000E+00
    0.00000E+00         0.00000E+00         0.12222E+06
 
    0.15989E+07        -0.63600E+06         0.00000E+00
   -0.63600E+06        -0.12072E+07         0.00000E+00
    0.00000E+00         0.00000E+00         0.78335E+05
 
    0.14460E+07        -0.77082E+06         0.00000E+00
   -0.77082E+06        -0.12469E+07         0.00000E+00
    0.00000E+00         0.00000E+00         0.39825E+05
 
    0.13289E+07        -0.90166E+06         0.00000E+00
   -0.90166E+06        -0.12976E+07         0.00000E+00
    0.00000E+00         0.00000E+00         0.62496E+04
 
    0.12445E+07        -0.10255E+07         0.00000E+00
   -0.10255E+07        -0.13587E+07         0.00000E+00
    0.00000E+00         0.00000E+00        -0.22830E+05
 
    0.11897E+07        -0.11400E+07         0.00000E+00
   -0.11400E+07        -0.14289E+07         0.00000E+00
    0.00000E+00         0.00000E+00        -0.47845E+05
 
    0.11611E+07        -0.12434E+07         0.00000E+00
   -0.12434E+07        -0.15071E+07         0.00000E+00
    0.00000E+00         0.00000E+00        -0.69212E+05
 
    0.11553E+07        -0.13343E+07         0.00000E+00
   -0.13343E+07        -0.15920E+07         0.00000E+00
    0.00000E+00         0.00000E+00        -0.87337E+05
 
    0.11691E+07        -0.14120E+07         0.00000E+00
   -0.14120E+07        -0.16821E+07         0.00000E+00
    0.00000E+00         0.00000E+00        -0.10260E+06
 
    0.11996E+07        -0.14760E+07         0.00000E+00
   -0.14760E+07        -0.17764E+07         0.00000E+00
    0.00000E+00         0.00000E+00        -0.11537E+06
 
    0.12439E+07        -0.15261E+07         0.00000E+00
   -0.15261E+07        -0.18737E+07         0.00000E+00
    0.00000E+00         0.00000E+00        -0.12597E+06
 
    0.12995E+07        -0.15625E+07         0.00000E+00
   -0.15625E+07        -0.19730E+07         0.00000E+00
    0.00000E+00         0.00000E+00        -0.13471E+06
 
    0.13640E+07        -0.15853E+07         0.00000E+00
   -0.15853E+07        -0.20733E+07         0.00000E+00
    0.00000E+00         0.00000E+00        -0.14186E+06
 
    0.14355E+07        -0.15950E+07         0.00000E+00
   -0.15950E+07        -0.21739E+07         0.00000E+00
    0.00000E+00         0.00000E+00        -0.14769E+06
 
    0.15120E+07        -0.15919E+07         0.00000E+00
   -0.15919E+07        -0.22740E+07         0.00000E+00
    0.00000E+00         0.00000E+00        -0.15240E+06
 
    0.15919E+07        -0.15765E+07         0.00000E+00
   -0.15765E+07        -0.23730E+07         0.00000E+00
    0.00000E+00         0.00000E+00        -0.15621E+06
 
    0.16739E+07        -0.15494E+07         0.00000E+00
   -0.15494E+07        -0.24704E+07         0.00000E+00
    0.00000E+00         0.00000E+00        -0.15929E+06
 
    0.17567E+07        -0.15109E+07         0.00000E+00
   -0.15109E+07        -0.25656E+07         0.00000E+00
    0.00000E+00         0.00000E+00        -0.16179E+06
 
    0.18390E+07        -0.14615E+07         0.00000E+00
   -0.14615E+07        -0.26584E+07         0.00000E+00
    0.00000E+00         0.00000E+00        -0.16387E+06
 
    0.19199E+07        -0.14016E+07         0.00000E+00
   -0.14016E+07        -0.27482E+07         0.00000E+00
    0.00000E+00         0.00000E+00        -0.16565E+06
 
    0.19984E+07        -0.13316E+07         0.00000E+00
   -0.13316E+07        -0.28347E+07         0.00000E+00
    0.00000E+00         0.00000E+00        -0.16726E+06
 
    0.20735E+07        -0.12517E+07         0.00000E+00
   -0.12517E+07        -0.29176E+07         0.00000E+00
    0.00000E+00         0.00000E+00        -0.16881E+06
 
    0.21444E+07        -0.11623E+07         0.00000E+00
   -0.11623E+07        -0.29964E+07         0.00000E+00
    0.00000E+00         0.00000E+00        -0.17041E+06
 
    0.22101E+07        -0.10634E+07         0.00000E+00
   -0.10634E+07        -0.30709E+07         0.00000E+00
    0.00000E+00         0.00000E+00        -0.17217E+06
 
    0.22696E+07        -0.95534E+06         0.00000E+00
   -0.95534E+06        -0.31406E+07         0.00000E+00
    0.00000E+00         0.00000E+00        -0.17420E+06
 
    0.23219E+07        -0.83813E+06         0.00000E+00
   -0.83813E+06        -0.32050E+07         0.00000E+00
    0.00000E+00         0.00000E+00        -0.17662E+06
 
    0.23660E+07        -0.71192E+06         0.00000E+00
   -0.71192E+06        -0.32638E+07         0.00000E+00
    0.00000E+00         0.00000E+00        -0.17956E+06
 
    0.24006E+07        -0.57679E+06         0.00000E+00
   -0.57679E+06        -0.33163E+07         0.00000E+00
    0.00000E+00         0.00000E+00        -0.18313E+06
 
    0.24244E+07        -0.43285E+06         0.00000E+00
   -0.43285E+06        -0.33619E+07         0.00000E+00
    0.00000E+00         0.00000E+00        -0.18750E+06
 
    0.24360E+07        -0.28024E+06         0.00000E+00
   -0.28024E+06        -0.34000E+07         0.00000E+00
    0.00000E+00         0.00000E+00        -0.19281E+06
 
    0.24336E+07        -0.11915E+06         0.00000E+00
   -0.11915E+06        -0.34298E+07         0.00000E+00
    0.00000E+00         0.00000E+00        -0.19924E+06
 
    0.24155E+07         0.50122E+05         0.00000E+00
    0.50122E+05        -0.34504E+07         0.00000E+00
    0.00000E+00         0.00000E+00        -0.20698E+06
 
    0.23797E+07         0.22716E+06         0.00000E+00
    0.22716E+06        -0.34609E+07         0.00000E+00
    0.00000E+00         0.00000E+00        -0.21624E+06
 
    0.23240E+07         0.41139E+06         0.00000E+00
    0.41139E+06        -0.34602E+07         0.00000E+00
    0.00000E+00         0.00000E+00        -0.22724E+06
 
    0.22461E+07         0.60199E+06         0.00000E+00
    0.60199E+06        -0.34472E+07         0.00000E+00
    0.00000E+00         0.00000E+00        -0.24023E+06
 
    0.21434E+07         0.79792E+06         0.00000E+00
    0.79792E+06        -0.34206E+07         0.00000E+00
    0.00000E+00         0.00000E+00        -0.25546E+06
 
    0.20133E+07         0.99779E+06         0.00000E+00
    0.99779E+06        -0.33793E+07         0.00000E+00
    0.00000E+00         0.00000E+00        -0.27321E+06
 
    0.18530E+07         0.11999E+07         0.00000E+00
    0.11999E+07        -0.33220E+07         0.00000E+00
    0.00000E+00         0.00000E+00        -0.29378E+06
 
    0.16599E+07         0.14020E+07         0.00000E+00
    0.14020E+07        -0.32473E+07         0.00000E+00
    0.00000E+00         0.00000E+00        -0.31747E+06
 
    0.14310E+07         0.16017E+07         0.00000E+00
    0.16017E+07        -0.31540E+07         0.00000E+00
    0.00000E+00         0.00000E+00        -0.34461E+06
 
    0.11636E+07         0.17956E+07         0.00000E+00
    0.17956E+07        -0.30412E+07         0.00000E+00
    0.00000E+00         0.00000E+00        -0.37551E+06
 
    0.85523E+06         0.19802E+07         0.00000E+00
    0.19802E+07        -0.29077E+07         0.00000E+00
    0.00000E+00         0.00000E+00        -0.41050E+06
 
    0.50359E+06         0.21508E+07         0.00000E+00
    0.21508E+07        -0.27529E+07         0.00000E+00
    0.00000E+00         0.00000E+00        -0.44987E+06
 
    0.10712E+06         0.23024E+07         0.00000E+00
    0.23024E+07        -0.25763E+07         0.00000E+00
    0.00000E+00         0.00000E+00        -0.49384E+06
 
   -0.33567E+06         0.24297E+07         0.00000E+00
    0.24297E+07        -0.23790E+07         0.00000E+00
    0.00000E+00         0.00000E+00        -0.54294E+06
 
    0.29641E+07        -0.28994E+05         0.00000E+00
   -0.28994E+05        -0.10986E+07         0.00000E+00
    0.00000E+00         0.00000E+00         0.37309E+06
 
    0.23966E+07        -0.20499E+06         0.00000E+00
   -0.20499E+06        -0.11099E+07         0.00000E+00
    0.00000E+00         0.00000E+00         0.25734E+06
 
    0.19109E+07        -0.41277E+06         0.00000E+00
   -0.41277E+06        -0.11444E+07         0.00000E+00
    0.00000E+00         0.00000E+00         0.15330E+06
 
    0.15069E+07        -0.63667E+06         0.00000E+00
   -0.63667E+06        -0.11999E+07         0.00000E+00
    0.00000E+00         0.00000E+00         0.61395E+05
 
    0.11797E+07        -0.86606E+06         0.00000E+00
   -0.86606E+06        -0.12759E+07         0.00000E+00
    0.00000E+00         0.00000E+00        -0.19236E+05
 
    0.92357E+06        -0.10923E+07         0.00000E+00
   -0.10923E+07        -0.13711E+07         0.00000E+00
    0.00000E+00         0.00000E+00        -0.89499E+05
 
    0.73184E+06        -0.13085E+07         0.00000E+00
   -0.13085E+07        -0.14829E+07         0.00000E+00
    0.00000E+00         0.00000E+00        -0.15022E+06
 
    0.59737E+06        -0.15091E+07         0.00000E+00
   -0.15091E+07        -0.16083E+07         0.00000E+00
    0.00000E+00         0.00000E+00        -0.20219E+06
 
    0.51275E+06        -0.16904E+07         0.00000E+00
   -0.16904E+07        -0.17440E+07         0.00000E+00
    0.00000E+00         0.00000E+00        -0.24624E+06
 
    0.47063E+06        -0.18499E+07         0.00000E+00
   -0.18499E+07        -0.18867E+07         0.00000E+00
    0.00000E+00         0.00000E+00        -0.28321E+06
 
    0.46399E+06        -0.19865E+07         0.00000E+00
   -0.19865E+07        -0.20335E+07         0.00000E+00
    0.00000E+00         0.00000E+00        -0.31390E+06
 
    0.48642E+06        -0.21000E+07         0.00000E+00
   -0.21000E+07        -0.21821E+07         0.00000E+00
    0.00000E+00         0.00000E+00        -0.33914E+06
 
    0.53216E+06        -0.21907E+07         0.00000E+00
   -0.21907E+07        -0.23304E+07         0.00000E+00
    0.00000E+00         0.00000E+00        -0.35965E+06
 
    0.59621E+06        -0.22597E+07         0.00000E+00
   -0.22597E+07        -0.24768E+07         0.00000E+00
    0.00000E+00         0.00000E+00        -0.37612E+06
 
    0.67427E+06        -0.23081E+07         0.00000E+00
   -0.23081E+07        -0.26201E+07         0.00000E+00
    0.00000E+00         0.00000E+00        -0.38917E+06
 
    0.76272E+06        -0.23373E+07         0.00000E+00
   -0.23373E+07        -0.27595E+07         0.00000E+00
    0.00000E+00         0.00000E+00        -0.39936E+06
 
    0.85855E+06        -0.23488E+07         0.00000E+00
   -0.23488E+07        -0.28943E+07         0.00000E+00
    0.00000E+00         0.00000E+00        -0.40716E+06
 
    0.95930E+06        -0.23440E+07         0.00000E+00
   -0.23440E+07        -0.30242E+07         0.00000E+00
    0.00000E+00         0.00000E+00        -0.41298E+06
 
    0.10630E+07        -0.23244E+07         0.00000E+00
   -0.23244E+07        -0.31490E+07         0.00000E+00
    0.00000E+00         0.00000E+00        -0.41721E+06
 
    0.11679E+07        -0.22911E+07         0.00000E+00
   -0.22911E+07        -0.32686E+07         0.00000E+00
    0.00000E+00         0.00000E+00        -0.42013E+06
 
    0.12729E+07        -0.22454E+07         0.00000E+00
   -0.22454E+07        -0.33830E+07         0.00000E+00
    0.00000E+00         0.00000E+00        -0.42202E+06
 
    0.13769E+07        -0.21881E+07         0.00000E+00
   -0.21881E+07        -0.34925E+07         0.00000E+00
    0.00000E+00         0.00000E+00        -0.42311E+06
 
    0.14791E+07        -0.21203E+07         0.00000E+00
   -0.21203E+07        -0.35971E+07         0.00000E+00
    0.00000E+00         0.00000E+00        -0.42360E+06
 
    0.15788E+07        -0.20424E+07         0.00000E+00
   -0.20424E+07        -0.36970E+07         0.00000E+00
    0.00000E+00         0.00000E+00        -0.42365E+06
 
    0.16755E+07        -0.19552E+07         0.00000E+00
   -0.19552E+07        -0.37925E+07         0.00000E+00
    0.00000E+00         0.00000E+00        -0.42341E+06
 
    0.17686E+07        -0.18588E+07         0.00000E+00
   -0.18588E+07        -0.38838E+07         0.00000E+00
    0.00000E+00         0.00000E+00        -0.42303E+06
 
    0.18579E+07        -0.17537E+07         0.00000E+00
   -0.17537E+07        -0.39710E+07         0.00000E+00
    0.00000E+00         0.00000E+00        -0.42263E+06
 
    0.19427E+07        -0.16399E+07         0.00000E+00
   -0.16399E+07        -0.40543E+07         0.00000E+00
    0.00000E+00         0.00000E+00        -0.42233E+06
 
    0.20227E+07        -0.15173E+07         0.00000E+00
   -0.15173E+07        -0.41339E+07         0.00000E+00
    0.00000E+00         0.00000E+00        -0.42224E+06
 
    0.20972E+07        -0.13858E+07         0.00000E+00
   -0.13858E+07        -0.42096E+07         0.00000E+00
    0.00000E+00         0.00000E+00        -0.42250E+06
 
    0.21656E+07        -0.12451E+07         0.00000E+00
   -0.12451E+07        -0.42817E+07         0.00000E+00
    0.00000E+00         0.00000E+00        -0.42322E+06
 
    0.22270E+07        -0.10947E+07         0.00000E+00
   -0.10947E+07        -0.43498E+07         0.00000E+00
    0.00000E+00         0.00000E+00        -0.42456E+06
 
    0.22806E+07        -0.93414E+06         0.00000E+00
   -0.93414E+06        -0.44139E+07         0.00000E+00
    0.00000E+00         0.00000E+00        -0.42667E+06
 
    0.23250E+07        -0.76285E+06         0.00000E+00
   -0.76285E+06        -0.44736E+07         0.00000E+00
    0.00000E+00         0.00000E+00        -0.42973E+06
 
    0.23588E+07        -0.58014E+06         0.00000E+00
   -0.58014E+06        -0.45285E+07         0.00000E+00
    0.00000E+00         0.00000E+00        -0.43395E+06
 
    0.23802E+07        -0.38530E+06         0.00000E+00
   -0.38530E+06        -0.45779E+07         0.00000E+00
    0.00000E+00         0.00000E+00        -0.43955E+06
 
    0.23871E+07        -0.17762E+06         0.00000E+00
   -0.17762E+06        -0.46210E+07         0.00000E+00
    0.00000E+00         0.00000E+00        -0.44679E+06
 
    0.23769E+07         0.43594E+05         0.00000E+00
    0.43594E+05        -0.46568E+07         0.00000E+00
    0.00000E+00         0.00000E+00        -0.45598E+06
 
    0.23468E+07         0.27893E+06         0.00000E+00
    0.27893E+06        -0.46840E+07         0.00000E+00
    0.00000E+00         0.00000E+00        -0.46745E+06
 
    0.22933E+07         0.52883E+06         0.00000E+00
    0.52883E+06        -0.47011E+07         0.00000E+00
    0.00000E+00         0.00000E+00        -0.48156E+06
 
    0.22124E+07         0.79346E+06         0.00000E+00
    0.79346E+06        -0.47060E+07         0.00000E+00
    0.00000E+00         0.00000E+00        -0.49872E+06
 
    0.20998E+07         0.10727E+07         0.00000E+00
    0.10727E+07        -0.46966E+07         0.00000E+00
    0.00000E+00         0.00000E+00        -0.51936E+06
 
    0.19506E+07         0.13658E+07         0.00000E+00
    0.13658E+07        -0.46703E+07         0.00000E+00
    0.00000E+00         0.00000E+00        -0.54393E+06
 
    0.17596E+07         0.16716E+07         0.00000E+00
    0.16716E+07        -0.46241E+07         0.00000E+00
    0.00000E+00         0.00000E+00        -0.57290E+06
 
    0.15211E+07         0.19881E+07         0.00000E+00
    0.19881E+07        -0.45548E+07         0.00000E+00
    0.00000E+00         0.00000E+00        -0.60674E+06
 
    0.12293E+07         0.23127E+07         0.00000E+00
    0.23127E+07        -0.44591E+07         0.00000E+00
    0.00000E+00         0.00000E+00        -0.64596E+06
 
    0.87800E+06         0.26417E+07         0.00000E+00
    0.26417E+07        -0.43334E+07         0.00000E+00
    0.00000E+00         0.00000E+00        -0.69107E+06
 
    0.46061E+06         0.29708E+07         0.00000E+00
    0.29708E+07        -0.41742E+07         0.00000E+00
    0.00000E+00         0.00000E+00        -0.74271E+06
 
   -0.29705E+05         0.32941E+07         0.00000E+00
    0.32941E+07        -0.39774E+07         0.00000E+00
    0.00000E+00         0.00000E+00        -0.80142E+06
 
   -0.59749E+06         0.36018E+07         0.00000E+00
    0.36018E+07        -0.37366E+07         0.00000E+00
    0.00000E+00         0.00000E+00        -0.86682E+06
 
    0.99982E+06        -0.14643E+06         0.00000E+00
   -0.14643E+06        -0.17739E+07         0.00000E+00
    0.00000E+00         0.00000E+00        -0.15481E+06
 
    0.26023E+06        -0.54526E+06         0.00000E+00
   -0.54526E+06        -0.18518E+07         0.00000E+00
    0.00000E+00         0.00000E+00        -0.31831E+06
 
   -0.31311E+06        -0.94291E+06         0.00000E+00
   -0.94291E+06        -0.19724E+07         0.00000E+00
    0.00000E+00         0.00000E+00        -0.45711E+06
 
   -0.74459E+06        -0.13283E+07         0.00000E+00
   -0.13283E+07        -0.21366E+07         0.00000E+00
    0.00000E+00         0.00000E+00        -0.57623E+06
 
   -0.10511E+07        -0.16868E+07         0.00000E+00
   -0.16868E+07        -0.23345E+07         0.00000E+00
    0.00000E+00         0.00000E+00        -0.67712E+06
 
   -0.12507E+07        -0.20075E+07         0.00000E+00
   -0.20075E+07        -0.25544E+07         0.00000E+00
    0.00000E+00         0.00000E+00        -0.76102E+06
 
   -0.13621E+07        -0.22842E+07         0.00000E+00
   -0.22842E+07        -0.27855E+07         0.00000E+00
    0.00000E+00         0.00000E+00        -0.82951E+06
 
   -0.14034E+07        -0.25148E+07         0.00000E+00
   -0.25148E+07        -0.30189E+07         0.00000E+00
    0.00000E+00         0.00000E+00        -0.88446E+06
 
   -0.13908E+07        -0.27002E+07         0.00000E+00
   -0.27002E+07        -0.32480E+07         0.00000E+00
    0.00000E+00         0.00000E+00        -0.92776E+06
 
   -0.13380E+07        -0.28430E+07         0.00000E+00
   -0.28430E+07        -0.34683E+07         0.00000E+00
    0.00000E+00         0.00000E+00        -0.96124E+06
 
   -0.12561E+07        -0.29471E+07         0.00000E+00
   -0.29471E+07        -0.36766E+07         0.00000E+00
    0.00000E+00         0.00000E+00        -0.98655E+06
 
   -0.11543E+07        -0.30165E+07         0.00000E+00
   -0.30165E+07        -0.38714E+07         0.00000E+00
    0.00000E+00         0.00000E+00        -0.10051E+07
 
   -0.10395E+07        -0.30556E+07         0.00000E+00
   -0.30556E+07        -0.40517E+07         0.00000E+00
    0.00000E+00         0.00000E+00        -0.10183E+07
 
   -0.91715E+06        -0.30684E+07         0.00000E+00
   -0.30684E+07        -0.42176E+07         0.00000E+00
    0.00000E+00         0.00000E+00        -0.10269E+07
 
   -0.79117E+06        -0.30587E+07         0.00000E+00
   -0.30587E+07        -0.43694E+07         0.00000E+00
    0.00000E+00         0.00000E+00        -0.10321E+07
 
   -0.66452E+06        -0.30297E+07         0.00000E+00
   -0.30297E+07        -0.45078E+07         0.00000E+00
    0.00000E+00         0.00000E+00        -0.10345E+07
 
   -0.53927E+06        -0.29845E+07         0.00000E+00
   -0.29845E+07        -0.46339E+07         0.00000E+00
    0.00000E+00         0.00000E+00        -0.10346E+07
 
   -0.41682E+06        -0.29256E+07         0.00000E+00
   -0.29256E+07        -0.47486E+07         0.00000E+00
    0.00000E+00         0.00000E+00        -0.10331E+07
 
   -0.29808E+06        -0.28552E+07         0.00000E+00
   -0.28552E+07        -0.48532E+07         0.00000E+00
    0.00000E+00         0.00000E+00        -0.10302E+07
 
   -0.18355E+06        -0.27750E+07         0.00000E+00
   -0.27750E+07        -0.49486E+07         0.00000E+00
    0.00000E+00         0.00000E+00        -0.10264E+07
 
   -0.73441E+05        -0.26864E+07         0.00000E+00
   -0.26864E+07        -0.50360E+07         0.00000E+00
    0.00000E+00         0.00000E+00        -0.10219E+07
 
    0.32246E+05        -0.25907E+07         0.00000E+00
   -0.25907E+07        -0.51165E+07         0.00000E+00
    0.00000E+00         0.00000E+00        -0.10169E+07
 
    0.13365E+06        -0.24886E+07         0.00000E+00
   -0.24886E+07        -0.51911E+07         0.00000E+00
    0.00000E+00         0.00000E+00        -0.10115E+07
 
    0.23103E+06        -0.23809E+07         0.00000E+00
   -0.23809E+07        -0.52606E+07         0.00000E+00
    0.00000E+00         0.00000E+00        -0.10059E+07
 
    0.32466E+06        -0.22678E+07         0.00000E+00
   -0.22678E+07        -0.53260E+07         0.00000E+00
    0.00000E+00         0.00000E+00        -0.10003E+07
 
    0.41488E+06        -0.21495E+07         0.00000E+00
   -0.21495E+07        -0.53880E+07         0.00000E+00
    0.00000E+00         0.00000E+00        -0.99463E+06
 
    0.50200E+06        -0.20261E+07         0.00000E+00
   -0.20261E+07        -0.54475E+07         0.00000E+00
    0.00000E+00         0.00000E+00        -0.98910E+06
 
    0.58630E+06        -0.18972E+07         0.00000E+00
   -0.18972E+07        -0.55050E+07         0.00000E+00
    0.00000E+00         0.00000E+00        -0.98374E+06
 
    0.66799E+06        -0.17625E+07         0.00000E+00
   -0.17625E+07        -0.55612E+07         0.00000E+00
    0.00000E+00         0.00000E+00        -0.97864E+06
 
    0.74720E+06        -0.16213E+07         0.00000E+00
   -0.16213E+07        -0.56166E+07         0.00000E+00
    0.00000E+00         0.00000E+00        -0.97388E+06
 
    0.82394E+06        -0.14728E+07         0.00000E+00
   -0.14728E+07        -0.56717E+07         0.00000E+00
    0.00000E+00         0.00000E+00        -0.96955E+06
 
    0.89806E+06        -0.13160E+07         0.00000E+00
   -0.13160E+07        -0.57269E+07         0.00000E+00
    0.00000E+00         0.00000E+00        -0.96577E+06
 
    0.96923E+06        -0.11498E+07         0.00000E+00
   -0.11498E+07        -0.57825E+07         0.00000E+00
    0.00000E+00         0.00000E+00        -0.96265E+06
 
    0.10369E+07        -0.97260E+06         0.00000E+00
   -0.97260E+06        -0.58386E+07         0.00000E+00
    0.00000E+00         0.00000E+00        -0.96034E+06
 
    0.11001E+07        -0.78289E+06         0.00000E+00
   -0.78289E+06        -0.58954E+07         0.00000E+00
    0.00000E+00         0.00000E+00        -0.95905E+06
 
    0.11578E+07        -0.57880E+06         0.00000E+00
   -0.57880E+06        -0.59527E+07         0.00000E+00
    0.00000E+00         0.00000E+00        -0.95899E+06
 
    0.12081E+07        -0.35824E+06         0.00000E+00
   -0.35824E+06        -0.60102E+07         0.00000E+00
    0.00000E+00         0.00000E+00        -0.96043E+06
 
    0.12489E+07        -0.11894E+06         0.00000E+00
   -0.11894E+06        -0.60675E+07         0.00000E+00
    0.00000E+00         0.00000E+00        -0.96372E+06
 
    0.12773E+07         0.14162E+06         0.00000E+00
    0.14162E+06        -0.61235E+07         0.00000E+00
    0.00000E+00         0.00000E+00        -0.96924E+06
 
    0.12896E+07         0.42607E+06         0.00000E+00
    0.42607E+06        -0.61770E+07         0.00000E+00
    0.00000E+00         0.00000E+00        -0.97748E+06
 
    0.12812E+07         0.73715E+06         0.00000E+00
    0.73715E+06        -0.62261E+07         0.00000E+00
    0.00000E+00         0.00000E+00        -0.98897E+06
 
    0.12463E+07         0.10775E+07         0.00000E+00
    0.10775E+07        -0.62682E+07         0.00000E+00
    0.00000E+00         0.00000E+00        -0.10044E+07
 
    0.11780E+07         0.14497E+07         0.00000E+00
    0.14497E+07        -0.62999E+07         0.00000E+00
    0.00000E+00         0.00000E+00        -0.10244E+07
 
    0.10679E+07         0.18557E+07         0.00000E+00
    0.18557E+07        -0.63167E+07         0.00000E+00
    0.00000E+00         0.00000E+00        -0.10498E+07
 
    0.90650E+06         0.22966E+07         0.00000E+00
    0.22966E+07        -0.63130E+07         0.00000E+00
    0.00000E+00         0.00000E+00        -0.10813E+07
 
    0.68304E+06         0.27722E+07         0.00000E+00
    0.27722E+07        -0.62817E+07         0.00000E+00
    0.00000E+00         0.00000E+00        -0.11197E+07
 
    0.38633E+06         0.32808E+07         0.00000E+00
    0.32808E+07        -0.62144E+07         0.00000E+00
    0.00000E+00         0.00000E+00        -0.11656E+07
 
    0.50374E+04         0.38188E+07         0.00000E+00
    0.38188E+07        -0.61023E+07         0.00000E+00
    0.00000E+00         0.00000E+00        -0.12194E+07
 
   -0.47301E+06         0.43822E+07         0.00000E+00
    0.43822E+07        -0.59370E+07         0.00000E+00
    0.00000E+00         0.00000E+00        -0.12820E+07
 
   -0.10679E+07         0.49712E+07         0.00000E+00
    0.49712E+07        -0.57158E+07         0.00000E+00
    0.00000E+00         0.00000E+00        -0.13567E+07
 
   -0.46737E+07        -0.43312E+06         0.00000E+00
   -0.43312E+06        -0.46342E+07         0.00000E+00
    0.00000E+00         0.00000E+00        -0.18616E+07
 
   -0.53201E+07        -0.11607E+07         0.00000E+00
   -0.11607E+07        -0.47674E+07         0.00000E+00
    0.00000E+00         0.00000E+00        -0.20175E+07
 
   -0.57226E+07        -0.18232E+07         0.00000E+00
   -0.18232E+07        -0.50217E+07         0.00000E+00
    0.00000E+00         0.00000E+00        -0.21488E+07
 
   -0.59110E+07        -0.23767E+07         0.00000E+00
   -0.23767E+07        -0.53284E+07         0.00000E+00
    0.00000E+00         0.00000E+00        -0.22479E+07
 
   -0.59406E+07        -0.28123E+07         0.00000E+00
   -0.28123E+07        -0.56470E+07         0.00000E+00
    0.00000E+00         0.00000E+00        -0.23175E+07
 
   -0.58627E+07        -0.31379E+07         0.00000E+00
   -0.31379E+07        -0.59535E+07         0.00000E+00
    0.00000E+00         0.00000E+00        -0.23632E+07
 
   -0.57173E+07        -0.33674E+07         0.00000E+00
   -0.33674E+07        -0.62350E+07         0.00000E+00
    0.00000E+00         0.00000E+00        -0.23904E+07
 
   -0.55333E+07        -0.35166E+07         0.00000E+00
   -0.35166E+07        -0.64851E+07         0.00000E+00
    0.00000E+00         0.00000E+00        -0.24037E+07
 
   -0.53309E+07        -0.36004E+07         0.00000E+00
   -0.36004E+07        -0.67019E+07         0.00000E+00
    0.00000E+00         0.00000E+00        -0.24066E+07
 
   -0.51234E+07        -0.36320E+07         0.00000E+00
   -0.36320E+07        -0.68859E+07         0.00000E+00
    0.00000E+00         0.00000E+00        -0.24019E+07
 
   -0.49194E+07        -0.36225E+07         0.00000E+00
   -0.36225E+07        -0.70392E+07         0.00000E+00
    0.00000E+00         0.00000E+00        -0.23917E+07
 
   -0.47243E+07        -0.35813E+07         0.00000E+00
   -0.35813E+07        -0.71644E+07         0.00000E+00
    0.00000E+00         0.00000E+00        -0.23777E+07
 
   -0.45409E+07        -0.35159E+07         0.00000E+00
   -0.35159E+07        -0.72649E+07         0.00000E+00
    0.00000E+00         0.00000E+00        -0.23611E+07
 
   -0.43706E+07        -0.34323E+07         0.00000E+00
   -0.34323E+07        -0.73437E+07         0.00000E+00
    0.00000E+00         0.00000E+00        -0.23429E+07
 
   -0.42138E+07        -0.33353E+07         0.00000E+00
   -0.33353E+07        -0.74039E+07         0.00000E+00
    0.00000E+00         0.00000E+00        -0.23236E+07
 
   -0.40702E+07        -0.32287E+07         0.00000E+00
   -0.32287E+07        -0.74485E+07         0.00000E+00
    0.00000E+00         0.00000E+00        -0.23038E+07
 
   -0.39389E+07        -0.31154E+07         0.00000E+00
   -0.31154E+07        -0.74801E+07         0.00000E+00
    0.00000E+00         0.00000E+00        -0.22838E+07
 
   -0.38189E+07        -0.29978E+07         0.00000E+00
   -0.29978E+07        -0.75010E+07         0.00000E+00
    0.00000E+00         0.00000E+00        -0.22640E+07
 
   -0.37090E+07        -0.28774E+07         0.00000E+00
   -0.28774E+07        -0.75132E+07         0.00000E+00
    0.00000E+00         0.00000E+00        -0.22445E+07
 
   -0.36080E+07        -0.27555E+07         0.00000E+00
   -0.27555E+07        -0.75188E+07         0.00000E+00
    0.00000E+00         0.00000E+00        -0.22254E+07
 
   -0.35144E+07        -0.26331E+07         0.00000E+00
   -0.26331E+07        -0.75193E+07         0.00000E+00
    0.00000E+00         0.00000E+00        -0.22067E+07
 
   -0.34271E+07        -0.25106E+07         0.00000E+00
   -0.25106E+07        -0.75161E+07         0.00000E+00
    0.00000E+00         0.00000E+00        -0.21886E+07
 
   -0.33447E+07        -0.23883E+07         0.00000E+00
   -0.23883E+07        -0.75105E+07         0.00000E+00
    0.00000E+00         0.00000E+00        -0.21711E+07
 
   -0.32662E+07        -0.22664E+07         0.00000E+00
   -0.22664E+07        -0.75038E+07         0.00000E+00
    0.00000E+00         0.00000E+00        -0.21540E+07
 
   -0.31902E+07        -0.21447E+07         0.00000E+00
   -0.21447E+07        -0.74968E+07         0.00000E+00
    0.00000E+00         0.00000E+00        -0.21374E+07
 
   -0.31158E+07        -0.20229E+07         0.00000E+00
   -0.20229E+07        -0.74906E+07         0.00000E+00
    0.00000E+00         0.00000E+00        -0.21213E+07
 
   -0.30417E+07        -0.19007E+07         0.00000E+00
   -0.19007E+07        -0.74859E+07         0.00000E+00
    0.00000E+00         0.00000E+00        -0.21055E+07
 
   -0.29672E+07        -0.17773E+07         0.00000E+00
   -0.17773E+07        -0.74835E+07         0.00000E+00
    0.00000E+00         0.00000E+00        -0.20901E+07
 
   -0.28910E+07        -0.16521E+07         0.00000E+00
   -0.16521E+07        -0.74843E+07         0.00000E+00
    0.00000E+00         0.00000E+00        -0.20751E+07
 
   -0.28124E+07        -0.15241E+07         0.00000E+00
   -0.15241E+07        -0.74888E+07         0.00000E+00
    0.00000E+00         0.00000E+00        -0.20602E+07
 
   -0.27305E+07        -0.13922E+07         0.00000E+00
   -0.13922E+07        -0.74978E+07         0.00000E+00
    0.00000E+00         0.00000E+00        -0.20457E+07
 
   -0.26444E+07        -0.12550E+07         0.00000E+00
   -0.12550E+07        -0.75120E+07         0.00000E+00
    0.00000E+00         0.00000E+00        -0.20313E+07
 
   -0.25535E+07        -0.11110E+07         0.00000E+00
   -0.11110E+07        -0.75320E+07         0.00000E+00
    0.00000E+00         0.00000E+00        -0.20171E+07
 
   -0.24571E+07        -0.95829E+06         0.00000E+00
   -0.95829E+06        -0.75584E+07         0.00000E+00
    0.00000E+00         0.00000E+00        -0.20031E+07
 
   -0.23547E+07        -0.79471E+06         0.00000E+00
   -0.79471E+06        -0.75921E+07         0.00000E+00
    0.00000E+00         0.00000E+00        -0.19894E+07
 
   -0.22460E+07        -0.61772E+06         0.00000E+00
   -0.61772E+06        -0.76335E+07         0.00000E+00
    0.00000E+00         0.00000E+00        -0.19759E+07
 
   -0.21310E+07        -0.42432E+06         0.00000E+00
   -0.42432E+06        -0.76832E+07         0.00000E+00
    0.00000E+00         0.00000E+00        -0.19628E+07
 
   -0.20098E+07        -0.21096E+06         0.00000E+00
   -0.21096E+06        -0.77419E+07         0.00000E+00
    0.00000E+00         0.00000E+00        -0.19503E+07
 
   -0.18834E+07         0.26510E+05         0.00000E+00
    0.26510E+05        -0.78097E+07         0.00000E+00
    0.00000E+00         0.00000E+00        -0.19386E+07
 
   -0.17531E+07         0.29297E+06         0.00000E+00
    0.29297E+06        -0.78869E+07         0.00000E+00
    0.00000E+00         0.00000E+00        -0.19280E+07
 
   -0.16214E+07         0.59414E+06         0.00000E+00
    0.59414E+06        -0.79733E+07         0.00000E+00
    0.00000E+00         0.00000E+00        -0.19189E+07
 
   -0.14920E+07         0.93667E+06         0.00000E+00
    0.93667E+06        -0.80679E+07         0.00000E+00
    0.00000E+00         0.00000E+00        -0.19120E+07
 
   -0.13704E+07         0.13283E+07         0.00000E+00
    0.13283E+07        -0.81693E+07         0.00000E+00
    0.00000E+00         0.00000E+00        -0.19079E+07
 
   -0.12650E+07         0.17775E+07         0.00000E+00
    0.17775E+07        -0.82745E+07         0.00000E+00
    0.00000E+00         0.00000E+00        -0.19079E+07
 
   -0.11871E+07         0.22940E+07         0.00000E+00
    0.22940E+07        -0.83789E+07         0.00000E+00
    0.00000E+00         0.00000E+00        -0.19132E+07
 
   -0.11526E+07         0.28875E+07         0.00000E+00
    0.28875E+07        -0.84753E+07         0.00000E+00
    0.00000E+00         0.00000E+00        -0.19256E+07
 
   -0.11825E+07         0.35667E+07         0.00000E+00
    0.35667E+07        -0.85523E+07         0.00000E+00
    0.00000E+00         0.00000E+00        -0.19470E+07
 
   -0.13019E+07         0.43369E+07         0.00000E+00
    0.43369E+07        -0.85931E+07         0.00000E+00
    0.00000E+00         0.00000E+00        -0.19790E+07
 
   -0.15350E+07         0.51947E+07         0.00000E+00
    0.51947E+07        -0.85719E+07         0.00000E+00
    0.00000E+00         0.00000E+00        -0.20214E+07
 
   -0.18859E+07         0.61190E+07         0.00000E+00
    0.61190E+07        -0.84493E+07         0.00000E+00
    0.00000E+00         0.00000E+00        -0.20670E+07
 
   -0.16730E+08        -0.93172E+06         0.00000E+00
   -0.93172E+06        -0.11528E+08         0.00000E+00
    0.00000E+00         0.00000E+00        -0.56516E+07
 
   -0.16435E+08        -0.21260E+07         0.00000E+00
   -0.21260E+07        -0.11893E+08         0.00000E+00
    0.00000E+00         0.00000E+00        -0.56657E+07
 
   -0.15825E+08        -0.28845E+07         0.00000E+00
   -0.28845E+07        -0.12172E+08         0.00000E+00
    0.00000E+00         0.00000E+00        -0.55994E+07
 
   -0.15126E+08        -0.33382E+07         0.00000E+00
   -0.33382E+07        -0.12366E+08         0.00000E+00
    0.00000E+00         0.00000E+00        -0.54984E+07
 
   -0.14439E+08        -0.35823E+07         0.00000E+00
   -0.35823E+07        -0.12484E+08         0.00000E+00
    0.00000E+00         0.00000E+00        -0.53846E+07
 
   -0.13806E+08        -0.36838E+07         0.00000E+00
   -0.36838E+07        -0.12538E+08         0.00000E+00
    0.00000E+00         0.00000E+00        -0.52688E+07
 
   -0.13244E+08        -0.36895E+07         0.00000E+00
   -0.36895E+07        -0.12537E+08         0.00000E+00
    0.00000E+00         0.00000E+00        -0.51562E+07
 
   -0.12752E+08        -0.36318E+07         0.00000E+00
   -0.36318E+07        -0.12494E+08         0.00000E+00
    0.00000E+00         0.00000E+00        -0.50493E+07
 
   -0.12328E+08        -0.35331E+07         0.00000E+00
   -0.35331E+07        -0.12418E+08         0.00000E+00
    0.00000E+00         0.00000E+00        -0.49491E+07
 
   -0.11964E+08        -0.34090E+07         0.00000E+00
   -0.34090E+07        -0.12316E+08         0.00000E+00
    0.00000E+00         0.00000E+00        -0.48560E+07
 
   -0.11653E+08        -0.32700E+07         0.00000E+00
   -0.32700E+07        -0.12196E+08         0.00000E+00
    0.00000E+00         0.00000E+00        -0.47697E+07
 
   -0.11387E+08        -0.31235E+07         0.00000E+00
   -0.31235E+07        -0.12063E+08         0.00000E+00
    0.00000E+00         0.00000E+00        -0.46900E+07
 
   -0.11161E+08        -0.29745E+07         0.00000E+00
   -0.29745E+07        -0.11921E+08         0.00000E+00
    0.00000E+00         0.00000E+00        -0.46164E+07
 
   -0.10968E+08        -0.28262E+07         0.00000E+00
   -0.28262E+07        -0.11774E+08         0.00000E+00
    0.00000E+00         0.00000E+00        -0.45484E+07
 
   -0.10803E+08        -0.26808E+07         0.00000E+00
   -0.26808E+07        -0.11624E+08         0.00000E+00
    0.00000E+00         0.00000E+00        -0.44855E+07
 
   -0.10662E+08        -0.25398E+07         0.00000E+00
   -0.25398E+07        -0.11474E+08         0.00000E+00
    0.00000E+00         0.00000E+00        -0.44272E+07
 
   -0.10539E+08        -0.24039E+07         0.00000E+00
   -0.24039E+07        -0.11326E+08         0.00000E+00
    0.00000E+00         0.00000E+00        -0.43731E+07
 
   -0.10433E+08        -0.22735E+07         0.00000E+00
   -0.22735E+07        -0.11181E+08         0.00000E+00
    0.00000E+00         0.00000E+00        -0.43228E+07
 
   -0.10339E+08        -0.21487E+07         0.00000E+00
   -0.21487E+07        -0.11041E+08         0.00000E+00
    0.00000E+00         0.00000E+00        -0.42758E+07
 
   -0.10255E+08        -0.20295E+07         0.00000E+00
   -0.20295E+07        -0.10905E+08         0.00000E+00
    0.00000E+00         0.00000E+00        -0.42319E+07
 
   -0.10178E+08        -0.19155E+07         0.00000E+00
   -0.19155E+07        -0.10774E+08         0.00000E+00
    0.00000E+00         0.00000E+00        -0.41905E+07
 
   -0.10107E+08        -0.18066E+07         0.00000E+00
   -0.18066E+07        -0.10650E+08         0.00000E+00
    0.00000E+00         0.00000E+00        -0.41515E+07
 
   -0.10040E+08        -0.17023E+07         0.00000E+00
   -0.17023E+07        -0.10532E+08         0.00000E+00
    0.00000E+00         0.00000E+00        -0.41144E+07
 
   -0.99741E+07        -0.16020E+07         0.00000E+00
   -0.16020E+07        -0.10421E+08         0.00000E+00
    0.00000E+00         0.00000E+00        -0.40791E+07
 
   -0.99085E+07        -0.15054E+07         0.00000E+00
   -0.15054E+07        -0.10318E+08         0.00000E+00
    0.00000E+00         0.00000E+00        -0.40452E+07
 
   -0.98414E+07        -0.14117E+07         0.00000E+00
   -0.14117E+07        -0.10221E+08         0.00000E+00
    0.00000E+00         0.00000E+00        -0.40125E+07
 
   -0.97713E+07        -0.13203E+07         0.00000E+00
   -0.13203E+07        -0.10132E+08         0.00000E+00
    0.00000E+00         0.00000E+00        -0.39807E+07
 
   -0.96967E+07        -0.12306E+07         0.00000E+00
   -0.12306E+07        -0.10051E+08         0.00000E+00
    0.00000E+00         0.00000E+00        -0.39496E+07
 
   -0.96161E+07        -0.11417E+07         0.00000E+00
   -0.11417E+07        -0.99787E+07         0.00000E+00
    0.00000E+00         0.00000E+00        -0.39189E+07
 
   -0.95278E+07        -0.10528E+07         0.00000E+00
   -0.10528E+07        -0.99145E+07         0.00000E+00
    0.00000E+00         0.00000E+00        -0.38885E+07
 
   -0.94304E+07        -0.96294E+06         0.00000E+00
   -0.96294E+06        -0.98594E+07         0.00000E+00
    0.00000E+00         0.00000E+00        -0.38580E+07
 
   -0.93221E+07        -0.87094E+06         0.00000E+00
   -0.87094E+06        -0.98138E+07         0.00000E+00
    0.00000E+00         0.00000E+00        -0.38272E+07
 
   -0.92010E+07        -0.77554E+06         0.00000E+00
   -0.77554E+06        -0.97784E+07         0.00000E+00
    0.00000E+00         0.00000E+00        -0.37959E+07
 
   -0.90651E+07        -0.67521E+06         0.00000E+00
   -0.67521E+06        -0.97539E+07         0.00000E+00
    0.00000E+00         0.00000E+00        -0.37638E+07
 
   -0.89123E+07        -0.56817E+06         0.00000E+00
   -0.56817E+06        -0.97411E+07         0.00000E+00
    0.00000E+00         0.00000E+00        -0.37307E+07
 
   -0.87401E+07        -0.45225E+06         0.00000E+00
   -0.45225E+06        -0.97411E+07         0.00000E+00
    0.00000E+00         0.00000E+00        -0.36962E+07
 
   -0.85458E+07        -0.32487E+06         0.00000E+00
   -0.32487E+06        -0.97551E+07         0.00000E+00
    0.00000E+00         0.00000E+00        -0.36602E+07
 
   -0.83264E+07        -0.18282E+06         0.00000E+00
   -0.18282E+06        -0.97847E+07         0.00000E+00
    0.00000E+00         0.00000E+00        -0.36222E+07
 
   -0.80786E+07        -0.22190E+05         0.00000E+00
   -0.22190E+05        -0.98313E+07         0.00000E+00
    0.00000E+00         0.00000E+00        -0.35820E+07
 
   -0.77989E+07         0.16195E+06         0.00000E+00
    0.16195E+06        -0.98970E+07         0.00000E+00
    0.00000E+00         0.00000E+00        -0.35392E+07
 
   -0.74833E+07         0.37580E+06         0.00000E+00
    0.37580E+06        -0.99840E+07         0.00000E+00
    0.00000E+00         0.00000E+00        -0.34935E+07
 
   -0.71279E+07         0.62725E+06         0.00000E+00
    0.62725E+06        -0.10095E+08         0.00000E+00
    0.00000E+00         0.00000E+00        -0.34445E+07
 
   -0.67289E+07         0.92645E+06         0.00000E+00
    0.92645E+06        -0.10232E+08         0.00000E+00
    0.00000E+00         0.00000E+00        -0.33922E+07
 
   -0.62829E+07         0.12866E+07         0.00000E+00
    0.12866E+07        -0.10398E+08         0.00000E+00
    0.00000E+00         0.00000E+00        -0.33363E+07
 
   -0.57886E+07         0.17250E+07         0.00000E+00
    0.17250E+07        -0.10597E+08         0.00000E+00
    0.00000E+00         0.00000E+00        -0.32771E+07
 
   -0.52482E+07         0.22645E+07         0.00000E+00
    0.22645E+07        -0.10830E+08         0.00000E+00
    0.00000E+00         0.00000E+00        -0.32157E+07
 
   -0.46715E+07         0.29357E+07         0.00000E+00
    0.29357E+07        -0.11099E+08         0.00000E+00
    0.00000E+00         0.00000E+00        -0.31542E+07
 
   -0.40846E+07         0.37793E+07         0.00000E+00
    0.37793E+07        -0.11404E+08         0.00000E+00
    0.00000E+00         0.00000E+00        -0.30977E+07
 
   -0.35459E+07         0.48493E+07         0.00000E+00
    0.48493E+07        -0.11739E+08         0.00000E+00
    0.00000E+00         0.00000E+00        -0.30570E+07
 
   -0.31835E+07         0.62154E+07         0.00000E+00
    0.62154E+07        -0.12093E+08         0.00000E+00
    0.00000E+00         0.00000E+00        -0.30553E+07
 
   -0.35001E+08        -0.17016E+07         0.00000E+00
   -0.17016E+07        -0.23431E+08         0.00000E+00
    0.00000E+00         0.00000E+00        -0.11686E+08
 
   -0.31746E+08        -0.20590E+07         0.00000E+00
   -0.20590E+07        -0.22898E+08         0.00000E+00
    0.00000E+00         0.00000E+00        -0.10929E+08
 
   -0.29351E+08        -0.21593E+07         0.00000E+00
   -0.21593E+07        -0.22286E+08         0.00000E+00
    0.00000E+00         0.00000E+00        -0.10327E+08
 
   -0.27542E+08        -0.21331E+07         0.00000E+00
   -0.21331E+07        -0.21644E+08         0.00000E+00
    0.00000E+00         0.00000E+00        -0.98373E+07
 
   -0.26149E+08        -0.20460E+07         0.00000E+00
   -0.20460E+07        -0.21001E+08         0.00000E+00
    0.00000E+00         0.00000E+00        -0.94301E+07
 
   -0.25059E+08        -0.19322E+07         0.00000E+00
   -0.19322E+07        -0.20374E+08         0.00000E+00
    0.00000E+00         0.00000E+00        -0.90865E+07
 
   -0.24194E+08        -0.18092E+07         0.00000E+00
   -0.18092E+07        -0.19771E+08         0.00000E+00
    0.00000E+00         0.00000E+00        -0.87930E+07
 
   -0.23500E+08        -0.16862E+07         0.00000E+00
   -0.16862E+07        -0.19199E+08         0.00000E+00
    0.00000E+00         0.00000E+00        -0.85397E+07
 
   -0.22937E+08        -0.15680E+07         0.00000E+00
   -0.15680E+07        -0.18658E+08         0.00000E+00
    0.00000E+00         0.00000E+00        -0.83191E+07
 
   -0.22477E+08        -0.14567E+07         0.00000E+00
   -0.14567E+07        -0.18150E+08         0.00000E+00
    0.00000E+00         0.00000E+00        -0.81255E+07
 
   -0.22098E+08        -0.13531E+07         0.00000E+00
   -0.13531E+07        -0.17674E+08         0.00000E+00
    0.00000E+00         0.00000E+00        -0.79544E+07
 
   -0.21783E+08        -0.12573E+07         0.00000E+00
   -0.12573E+07        -0.17228E+08         0.00000E+00
    0.00000E+00         0.00000E+00        -0.78022E+07
 
   -0.21518E+08        -0.11690E+07         0.00000E+00
   -0.11690E+07        -0.16811E+08         0.00000E+00
    0.00000E+00         0.00000E+00        -0.76659E+07
 
   -0.21294E+08        -0.10878E+07         0.00000E+00
   -0.10878E+07        -0.16422E+08         0.00000E+00
    0.00000E+00         0.00000E+00        -0.75432E+07
 
   -0.21103E+08        -0.10131E+07         0.00000E+00
   -0.10131E+07        -0.16058E+08         0.00000E+00
    0.00000E+00         0.00000E+00        -0.74321E+07
 
   -0.20937E+08        -0.94429E+06         0.00000E+00
   -0.94429E+06        -0.15718E+08         0.00000E+00
    0.00000E+00         0.00000E+00        -0.73310E+07
 
   -0.20793E+08        -0.88090E+06         0.00000E+00
   -0.88090E+06        -0.15400E+08         0.00000E+00
    0.00000E+00         0.00000E+00        -0.72386E+07
 
   -0.20664E+08        -0.82236E+06         0.00000E+00
   -0.82236E+06        -0.15103E+08         0.00000E+00
    0.00000E+00         0.00000E+00        -0.71535E+07
 
   -0.20549E+08        -0.76818E+06         0.00000E+00
   -0.76818E+06        -0.14826E+08         0.00000E+00
    0.00000E+00         0.00000E+00        -0.70749E+07
 
   -0.20442E+08        -0.71791E+06         0.00000E+00
   -0.71791E+06        -0.14567E+08         0.00000E+00
    0.00000E+00         0.00000E+00        -0.70019E+07
 
   -0.20343E+08        -0.67113E+06         0.00000E+00
   -0.67113E+06        -0.14325E+08         0.00000E+00
    0.00000E+00         0.00000E+00        -0.69336E+07
 
   -0.20248E+08        -0.62743E+06         0.00000E+00
   -0.62743E+06        -0.14099E+08         0.00000E+00
    0.00000E+00         0.00000E+00        -0.68695E+07
 
   -0.20155E+08        -0.58647E+06         0.00000E+00
   -0.58647E+06        -0.13889E+08         0.00000E+00
    0.00000E+00         0.00000E+00        -0.68088E+07
 
   -0.20063E+08        -0.54788E+06         0.00000E+00
   -0.54788E+06        -0.13692E+08         0.00000E+00
    0.00000E+00         0.00000E+00        -0.67511E+07
 
   -0.19970E+08        -0.51134E+06         0.00000E+00
   -0.51134E+06        -0.13510E+08         0.00000E+00
    0.00000E+00         0.00000E+00        -0.66959E+07
 
   -0.19873E+08        -0.47653E+06         0.00000E+00
   -0.47653E+06        -0.13340E+08         0.00000E+00
    0.00000E+00         0.00000E+00        -0.66427E+07
 
   -0.19772E+08        -0.44312E+06         0.00000E+00
   -0.44312E+06        -0.13183E+08         0.00000E+00
    0.00000E+00         0.00000E+00        -0.65910E+07
 
   -0.19664E+08        -0.41080E+06         0.00000E+00
   -0.41080E+06        -0.13038E+08         0.00000E+00
    0.00000E+00         0.00000E+00        -0.65404E+07
 
   -0.19548E+08        -0.37924E+06         0.00000E+00
   -0.37924E+06        -0.12905E+08         0.00000E+00
    0.00000E+00         0.00000E+00        -0.64906E+07
 
   -0.19422E+08        -0.34808E+06         0.00000E+00
   -0.34808E+06        -0.12784E+08         0.00000E+00
    0.00000E+00         0.00000E+00        -0.64411E+07
 
   -0.19283E+08        -0.31694E+06         0.00000E+00
   -0.31694E+06        -0.12674E+08         0.00000E+00
    0.00000E+00         0.00000E+00        -0.63915E+07
 
   -0.19130E+08        -0.28541E+06         0.00000E+00
   -0.28541E+06        -0.12577E+08         0.00000E+00
    0.00000E+00         0.00000E+00        -0.63414E+07
 
   -0.18960E+08        -0.25300E+06         0.00000E+00
   -0.25300E+06        -0.12491E+08         0.00000E+00
    0.00000E+00         0.00000E+00        -0.62902E+07
 
   -0.18769E+08        -0.21915E+06         0.00000E+00
   -0.21915E+06        -0.12419E+08         0.00000E+00
    0.00000E+00         0.00000E+00        -0.62377E+07
 
   -0.18556E+08        -0.18321E+06         0.00000E+00
   -0.18321E+06        -0.12360E+08         0.00000E+00
    0.00000E+00         0.00000E+00        -0.61831E+07
 
   -0.18315E+08        -0.14439E+06         0.00000E+00
   -0.14439E+06        -0.12315E+08         0.00000E+00
    0.00000E+00         0.00000E+00        -0.61259E+07
 
   -0.18042E+08        -0.10171E+06         0.00000E+00
   -0.10171E+06        -0.12286E+08         0.00000E+00
    0.00000E+00         0.00000E+00        -0.60656E+07
 
   -0.17731E+08        -0.53941E+05         0.00000E+00
   -0.53941E+05        -0.12275E+08         0.00000E+00
    0.00000E+00         0.00000E+00        -0.60011E+07
 
   -0.17376E+08         0.46550E+03         0.00000E+00
    0.46550E+03        -0.12283E+08         0.00000E+00
    0.00000E+00         0.00000E+00        -0.59318E+07
 
   -0.16969E+08         0.63518E+05         0.00000E+00
    0.63518E+05        -0.12313E+08         0.00000E+00
    0.00000E+00         0.00000E+00        -0.58566E+07
 
   -0.16500E+08         0.13786E+06         0.00000E+00
    0.13786E+06        -0.12370E+08         0.00000E+00
    0.00000E+00         0.00000E+00        -0.57741E+07
 
   -0.15956E+08         0.22702E+06         0.00000E+00
    0.22702E+06        -0.12458E+08         0.00000E+00
    0.00000E+00         0.00000E+00        -0.56828E+07
 
   -0.15322E+08         0.33584E+06         0.00000E+00
    0.33584E+06        -0.12582E+08         0.00000E+00
    0.00000E+00         0.00000E+00        -0.55809E+07
 
   -0.14578E+08         0.47104E+06         0.00000E+00
    0.47104E+06        -0.12751E+08         0.00000E+00
    0.00000E+00         0.00000E+00        -0.54659E+07
 
   -0.13698E+08         0.64224E+06         0.00000E+00
    0.64224E+06        -0.12975E+08         0.00000E+00
    0.00000E+00         0.00000E+00        -0.53346E+07
 
   -0.12647E+08         0.86359E+06         0.00000E+00
    0.86359E+06        -0.13268E+08         0.00000E+00
    0.00000E+00         0.00000E+00        -0.51830E+07
 
   -0.11378E+08         0.11566E+07         0.00000E+00
    0.11566E+07        -0.13648E+08         0.00000E+00
    0.00000E+00         0.00000E+00        -0.50052E+07
 
   -0.98242E+07         0.15551E+07         0.00000E+00
    0.15551E+07        -0.14142E+08         0.00000E+00
    0.00000E+00         0.00000E+00        -0.47932E+07
 
   -0.78881E+07         0.21154E+07         0.00000E+00
    0.21154E+07        -0.14784E+08         0.00000E+00
    0.00000E+00         0.00000E+00        -0.45344E+07
 
   -0.54176E+07         0.29358E+07         0.00000E+00
    0.29358E+07        -0.15625E+08         0.00000E+00
    0.00000E+00         0.00000E+00        -0.42084E+07
 
TENSORS stresstot double 
   -0.44177E+08        -0.79000E+06         0.00000E+00
   -0.79000E+06        -0.49660E+08         0.00000E+00
    0.00000E+00         0.00000E+00        -0.54877E+08
 
   -0.45142E+08        -0.10586E+07         0.00000E+00
   -0.10586E+07        -0.49992E+08         0.00000E+00
    0.00000E+00         0.00000E+00        -0.56160E+08
 
   -0.45999E+08        -0.12272E+07         0.00000E+00
   -0.12272E+07        -0.50362E+08         0.00000E+00
    0.00000E+00         0.00000E+00        -0.57303E+08
 
   -0.46781E+08        -0.13334E+07         0.00000E+00
   -0.13334E+07        -0.50771E+08         0.00000E+00
    0.00000E+00         0.00000E+00        -0.58260E+08
 
   -0.47619E+08        -0.13859E+07         0.00000E+00
   -0.13859E+07        -0.51233E+08         0.00000E+00
    0.00000E+00         0.00000E+00        -0.58938E+08
 
   -0.48440E+08        -0.13624E+07         0.00000E+00
   -0.13624E+07        -0.51697E+08         0.00000E+00
    0.00000E+00         0.00000E+00        -0.59342E+08
 
   -0.49164E+08        -0.12887E+07         0.00000E+00
   -0.12887E+07        -0.52146E+08         0.00000E+00
    0.00000E+00         0.00000E+00        -0.59598E+08
 
   -0.49736E+08        -0.12045E+07         0.00000E+00
   -0.12045E+07        -0.52578E+08         0.00000E+00
    0.00000E+00         0.00000E+00        -0.59819E+08
 
   -0.50197E+08        -0.11191E+07         0.00000E+00
   -0.11191E+07        -0.52989E+08         0.00000E+00
    0.00000E+00         0.00000E+00        -0.60014E+08
 
   -0.50574E+08        -0.10371E+07         0.00000E+00
   -0.10371E+07        -0.53378E+08         0.00000E+00
    0.00000E+00         0.00000E+00        -0.60188E+08
 
   -0.50886E+08        -0.96018E+06         0.00000E+00
   -0.96018E+06        -0.53745E+08         0.00000E+00
    0.00000E+00         0.00000E+00        -0.60343E+08
 
   -0.51148E+08        -0.88908E+06         0.00000E+00
   -0.88908E+06        -0.54089E+08         0.00000E+00
    0.00000E+00         0.00000E+00        -0.60484E+08
 
   -0.51369E+08        -0.82378E+06         0.00000E+00
   -0.82378E+06        -0.54411E+08         0.00000E+00
    0.00000E+00         0.00000E+00        -0.60611E+08
 
   -0.51559E+08        -0.76398E+06         0.00000E+00
   -0.76398E+06        -0.54714E+08         0.00000E+00
    0.00000E+00         0.00000E+00        -0.60728E+08
 
   -0.51724E+08        -0.70927E+06         0.00000E+00
   -0.70927E+06        -0.54996E+08         0.00000E+00
    0.00000E+00         0.00000E+00        -0.60835E+08
 
   -0.51869E+08        -0.65920E+06         0.00000E+00
   -0.65920E+06        -0.55261E+08         0.00000E+00
    0.00000E+00         0.00000E+00        -0.60934E+08
 
   -0.51998E+08        -0.61330E+06         0.00000E+00
   -0.61330E+06        -0.55509E+08         0.00000E+00
    0.00000E+00         0.00000E+00        -0.61026E+08
 
   -0.52114E+08        -0.57113E+06         0.00000E+00
   -0.57113E+06        -0.55742E+08         0.00000E+00
    0.00000E+00         0.00000E+00        -0.61111E+08
 
   -0.52219E+08        -0.53231E+06         0.00000E+00
   -0.53231E+06        -0.55960E+08         0.00000E+00
    0.00000E+00         0.00000E+00        -0.61192E+08
 
   -0.52317E+08        -0.49646E+06         0.00000E+00
   -0.49646E+06        -0.56164E+08         0.00000E+00
    0.00000E+00         0.00000E+00        -0.61267E+08
 
   -0.52410E+08        -0.46324E+06         0.00000E+00
   -0.46324E+06        -0.56355E+08         0.00000E+00
    0.00000E+00         0.00000E+00        -0.61338E+08
 
   -0.52498E+08        -0.43235E+06         0.00000E+00
   -0.43235E+06        -0.56534E+08         0.00000E+00
    0.00000E+00         0.00000E+00        -0.61406E+08
 
   -0.52584E+08        -0.40350E+06         0.00000E+00
   -0.40350E+06        -0.56702E+08         0.00000E+00
    0.00000E+00         0.00000E+00        -0.61471E+08
 
   -0.52668E+08        -0.37643E+06         0.00000E+00
   -0.37643E+06        -0.56859E+08         0.00000E+00
    0.00000E+00         0.00000E+00        -0.61532E+08
 
   -0.52753E+08        -0.35089E+06         0.00000E+00
   -0.35089E+06        -0.57006E+08         0.00000E+00
    0.00000E+00         0.00000E+00        -0.61592E+08
 
   -0.52839E+08        -0.32665E+06         0.00000E+00
   -0.32665E+06        -0.57144E+08         0.00000E+00
    0.00000E+00         0.00000E+00        -0.61649E+08
 
   -0.52928E+08        -0.30347E+06         0.00000E+00
   -0.30347E+06        -0.57272E+08         0.00000E+00
    0.00000E+00         0.00000E+00        -0.61705E+08
 
   -0.53020E+08        -0.28112E+06         0.00000E+00
   -0.28112E+06        -0.57391E+08         0.00000E+00
    0.00000E+00         0.00000E+00        -0.61760E+08
 
   -0.53117E+08        -0.25937E+06         0.00000E+00
   -0.25937E+06        -0.57502E+08         0.00000E+00
    0.00000E+00         0.00000E+00        -0.61813E+08
 
   -0.53221E+08        -0.23797E+06         0.00000E+00
   -0.23797E+06        -0.57605E+08         0.00000E+00
    0.00000E+00         0.00000E+00        -0.61866E+08
 
   -0.53332E+08        -0.21666E+06         0.00000E+00
   -0.21666E+06        -0.57698E+08         0.00000E+00
    0.00000E+00         0.00000E+00        -0.61918E+08
 
   -0.53453E+08        -0.19514E+06         0.00000E+00
   -0.19514E+06        -0.57784E+08         0.00000E+00
    0.00000E+00         0.00000E+00        -0.61971E+08
 
   -0.53585E+08        -0.17310E+06         0.00000E+00
   -0.17310E+06        -0.57861E+08         0.00000E+00
    0.00000E+00         0.00000E+00        -0.62023E+08
 
   -0.53729E+08        -0.15015E+06         0.00000E+00
   -0.15015E+06        -0.57928E+08         0.00000E+00
    0.00000E+00         0.00000E+00        -0.62077E+08
 
   -0.53889E+08        -0.12585E+06         0.00000E+00
   -0.12585E+06        -0.57987E+08         0.00000E+00
    0.00000E+00         0.00000E+00        -0.62131E+08
 
   -0.54067E+08        -0.99663E+05         0.00000E+00
   -0.99663E+05        -0.58035E+08         0.00000E+00
    0.00000E+00         0.00000E+00        -0.62187E+08
 
   -0.54266E+08        -0.70938E+05         0.00000E+00
   -0.70938E+05        -0.58073E+08         0.00000E+00
    0.00000E+00         0.00000E+00        -0.62244E+08
 
   -0.54489E+08        -0.38854E+05         0.00000E+00
   -0.38854E+05        -0.58098E+08         0.00000E+00
    0.00000E+00         0.00000E+00        -0.62304E+08
 
   -0.54742E+08        -0.23727E+04         0.00000E+00
   -0.23727E+04        -0.58110E+08         0.00000E+00
    0.00000E+00         0.00000E+00        -0.62367E+08
 
   -0.55029E+08         0.39849E+05         0.00000E+00
    0.39849E+05        -0.58106E+08         0.00000E+00
    0.00000E+00         0.00000E+00        -0.62433E+08
 
   -0.55356E+08         0.89576E+05         0.00000E+00
    0.89576E+05        -0.58085E+08         0.00000E+00
    0.00000E+00         0.00000E+00        -0.62503E+08
 
   -0.55733E+08         0.14917E+06         0.00000E+00
    0.14917E+06        -0.58042E+08         0.00000E+00
    0.00000E+00         0.00000E+00        -0.62579E+08
 
   -0.56169E+08         0.22186E+06         0.00000E+00
    0.22186E+06        -0.57974E+08         0.00000E+00
    0.00000E+00         0.00000E+00        -0.62661E+08
 
   -0.56678E+08         0.31213E+06         0.00000E+00
    0.31213E+06        -0.57875E+08         0.00000E+00
    0.00000E+00         0.00000E+00        -0.62751E+08
 
   -0.57277E+08         0.42641E+06         0.00000E+00
    0.42641E+06        -0.57739E+08         0.00000E+00
    0.00000E+00         0.00000E+00        -0.62850E+08
 
   -0.57987E+08         0.57414E+06         0.00000E+00
    0.57414E+06        -0.57555E+08         0.00000E+00
    0.00000E+00         0.00000E+00        -0.62962E+08
 
   -0.58842E+08         0.76968E+06         0.00000E+00
    0.76968E+06        -0.57311E+08         0.00000E+00
    0.00000E+00         0.00000E+00        -0.63089E+08
 
   -0.59884E+08         0.10357E+07         0.00000E+00
    0.10357E+07        -0.56989E+08         0.00000E+00
    0.00000E+00         0.00000E+00        -0.63238E+08
 
   -0.61179E+08         0.14097E+07         0.00000E+00
    0.14097E+07        -0.56566E+08         0.00000E+00
    0.00000E+00         0.00000E+00        -0.63415E+08
 
   -0.62828E+08         0.19575E+07         0.00000E+00
    0.19575E+07        -0.56008E+08         0.00000E+00
    0.00000E+00         0.00000E+00        -0.63635E+08
 
   -0.47490E+08        -0.40909E+06         0.00000E+00
   -0.40909E+06        -0.50284E+08         0.00000E+00
    0.00000E+00         0.00000E+00        -0.54195E+08
 
   -0.47423E+08        -0.11219E+07         0.00000E+00
   -0.11219E+07        -0.50053E+08         0.00000E+00
    0.00000E+00         0.00000E+00        -0.54149E+08
 
   -0.47603E+08        -0.16320E+07         0.00000E+00
   -0.16320E+07        -0.49913E+08         0.00000E+00
    0.00000E+00         0.00000E+00        -0.54182E+08
 
   -0.47909E+08        -0.19970E+07         0.00000E+00
   -0.19970E+07        -0.49829E+08         0.00000E+00
    0.00000E+00         0.00000E+00        -0.54259E+08
 
   -0.48279E+08        -0.22463E+07         0.00000E+00
   -0.22463E+07        -0.49757E+08         0.00000E+00
    0.00000E+00         0.00000E+00        -0.54356E+08
 
   -0.48690E+08        -0.23919E+07         0.00000E+00
   -0.23919E+07        -0.49736E+08         0.00000E+00
    0.00000E+00         0.00000E+00        -0.54474E+08
 
   -0.49107E+08        -0.24500E+07         0.00000E+00
   -0.24500E+07        -0.49769E+08         0.00000E+00
    0.00000E+00         0.00000E+00        -0.54605E+08
 
   -0.49502E+08        -0.24454E+07         0.00000E+00
   -0.24454E+07        -0.49838E+08         0.00000E+00
    0.00000E+00         0.00000E+00        -0.54739E+08
 
   -0.49863E+08        -0.23997E+07         0.00000E+00
   -0.23997E+07        -0.49935E+08         0.00000E+00
    0.00000E+00         0.00000E+00        -0.54872E+08
 
   -0.50187E+08        -0.23279E+07         0.00000E+00
   -0.23279E+07        -0.50054E+08         0.00000E+00
    0.00000E+00         0.00000E+00        -0.55002E+08
 
   -0.50476E+08        -0.22404E+07         0.00000E+00
   -0.22404E+07        -0.50189E+08         0.00000E+00
    0.00000E+00         0.00000E+00        -0.55127E+08
 
   -0.50732E+08        -0.21441E+07         0.00000E+00
   -0.21441E+07        -0.50334E+08         0.00000E+00
    0.00000E+00         0.00000E+00        -0.55247E+08
 
   -0.50960E+08        -0.20438E+07         0.00000E+00
   -0.20438E+07        -0.50487E+08         0.00000E+00
    0.00000E+00         0.00000E+00        -0.55363E+08
 
   -0.51163E+08        -0.19425E+07         0.00000E+00
   -0.19425E+07        -0.50644E+08         0.00000E+00
    0.00000E+00         0.00000E+00        -0.55473E+08
 
   -0.51344E+08        -0.18424E+07         0.00000E+00
   -0.18424E+07        -0.50803E+08         0.00000E+00
    0.00000E+00         0.00000E+00        -0.55578E+08
 
   -0.51506E+08        -0.17448E+07         0.00000E+00
   -0.17448E+07        -0.50961E+08         0.00000E+00
    0.00000E+00         0.00000E+00        -0.55678E+08
 
   -0.51654E+08        -0.16505E+07         0.00000E+00
   -0.16505E+07        -0.51118E+08         0.00000E+00
    0.00000E+00         0.00000E+00        -0.55775E+08
 
   -0.51788E+08        -0.15599E+07         0.00000E+00
   -0.15599E+07        -0.51271E+08         0.00000E+00
    0.00000E+00         0.00000E+00        -0.55867E+08
 
   -0.51912E+08        -0.14732E+07         0.00000E+00
   -0.14732E+07        -0.51422E+08         0.00000E+00
    0.00000E+00         0.00000E+00        -0.55956E+08
 
   -0.52026E+08        -0.13903E+07         0.00000E+00
   -0.13903E+07        -0.51567E+08         0.00000E+00
    0.00000E+00         0.00000E+00        -0.56041E+08
 
   -0.52134E+08        -0.13113E+07         0.00000E+00
   -0.13113E+07        -0.51709E+08         0.00000E+00
    0.00000E+00         0.00000E+00        -0.56123E+08
 
   -0.52237E+08        -0.12357E+07         0.00000E+00
   -0.12357E+07        -0.51845E+08         0.00000E+00
    0.00000E+00         0.00000E+00        -0.56202E+08
 
   -0.52335E+08        -0.11635E+07         0.00000E+00
   -0.11635E+07        -0.51975E+08         0.00000E+00
    0.00000E+00         0.00000E+00        -0.56279E+08
 
   -0.52431E+08        -0.10942E+07         0.00000E+00
   -0.10942E+07        -0.52100E+08         0.00000E+00
    0.00000E+00         0.00000E+00        -0.56353E+08
 
   -0.52525E+08        -0.10275E+07         0.00000E+00
   -0.10275E+07        -0.52219E+08         0.00000E+00
    0.00000E+00         0.00000E+00        -0.56426E+08
 
   -0.52619E+08        -0.96296E+06         0.00000E+00
   -0.96296E+06        -0.52332E+08         0.00000E+00
    0.00000E+00         0.00000E+00        -0.56496E+08
 
   -0.52714E+08        -0.90018E+06         0.00000E+00
   -0.90018E+06        -0.52439E+08         0.00000E+00
    0.00000E+00         0.00000E+00        -0.56564E+08
 
   -0.52810E+08        -0.83865E+06         0.00000E+00
   -0.83865E+06        -0.52540E+08         0.00000E+00
    0.00000E+00         0.00000E+00        -0.56632E+08
 
   -0.52910E+08        -0.77785E+06         0.00000E+00
   -0.77785E+06        -0.52635E+08         0.00000E+00
    0.00000E+00         0.00000E+00        -0.56698E+08
 
   -0.53014E+08        -0.71718E+06         0.00000E+00
   -0.71718E+06        -0.52723E+08         0.00000E+00
    0.00000E+00         0.00000E+00        -0.56762E+08
 
   -0.53122E+08        -0.65598E+06         0.00000E+00
   -0.65598E+06        -0.52803E+08         0.00000E+00
    0.00000E+00         0.00000E+00        -0.56826E+08
 
   -0.53237E+08        -0.59349E+06         0.00000E+00
   -0.59349E+06        -0.52877E+08         0.00000E+00
    0.00000E+00         0.00000E+00        -0.56890E+08
 
   -0.53360E+08        -0.52883E+06         0.00000E+00
   -0.52883E+06        -0.52943E+08         0.00000E+00
    0.00000E+00         0.00000E+00        -0.56953E+08
 
   -0.53492E+08        -0.46100E+06         0.00000E+00
   -0.46100E+06        -0.53002E+08         0.00000E+00
    0.00000E+00         0.00000E+00        -0.57016E+08
 
   -0.53635E+08        -0.38877E+06         0.00000E+00
   -0.38877E+06        -0.53051E+08         0.00000E+00
    0.00000E+00         0.00000E+00        -0.57078E+08
 
   -0.53789E+08        -0.31071E+06         0.00000E+00
   -0.31071E+06        -0.53092E+08         0.00000E+00
    0.00000E+00         0.00000E+00        -0.57141E+08
 
   -0.53958E+08        -0.22509E+06         0.00000E+00
   -0.22509E+06        -0.53122E+08         0.00000E+00
    0.00000E+00         0.00000E+00        -0.57205E+08
 
   -0.54142E+08        -0.12977E+06         0.00000E+00
   -0.12977E+06        -0.53142E+08         0.00000E+00
    0.00000E+00         0.00000E+00        -0.57268E+08
 
   -0.54345E+08        -0.22110E+05         0.00000E+00
   -0.22110E+05        -0.53149E+08         0.00000E+00
    0.00000E+00         0.00000E+00        -0.57333E+08
 
   -0.54568E+08         0.10116E+06         0.00000E+00
    0.10116E+06        -0.53142E+08         0.00000E+00
    0.00000E+00         0.00000E+00        -0.57399E+08
 
   -0.54814E+08         0.24418E+06         0.00000E+00
    0.24418E+06        -0.53121E+08         0.00000E+00
    0.00000E+00         0.00000E+00        -0.57465E+08
 
   -0.55086E+08         0.41222E+06         0.00000E+00
    0.41222E+06        -0.53083E+08         0.00000E+00
    0.00000E+00         0.00000E+00        -0.57533E+08
 
   -0.55385E+08         0.61207E+06         0.00000E+00
    0.61207E+06        -0.53025E+08         0.00000E+00
    0.00000E+00         0.00000E+00        -0.57601E+08
 
   -0.55713E+08         0.85253E+06         0.00000E+00
    0.85253E+06        -0.52947E+08         0.00000E+00
    0.00000E+00         0.00000E+00        -0.57670E+08
 
   -0.56072E+08         0.11451E+07         0.00000E+00
    0.11451E+07        -0.52845E+08         0.00000E+00
    0.00000E+00         0.00000E+00        -0.57740E+08
 
   -0.56459E+08         0.15052E+07         0.00000E+00
    0.15052E+07        -0.52717E+08         0.00000E+00
    0.00000E+00         0.00000E+00        -0.57808E+08
 
   -0.56866E+08         0.19531E+07         0.00000E+00
    0.19531E+07        -0.52562E+08         0.00000E+00
    0.00000E+00         0.00000E+00        -0.57873E+08
 
   -0.57276E+08         0.25159E+07         0.00000E+00
    0.25159E+07        -0.52379E+08         0.00000E+00
    0.00000E+00         0.00000E+00        -0.57930E+08
 
   -0.57649E+08         0.32299E+07         0.00000E+00
    0.32299E+07        -0.52171E+08         0.00000E+00
    0.00000E+00         0.00000E+00        -0.57972E+08
 
   -0.57896E+08         0.41415E+07         0.00000E+00
    0.41415E+07        -0.51944E+08         0.00000E+00
    0.00000E+00         0.00000E+00        -0.57981E+08
 
   -0.50348E+08        -0.28087E+06         0.00000E+00
   -0.28087E+06        -0.49997E+08         0.00000E+00
    0.00000E+00         0.00000E+00        -0.51990E+08
 
   -0.49934E+08        -0.69687E+06         0.00000E+00
   -0.69687E+06        -0.49976E+08         0.00000E+00
    0.00000E+00         0.00000E+00        -0.51912E+08
 
   -0.49654E+08        -0.10937E+07         0.00000E+00
   -0.10937E+07        -0.49881E+08         0.00000E+00
    0.00000E+00         0.00000E+00        -0.51853E+08
 
   -0.49506E+08        -0.14406E+07         0.00000E+00
   -0.14406E+07        -0.49751E+08         0.00000E+00
    0.00000E+00         0.00000E+00        -0.51817E+08
 
   -0.49464E+08        -0.17295E+07         0.00000E+00
   -0.17295E+07        -0.49614E+08         0.00000E+00
    0.00000E+00         0.00000E+00        -0.51805E+08
 
   -0.49502E+08        -0.19616E+07         0.00000E+00
   -0.19616E+07        -0.49473E+08         0.00000E+00
    0.00000E+00         0.00000E+00        -0.51810E+08
 
   -0.49599E+08        -0.21389E+07         0.00000E+00
   -0.21389E+07        -0.49336E+08         0.00000E+00
    0.00000E+00         0.00000E+00        -0.51829E+08
 
   -0.49738E+08        -0.22645E+07         0.00000E+00
   -0.22645E+07        -0.49214E+08         0.00000E+00
    0.00000E+00         0.00000E+00        -0.51861E+08
 
   -0.49901E+08        -0.23445E+07         0.00000E+00
   -0.23445E+07        -0.49112E+08         0.00000E+00
    0.00000E+00         0.00000E+00        -0.51902E+08
 
   -0.50078E+08        -0.23861E+07         0.00000E+00
   -0.23861E+07        -0.49030E+08         0.00000E+00
    0.00000E+00         0.00000E+00        -0.51951E+08
 
   -0.50260E+08        -0.23965E+07         0.00000E+00
   -0.23965E+07        -0.48968E+08         0.00000E+00
    0.00000E+00         0.00000E+00        -0.52004E+08
 
   -0.50439E+08        -0.23822E+07         0.00000E+00
   -0.23822E+07        -0.48926E+08         0.00000E+00
    0.00000E+00         0.00000E+00        -0.52062E+08
 
   -0.50614E+08        -0.23486E+07         0.00000E+00
   -0.23486E+07        -0.48900E+08         0.00000E+00
    0.00000E+00         0.00000E+00        -0.52122E+08
 
   -0.50782E+08        -0.23004E+07         0.00000E+00
   -0.23004E+07        -0.48890E+08         0.00000E+00
    0.00000E+00         0.00000E+00        -0.52183E+08
 
   -0.50942E+08        -0.22411E+07         0.00000E+00
   -0.22411E+07        -0.48893E+08         0.00000E+00
    0.00000E+00         0.00000E+00        -0.52246E+08
 
   -0.51093E+08        -0.21738E+07         0.00000E+00
   -0.21738E+07        -0.48908E+08         0.00000E+00
    0.00000E+00         0.00000E+00        -0.52309E+08
 
   -0.51235E+08        -0.21008E+07         0.00000E+00
   -0.21008E+07        -0.48931E+08         0.00000E+00
    0.00000E+00         0.00000E+00        -0.52372E+08
 
   -0.51370E+08        -0.20238E+07         0.00000E+00
   -0.20238E+07        -0.48962E+08         0.00000E+00
    0.00000E+00         0.00000E+00        -0.52435E+08
 
   -0.51498E+08        -0.19442E+07         0.00000E+00
   -0.19442E+07        -0.49000E+08         0.00000E+00
    0.00000E+00         0.00000E+00        -0.52498E+08
 
   -0.51618E+08        -0.18631E+07         0.00000E+00
   -0.18631E+07        -0.49042E+08         0.00000E+00
    0.00000E+00         0.00000E+00        -0.52560E+08
 
   -0.51734E+08        -0.17812E+07         0.00000E+00
   -0.17812E+07        -0.49088E+08         0.00000E+00
    0.00000E+00         0.00000E+00        -0.52622E+08
 
   -0.51844E+08        -0.16989E+07         0.00000E+00
   -0.16989E+07        -0.49136E+08         0.00000E+00
    0.00000E+00         0.00000E+00        -0.52683E+08
 
   -0.51950E+08        -0.16165E+07         0.00000E+00
   -0.16165E+07        -0.49185E+08         0.00000E+00
    0.00000E+00         0.00000E+00        -0.52743E+08
 
   -0.52053E+08        -0.15343E+07         0.00000E+00
   -0.15343E+07        -0.49236E+08         0.00000E+00
    0.00000E+00         0.00000E+00        -0.52802E+08
 
   -0.52153E+08        -0.14521E+07         0.00000E+00
   -0.14521E+07        -0.49286E+08         0.00000E+00
    0.00000E+00         0.00000E+00        -0.52860E+08
 
   -0.52251E+08        -0.13698E+07         0.00000E+00
   -0.13698E+07        -0.49335E+08         0.00000E+00
    0.00000E+00         0.00000E+00        -0.52918E+08
 
   -0.52348E+08        -0.12872E+07         0.00000E+00
   -0.12872E+07        -0.49383E+08         0.00000E+00
    0.00000E+00         0.00000E+00        -0.52974E+08
 
   -0.52445E+08        -0.12038E+07         0.00000E+00
   -0.12038E+07        -0.49428E+08         0.00000E+00
    0.00000E+00         0.00000E+00        -0.53030E+08
 
   -0.52541E+08        -0.11192E+07         0.00000E+00
   -0.11192E+07        -0.49471E+08         0.00000E+00
    0.00000E+00         0.00000E+00        -0.53084E+08
 
   -0.52638E+08        -0.10328E+07         0.00000E+00
   -0.10328E+07        -0.49511E+08         0.00000E+00
    0.00000E+00         0.00000E+00        -0.53138E+08
 
   -0.52737E+08        -0.94377E+06         0.00000E+00
   -0.94377E+06        -0.49547E+08         0.00000E+00
    0.00000E+00         0.00000E+00        -0.53190E+08
 
   -0.52837E+08        -0.85131E+06         0.00000E+00
   -0.85131E+06        -0.49580E+08         0.00000E+00
    0.00000E+00         0.00000E+00        -0.53242E+08
 
   -0.52940E+08        -0.75434E+06         0.00000E+00
   -0.75434E+06        -0.49607E+08         0.00000E+00
    0.00000E+00         0.00000E+00        -0.53293E+08
 
   -0.53046E+08        -0.65164E+06         0.00000E+00
   -0.65164E+06        -0.49630E+08         0.00000E+00
    0.00000E+00         0.00000E+00        -0.53343E+08
 
   -0.53154E+08        -0.54176E+06         0.00000E+00
   -0.54176E+06        -0.49647E+08         0.00000E+00
    0.00000E+00         0.00000E+00        -0.53392E+08
 
   -0.53266E+08        -0.42299E+06         0.00000E+00
   -0.42299E+06        -0.49658E+08         0.00000E+00
    0.00000E+00         0.00000E+00        -0.53440E+08
 
   -0.53381E+08        -0.29333E+06         0.00000E+00
   -0.29333E+06        -0.49663E+08         0.00000E+00
    0.00000E+00         0.00000E+00        -0.53487E+08
 
   -0.53500E+08        -0.15043E+06         0.00000E+00
   -0.15043E+06        -0.49661E+08         0.00000E+00
    0.00000E+00         0.00000E+00        -0.53533E+08
 
   -0.53621E+08         0.84824E+04         0.00000E+00
    0.84824E+04        -0.49653E+08         0.00000E+00
    0.00000E+00         0.00000E+00        -0.53577E+08
 
   -0.53744E+08         0.18666E+06         0.00000E+00
    0.18666E+06        -0.49637E+08         0.00000E+00
    0.00000E+00         0.00000E+00        -0.53620E+08
 
   -0.53867E+08         0.38793E+06         0.00000E+00
    0.38793E+06        -0.49614E+08         0.00000E+00
    0.00000E+00         0.00000E+00        -0.53661E+08
 
   -0.53987E+08         0.61672E+06         0.00000E+00
    0.61672E+06        -0.49585E+08         0.00000E+00
    0.00000E+00         0.00000E+00        -0.53700E+08
 
   -0.54101E+08         0.87814E+06         0.00000E+00
    0.87814E+06        -0.49551E+08         0.00000E+00
    0.00000E+00         0.00000E+00        -0.53736E+08
 
   -0.54202E+08         0.11780E+07         0.00000E+00
    0.11780E+07        -0.49513E+08         0.00000E+00
    0.00000E+00         0.00000E+00        -0.53767E+08
 
   -0.54284E+08         0.15226E+07         0.00000E+00
    0.15226E+07        -0.49474E+08         0.00000E+00
    0.00000E+00         0.00000E+00        -0.53794E+08
 
   -0.54334E+08         0.19184E+07         0.00000E+00
    0.19184E+07        -0.49438E+08         0.00000E+00
    0.00000E+00         0.00000E+00        -0.53814E+08
 
   -0.54339E+08         0.23713E+07         0.00000E+00
    0.23713E+07        -0.49412E+08         0.00000E+00
    0.00000E+00         0.00000E+00        -0.53825E+08
 
   -0.54280E+08         0.28848E+07         0.00000E+00
    0.28848E+07        -0.49407E+08         0.00000E+00
    0.00000E+00         0.00000E+00        -0.53825E+08
 
   -0.54140E+08         0.34567E+07         0.00000E+00
    0.34567E+07        -0.49439E+08         0.00000E+00
    0.00000E+00         0.00000E+00        -0.53814E+08
 
   -0.53914E+08         0.40726E+07         0.00000E+00
    0.40726E+07        -0.49531E+08         0.00000E+00
    0.00000E+00         0.00000E+00        -0.53793E+08
 
   -0.52061E+08        -0.84716E+05         0.00000E+00
   -0.84716E+05        -0.50043E+08         0.00000E+00
    0.00000E+00         0.00000E+00        -0.51188E+08
 
   -0.51560E+08        -0.33975E+06         0.00000E+00
   -0.33975E+06        -0.49983E+08         0.00000E+00
    0.00000E+00         0.00000E+00        -0.51075E+08
 
   -0.51171E+08        -0.58890E+06         0.00000E+00
   -0.58890E+06        -0.49906E+08         0.00000E+00
    0.00000E+00         0.00000E+00        -0.50982E+08
 
   -0.50873E+08        -0.83060E+06         0.00000E+00
   -0.83060E+06        -0.49807E+08         0.00000E+00
    0.00000E+00         0.00000E+00        -0.50901E+08
 
   -0.50653E+08        -0.10577E+07         0.00000E+00
   -0.10577E+07        -0.49688E+08         0.00000E+00
    0.00000E+00         0.00000E+00        -0.50833E+08
 
   -0.50502E+08        -0.12639E+07         0.00000E+00
   -0.12639E+07        -0.49558E+08         0.00000E+00
    0.00000E+00         0.00000E+00        -0.50777E+08
 
   -0.50410E+08        -0.14459E+07         0.00000E+00
   -0.14459E+07        -0.49420E+08         0.00000E+00
    0.00000E+00         0.00000E+00        -0.50731E+08
 
   -0.50365E+08        -0.16020E+07         0.00000E+00
   -0.16020E+07        -0.49280E+08         0.00000E+00
    0.00000E+00         0.00000E+00        -0.50695E+08
 
   -0.50360E+08        -0.17315E+07         0.00000E+00
   -0.17315E+07        -0.49140E+08         0.00000E+00
    0.00000E+00         0.00000E+00        -0.50668E+08
 
   -0.50386E+08        -0.18348E+07         0.00000E+00
   -0.18348E+07        -0.49005E+08         0.00000E+00
    0.00000E+00         0.00000E+00        -0.50649E+08
 
   -0.50436E+08        -0.19131E+07         0.00000E+00
   -0.19131E+07        -0.48876E+08         0.00000E+00
    0.00000E+00         0.00000E+00        -0.50638E+08
 
   -0.50505E+08        -0.19684E+07         0.00000E+00
   -0.19684E+07        -0.48757E+08         0.00000E+00
    0.00000E+00         0.00000E+00        -0.50633E+08
 
   -0.50587E+08        -0.20031E+07         0.00000E+00
   -0.20031E+07        -0.48648E+08         0.00000E+00
    0.00000E+00         0.00000E+00        -0.50633E+08
 
   -0.50678E+08        -0.20195E+07         0.00000E+00
   -0.20195E+07        -0.48549E+08         0.00000E+00
    0.00000E+00         0.00000E+00        -0.50639E+08
 
   -0.50775E+08        -0.20200E+07         0.00000E+00
   -0.20200E+07        -0.48460E+08         0.00000E+00
    0.00000E+00         0.00000E+00        -0.50649E+08
 
   -0.50875E+08        -0.20068E+07         0.00000E+00
   -0.20068E+07        -0.48382E+08         0.00000E+00
    0.00000E+00         0.00000E+00        -0.50663E+08
 
   -0.50977E+08        -0.19819E+07         0.00000E+00
   -0.19819E+07        -0.48313E+08         0.00000E+00
    0.00000E+00         0.00000E+00        -0.50681E+08
 
   -0.51079E+08        -0.19469E+07         0.00000E+00
   -0.19469E+07        -0.48253E+08         0.00000E+00
    0.00000E+00         0.00000E+00        -0.50701E+08
 
   -0.51181E+08        -0.19035E+07         0.00000E+00
   -0.19035E+07        -0.48202E+08         0.00000E+00
    0.00000E+00         0.00000E+00        -0.50723E+08
 
   -0.51282E+08        -0.18530E+07         0.00000E+00
   -0.18530E+07        -0.48158E+08         0.00000E+00
    0.00000E+00         0.00000E+00        -0.50747E+08
 
   -0.51380E+08        -0.17962E+07         0.00000E+00
   -0.17962E+07        -0.48120E+08         0.00000E+00
    0.00000E+00         0.00000E+00        -0.50773E+08
 
   -0.51477E+08        -0.17342E+07         0.00000E+00
   -0.17342E+07        -0.48088E+08         0.00000E+00
    0.00000E+00         0.00000E+00        -0.50801E+08
 
   -0.51572E+08        -0.16675E+07         0.00000E+00
   -0.16675E+07        -0.48060E+08         0.00000E+00
    0.00000E+00         0.00000E+00        -0.50829E+08
 
   -0.51664E+08        -0.15967E+07         0.00000E+00
   -0.15967E+07        -0.48037E+08         0.00000E+00
    0.00000E+00         0.00000E+00        -0.50858E+08
 
   -0.51755E+08        -0.15220E+07         0.00000E+00
   -0.15220E+07        -0.48017E+08         0.00000E+00
    0.00000E+00         0.00000E+00        -0.50887E+08
 
   -0.51843E+08        -0.14437E+07         0.00000E+00
   -0.14437E+07        -0.47999E+08         0.00000E+00
    0.00000E+00         0.00000E+00        -0.50917E+08
 
   -0.51929E+08        -0.13616E+07         0.00000E+00
   -0.13616E+07        -0.47984E+08         0.00000E+00
    0.00000E+00         0.00000E+00        -0.50947E+08
 
   -0.52013E+08        -0.12758E+07         0.00000E+00
   -0.12758E+07        -0.47970E+08         0.00000E+00
    0.00000E+00         0.00000E+00        -0.50976E+08
 
   -0.52094E+08        -0.11860E+07         0.00000E+00
   -0.11860E+07        -0.47957E+08         0.00000E+00
    0.00000E+00         0.00000E+00        -0.51005E+08
 
   -0.52174E+08        -0.10917E+07         0.00000E+00
   -0.10917E+07        -0.47944E+08         0.00000E+00
    0.00000E+00         0.00000E+00        -0.51034E+08
 
   -0.52251E+08        -0.99247E+06         0.00000E+00
   -0.99247E+06        -0.47931E+08         0.00000E+00
    0.00000E+00         0.00000E+00        -0.51062E+08
 
   -0.52326E+08        -0.88767E+06         0.00000E+00
   -0.88767E+06        -0.47917E+08         0.00000E+00
    0.00000E+00         0.00000E+00        -0.51089E+08
 
   -0.52399E+08        -0.77650E+06         0.00000E+00
   -0.77650E+06        -0.47903E+08         0.00000E+00
    0.00000E+00         0.00000E+00        -0.51114E+08
 
   -0.52468E+08        -0.65804E+06         0.00000E+00
   -0.65804E+06        -0.47887E+08         0.00000E+00
    0.00000E+00         0.00000E+00        -0.51139E+08
 
   -0.52533E+08        -0.53122E+06         0.00000E+00
   -0.53122E+06        -0.47871E+08         0.00000E+00
    0.00000E+00         0.00000E+00        -0.51162E+08
 
   -0.52594E+08        -0.39480E+06         0.00000E+00
   -0.39480E+06        -0.47853E+08         0.00000E+00
    0.00000E+00         0.00000E+00        -0.51183E+08
 
   -0.52648E+08        -0.24742E+06         0.00000E+00
   -0.24742E+06        -0.47835E+08         0.00000E+00
    0.00000E+00         0.00000E+00        -0.51203E+08
 
   -0.52696E+08        -0.87552E+05         0.00000E+00
   -0.87552E+05        -0.47816E+08         0.00000E+00
    0.00000E+00         0.00000E+00        -0.51220E+08
 
   -0.52734E+08         0.86452E+05         0.00000E+00
    0.86452E+05        -0.47797E+08         0.00000E+00
    0.00000E+00         0.00000E+00        -0.51235E+08
 
   -0.52761E+08         0.27635E+06         0.00000E+00
    0.27635E+06        -0.47778E+08         0.00000E+00
    0.00000E+00         0.00000E+00        -0.51248E+08
 
   -0.52772E+08         0.48396E+06         0.00000E+00
    0.48396E+06        -0.47763E+08         0.00000E+00
    0.00000E+00         0.00000E+00        -0.51257E+08
 
   -0.52766E+08         0.71106E+06         0.00000E+00
    0.71106E+06        -0.47751E+08         0.00000E+00
    0.00000E+00         0.00000E+00        -0.51263E+08
 
   -0.52736E+08         0.95930E+06         0.00000E+00
    0.95930E+06        -0.47745E+08         0.00000E+00
    0.00000E+00         0.00000E+00        -0.51266E+08
 
   -0.52677E+08         0.12300E+07         0.00000E+00
    0.12300E+07        -0.47748E+08         0.00000E+00
    0.00000E+00         0.00000E+00        -0.51263E+08
 
   -0.52583E+08         0.15238E+07         0.00000E+00
    0.15238E+07        -0.47764E+08         0.00000E+00
    0.00000E+00         0.00000E+00        -0.51256E+08
 
   -0.52447E+08         0.18408E+07         0.00000E+00
    0.18408E+07        -0.47798E+08         0.00000E+00
    0.00000E+00         0.00000E+00        -0.51243E+08
 
   -0.52261E+08         0.21796E+07         0.00000E+00
    0.21796E+07        -0.47855E+08         0.00000E+00
    0.00000E+00         0.00000E+00        -0.51224E+08
 
   -0.52016E+08         0.25378E+07         0.00000E+00
    0.25378E+07        -0.47939E+08         0.00000E+00
    0.00000E+00         0.00000E+00        -0.51198E+08
 
   -0.51704E+08         0.29128E+07         0.00000E+00
    0.29128E+07        -0.48057E+08         0.00000E+00
    0.00000E+00         0.00000E+00        -0.51164E+08
 
   -0.51311E+08         0.33046E+07         0.00000E+00
    0.33046E+07        -0.48209E+08         0.00000E+00
    0.00000E+00         0.00000E+00        -0.51118E+08
 
   -0.52836E+08        -0.16086E+05         0.00000E+00
   -0.16086E+05        -0.50010E+08         0.00000E+00
    0.00000E+00         0.00000E+00        -0.51047E+08
 
   -0.52447E+08        -0.12283E+06         0.00000E+00
   -0.12283E+06        -0.49996E+08         0.00000E+00
    0.00000E+00         0.00000E+00        -0.50960E+08
 
   -0.52100E+08        -0.25332E+06         0.00000E+00
   -0.25332E+06        -0.49957E+08         0.00000E+00
    0.00000E+00         0.00000E+00        -0.50871E+08
 
   -0.51800E+08        -0.39541E+06         0.00000E+00
   -0.39541E+06        -0.49898E+08         0.00000E+00
    0.00000E+00         0.00000E+00        -0.50784E+08
 
   -0.51546E+08        -0.54191E+06         0.00000E+00
   -0.54191E+06        -0.49823E+08         0.00000E+00
    0.00000E+00         0.00000E+00        -0.50700E+08
 
   -0.51336E+08        -0.68745E+06         0.00000E+00
   -0.68745E+06        -0.49733E+08         0.00000E+00
    0.00000E+00         0.00000E+00        -0.50620E+08
 
   -0.51166E+08        -0.82746E+06         0.00000E+00
   -0.82746E+06        -0.49631E+08         0.00000E+00
    0.00000E+00         0.00000E+00        -0.50545E+08
 
   -0.51034E+08        -0.95852E+06         0.00000E+00
   -0.95852E+06        -0.49520E+08         0.00000E+00
    0.00000E+00         0.00000E+00        -0.50475E+08
 
   -0.50935E+08        -0.10782E+07         0.00000E+00
   -0.10782E+07        -0.49403E+08         0.00000E+00
    0.00000E+00         0.00000E+00        -0.50412E+08
 
   -0.50865E+08        -0.11850E+07         0.00000E+00
   -0.11850E+07        -0.49282E+08         0.00000E+00
    0.00000E+00         0.00000E+00        -0.50354E+08
 
   -0.50822E+08        -0.12778E+07         0.00000E+00
   -0.12778E+07        -0.49159E+08         0.00000E+00
    0.00000E+00         0.00000E+00        -0.50301E+08
 
   -0.50801E+08        -0.13562E+07         0.00000E+00
   -0.13562E+07        -0.49035E+08         0.00000E+00
    0.00000E+00         0.00000E+00        -0.50255E+08
 
   -0.50799E+08        -0.14201E+07         0.00000E+00
   -0.14201E+07        -0.48914E+08         0.00000E+00
    0.00000E+00         0.00000E+00        -0.50214E+08
 
   -0.50812E+08        -0.14700E+07         0.00000E+00
   -0.14700E+07        -0.48795E+08         0.00000E+00
    0.00000E+00         0.00000E+00        -0.50178E+08
 
   -0.50839E+08        -0.15063E+07         0.00000E+00
   -0.15063E+07        -0.48680E+08         0.00000E+00
    0.00000E+00         0.00000E+00        -0.50148E+08
 
   -0.50876E+08        -0.15299E+07         0.00000E+00
   -0.15299E+07        -0.48569E+08         0.00000E+00
    0.00000E+00         0.00000E+00        -0.50122E+08
 
   -0.50922E+08        -0.15415E+07         0.00000E+00
   -0.15415E+07        -0.48464E+08         0.00000E+00
    0.00000E+00         0.00000E+00        -0.50100E+08
 
   -0.50974E+08        -0.15420E+07         0.00000E+00
   -0.15420E+07        -0.48364E+08         0.00000E+00
    0.00000E+00         0.00000E+00        -0.50082E+08
 
   -0.51031E+08        -0.15324E+07         0.00000E+00
   -0.15324E+07        -0.48269E+08         0.00000E+00
    0.00000E+00         0.00000E+00        -0.50067E+08
 
   -0.51092E+08        -0.15134E+07         0.00000E+00
   -0.15134E+07        -0.48180E+08         0.00000E+00
    0.00000E+00         0.00000E+00        -0.50056E+08
 
   -0.51155E+08        -0.14857E+07         0.00000E+00
   -0.14857E+07        -0.48096E+08         0.00000E+00
    0.00000E+00         0.00000E+00        -0.50048E+08
 
   -0.51219E+08        -0.14501E+07         0.00000E+00
   -0.14501E+07        -0.48016E+08         0.00000E+00
    0.00000E+00         0.00000E+00        -0.50041E+08
 
   -0.51285E+08        -0.14070E+07         0.00000E+00
   -0.14070E+07        -0.47942E+08         0.00000E+00
    0.00000E+00         0.00000E+00        -0.50037E+08
 
   -0.51350E+08        -0.13571E+07         0.00000E+00
   -0.13571E+07        -0.47872E+08         0.00000E+00
    0.00000E+00         0.00000E+00        -0.50035E+08
 
   -0.51414E+08        -0.13006E+07         0.00000E+00
   -0.13006E+07        -0.47806E+08         0.00000E+00
    0.00000E+00         0.00000E+00        -0.50034E+08
 
   -0.51477E+08        -0.12378E+07         0.00000E+00
   -0.12378E+07        -0.47743E+08         0.00000E+00
    0.00000E+00         0.00000E+00        -0.50034E+08
 
   -0.51538E+08        -0.11689E+07         0.00000E+00
   -0.11689E+07        -0.47684E+08         0.00000E+00
    0.00000E+00         0.00000E+00        -0.50034E+08
 
   -0.51597E+08        -0.10940E+07         0.00000E+00
   -0.10940E+07        -0.47629E+08         0.00000E+00
    0.00000E+00         0.00000E+00        -0.50036E+08
 
   -0.51653E+08        -0.10131E+07         0.00000E+00
   -0.10131E+07        -0.47575E+08         0.00000E+00
    0.00000E+00         0.00000E+00        -0.50037E+08
 
   -0.51705E+08        -0.92613E+06         0.00000E+00
   -0.92613E+06        -0.47525E+08         0.00000E+00
    0.00000E+00         0.00000E+00        -0.50038E+08
 
   -0.51753E+08        -0.83285E+06         0.00000E+00
   -0.83285E+06        -0.47477E+08         0.00000E+00
    0.00000E+00         0.00000E+00        -0.50038E+08
 
   -0.51795E+08        -0.73304E+06         0.00000E+00
   -0.73304E+06        -0.47431E+08         0.00000E+00
    0.00000E+00         0.00000E+00        -0.50038E+08
 
   -0.51833E+08        -0.62637E+06         0.00000E+00
   -0.62637E+06        -0.47388E+08         0.00000E+00
    0.00000E+00         0.00000E+00        -0.50037E+08
 
   -0.51863E+08        -0.51246E+06         0.00000E+00
   -0.51246E+06        -0.47347E+08         0.00000E+00
    0.00000E+00         0.00000E+00        -0.50035E+08
 
   -0.51886E+08        -0.39089E+06         0.00000E+00
   -0.39089E+06        -0.47309E+08         0.00000E+00
    0.00000E+00         0.00000E+00        -0.50032E+08
 
   -0.51900E+08        -0.26118E+06         0.00000E+00
   -0.26118E+06        -0.47274E+08         0.00000E+00
    0.00000E+00         0.00000E+00        -0.50027E+08
 
   -0.51903E+08        -0.12288E+06         0.00000E+00
   -0.12288E+06        -0.47242E+08         0.00000E+00
    0.00000E+00         0.00000E+00        -0.50020E+08
 
   -0.51894E+08         0.24460E+05         0.00000E+00
    0.24460E+05        -0.47215E+08         0.00000E+00
    0.00000E+00         0.00000E+00        -0.50010E+08
 
   -0.51871E+08         0.18122E+06         0.00000E+00
    0.18122E+06        -0.47192E+08         0.00000E+00
    0.00000E+00         0.00000E+00        -0.49999E+08
 
   -0.51831E+08         0.34767E+06         0.00000E+00
    0.34767E+06        -0.47176E+08         0.00000E+00
    0.00000E+00         0.00000E+00        -0.49985E+08
 
   -0.51773E+08         0.52393E+06         0.00000E+00
    0.52393E+06        -0.47167E+08         0.00000E+00
    0.00000E+00         0.00000E+00        -0.49969E+08
 
   -0.51693E+08         0.70986E+06         0.00000E+00
    0.70986E+06        -0.47167E+08         0.00000E+00
    0.00000E+00         0.00000E+00        -0.49950E+08
 
   -0.51588E+08         0.90502E+06         0.00000E+00
    0.90502E+06        -0.47178E+08         0.00000E+00
    0.00000E+00         0.00000E+00        -0.49927E+08
 
   -0.51455E+08         0.11086E+07         0.00000E+00
    0.11086E+07        -0.47203E+08         0.00000E+00
    0.00000E+00         0.00000E+00        -0.49902E+08
 
   -0.51291E+08         0.13192E+07         0.00000E+00
    0.13192E+07        -0.47243E+08         0.00000E+00
    0.00000E+00         0.00000E+00        -0.49874E+08
 
   -0.51091E+08         0.15351E+07         0.00000E+00
    0.15351E+07        -0.47301E+08         0.00000E+00
    0.00000E+00         0.00000E+00        -0.49842E+08
 
   -0.50852E+08         0.17539E+07         0.00000E+00
    0.17539E+07        -0.47380E+08         0.00000E+00
    0.00000E+00         0.00000E+00        -0.49807E+08
 
   -0.50570E+08         0.19726E+07         0.00000E+00
    0.19726E+07        -0.47481E+08         0.00000E+00
    0.00000E+00         0.00000E+00        -0.49769E+08
 
   -0.50241E+08         0.21872E+07         0.00000E+00
    0.21872E+07        -0.47609E+08         0.00000E+00
    0.00000E+00         0.00000E+00        -0.49726E+08
 
   -0.49861E+08         0.23914E+07         0.00000E+00
    0.23914E+07        -0.47768E+08         0.00000E+00
    0.00000E+00         0.00000E+00        -0.49681E+08
 
   -0.53110E+08         0.84383E+04         0.00000E+00
    0.84383E+04        -0.50005E+08         0.00000E+00
    0.00000E+00         0.00000E+00        -0.51119E+08
 
   -0.52833E+08        -0.27518E+05         0.00000E+00
   -0.27518E+05        -0.49997E+08         0.00000E+00
    0.00000E+00         0.00000E+00        -0.51054E+08
 
   -0.52570E+08        -0.80336E+05         0.00000E+00
   -0.80336E+05        -0.49980E+08         0.00000E+00
    0.00000E+00         0.00000E+00        -0.50983E+08
 
   -0.52324E+08        -0.14729E+06         0.00000E+00
   -0.14729E+06        -0.49951E+08         0.00000E+00
    0.00000E+00         0.00000E+00        -0.50908E+08
 
   -0.52098E+08        -0.22445E+06         0.00000E+00
   -0.22445E+06        -0.49909E+08         0.00000E+00
    0.00000E+00         0.00000E+00        -0.50830E+08
 
   -0.51895E+08        -0.30809E+06         0.00000E+00
   -0.30809E+06        -0.49856E+08         0.00000E+00
    0.00000E+00         0.00000E+00        -0.50752E+08
 
   -0.51714E+08        -0.39499E+06         0.00000E+00
   -0.39499E+06        -0.49792E+08         0.00000E+00
    0.00000E+00         0.00000E+00        -0.50673E+08
 
   -0.51557E+08        -0.48232E+06         0.00000E+00
   -0.48232E+06        -0.49718E+08         0.00000E+00
    0.00000E+00         0.00000E+00        -0.50596E+08
 
   -0.51422E+08        -0.56765E+06         0.00000E+00
   -0.56765E+06        -0.49636E+08         0.00000E+00
    0.00000E+00         0.00000E+00        -0.50522E+08
 
   -0.51309E+08        -0.64900E+06         0.00000E+00
   -0.64900E+06        -0.49547E+08         0.00000E+00
    0.00000E+00         0.00000E+00        -0.50450E+08
 
   -0.51216E+08        -0.72478E+06         0.00000E+00
   -0.72478E+06        -0.49453E+08         0.00000E+00
    0.00000E+00         0.00000E+00        -0.50381E+08
 
   -0.51142E+08        -0.79376E+06         0.00000E+00
   -0.79376E+06        -0.49354E+08         0.00000E+00
    0.00000E+00         0.00000E+00        -0.50316E+08
 
   -0.51085E+08        -0.85504E+06         0.00000E+00
   -0.85504E+06        -0.49252E+08         0.00000E+00
    0.00000E+00         0.00000E+00        -0.50255E+08
 
   -0.51043E+08        -0.90797E+06         0.00000E+00
   -0.90797E+06        -0.49148E+08         0.00000E+00
    0.00000E+00         0.00000E+00        -0.50197E+08
 
   -0.51015E+08        -0.95216E+06         0.00000E+00
   -0.95216E+06        -0.49043E+08         0.00000E+00
    0.00000E+00         0.00000E+00        -0.50144E+08
 
   -0.51000E+08        -0.98741E+06         0.00000E+00
   -0.98741E+06        -0.48938E+08         0.00000E+00
    0.00000E+00         0.00000E+00        -0.50094E+08
 
   -0.50994E+08        -0.10137E+07         0.00000E+00
   -0.10137E+07        -0.48834E+08         0.00000E+00
    0.00000E+00         0.00000E+00        -0.50048E+08
 
   -0.50998E+08        -0.10310E+07         0.00000E+00
   -0.10310E+07        -0.48731E+08         0.00000E+00
    0.00000E+00         0.00000E+00        -0.50006E+08
 
   -0.51008E+08        -0.10397E+07         0.00000E+00
   -0.10397E+07        -0.48630E+08         0.00000E+00
    0.00000E+00         0.00000E+00        -0.49967E+08
 
   -0.51025E+08        -0.10398E+07         0.00000E+00
   -0.10398E+07        -0.48532E+08         0.00000E+00
    0.00000E+00         0.00000E+00        -0.49931E+08
 
   -0.51047E+08        -0.10317E+07         0.00000E+00
   -0.10317E+07        -0.48436E+08         0.00000E+00
    0.00000E+00         0.00000E+00        -0.49898E+08
 
   -0.51073E+08        -0.10157E+07         0.00000E+00
   -0.10157E+07        -0.48343E+08         0.00000E+00
    0.00000E+00         0.00000E+00        -0.49867E+08
 
   -0.51101E+08        -0.99196E+06         0.00000E+00
   -0.99196E+06        -0.48253E+08         0.00000E+00
    0.00000E+00         0.00000E+00        -0.49839E+08
 
   -0.51131E+08        -0.96088E+06         0.00000E+00
   -0.96088E+06        -0.48166E+08         0.00000E+00
    0.00000E+00         0.00000E+00        -0.49812E+08
 
   -0.51161E+08        -0.92267E+06         0.00000E+00
   -0.92267E+06        -0.48083E+08         0.00000E+00
    0.00000E+00         0.00000E+00        -0.49788E+08
 
   -0.51192E+08        -0.87756E+06         0.00000E+00
   -0.87756E+06        -0.48002E+08         0.00000E+00
    0.00000E+00         0.00000E+00        -0.49764E+08
 
   -0.51221E+08        -0.82576E+06         0.00000E+00
   -0.82576E+06        -0.47925E+08         0.00000E+00
    0.00000E+00         0.00000E+00        -0.49742E+08
 
   -0.51248E+08        -0.76742E+06         0.00000E+00
   -0.76742E+06        -0.47852E+08         0.00000E+00
    0.00000E+00         0.00000E+00        -0.49721E+08
 
   -0.51273E+08        -0.70271E+06         0.00000E+00
   -0.70271E+06        -0.47782E+08         0.00000E+00
    0.00000E+00         0.00000E+00        -0.49699E+08
 
   -0.51293E+08        -0.63171E+06         0.00000E+00
   -0.63171E+06        -0.47715E+08         0.00000E+00
    0.00000E+00         0.00000E+00        -0.49679E+08
 
   -0.51310E+08        -0.55454E+06         0.00000E+00
   -0.55454E+06        -0.47652E+08         0.00000E+00
    0.00000E+00         0.00000E+00        -0.49658E+08
 
   -0.51321E+08        -0.47127E+06         0.00000E+00
   -0.47127E+06        -0.47593E+08         0.00000E+00
    0.00000E+00         0.00000E+00        -0.49637E+08
 
   -0.51325E+08        -0.38196E+06         0.00000E+00
   -0.38196E+06        -0.47538E+08         0.00000E+00
    0.00000E+00         0.00000E+00        -0.49615E+08
 
   -0.51322E+08        -0.28671E+06         0.00000E+00
   -0.28671E+06        -0.47488E+08         0.00000E+00
    0.00000E+00         0.00000E+00        -0.49593E+08
 
   -0.51311E+08        -0.18561E+06         0.00000E+00
   -0.18561E+06        -0.47442E+08         0.00000E+00
    0.00000E+00         0.00000E+00        -0.49569E+08
 
   -0.51290E+08        -0.78807E+05         0.00000E+00
   -0.78807E+05        -0.47401E+08         0.00000E+00
    0.00000E+00         0.00000E+00        -0.49545E+08
 
   -0.51258E+08         0.33493E+05         0.00000E+00
    0.33493E+05        -0.47366E+08         0.00000E+00
    0.00000E+00         0.00000E+00        -0.49519E+08
 
   -0.51213E+08         0.15100E+06         0.00000E+00
    0.15100E+06        -0.47337E+08         0.00000E+00
    0.00000E+00         0.00000E+00        -0.49492E+08
 
   -0.51156E+08         0.27332E+06         0.00000E+00
    0.27332E+06        -0.47316E+08         0.00000E+00
    0.00000E+00         0.00000E+00        -0.49463E+08
 
   -0.51083E+08         0.39990E+06         0.00000E+00
    0.39990E+06        -0.47302E+08         0.00000E+00
    0.00000E+00         0.00000E+00        -0.49433E+08
 
   -0.50993E+08         0.53003E+06         0.00000E+00
    0.53003E+06        -0.47298E+08         0.00000E+00
    0.00000E+00         0.00000E+00        -0.49401E+08
 
   -0.50886E+08         0.66277E+06         0.00000E+00
    0.66277E+06        -0.47303E+08         0.00000E+00
    0.00000E+00         0.00000E+00        -0.49368E+08
 
   -0.50758E+08         0.79697E+06         0.00000E+00
    0.79697E+06        -0.47320E+08         0.00000E+00
    0.00000E+00         0.00000E+00        -0.49333E+08
 
   -0.50610E+08         0.93118E+06         0.00000E+00
    0.93118E+06        -0.47349E+08         0.00000E+00
    0.00000E+00         0.00000E+00        -0.49297E+08
 
   -0.50439E+08         0.10637E+07         0.00000E+00
    0.10637E+07        -0.47391E+08         0.00000E+00
    0.00000E+00         0.00000E+00        -0.49259E+08
 
   -0.50243E+08         0.11923E+07         0.00000E+00
    0.11923E+07        -0.47448E+08         0.00000E+00
    0.00000E+00         0.00000E+00        -0.49221E+08
 
   -0.50023E+08         0.13146E+07         0.00000E+00
    0.13146E+07        -0.47521E+08         0.00000E+00
    0.00000E+00         0.00000E+00        -0.49182E+08
 
   -0.49777E+08         0.14275E+07         0.00000E+00
    0.14275E+07        -0.47611E+08         0.00000E+00
    0.00000E+00         0.00000E+00        -0.49143E+08
 
   -0.49504E+08         0.15277E+07         0.00000E+00
    0.15277E+07        -0.47719E+08         0.00000E+00
    0.00000E+00         0.00000E+00        -0.49105E+08
 
   -0.49205E+08         0.16116E+07         0.00000E+00
    0.16116E+07        -0.47845E+08         0.00000E+00
    0.00000E+00         0.00000E+00        -0.49067E+08
 
   -0.53143E+08         0.15867E+05         0.00000E+00
    0.15867E+05        -0.50001E+08         0.00000E+00
    0.00000E+00         0.00000E+00        -0.51196E+08
 
   -0.52946E+08         0.17465E+05         0.00000E+00
    0.17465E+05        -0.49998E+08         0.00000E+00
    0.00000E+00         0.00000E+00        -0.51149E+08
 
   -0.52749E+08         0.69775E+04         0.00000E+00
    0.69775E+04        -0.49989E+08         0.00000E+00
    0.00000E+00         0.00000E+00        -0.51094E+08
 
   -0.52558E+08        -0.13918E+05         0.00000E+00
   -0.13918E+05        -0.49974E+08         0.00000E+00
    0.00000E+00         0.00000E+00        -0.51034E+08
 
   -0.52374E+08        -0.43720E+05         0.00000E+00
   -0.43720E+05        -0.49950E+08         0.00000E+00
    0.00000E+00         0.00000E+00        -0.50969E+08
 
   -0.52199E+08        -0.80766E+05         0.00000E+00
   -0.80766E+05        -0.49920E+08         0.00000E+00
    0.00000E+00         0.00000E+00        -0.50900E+08
 
   -0.52036E+08        -0.12330E+06         0.00000E+00
   -0.12330E+06        -0.49881E+08         0.00000E+00
    0.00000E+00         0.00000E+00        -0.50830E+08
 
   -0.51885E+08        -0.16961E+06         0.00000E+00
   -0.16961E+06        -0.49835E+08         0.00000E+00
    0.00000E+00         0.00000E+00        -0.50759E+08
 
   -0.51748E+08        -0.21806E+06         0.00000E+00
   -0.21806E+06        -0.49782E+08         0.00000E+00
    0.00000E+00         0.00000E+00        -0.50688E+08
 
   -0.51624E+08        -0.26716E+06         0.00000E+00
   -0.26716E+06        -0.49722E+08         0.00000E+00
    0.00000E+00         0.00000E+00        -0.50617E+08
 
   -0.51513E+08        -0.31554E+06         0.00000E+00
   -0.31554E+06        -0.49657E+08         0.00000E+00
    0.00000E+00         0.00000E+00        -0.50547E+08
 
   -0.51415E+08        -0.36203E+06         0.00000E+00
   -0.36203E+06        -0.49586E+08         0.00000E+00
    0.00000E+00         0.00000E+00        -0.50479E+08
 
   -0.51331E+08        -0.40558E+06         0.00000E+00
   -0.40558E+06        -0.49511E+08         0.00000E+00
    0.00000E+00         0.00000E+00        -0.50413E+08
 
   -0.51258E+08        -0.44535E+06         0.00000E+00
   -0.44535E+06        -0.49432E+08         0.00000E+00
    0.00000E+00         0.00000E+00        -0.50349E+08
 
   -0.51197E+08        -0.48062E+06         0.00000E+00
   -0.48062E+06        -0.49350E+08         0.00000E+00
    0.00000E+00         0.00000E+00        -0.50287E+08
 
   -0.51145E+08        -0.51083E+06         0.00000E+00
   -0.51083E+06        -0.49266E+08         0.00000E+00
    0.00000E+00         0.00000E+00        -0.50229E+08
 
   -0.51104E+08        -0.53552E+06         0.00000E+00
   -0.53552E+06        -0.49181E+08         0.00000E+00
    0.00000E+00         0.00000E+00        -0.50172E+08
 
   -0.51071E+08        -0.55439E+06         0.00000E+00
   -0.55439E+06        -0.49094E+08         0.00000E+00
    0.00000E+00         0.00000E+00        -0.50119E+08
 
   -0.51045E+08        -0.56720E+06         0.00000E+00
   -0.56720E+06        -0.49007E+08         0.00000E+00
    0.00000E+00         0.00000E+00        -0.50067E+08
 
   -0.51025E+08        -0.57380E+06         0.00000E+00
   -0.57380E+06        -0.48920E+08         0.00000E+00
    0.00000E+00         0.00000E+00        -0.50019E+08
 
   -0.51011E+08        -0.57414E+06         0.00000E+00
   -0.57414E+06        -0.48833E+08         0.00000E+00
    0.00000E+00         0.00000E+00        -0.49972E+08
 
   -0.51002E+08        -0.56819E+06         0.00000E+00
   -0.56819E+06        -0.48748E+08         0.00000E+00
    0.00000E+00         0.00000E+00        -0.49928E+08
 
   -0.50995E+08        -0.55600E+06         0.00000E+00
   -0.55600E+06        -0.48664E+08         0.00000E+00
    0.00000E+00         0.00000E+00        -0.49886E+08
 
   -0.50992E+08        -0.53763E+06         0.00000E+00
   -0.53763E+06        -0.48582E+08         0.00000E+00
    0.00000E+00         0.00000E+00        -0.49845E+08
 
   -0.50989E+08        -0.51318E+06         0.00000E+00
   -0.51318E+06        -0.48502E+08         0.00000E+00
    0.00000E+00         0.00000E+00        -0.49806E+08
 
   -0.50988E+08        -0.48280E+06         0.00000E+00
   -0.48280E+06        -0.48424E+08         0.00000E+00
    0.00000E+00         0.00000E+00        -0.49769E+08
 
   -0.50986E+08        -0.44661E+06         0.00000E+00
   -0.44661E+06        -0.48349E+08         0.00000E+00
    0.00000E+00         0.00000E+00        -0.49732E+08
 
   -0.50983E+08        -0.40481E+06         0.00000E+00
   -0.40481E+06        -0.48277E+08         0.00000E+00
    0.00000E+00         0.00000E+00        -0.49697E+08
 
   -0.50979E+08        -0.35756E+06         0.00000E+00
   -0.35756E+06        -0.48208E+08         0.00000E+00
    0.00000E+00         0.00000E+00        -0.49662E+08
 
   -0.50971E+08        -0.30508E+06         0.00000E+00
   -0.30508E+06        -0.48143E+08         0.00000E+00
    0.00000E+00         0.00000E+00        -0.49628E+08
 
   -0.50960E+08        -0.24759E+06         0.00000E+00
   -0.24759E+06        -0.48081E+08         0.00000E+00
    0.00000E+00         0.00000E+00        -0.49594E+08
 
   -0.50944E+08        -0.18535E+06         0.00000E+00
   -0.18535E+06        -0.48024E+08         0.00000E+00
    0.00000E+00         0.00000E+00        -0.49560E+08
 
   -0.50923E+08        -0.11865E+06         0.00000E+00
   -0.11865E+06        -0.47971E+08         0.00000E+00
    0.00000E+00         0.00000E+00        -0.49526E+08
 
   -0.50896E+08        -0.47819E+05         0.00000E+00
   -0.47819E+05        -0.47922E+08         0.00000E+00
    0.00000E+00         0.00000E+00        -0.49492E+08
 
   -0.50861E+08         0.26761E+05         0.00000E+00
    0.26761E+05        -0.47879E+08         0.00000E+00
    0.00000E+00         0.00000E+00        -0.49458E+08
 
   -0.50819E+08         0.10465E+06         0.00000E+00
    0.10465E+06        -0.47842E+08         0.00000E+00
    0.00000E+00         0.00000E+00        -0.49423E+08
 
   -0.50767E+08         0.18532E+06         0.00000E+00
    0.18532E+06        -0.47810E+08         0.00000E+00
    0.00000E+00         0.00000E+00        -0.49388E+08
 
   -0.50706E+08         0.26819E+06         0.00000E+00
    0.26819E+06        -0.47785E+08         0.00000E+00
    0.00000E+00         0.00000E+00        -0.49352E+08
 
   -0.50635E+08         0.35254E+06         0.00000E+00
    0.35254E+06        -0.47767E+08         0.00000E+00
    0.00000E+00         0.00000E+00        -0.49316E+08
 
   -0.50553E+08         0.43758E+06         0.00000E+00
    0.43758E+06        -0.47757E+08         0.00000E+00
    0.00000E+00         0.00000E+00        -0.49279E+08
 
   -0.50458E+08         0.52235E+06         0.00000E+00
    0.52235E+06        -0.47754E+08         0.00000E+00
    0.00000E+00         0.00000E+00        -0.49241E+08
 
   -0.50351E+08         0.60578E+06         0.00000E+00
    0.60578E+06        -0.47761E+08         0.00000E+00
    0.00000E+00         0.00000E+00        -0.49204E+08
 
   -0.50231E+08         0.68664E+06         0.00000E+00
    0.68664E+06        -0.47776E+08         0.00000E+00
    0.00000E+00         0.00000E+00        -0.49166E+08
 
   -0.50098E+08         0.76354E+06         0.00000E+00
    0.76354E+06        -0.47802E+08         0.00000E+00
    0.00000E+00         0.00000E+00        -0.49128E+08
 
   -0.49950E+08         0.83491E+06         0.00000E+00
    0.83491E+06        -0.47837E+08         0.00000E+00
    0.00000E+00         0.00000E+00        -0.49091E+08
 
   -0.49790E+08         0.89901E+06         0.00000E+00
    0.89901E+06        -0.47883E+08         0.00000E+00
    0.00000E+00         0.00000E+00        -0.49055E+08
 
   -0.49616E+08         0.95392E+06         0.00000E+00
    0.95392E+06        -0.47940E+08         0.00000E+00
    0.00000E+00         0.00000E+00        -0.49020E+08
 
   -0.49429E+08         0.99756E+06         0.00000E+00
    0.99756E+06        -0.48007E+08         0.00000E+00
    0.00000E+00         0.00000E+00        -0.48986E+08
 
   -0.49230E+08         0.10277E+07         0.00000E+00
    0.10277E+07        -0.48085E+08         0.00000E+00
    0.00000E+00         0.00000E+00        -0.48955E+08
 
   -0.49022E+08         0.10420E+07         0.00000E+00
    0.10420E+07        -0.48174E+08         0.00000E+00
    0.00000E+00         0.00000E+00        -0.48928E+08
 
   -0.53056E+08         0.20060E+05         0.00000E+00
    0.20060E+05        -0.50000E+08         0.00000E+00
    0.00000E+00         0.00000E+00        -0.51227E+08
 
   -0.52909E+08         0.41647E+05         0.00000E+00
    0.41647E+05        -0.49998E+08         0.00000E+00
    0.00000E+00         0.00000E+00        -0.51191E+08
 
   -0.52759E+08         0.55518E+05         0.00000E+00
    0.55518E+05        -0.49993E+08         0.00000E+00
    0.00000E+00         0.00000E+00        -0.51148E+08
 
   -0.52609E+08         0.62000E+05         0.00000E+00
    0.62000E+05        -0.49984E+08         0.00000E+00
    0.00000E+00         0.00000E+00        -0.51100E+08
 
   -0.52461E+08         0.61726E+05         0.00000E+00
    0.61726E+05        -0.49970E+08         0.00000E+00
    0.00000E+00         0.00000E+00        -0.51047E+08
 
   -0.52316E+08         0.55447E+05         0.00000E+00
    0.55447E+05        -0.49951E+08         0.00000E+00
    0.00000E+00         0.00000E+00        -0.50990E+08
 
   -0.52177E+08         0.44002E+05         0.00000E+00
    0.44002E+05        -0.49928E+08         0.00000E+00
    0.00000E+00         0.00000E+00        -0.50931E+08
 
   -0.52043E+08         0.28300E+05         0.00000E+00
    0.28300E+05        -0.49899E+08         0.00000E+00
    0.00000E+00         0.00000E+00        -0.50869E+08
 
   -0.51916E+08         0.92778E+04         0.00000E+00
    0.92778E+04        -0.49866E+08         0.00000E+00
    0.00000E+00         0.00000E+00        -0.50807E+08
 
   -0.51797E+08        -0.12126E+05         0.00000E+00
   -0.12126E+05        -0.49827E+08         0.00000E+00
    0.00000E+00         0.00000E+00        -0.50743E+08
 
   -0.51687E+08        -0.34998E+05         0.00000E+00
   -0.34998E+05        -0.49784E+08         0.00000E+00
    0.00000E+00         0.00000E+00        -0.50679E+08
 
   -0.51584E+08        -0.58470E+05         0.00000E+00
   -0.58470E+05        -0.49736E+08         0.00000E+00
    0.00000E+00         0.00000E+00        -0.50616E+08
 
   -0.51490E+08        -0.81732E+05         0.00000E+00
   -0.81732E+05        -0.49684E+08         0.00000E+00
    0.00000E+00         0.00000E+00        -0.50553E+08
 
   -0.51404E+08        -0.10404E+06         0.00000E+00
   -0.10404E+06        -0.49629E+08         0.00000E+00
    0.00000E+00         0.00000E+00        -0.50491E+08
 
   -0.51326E+08        -0.12474E+06         0.00000E+00
   -0.12474E+06        -0.49570E+08         0.00000E+00
    0.00000E+00         0.00000E+00        -0.50431E+08
 
   -0.51256E+08        -0.14324E+06         0.00000E+00
   -0.14324E+06        -0.49509E+08         0.00000E+00
    0.00000E+00         0.00000E+00        -0.50372E+08
 
   -0.51193E+08        -0.15903E+06         0.00000E+00
   -0.15903E+06        -0.49445E+08         0.00000E+00
    0.00000E+00         0.00000E+00        -0.50314E+08
 
   -0.51137E+08        -0.17169E+06         0.00000E+00
   -0.17169E+06        -0.49380E+08         0.00000E+00
    0.00000E+00         0.00000E+00        -0.50259E+08
 
   -0.51087E+08        -0.18086E+06         0.00000E+00
   -0.18086E+06        -0.49313E+08         0.00000E+00
    0.00000E+00         0.00000E+00        -0.50205E+08
 
   -0.51043E+08        -0.18625E+06         0.00000E+00
   -0.18625E+06        -0.49245E+08         0.00000E+00
    0.00000E+00         0.00000E+00        -0.50152E+08
 
   -0.51003E+08        -0.18765E+06         0.00000E+00
   -0.18765E+06        -0.49177E+08         0.00000E+00
    0.00000E+00         0.00000E+00        -0.50101E+08
 
   -0.50967E+08        -0.18491E+06         0.00000E+00
   -0.18491E+06        -0.49109E+08         0.00000E+00
    0.00000E+00         0.00000E+00        -0.50052E+08
 
   -0.50935E+08        -0.17792E+06         0.00000E+00
   -0.17792E+06        -0.49042E+08         0.00000E+00
    0.00000E+00         0.00000E+00        -0.50005E+08
 
   -0.50905E+08        -0.16663E+06         0.00000E+00
   -0.16663E+06        -0.48975E+08         0.00000E+00
    0.00000E+00         0.00000E+00        -0.49959E+08
 
   -0.50877E+08        -0.15105E+06         0.00000E+00
   -0.15105E+06        -0.48909E+08         0.00000E+00
    0.00000E+00         0.00000E+00        -0.49914E+08
 
   -0.50851E+08        -0.13122E+06         0.00000E+00
   -0.13122E+06        -0.48845E+08         0.00000E+00
    0.00000E+00         0.00000E+00        -0.49870E+08
 
   -0.50824E+08        -0.10723E+06         0.00000E+00
   -0.10723E+06        -0.48783E+08         0.00000E+00
    0.00000E+00         0.00000E+00        -0.49828E+08
 
   -0.50798E+08        -0.79214E+05         0.00000E+00
   -0.79214E+05        -0.48723E+08         0.00000E+00
    0.00000E+00         0.00000E+00        -0.49787E+08
 
   -0.50771E+08        -0.47343E+05         0.00000E+00
   -0.47343E+05        -0.48666E+08         0.00000E+00
    0.00000E+00         0.00000E+00        -0.49746E+08
 
   -0.50742E+08        -0.11828E+05         0.00000E+00
   -0.11828E+05        -0.48611E+08         0.00000E+00
    0.00000E+00         0.00000E+00        -0.49706E+08
 
   -0.50710E+08         0.27076E+05         0.00000E+00
    0.27076E+05        -0.48560E+08         0.00000E+00
    0.00000E+00         0.00000E+00        -0.49667E+08
 
   -0.50676E+08         0.69072E+05         0.00000E+00
    0.69072E+05        -0.48513E+08         0.00000E+00
    0.00000E+00         0.00000E+00        -0.49628E+08
 
   -0.50637E+08         0.11382E+06         0.00000E+00
    0.11382E+06        -0.48469E+08         0.00000E+00
    0.00000E+00         0.00000E+00        -0.49589E+08
 
   -0.50595E+08         0.16091E+06         0.00000E+00
    0.16091E+06        -0.48429E+08         0.00000E+00
    0.00000E+00         0.00000E+00        -0.49551E+08
 
   -0.50548E+08         0.20991E+06         0.00000E+00
    0.20991E+06        -0.48395E+08         0.00000E+00
    0.00000E+00         0.00000E+00        -0.49513E+08
 
   -0.50495E+08         0.26032E+06         0.00000E+00
    0.26032E+06        -0.48365E+08         0.00000E+00
    0.00000E+00         0.00000E+00        -0.49476E+08
 
   -0.50437E+08         0.31156E+06         0.00000E+00
    0.31156E+06        -0.48340E+08         0.00000E+00
    0.00000E+00         0.00000E+00        -0.49438E+08
 
   -0.50372E+08         0.36301E+06         0.00000E+00
    0.36301E+06        -0.48321E+08         0.00000E+00
    0.00000E+00         0.00000E+00        -0.49401E+08
 
   -0.50301E+08         0.41396E+06         0.00000E+00
    0.41396E+06        -0.48307E+08         0.00000E+00
    0.00000E+00         0.00000E+00        -0.49364E+08
 
   -0.50222E+08         0.46364E+06         0.00000E+00
    0.46364E+06        -0.48300E+08         0.00000E+00
    0.00000E+00         0.00000E+00        -0.49327E+08
 
   -0.50137E+08         0.51120E+06         0.00000E+00
    0.51120E+06        -0.48299E+08         0.00000E+00
    0.00000E+00         0.00000E+00        -0.49291E+08
 
   -0.50044E+08         0.55572E+06         0.00000E+00
    0.55572E+06        -0.48304E+08         0.00000E+00
    0.00000E+00         0.00000E+00        -0.49255E+08
 
   -0.49944E+08         0.59620E+06         0.00000E+00
    0.59620E+06        -0.48316E+08         0.00000E+00
    0.00000E+00         0.00000E+00        -0.49221E+08
 
   -0.49837E+08         0.63155E+06         0.00000E+00
    0.63155E+06        -0.48335E+08         0.00000E+00
    0.00000E+00         0.00000E+00        -0.49187E+08
 
   -0.49724E+08         0.66064E+06         0.00000E+00
    0.66064E+06        -0.48361E+08         0.00000E+00
    0.00000E+00         0.00000E+00        -0.49155E+08
 
   -0.49604E+08         0.68226E+06         0.00000E+00
    0.68226E+06        -0.48394E+08         0.00000E+00
    0.00000E+00         0.00000E+00        -0.49124E+08
 
   -0.49480E+08         0.69515E+06         0.00000E+00
    0.69515E+06        -0.48433E+08         0.00000E+00
    0.00000E+00         0.00000E+00        -0.49096E+08
 
   -0.49351E+08         0.69803E+06         0.00000E+00
    0.69803E+06        -0.48478E+08         0.00000E+00
    0.00000E+00         0.00000E+00        -0.49070E+08
 
   -0.49219E+08         0.68957E+06         0.00000E+00
    0.68957E+06        -0.48529E+08         0.00000E+00
    0.00000E+00         0.00000E+00        -0.49047E+08
 
   -0.49087E+08         0.66849E+06         0.00000E+00
    0.66849E+06        -0.48585E+08         0.00000E+00
    0.00000E+00         0.00000E+00        -0.49029E+08
 
   -0.52900E+08         0.23248E+05         0.00000E+00
    0.23248E+05        -0.50000E+08         0.00000E+00
    0.00000E+00         0.00000E+00        -0.51211E+08
 
   -0.52785E+08         0.57016E+05         0.00000E+00
    0.57016E+05        -0.49999E+08         0.00000E+00
    0.00000E+00         0.00000E+00        -0.51183E+08
 
   -0.52667E+08         0.85300E+05         0.00000E+00
    0.85300E+05        -0.49995E+08         0.00000E+00
    0.00000E+00         0.00000E+00        -0.51149E+08
 
   -0.52548E+08         0.10825E+06         0.00000E+00
    0.10825E+06        -0.49990E+08         0.00000E+00
    0.00000E+00         0.00000E+00        -0.51110E+08
 
   -0.52428E+08         0.12611E+06         0.00000E+00
    0.12611E+06        -0.49981E+08         0.00000E+00
    0.00000E+00         0.00000E+00        -0.51067E+08
 
   -0.52308E+08         0.13920E+06         0.00000E+00
    0.13920E+06        -0.49970E+08         0.00000E+00
    0.00000E+00         0.00000E+00        -0.51021E+08
 
   -0.52191E+08         0.14794E+06         0.00000E+00
    0.14794E+06        -0.49955E+08         0.00000E+00
    0.00000E+00         0.00000E+00        -0.50971E+08
 
   -0.52076E+08         0.15281E+06         0.00000E+00
    0.15281E+06        -0.49937E+08         0.00000E+00
    0.00000E+00         0.00000E+00        -0.50920E+08
 
   -0.51964E+08         0.15433E+06         0.00000E+00
    0.15433E+06        -0.49916E+08         0.00000E+00
    0.00000E+00         0.00000E+00        -0.50866E+08
 
   -0.51856E+08         0.15305E+06         0.00000E+00
    0.15305E+06        -0.49892E+08         0.00000E+00
    0.00000E+00         0.00000E+00        -0.50812E+08
 
   -0.51753E+08         0.14953E+06         0.00000E+00
    0.14953E+06        -0.49864E+08         0.00000E+00
    0.00000E+00         0.00000E+00        -0.50756E+08
 
   -0.51655E+08         0.14434E+06         0.00000E+00
    0.14434E+06        -0.49833E+08         0.00000E+00
    0.00000E+00         0.00000E+00        -0.50700E+08
 
   -0.51561E+08         0.13803E+06         0.00000E+00
    0.13803E+06        -0.49799E+08         0.00000E+00
    0.00000E+00         0.00000E+00        -0.50644E+08
 
   -0.51473E+08         0.13114E+06         0.00000E+00
    0.13114E+06        -0.49762E+08         0.00000E+00
    0.00000E+00         0.00000E+00        -0.50589E+08
 
   -0.51391E+08         0.12416E+06         0.00000E+00
    0.12416E+06        -0.49723E+08         0.00000E+00
    0.00000E+00         0.00000E+00        -0.50534E+08
 
   -0.51313E+08         0.11757E+06         0.00000E+00
    0.11757E+06        -0.49681E+08         0.00000E+00
    0.00000E+00         0.00000E+00        -0.50479E+08
 
   -0.51241E+08         0.11178E+06         0.00000E+00
    0.11178E+06        -0.49637E+08         0.00000E+00
    0.00000E+00         0.00000E+00        -0.50425E+08
 
   -0.51173E+08         0.10718E+06         0.00000E+00
    0.10718E+06        -0.49592E+08         0.00000E+00
    0.00000E+00         0.00000E+00        -0.50373E+08
 
   -0.51110E+08         0.10409E+06         0.00000E+00
    0.10409E+06        -0.49545E+08         0.00000E+00
    0.00000E+00         0.00000E+00        -0.50321E+08
 
   -0.51051E+08         0.10282E+06         0.00000E+00
    0.10282E+06        -0.49497E+08         0.00000E+00
    0.00000E+00         0.00000E+00        -0.50271E+08
 
   -0.50996E+08         0.10357E+06         0.00000E+00
    0.10357E+06        -0.49449E+08         0.00000E+00
    0.00000E+00         0.00000E+00        -0.50221E+08
 
   -0.50944E+08         0.10656E+06         0.00000E+00
    0.10656E+06        -0.49400E+08         0.00000E+00
    0.00000E+00         0.00000E+00        -0.50173E+08
 
   -0.50896E+08         0.11190E+06         0.00000E+00
    0.11190E+06        -0.49351E+08         0.00000E+00
    0.00000E+00         0.00000E+00        -0.50126E+08
 
   -0.50849E+08         0.11970E+06         0.00000E+00
    0.11970E+06        -0.49302E+08         0.00000E+00
    0.00000E+00         0.00000E+00        -0.50080E+08
 
   -0.50805E+08         0.13000E+06         0.00000E+00
    0.13000E+06        -0.49254E+08         0.00000E+00
    0.00000E+00         0.00000E+00        -0.50035E+08
 
   -0.50761E+08         0.14280E+06         0.00000E+00
    0.14280E+06        -0.49207E+08         0.00000E+00
    0.00000E+00         0.00000E+00        -0.49992E+08
 
   -0.50719E+08         0.15806E+06         0.00000E+00
    0.15806E+06        -0.49161E+08         0.00000E+00
    0.00000E+00         0.00000E+00        -0.49949E+08
 
   -0.50677E+08         0.17567E+06         0.00000E+00
    0.17567E+06        -0.49117E+08         0.00000E+00
    0.00000E+00         0.00000E+00        -0.49907E+08
 
   -0.50635E+08         0.19552E+06         0.00000E+00
    0.19552E+06        -0.49074E+08         0.00000E+00
    0.00000E+00         0.00000E+00        -0.49867E+08
 
   -0.50592E+08         0.21742E+06         0.00000E+00
    0.21742E+06        -0.49034E+08         0.00000E+00
    0.00000E+00         0.00000E+00        -0.49826E+08
 
   -0.50549E+08         0.24116E+06         0.00000E+00
    0.24116E+06        -0.48997E+08         0.00000E+00
    0.00000E+00         0.00000E+00        -0.49787E+08
 
   -0.50504E+08         0.26648E+06         0.00000E+00
    0.26648E+06        -0.48962E+08         0.00000E+00
    0.00000E+00         0.00000E+00        -0.49749E+08
 
   -0.50456E+08         0.29306E+06         0.00000E+00
    0.29306E+06        -0.48930E+08         0.00000E+00
    0.00000E+00         0.00000E+00        -0.49711E+08
 
   -0.50407E+08         0.32057E+06         0.00000E+00
    0.32057E+06        -0.48902E+08         0.00000E+00
    0.00000E+00         0.00000E+00        -0.49674E+08
 
   -0.50355E+08         0.34861E+06         0.00000E+00
    0.34861E+06        -0.48877E+08         0.00000E+00
    0.00000E+00         0.00000E+00        -0.49637E+08
 
   -0.50300E+08         0.37674E+06         0.00000E+00
    0.37674E+06        -0.48855E+08         0.00000E+00
    0.00000E+00         0.00000E+00        -0.49601E+08
 
   -0.50242E+08         0.40449E+06         0.00000E+00
    0.40449E+06        -0.48838E+08         0.00000E+00
    0.00000E+00         0.00000E+00        -0.49566E+08
 
   -0.50181E+08         0.43134E+06         0.00000E+00
    0.43134E+06        -0.48825E+08         0.00000E+00
    0.00000E+00         0.00000E+00        -0.49532E+08
 
   -0.50117E+08         0.45671E+06         0.00000E+00
    0.45671E+06        -0.48816E+08         0.00000E+00
    0.00000E+00         0.00000E+00        -0.49498E+08
 
   -0.50049E+08         0.48001E+06         0.00000E+00
    0.48001E+06        -0.48811E+08         0.00000E+00
    0.00000E+00         0.00000E+00        -0.49466E+08
 
   -0.49977E+08         0.50059E+06         0.00000E+00
    0.50059E+06        -0.48811E+08         0.00000E+00
    0.00000E+00         0.00000E+00        -0.49434E+08
 
   -0.49903E+08         0.51778E+06         0.00000E+00
    0.51778E+06        -0.48815E+08         0.00000E+00
    0.00000E+00         0.00000E+00        -0.49403E+08
 
   -0.49826E+08         0.53088E+06         0.00000E+00
    0.53088E+06        -0.48824E+08         0.00000E+00
    0.00000E+00         0.00000E+00        -0.49374E+08
 
   -0.49746E+08         0.53917E+06         0.00000E+00
    0.53917E+06        -0.48837E+08         0.00000E+00
    0.00000E+00         0.00000E+00        -0.49346E+08
 
   -0.49665E+08         0.54190E+06         0.00000E+00
    0.54190E+06        -0.48854E+08         0.00000E+00
    0.00000E+00         0.00000E+00        -0.49321E+08
 
   -0.49583E+08         0.53834E+06         0.00000E+00
    0.53834E+06        -0.48875E+08         0.00000E+00
    0.00000E+00         0.00000E+00        -0.49297E+08
 
   -0.49500E+08         0.52776E+06         0.00000E+00
    0.52776E+06        -0.48899E+08         0.00000E+00
    0.00000E+00         0.00000E+00        -0.49276E+08
 
   -0.49418E+08         0.50943E+06         0.00000E+00
    0.50943E+06        -0.48927E+08         0.00000E+00
    0.00000E+00         0.00000E+00        -0.49257E+08
 
   -0.49339E+08         0.48270E+06         0.00000E+00
    0.48270E+06        -0.48957E+08         0.00000E+00
    0.00000E+00         0.00000E+00        -0.49242E+08
 
   -0.49262E+08         0.44694E+06         0.00000E+00
    0.44694E+06        -0.48989E+08         0.00000E+00
    0.00000E+00         0.00000E+00        -0.49230E+08
 
   -0.52699E+08         0.25494E+05         0.00000E+00
    0.25494E+05        -0.50000E+08         0.00000E+00
    0.00000E+00         0.00000E+00        -0.51161E+08
 
   -0.52608E+08         0.66651E+05         0.00000E+00
    0.66651E+05        -0.49999E+08         0.00000E+00
    0.00000E+00         0.00000E+00        -0.51139E+08
 
   -0.52514E+08         0.10360E+06         0.00000E+00
    0.10360E+06        -0.49997E+08         0.00000E+00
    0.00000E+00         0.00000E+00        -0.51111E+08
 
   -0.52418E+08         0.13639E+06         0.00000E+00
    0.13639E+06        -0.49994E+08         0.00000E+00
    0.00000E+00         0.00000E+00        -0.51080E+08
 
   -0.52320E+08         0.16514E+06         0.00000E+00
    0.16514E+06        -0.49989E+08         0.00000E+00
    0.00000E+00         0.00000E+00        -0.51045E+08
 
   -0.52222E+08         0.19003E+06         0.00000E+00
    0.19003E+06        -0.49982E+08         0.00000E+00
    0.00000E+00         0.00000E+00        -0.51007E+08
 
   -0.52123E+08         0.21128E+06         0.00000E+00
    0.21128E+06        -0.49974E+08         0.00000E+00
    0.00000E+00         0.00000E+00        -0.50967E+08
 
   -0.52025E+08         0.22915E+06         0.00000E+00
    0.22915E+06        -0.49963E+08         0.00000E+00
    0.00000E+00         0.00000E+00        -0.50924E+08
 
   -0.51928E+08         0.24393E+06         0.00000E+00
    0.24393E+06        -0.49951E+08         0.00000E+00
    0.00000E+00         0.00000E+00        -0.50879E+08
 
   -0.51833E+08         0.25594E+06         0.00000E+00
    0.25594E+06        -0.49936E+08         0.00000E+00
    0.00000E+00         0.00000E+00        -0.50833E+08
 
   -0.51741E+08         0.26554E+06         0.00000E+00
    0.26554E+06        -0.49919E+08         0.00000E+00
    0.00000E+00         0.00000E+00        -0.50786E+08
 
   -0.51651E+08         0.27308E+06         0.00000E+00
    0.27308E+06        -0.49900E+08         0.00000E+00
    0.00000E+00         0.00000E+00        -0.50739E+08
 
   -0.51563E+08         0.27890E+06         0.00000E+00
    0.27890E+06        -0.49880E+08         0.00000E+00
    0.00000E+00         0.00000E+00        -0.50691E+08
 
   -0.51479E+08         0.28338E+06         0.00000E+00
    0.28338E+06        -0.49857E+08         0.00000E+00
    0.00000E+00         0.00000E+00        -0.50642E+08
 
   -0.51399E+08         0.28685E+06         0.00000E+00
    0.28685E+06        -0.49832E+08         0.00000E+00
    0.00000E+00         0.00000E+00        -0.50594E+08
 
   -0.51321E+08         0.28964E+06         0.00000E+00
    0.28964E+06        -0.49806E+08         0.00000E+00
    0.00000E+00         0.00000E+00        -0.50546E+08
 
   -0.51247E+08         0.29206E+06         0.00000E+00
    0.29206E+06        -0.49778E+08         0.00000E+00
    0.00000E+00         0.00000E+00        -0.50498E+08
 
   -0.51176E+08         0.29441E+06         0.00000E+00
    0.29441E+06        -0.49749E+08         0.00000E+00
    0.00000E+00         0.00000E+00        -0.50451E+08
 
   -0.51108E+08         0.29693E+06         0.00000E+00
    0.29693E+06        -0.49719E+08         0.00000E+00
    0.00000E+00         0.00000E+00        -0.50405E+08
 
   -0.51043E+08         0.29986E+06         0.00000E+00
    0.29986E+06        -0.49688E+08         0.00000E+00
    0.00000E+00         0.00000E+00        -0.50359E+08
 
   -0.50981E+08         0.30339E+06         0.00000E+00
    0.30339E+06        -0.49656E+08         0.00000E+00
    0.00000E+00         0.00000E+00        -0.50314E+08
 
   -0.50922E+08         0.30768E+06         0.00000E+00
    0.30768E+06        -0.49624E+08         0.00000E+00
    0.00000E+00         0.00000E+00        -0.50270E+08
 
   -0.50865E+08         0.31288E+06         0.00000E+00
    0.31288E+06        -0.49592E+08         0.00000E+00
    0.00000E+00         0.00000E+00        -0.50227E+08
 
   -0.50810E+08         0.31905E+06         0.00000E+00
    0.31905E+06        -0.49560E+08         0.00000E+00
    0.00000E+00         0.00000E+00        -0.50185E+08
 
   -0.50756E+08         0.32627E+06         0.00000E+00
    0.32627E+06        -0.49528E+08         0.00000E+00
    0.00000E+00         0.00000E+00        -0.50144E+08
 
   -0.50705E+08         0.33454E+06         0.00000E+00
    0.33454E+06        -0.49497E+08         0.00000E+00
    0.00000E+00         0.00000E+00        -0.50103E+08
 
   -0.50654E+08         0.34386E+06         0.00000E+00
    0.34386E+06        -0.49467E+08         0.00000E+00
    0.00000E+00         0.00000E+00        -0.50064E+08
 
   -0.50604E+08         0.35416E+06         0.00000E+00
    0.35416E+06        -0.49438E+08         0.00000E+00
    0.00000E+00         0.00000E+00        -0.50025E+08
 
   -0.50555E+08         0.36537E+06         0.00000E+00
    0.36537E+06        -0.49410E+08         0.00000E+00
    0.00000E+00         0.00000E+00        -0.49987E+08
 
   -0.50505E+08         0.37734E+06         0.00000E+00
    0.37734E+06        -0.49383E+08         0.00000E+00
    0.00000E+00         0.00000E+00        -0.49950E+08
 
   -0.50456E+08         0.38993E+06         0.00000E+00
    0.38993E+06        -0.49359E+08         0.00000E+00
    0.00000E+00         0.00000E+00        -0.49914E+08
 
   -0.50407E+08         0.40293E+06         0.00000E+00
    0.40293E+06        -0.49336E+08         0.00000E+00
    0.00000E+00         0.00000E+00        -0.49879E+08
 
   -0.50357E+08         0.41613E+06         0.00000E+00
    0.41613E+06        -0.49315E+08         0.00000E+00
    0.00000E+00         0.00000E+00        -0.49845E+08
 
   -0.50307E+08         0.42925E+06         0.00000E+00
    0.42925E+06        -0.49297E+08         0.00000E+00
    0.00000E+00         0.00000E+00        -0.49812E+08
 
   -0.50255E+08         0.44201E+06         0.00000E+00
    0.44201E+06        -0.49281E+08         0.00000E+00
    0.00000E+00         0.00000E+00        -0.49779E+08
 
   -0.50203E+08         0.45409E+06         0.00000E+00
    0.45409E+06        -0.49268E+08         0.00000E+00
    0.00000E+00         0.00000E+00        -0.49748E+08
 
   -0.50150E+08         0.46514E+06         0.00000E+00
    0.46514E+06        -0.49257E+08         0.00000E+00
    0.00000E+00         0.00000E+00        -0.49717E+08
 
   -0.50096E+08         0.47479E+06         0.00000E+00
    0.47479E+06        -0.49249E+08         0.00000E+00
    0.00000E+00         0.00000E+00        -0.49688E+08
 
   -0.50041E+08         0.48265E+06         0.00000E+00
    0.48265E+06        -0.49244E+08         0.00000E+00
    0.00000E+00         0.00000E+00        -0.49659E+08
 
   -0.49985E+08         0.48831E+06         0.00000E+00
    0.48831E+06        -0.49242E+08         0.00000E+00
    0.00000E+00         0.00000E+00        -0.49632E+08
 
   -0.49929E+08         0.49133E+06         0.00000E+00
    0.49133E+06        -0.49242E+08         0.00000E+00
    0.00000E+00         0.00000E+00        -0.49606E+08
 
   -0.49872E+08         0.49130E+06         0.00000E+00
    0.49130E+06        -0.49246E+08         0.00000E+00
    0.00000E+00         0.00000E+00        -0.49581E+08
 
   -0.49815E+08         0.48776E+06         0.00000E+00
    0.48776E+06        -0.49251E+08         0.00000E+00
    0.00000E+00         0.00000E+00        -0.49558E+08
 
   -0.49759E+08         0.48029E+06         0.00000E+00
    0.48029E+06        -0.49259E+08         0.00000E+00
    0.00000E+00         0.00000E+00        -0.49537E+08
 
   -0.49704E+08         0.46848E+06         0.00000E+00
    0.46848E+06        -0.49269E+08         0.00000E+00
    0.00000E+00         0.00000E+00        -0.49517E+08
 
   -0.49651E+08         0.45191E+06         0.00000E+00
    0.45191E+06        -0.49282E+08         0.00000E+00
    0.00000E+00         0.00000E+00        -0.49500E+08
 
   -0.49600E+08         0.43022E+06         0.00000E+00
    0.43022E+06        -0.49295E+08         0.00000E+00
    0.00000E+00         0.00000E+00        -0.49484E+08
 
   -0.49552E+08         0.40307E+06         0.00000E+00
    0.40307E+06        -0.49310E+08         0.00000E+00
    0.00000E+00         0.00000E+00        -0.49472E+08
 
   -0.49509E+08         0.37018E+06         0.00000E+00
    0.37018E+06        -0.49325E+08         0.00000E+00
    0.00000E+00         0.00000E+00        -0.49462E+08
 
   -0.49470E+08         0.33133E+06         0.00000E+00
    0.33133E+06        -0.49341E+08         0.00000E+00
    0.00000E+00         0.00000E+00        -0.49455E+08
 
   -0.52473E+08         0.26539E+05         0.00000E+00
    0.26539E+05        -0.50000E+08         0.00000E+00
    0.00000E+00         0.00000E+00        -0.51089E+08
 
   -0.52402E+08         0.71563E+05         0.00000E+00
    0.71563E+05        -0.50000E+08         0.00000E+00
    0.00000E+00         0.00000E+00        -0.51071E+08
 
   -0.52327E+08         0.11314E+06         0.00000E+00
    0.11314E+06        -0.49999E+08         0.00000E+00
    0.00000E+00         0.00000E+00        -0.51050E+08
 
   -0.52249E+08         0.15132E+06         0.00000E+00
    0.15132E+06        -0.49997E+08         0.00000E+00
    0.00000E+00         0.00000E+00        -0.51025E+08
 
   -0.52169E+08         0.18616E+06         0.00000E+00
    0.18616E+06        -0.49995E+08         0.00000E+00
    0.00000E+00         0.00000E+00        -0.50996E+08
 
   -0.52088E+08         0.21775E+06         0.00000E+00
    0.21775E+06        -0.49992E+08         0.00000E+00
    0.00000E+00         0.00000E+00        -0.50966E+08
 
   -0.52005E+08         0.24622E+06         0.00000E+00
    0.24622E+06        -0.49988E+08         0.00000E+00
    0.00000E+00         0.00000E+00        -0.50932E+08
 
   -0.51923E+08         0.27173E+06         0.00000E+00
    0.27173E+06        -0.49983E+08         0.00000E+00
    0.00000E+00         0.00000E+00        -0.50897E+08
 
   -0.51840E+08         0.29445E+06         0.00000E+00
    0.29445E+06        -0.49976E+08         0.00000E+00
    0.00000E+00         0.00000E+00        -0.50861E+08
 
   -0.51758E+08         0.31457E+06         0.00000E+00
    0.31457E+06        -0.49969E+08         0.00000E+00
    0.00000E+00         0.00000E+00        -0.50823E+08
 
   -0.51676E+08         0.33231E+06         0.00000E+00
    0.33231E+06        -0.49960E+08         0.00000E+00
    0.00000E+00         0.00000E+00        -0.50783E+08
 
   -0.51596E+08         0.34788E+06         0.00000E+00
    0.34788E+06        -0.49950E+08         0.00000E+00
    0.00000E+00         0.00000E+00        -0.50743E+08
 
   -0.51518E+08         0.36152E+06         0.00000E+00
    0.36152E+06        -0.49939E+08         0.00000E+00
    0.00000E+00         0.00000E+00        -0.50703E+08
 
   -0.51441E+08         0.37345E+06         0.00000E+00
    0.37345E+06        -0.49926E+08         0.00000E+00
    0.00000E+00         0.00000E+00        -0.50662E+08
 
   -0.51365E+08         0.38389E+06         0.00000E+00
    0.38389E+06        -0.49913E+08         0.00000E+00
    0.00000E+00         0.00000E+00        -0.50621E+08
 
   -0.51292E+08         0.39308E+06         0.00000E+00
    0.39308E+06        -0.49898E+08         0.00000E+00
    0.00000E+00         0.00000E+00        -0.50580E+08
 
   -0.51221E+08         0.40123E+06         0.00000E+00
    0.40123E+06        -0.49882E+08         0.00000E+00
    0.00000E+00         0.00000E+00        -0.50539E+08
 
   -0.51152E+08         0.40852E+06         0.00000E+00
    0.40852E+06        -0.49866E+08         0.00000E+00
    0.00000E+00         0.00000E+00        -0.50499E+08
 
   -0.51085E+08         0.41516E+06         0.00000E+00
    0.41516E+06        -0.49849E+08         0.00000E+00
    0.00000E+00         0.00000E+00        -0.50459E+08
 
   -0.51020E+08         0.42130E+06         0.00000E+00
    0.42130E+06        -0.49831E+08         0.00000E+00
    0.00000E+00         0.00000E+00        -0.50419E+08
 
   -0.50957E+08         0.42710E+06         0.00000E+00
    0.42710E+06        -0.49813E+08         0.00000E+00
    0.00000E+00         0.00000E+00        -0.50380E+08
 
   -0.50896E+08         0.43267E+06         0.00000E+00
    0.43267E+06        -0.49794E+08         0.00000E+00
    0.00000E+00         0.00000E+00        -0.50342E+08
 
   -0.50837E+08         0.43812E+06         0.00000E+00
    0.43812E+06        -0.49775E+08         0.00000E+00
    0.00000E+00         0.00000E+00        -0.50304E+08
 
   -0.50780E+08         0.44353E+06         0.00000E+00
    0.44353E+06        -0.49757E+08         0.00000E+00
    0.00000E+00         0.00000E+00        -0.50267E+08
 
   -0.50724E+08         0.44894E+06         0.00000E+00
    0.44894E+06        -0.49738E+08         0.00000E+00
    0.00000E+00         0.00000E+00        -0.50230E+08
 
   -0.50669E+08         0.45439E+06         0.00000E+00
    0.45439E+06        -0.49720E+08         0.00000E+00
    0.00000E+00         0.00000E+00        -0.50195E+08
 
   -0.50616E+08         0.45988E+06         0.00000E+00
    0.45988E+06        -0.49703E+08         0.00000E+00
    0.00000E+00         0.00000E+00        -0.50160E+08
 
   -0.50564E+08         0.46537E+06         0.00000E+00
    0.46537E+06        -0.49686E+08         0.00000E+00
    0.00000E+00         0.00000E+00        -0.50126E+08
 
   -0.50513E+08         0.47082E+06         0.00000E+00
    0.47082E+06        -0.49670E+08         0.00000E+00
    0.00000E+00         0.00000E+00        -0.50093E+08
 
   -0.50462E+08         0.47615E+06         0.00000E+00
    0.47615E+06        -0.49654E+08         0.00000E+00
    0.00000E+00         0.00000E+00        -0.50061E+08
 
   -0.50413E+08         0.48126E+06         0.00000E+00
    0.48126E+06        -0.49640E+08         0.00000E+00
    0.00000E+00         0.00000E+00        -0.50030E+08
 
   -0.50364E+08         0.48602E+06         0.00000E+00
    0.48602E+06        -0.49628E+08         0.00000E+00
    0.00000E+00         0.00000E+00        -0.50000E+08
 
   -0.50315E+08         0.49029E+06         0.00000E+00
    0.49029E+06        -0.49616E+08         0.00000E+00
    0.00000E+00         0.00000E+00        -0.49970E+08
 
   -0.50267E+08         0.49389E+06         0.00000E+00
    0.49389E+06        -0.49606E+08         0.00000E+00
    0.00000E+00         0.00000E+00        -0.49942E+08
 
   -0.50220E+08         0.49664E+06         0.00000E+00
    0.49664E+06        -0.49598E+08         0.00000E+00
    0.00000E+00         0.00000E+00        -0.49914E+08
 
   -0.50173E+08         0.49833E+06         0.00000E+00
    0.49833E+06        -0.49591E+08         0.00000E+00
    0.00000E+00         0.00000E+00        -0.49888E+08
 
   -0.50126E+08         0.49874E+06         0.00000E+00
    0.49874E+06        -0.49586E+08         0.00000E+00
    0.00000E+00         0.00000E+00        -0.49862E+08
 
   -0.50080E+08         0.49765E+06         0.00000E+00
    0.49765E+06        -0.49582E+08         0.00000E+00
    0.00000E+00         0.00000E+00        -0.49838E+08
 
   -0.50035E+08         0.49481E+06         0.00000E+00
    0.49481E+06        -0.49580E+08         0.00000E+00
    0.00000E+00         0.00000E+00        -0.49815E+08
 
   -0.49990E+08         0.48998E+06         0.00000E+00
    0.48998E+06        -0.49580E+08         0.00000E+00
    0.00000E+00         0.00000E+00        -0.49793E+08
 
   -0.49947E+08         0.48291E+06         0.00000E+00
    0.48291E+06        -0.49581E+08         0.00000E+00
    0.00000E+00         0.00000E+00        -0.49773E+08
 
   -0.49905E+08         0.47336E+06         0.00000E+00
    0.47336E+06        -0.49583E+08         0.00000E+00
    0.00000E+00         0.00000E+00        -0.49754E+08
 
   -0.49865E+08         0.46109E+06         0.00000E+00
    0.46109E+06        -0.49587E+08         0.00000E+00
    0.00000E+00         0.00000E+00        -0.49736E+08
 
   -0.49827E+08         0.44588E+06         0.00000E+00
    0.44588E+06        -0.49591E+08         0.00000E+00
    0.00000E+00         0.00000E+00        -0.49720E+08
 
   -0.49791E+08         0.42754E+06         0.00000E+00
    0.42754E+06        -0.49597E+08         0.00000E+00
    0.00000E+00         0.00000E+00        -0.49706E+08
 
   -0.49758E+08         0.40588E+06         0.00000E+00
    0.40588E+06        -0.49603E+08         0.00000E+00
    0.00000E+00         0.00000E+00        -0.49693E+08
 
   -0.49729E+08         0.38076E+06         0.00000E+00
    0.38076E+06        -0.49609E+08         0.00000E+00
    0.00000E+00         0.00000E+00        -0.49683E+08
 
   -0.49705E+08         0.35208E+06         0.00000E+00
    0.35208E+06        -0.49616E+08         0.00000E+00
    0.00000E+00         0.00000E+00        -0.49675E+08
 
   -0.49685E+08         0.31977E+06         0.00000E+00
    0.31977E+06        -0.49622E+08         0.00000E+00
    0.00000E+00         0.00000E+00        -0.49669E+08
 
   -0.49670E+08         0.28384E+06         0.00000E+00
    0.28384E+06        -0.49627E+08         0.00000E+00
    0.00000E+00         0.00000E+00        -0.49666E+08
 
   -0.52237E+08         0.26382E+05         0.00000E+00
    0.26382E+05        -0.50000E+08         0.00000E+00
    0.00000E+00         0.00000E+00        -0.51005E+08
 
   -0.52181E+08         0.72449E+05         0.00000E+00
    0.72449E+05        -0.50000E+08         0.00000E+00
    0.00000E+00         0.00000E+00        -0.50991E+08
 
   -0.52122E+08         0.11565E+06         0.00000E+00
    0.11565E+06        -0.50000E+08         0.00000E+00
    0.00000E+00         0.00000E+00        -0.50974E+08
 
   -0.52059E+08         0.15598E+06         0.00000E+00
    0.15598E+06        -0.50000E+08         0.00000E+00
    0.00000E+00         0.00000E+00        -0.50954E+08
 
   -0.51995E+08         0.19349E+06         0.00000E+00
    0.19349E+06        -0.50000E+08         0.00000E+00
    0.00000E+00         0.00000E+00        -0.50931E+08
 
   -0.51928E+08         0.22823E+06         0.00000E+00
    0.22823E+06        -0.50000E+08         0.00000E+00
    0.00000E+00         0.00000E+00        -0.50907E+08
 
   -0.51860E+08         0.26027E+06         0.00000E+00
    0.26027E+06        -0.49999E+08         0.00000E+00
    0.00000E+00         0.00000E+00        -0.50880E+08
 
   -0.51791E+08         0.28969E+06         0.00000E+00
    0.28969E+06        -0.49997E+08         0.00000E+00
    0.00000E+00         0.00000E+00        -0.50852E+08
 
   -0.51721E+08         0.31659E+06         0.00000E+00
    0.31659E+06        -0.49996E+08         0.00000E+00
    0.00000E+00         0.00000E+00        -0.50822E+08
 
   -0.51651E+08         0.34111E+06         0.00000E+00
    0.34111E+06        -0.49993E+08         0.00000E+00
    0.00000E+00         0.00000E+00        -0.50791E+08
 
   -0.51581E+08         0.36336E+06         0.00000E+00
    0.36336E+06        -0.49990E+08         0.00000E+00
    0.00000E+00         0.00000E+00        -0.50759E+08
 
   -0.51511E+08         0.38348E+06         0.00000E+00
    0.38348E+06        -0.49986E+08         0.00000E+00
    0.00000E+00         0.00000E+00        -0.50726E+08
 
   -0.51442E+08         0.40162E+06         0.00000E+00
    0.40162E+06        -0.49982E+08         0.00000E+00
    0.00000E+00         0.00000E+00        -0.50692E+08
 
   -0.51373E+08         0.41792E+06         0.00000E+00
    0.41792E+06        -0.49977E+08         0.00000E+00
    0.00000E+00         0.00000E+00        -0.50659E+08
 
   -0.51305E+08         0.43252E+06         0.00000E+00
    0.43252E+06        -0.49972E+08         0.00000E+00
    0.00000E+00         0.00000E+00        -0.50625E+08
 
   -0.51239E+08         0.44559E+06         0.00000E+00
    0.44559E+06        -0.49965E+08         0.00000E+00
    0.00000E+00         0.00000E+00        -0.50590E+08
 
   -0.51173E+08         0.45725E+06         0.00000E+00
    0.45725E+06        -0.49959E+08         0.00000E+00
    0.00000E+00         0.00000E+00        -0.50556E+08
 
   -0.51109E+08         0.46764E+06         0.00000E+00
    0.46764E+06        -0.49951E+08         0.00000E+00
    0.00000E+00         0.00000E+00        -0.50522E+08
 
   -0.51047E+08         0.47689E+06         0.00000E+00
    0.47689E+06        -0.49944E+08         0.00000E+00
    0.00000E+00         0.00000E+00        -0.50489E+08
 
   -0.50985E+08         0.48512E+06         0.00000E+00
    0.48512E+06        -0.49936E+08         0.00000E+00
    0.00000E+00         0.00000E+00        -0.50455E+08
 
   -0.50925E+08         0.49243E+06         0.00000E+00
    0.49243E+06        -0.49927E+08         0.00000E+00
    0.00000E+00         0.00000E+00        -0.50422E+08
 
   -0.50867E+08         0.49891E+06         0.00000E+00
    0.49891E+06        -0.49919E+08         0.00000E+00
    0.00000E+00         0.00000E+00        -0.50390E+08
 
   -0.50810E+08         0.50465E+06         0.00000E+00
    0.50465E+06        -0.49910E+08         0.00000E+00
    0.00000E+00         0.00000E+00        -0.50358E+08
 
   -0.50754E+08         0.50970E+06         0.00000E+00
    0.50970E+06        -0.49902E+08         0.00000E+00
    0.00000E+00         0.00000E+00        -0.50326E+08
 
   -0.50700E+08         0.51411E+06         0.00000E+00
    0.51411E+06        -0.49893E+08         0.00000E+00
    0.00000E+00         0.00000E+00        -0.50295E+08
 
   -0.50647E+08         0.51790E+06         0.00000E+00
    0.51790E+06        -0.49885E+08         0.00000E+00
    0.00000E+00         0.00000E+00        -0.50265E+08
 
   -0.50595E+08         0.52110E+06         0.00000E+00
    0.52110E+06        -0.49877E+08         0.00000E+00
    0.00000E+00         0.00000E+00        -0.50236E+08
 
   -0.50545E+08         0.52370E+06         0.00000E+00
    0.52370E+06        -0.49869E+08         0.00000E+00
    0.00000E+00         0.00000E+00        -0.50207E+08
 
   -0.50495E+08         0.52567E+06         0.00000E+00
    0.52567E+06        -0.49862E+08         0.00000E+00
    0.00000E+00         0.00000E+00        -0.50179E+08
 
   -0.50447E+08         0.52698E+06         0.00000E+00
    0.52698E+06        -0.49855E+08         0.00000E+00
    0.00000E+00         0.00000E+00        -0.50152E+08
 
   -0.50400E+08         0.52758E+06         0.00000E+00
    0.52758E+06        -0.49849E+08         0.00000E+00
    0.00000E+00         0.00000E+00        -0.50126E+08
 
   -0.50355E+08         0.52741E+06         0.00000E+00
    0.52741E+06        -0.49844E+08         0.00000E+00
    0.00000E+00         0.00000E+00        -0.50101E+08
 
   -0.50310E+08         0.52637E+06         0.00000E+00
    0.52637E+06        -0.49839E+08         0.00000E+00
    0.00000E+00         0.00000E+00        -0.50077E+08
 
   -0.50266E+08         0.52438E+06         0.00000E+00
    0.52438E+06        -0.49836E+08         0.00000E+00
    0.00000E+00         0.00000E+00        -0.50053E+08
 
   -0.50224E+08         0.52134E+06         0.00000E+00
    0.52134E+06        -0.49833E+08         0.00000E+00
    0.00000E+00         0.00000E+00        -0.50031E+08
 
   -0.50183E+08         0.51713E+06         0.00000E+00
    0.51713E+06        -0.49831E+08         0.00000E+00
    0.00000E+00         0.00000E+00        -0.50009E+08
 
   -0.50143E+08         0.51164E+06         0.00000E+00
    0.51164E+06        -0.49829E+08         0.00000E+00
    0.00000E+00         0.00000E+00        -0.49989E+08
 
   -0.50105E+08         0.50475E+06         0.00000E+00
    0.50475E+06        -0.49829E+08         0.00000E+00
    0.00000E+00         0.00000E+00        -0.49969E+08
 
   -0.50068E+08         0.49634E+06         0.00000E+00
    0.49634E+06        -0.49829E+08         0.00000E+00
    0.00000E+00         0.00000E+00        -0.49951E+08
 
   -0.50034E+08         0.48627E+06         0.00000E+00
    0.48627E+06        -0.49830E+08         0.00000E+00
    0.00000E+00         0.00000E+00        -0.49934E+08
 
   -0.50001E+08         0.47444E+06         0.00000E+00
    0.47444E+06        -0.49831E+08         0.00000E+00
    0.00000E+00         0.00000E+00        -0.49919E+08
 
   -0.49970E+08         0.46075E+06         0.00000E+00
    0.46075E+06        -0.49833E+08         0.00000E+00
    0.00000E+00         0.00000E+00        -0.49904E+08
 
   -0.49942E+08         0.44508E+06         0.00000E+00
    0.44508E+06        -0.49836E+08         0.00000E+00
    0.00000E+00         0.00000E+00        -0.49891E+08
 
   -0.49916E+08         0.42736E+06         0.00000E+00
    0.42736E+06        -0.49838E+08         0.00000E+00
    0.00000E+00         0.00000E+00        -0.49879E+08
 
   -0.49894E+08         0.40754E+06         0.00000E+00
    0.40754E+06        -0.49841E+08         0.00000E+00
    0.00000E+00         0.00000E+00        -0.49869E+08
 
   -0.49875E+08         0.38556E+06         0.00000E+00
    0.38556E+06        -0.49844E+08         0.00000E+00
    0.00000E+00         0.00000E+00        -0.49861E+08
 
   -0.49860E+08         0.36142E+06         0.00000E+00
    0.36142E+06        -0.49846E+08         0.00000E+00
    0.00000E+00         0.00000E+00        -0.49854E+08
 
   -0.49850E+08         0.33515E+06         0.00000E+00
    0.33515E+06        -0.49847E+08         0.00000E+00
    0.00000E+00         0.00000E+00        -0.49849E+08
 
   -0.49844E+08         0.30679E+06         0.00000E+00
    0.30679E+06        -0.49848E+08         0.00000E+00
    0.00000E+00         0.00000E+00        -0.49845E+08
 
   -0.49843E+08         0.27645E+06         0.00000E+00
    0.27645E+06        -0.49848E+08         0.00000E+00
    0.00000E+00         0.00000E+00        -0.49844E+08
 
   -0.52002E+08         0.25219E+05         0.00000E+00
    0.25219E+05        -0.50000E+08         0.00000E+00
    0.00000E+00         0.00000E+00        -0.50915E+08
 
   -0.51960E+08         0.70151E+05         0.00000E+00
    0.70151E+05        -0.50000E+08         0.00000E+00
    0.00000E+00         0.00000E+00        -0.50905E+08
 
   -0.51913E+08         0.11270E+06         0.00000E+00
    0.11270E+06        -0.50001E+08         0.00000E+00
    0.00000E+00         0.00000E+00        -0.50892E+08
 
   -0.51864E+08         0.15285E+06         0.00000E+00
    0.15285E+06        -0.50003E+08         0.00000E+00
    0.00000E+00         0.00000E+00        -0.50876E+08
 
   -0.51813E+08         0.19060E+06         0.00000E+00
    0.19060E+06        -0.50004E+08         0.00000E+00
    0.00000E+00         0.00000E+00        -0.50858E+08
 
   -0.51759E+08         0.22598E+06         0.00000E+00
    0.22598E+06        -0.50005E+08         0.00000E+00
    0.00000E+00         0.00000E+00        -0.50839E+08
 
   -0.51703E+08         0.25902E+06         0.00000E+00
    0.25902E+06        -0.50007E+08         0.00000E+00
    0.00000E+00         0.00000E+00        -0.50818E+08
 
   -0.51646E+08         0.28977E+06         0.00000E+00
    0.28977E+06        -0.50008E+08         0.00000E+00
    0.00000E+00         0.00000E+00        -0.50795E+08
 
   -0.51588E+08         0.31827E+06         0.00000E+00
    0.31827E+06        -0.50010E+08         0.00000E+00
    0.00000E+00         0.00000E+00        -0.50771E+08
 
   -0.51529E+08         0.34460E+06         0.00000E+00
    0.34460E+06        -0.50011E+08         0.00000E+00
    0.00000E+00         0.00000E+00        -0.50746E+08
 
   -0.51469E+08         0.36884E+06         0.00000E+00
    0.36884E+06        -0.50012E+08         0.00000E+00
    0.00000E+00         0.00000E+00        -0.50720E+08
 
   -0.51410E+08         0.39106E+06         0.00000E+00
    0.39106E+06        -0.50013E+08         0.00000E+00
    0.00000E+00         0.00000E+00        -0.50694E+08
 
   -0.51350E+08         0.41136E+06         0.00000E+00
    0.41136E+06        -0.50013E+08         0.00000E+00
    0.00000E+00         0.00000E+00        -0.50667E+08
 
   -0.51290E+08         0.42983E+06         0.00000E+00
    0.42983E+06        -0.50013E+08         0.00000E+00
    0.00000E+00         0.00000E+00        -0.50639E+08
 
   -0.51231E+08         0.44656E+06         0.00000E+00
    0.44656E+06        -0.50013E+08         0.00000E+00
    0.00000E+00         0.00000E+00        -0.50611E+08
 
   -0.51172E+08         0.46164E+06         0.00000E+00
    0.46164E+06        -0.50013E+08         0.00000E+00
    0.00000E+00         0.00000E+00        -0.50583E+08
 
   -0.51113E+08         0.47518E+06         0.00000E+00
    0.47518E+06        -0.50012E+08         0.00000E+00
    0.00000E+00         0.00000E+00        -0.50556E+08
 
   -0.51056E+08         0.48725E+06         0.00000E+00
    0.48725E+06        -0.50012E+08         0.00000E+00
    0.00000E+00         0.00000E+00        -0.50528E+08
 
   -0.50999E+08         0.49796E+06         0.00000E+00
    0.49796E+06        -0.50011E+08         0.00000E+00
    0.00000E+00         0.00000E+00        -0.50500E+08
 
   -0.50944E+08         0.50738E+06         0.00000E+00
    0.50738E+06        -0.50010E+08         0.00000E+00
    0.00000E+00         0.00000E+00        -0.50472E+08
 
   -0.50889E+08         0.51558E+06         0.00000E+00
    0.51558E+06        -0.50008E+08         0.00000E+00
    0.00000E+00         0.00000E+00        -0.50445E+08
 
   -0.50835E+08         0.52263E+06         0.00000E+00
    0.52263E+06        -0.50007E+08         0.00000E+00
    0.00000E+00         0.00000E+00        -0.50418E+08
 
   -0.50783E+08         0.52860E+06         0.00000E+00
    0.52860E+06        -0.50005E+08         0.00000E+00
    0.00000E+00         0.00000E+00        -0.50392E+08
 
   -0.50731E+08         0.53354E+06         0.00000E+00
    0.53354E+06        -0.50004E+08         0.00000E+00
    0.00000E+00         0.00000E+00        -0.50366E+08
 
   -0.50681E+08         0.53748E+06         0.00000E+00
    0.53748E+06        -0.50002E+08         0.00000E+00
    0.00000E+00         0.00000E+00        -0.50340E+08
 
   -0.50632E+08         0.54045E+06         0.00000E+00
    0.54045E+06        -0.50001E+08         0.00000E+00
    0.00000E+00         0.00000E+00        -0.50316E+08
 
   -0.50584E+08         0.54249E+06         0.00000E+00
    0.54249E+06        -0.49999E+08         0.00000E+00
    0.00000E+00         0.00000E+00        -0.50291E+08
 
   -0.50538E+08         0.54360E+06         0.00000E+00
    0.54360E+06        -0.49998E+08         0.00000E+00
    0.00000E+00         0.00000E+00        -0.50268E+08
 
   -0.50492E+08         0.54379E+06         0.00000E+00
    0.54379E+06        -0.49997E+08         0.00000E+00
    0.00000E+00         0.00000E+00        -0.50245E+08
 
   -0.50448E+08         0.54304E+06         0.00000E+00
    0.54304E+06        -0.49997E+08         0.00000E+00
    0.00000E+00         0.00000E+00        -0.50223E+08
 
   -0.50406E+08         0.54135E+06         0.00000E+00
    0.54135E+06        -0.49996E+08         0.00000E+00
    0.00000E+00         0.00000E+00        -0.50201E+08
 
   -0.50364E+08         0.53870E+06         0.00000E+00
    0.53870E+06        -0.49996E+08         0.00000E+00
    0.00000E+00         0.00000E+00        -0.50181E+08
 
   -0.50325E+08         0.53504E+06         0.00000E+00
    0.53504E+06        -0.49996E+08         0.00000E+00
    0.00000E+00         0.00000E+00        -0.50161E+08
 
   -0.50286E+08         0.53035E+06         0.00000E+00
    0.53035E+06        -0.49997E+08         0.00000E+00
    0.00000E+00         0.00000E+00        -0.50142E+08
 
   -0.50249E+08         0.52459E+06         0.00000E+00
    0.52459E+06        -0.49998E+08         0.00000E+00
    0.00000E+00         0.00000E+00        -0.50124E+08
 
   -0.50214E+08         0.51772E+06         0.00000E+00
    0.51772E+06        -0.49999E+08         0.00000E+00
    0.00000E+00         0.00000E+00        -0.50107E+08
 
   -0.50181E+08         0.50968E+06         0.00000E+00
    0.50968E+06        -0.50000E+08         0.00000E+00
    0.00000E+00         0.00000E+00        -0.50091E+08
 
   -0.50149E+08         0.50045E+06         0.00000E+00
    0.50045E+06        -0.50002E+08         0.00000E+00
    0.00000E+00         0.00000E+00        -0.50076E+08
 
   -0.50120E+08         0.48997E+06         0.00000E+00
    0.48997E+06        -0.50004E+08         0.00000E+00
    0.00000E+00         0.00000E+00        -0.50062E+08
 
   -0.50092E+08         0.47821E+06         0.00000E+00
    0.47821E+06        -0.50006E+08         0.00000E+00
    0.00000E+00         0.00000E+00        -0.50049E+08
 
   -0.50067E+08         0.46514E+06         0.00000E+00
    0.46514E+06        -0.50008E+08         0.00000E+00
    0.00000E+00         0.00000E+00        -0.50037E+08
 
   -0.50045E+08         0.45073E+06         0.00000E+00
    0.45073E+06        -0.50010E+08         0.00000E+00
    0.00000E+00         0.00000E+00        -0.50026E+08
 
   -0.50025E+08         0.43498E+06         0.00000E+00
    0.43498E+06        -0.50012E+08         0.00000E+00
    0.00000E+00         0.00000E+00        -0.50016E+08
 
   -0.50008E+08         0.41790E+06         0.00000E+00
    0.41790E+06        -0.50013E+08         0.00000E+00
    0.00000E+00         0.00000E+00        -0.50008E+08
 
   -0.49994E+08         0.39949E+06         0.00000E+00
    0.39949E+06        -0.50014E+08         0.00000E+00
    0.00000E+00         0.00000E+00        -0.50001E+08
 
   -0.49984E+08         0.37981E+06         0.00000E+00
    0.37981E+06        -0.50015E+08         0.00000E+00
    0.00000E+00         0.00000E+00        -0.49995E+08
 
   -0.49977E+08         0.35890E+06         0.00000E+00
    0.35890E+06        -0.50015E+08         0.00000E+00
    0.00000E+00         0.00000E+00        -0.49990E+08
 
   -0.49974E+08         0.33686E+06         0.00000E+00
    0.33686E+06        -0.50014E+08         0.00000E+00
    0.00000E+00         0.00000E+00        -0.49987E+08
 
   -0.49976E+08         0.31380E+06         0.00000E+00
    0.31380E+06        -0.50012E+08         0.00000E+00
    0.00000E+00         0.00000E+00        -0.49985E+08
 
   -0.49981E+08         0.28985E+06         0.00000E+00
    0.28985E+06        -0.50009E+08         0.00000E+00
    0.00000E+00         0.00000E+00        -0.49985E+08
 
   -0.51779E+08         0.23338E+05         0.00000E+00
    0.23338E+05        -0.50000E+08         0.00000E+00
    0.00000E+00         0.00000E+00        -0.50826E+08
 
   -0.51747E+08         0.65590E+05         0.00000E+00
    0.65590E+05        -0.50001E+08         0.00000E+00
    0.00000E+00         0.00000E+00        -0.50818E+08
 
   -0.51711E+08         0.10589E+06         0.00000E+00
    0.10589E+06        -0.50002E+08         0.00000E+00
    0.00000E+00         0.00000E+00        -0.50808E+08
 
   -0.51673E+08         0.14421E+06         0.00000E+00
    0.14421E+06        -0.50004E+08         0.00000E+00
    0.00000E+00         0.00000E+00        -0.50796E+08
 
   -0.51632E+08         0.18053E+06         0.00000E+00
    0.18053E+06        -0.50006E+08         0.00000E+00
    0.00000E+00         0.00000E+00        -0.50783E+08
 
   -0.51590E+08         0.21484E+06         0.00000E+00
    0.21484E+06        -0.50009E+08         0.00000E+00
    0.00000E+00         0.00000E+00        -0.50767E+08
 
   -0.51545E+08         0.24714E+06         0.00000E+00
    0.24714E+06        -0.50012E+08         0.00000E+00
    0.00000E+00         0.00000E+00        -0.50751E+08
 
   -0.51498E+08         0.27746E+06         0.00000E+00
    0.27746E+06        -0.50015E+08         0.00000E+00
    0.00000E+00         0.00000E+00        -0.50733E+08
 
   -0.51451E+08         0.30581E+06         0.00000E+00
    0.30581E+06        -0.50019E+08         0.00000E+00
    0.00000E+00         0.00000E+00        -0.50714E+08
 
   -0.51402E+08         0.33223E+06         0.00000E+00
    0.33223E+06        -0.50023E+08         0.00000E+00
    0.00000E+00         0.00000E+00        -0.50694E+08
 
   -0.51352E+08         0.35675E+06         0.00000E+00
    0.35675E+06        -0.50026E+08         0.00000E+00
    0.00000E+00         0.00000E+00        -0.50674E+08
 
   -0.51302E+08         0.37943E+06         0.00000E+00
    0.37943E+06        -0.50030E+08         0.00000E+00
    0.00000E+00         0.00000E+00        -0.50653E+08
 
   -0.51251E+08         0.40031E+06         0.00000E+00
    0.40031E+06        -0.50034E+08         0.00000E+00
    0.00000E+00         0.00000E+00        -0.50631E+08
 
   -0.51200E+08         0.41946E+06         0.00000E+00
    0.41946E+06        -0.50037E+08         0.00000E+00
    0.00000E+00         0.00000E+00        -0.50609E+08
 
   -0.51149E+08         0.43693E+06         0.00000E+00
    0.43693E+06        -0.50041E+08         0.00000E+00
    0.00000E+00         0.00000E+00        -0.50587E+08
 
   -0.51098E+08         0.45279E+06         0.00000E+00
    0.45279E+06        -0.50045E+08         0.00000E+00
    0.00000E+00         0.00000E+00        -0.50565E+08
 
   -0.51047E+08         0.46708E+06         0.00000E+00
    0.46708E+06        -0.50048E+08         0.00000E+00
    0.00000E+00         0.00000E+00        -0.50542E+08
 
   -0.50997E+08         0.47989E+06         0.00000E+00
    0.47989E+06        -0.50052E+08         0.00000E+00
    0.00000E+00         0.00000E+00        -0.50520E+08
 
   -0.50947E+08         0.49125E+06         0.00000E+00
    0.49125E+06        -0.50055E+08         0.00000E+00
    0.00000E+00         0.00000E+00        -0.50497E+08
 
   -0.50898E+08         0.50124E+06         0.00000E+00
    0.50124E+06        -0.50059E+08         0.00000E+00
    0.00000E+00         0.00000E+00        -0.50475E+08
 
   -0.50850E+08         0.50991E+06         0.00000E+00
    0.50991E+06        -0.50062E+08         0.00000E+00
    0.00000E+00         0.00000E+00        -0.50453E+08
 
   -0.50802E+08         0.51731E+06         0.00000E+00
    0.51731E+06        -0.50065E+08         0.00000E+00
    0.00000E+00         0.00000E+00        -0.50431E+08
 
   -0.50755E+08         0.52349E+06         0.00000E+00
    0.52349E+06        -0.50068E+08         0.00000E+00
    0.00000E+00         0.00000E+00        -0.50410E+08
 
   -0.50709E+08         0.52849E+06         0.00000E+00
    0.52849E+06        -0.50071E+08         0.00000E+00
    0.00000E+00         0.00000E+00        -0.50389E+08
 
   -0.50664E+08         0.53234E+06         0.00000E+00
    0.53234E+06        -0.50075E+08         0.00000E+00
    0.00000E+00         0.00000E+00        -0.50368E+08
 
   -0.50620E+08         0.53510E+06         0.00000E+00
    0.53510E+06        -0.50078E+08         0.00000E+00
    0.00000E+00         0.00000E+00        -0.50348E+08
 
   -0.50577E+08         0.53677E+06         0.00000E+00
    0.53677E+06        -0.50081E+08         0.00000E+00
    0.00000E+00         0.00000E+00        -0.50329E+08
 
   -0.50536E+08         0.53739E+06         0.00000E+00
    0.53739E+06        -0.50084E+08         0.00000E+00
    0.00000E+00         0.00000E+00        -0.50309E+08
 
   -0.50495E+08         0.53698E+06         0.00000E+00
    0.53698E+06        -0.50087E+08         0.00000E+00
    0.00000E+00         0.00000E+00        -0.50291E+08
 
   -0.50456E+08         0.53555E+06         0.00000E+00
    0.53555E+06        -0.50090E+08         0.00000E+00
    0.00000E+00         0.00000E+00        -0.50273E+08
 
   -0.50419E+08         0.53311E+06         0.00000E+00
    0.53311E+06        -0.50093E+08         0.00000E+00
    0.00000E+00         0.00000E+00        -0.50256E+08
 
   -0.50382E+08         0.52967E+06         0.00000E+00
    0.52967E+06        -0.50097E+08         0.00000E+00
    0.00000E+00         0.00000E+00        -0.50239E+08
 
   -0.50347E+08         0.52523E+06         0.00000E+00
    0.52523E+06        -0.50100E+08         0.00000E+00
    0.00000E+00         0.00000E+00        -0.50224E+08
 
   -0.50314E+08         0.51980E+06         0.00000E+00
    0.51980E+06        -0.50103E+08         0.00000E+00
    0.00000E+00         0.00000E+00        -0.50209E+08
 
   -0.50283E+08         0.51339E+06         0.00000E+00
    0.51339E+06        -0.50107E+08         0.00000E+00
    0.00000E+00         0.00000E+00        -0.50194E+08
 
   -0.50253E+08         0.50599E+06         0.00000E+00
    0.50599E+06        -0.50110E+08         0.00000E+00
    0.00000E+00         0.00000E+00        -0.50181E+08
 
   -0.50225E+08         0.49760E+06         0.00000E+00
    0.49760E+06        -0.50113E+08         0.00000E+00
    0.00000E+00         0.00000E+00        -0.50168E+08
 
   -0.50199E+08         0.48824E+06         0.00000E+00
    0.48824E+06        -0.50116E+08         0.00000E+00
    0.00000E+00         0.00000E+00        -0.50157E+08
 
   -0.50175E+08         0.47791E+06         0.00000E+00
    0.47791E+06        -0.50119E+08         0.00000E+00
    0.00000E+00         0.00000E+00        -0.50146E+08
 
   -0.50153E+08         0.46663E+06         0.00000E+00
    0.46663E+06        -0.50122E+08         0.00000E+00
    0.00000E+00         0.00000E+00        -0.50136E+08
 
   -0.50134E+08         0.45442E+06         0.00000E+00
    0.45442E+06        -0.50125E+08         0.00000E+00
    0.00000E+00         0.00000E+00        -0.50127E+08
 
   -0.50116E+08         0.44131E+06         0.00000E+00
    0.44131E+06        -0.50127E+08         0.00000E+00
    0.00000E+00         0.00000E+00        -0.50119E+08
 
   -0.50102E+08         0.42734E+06         0.00000E+00
    0.42734E+06        -0.50128E+08         0.00000E+00
    0.00000E+00         0.00000E+00        -0.50112E+08
 
   -0.50090E+08         0.41255E+06         0.00000E+00
    0.41255E+06        -0.50130E+08         0.00000E+00
    0.00000E+00         0.00000E+00        -0.50105E+08
 
   -0.50081E+08         0.39702E+06         0.00000E+00
    0.39702E+06        -0.50130E+08         0.00000E+00
    0.00000E+00         0.00000E+00        -0.50100E+08
 
   -0.50076E+08         0.38082E+06         0.00000E+00
    0.38082E+06        -0.50130E+08         0.00000E+00
    0.00000E+00         0.00000E+00        -0.50096E+08
 
   -0.50073E+08         0.36404E+06         0.00000E+00
    0.36404E+06        -0.50129E+08         0.00000E+00
    0.00000E+00         0.00000E+00        -0.50093E+08
 
   -0.50074E+08         0.34679E+06         0.00000E+00
    0.34679E+06        -0.50127E+08         0.00000E+00
    0.00000E+00         0.00000E+00        -0.50091E+08
 
   -0.50078E+08         0.32920E+06         0.00000E+00
    0.32920E+06        -0.50125E+08         0.00000E+00
    0.00000E+00         0.00000E+00        -0.50091E+08
 
   -0.50086E+08         0.31142E+06         0.00000E+00
    0.31142E+06        -0.50121E+08         0.00000E+00
    0.00000E+00         0.00000E+00        -0.50091E+08
 
   -0.51572E+08         0.21033E+05         0.00000E+00
    0.21033E+05        -0.50000E+08         0.00000E+00
    0.00000E+00         0.00000E+00        -0.50741E+08
 
   -0.51549E+08         0.59641E+05         0.00000E+00
    0.59641E+05        -0.50001E+08         0.00000E+00
    0.00000E+00         0.00000E+00        -0.50735E+08
 
   -0.51522E+08         0.96692E+05         0.00000E+00
    0.96692E+05        -0.50002E+08         0.00000E+00
    0.00000E+00         0.00000E+00        -0.50728E+08
 
   -0.51493E+08         0.13214E+06         0.00000E+00
    0.13214E+06        -0.50005E+08         0.00000E+00
    0.00000E+00         0.00000E+00        -0.50719E+08
 
   -0.51461E+08         0.16594E+06         0.00000E+00
    0.16594E+06        -0.50008E+08         0.00000E+00
    0.00000E+00         0.00000E+00        -0.50708E+08
 
   -0.51428E+08         0.19808E+06         0.00000E+00
    0.19808E+06        -0.50011E+08         0.00000E+00
    0.00000E+00         0.00000E+00        -0.50697E+08
 
   -0.51392E+08         0.22853E+06         0.00000E+00
    0.22853E+06        -0.50015E+08         0.00000E+00
    0.00000E+00         0.00000E+00        -0.50684E+08
 
   -0.51355E+08         0.25729E+06         0.00000E+00
    0.25729E+06        -0.50020E+08         0.00000E+00
    0.00000E+00         0.00000E+00        -0.50670E+08
 
   -0.51316E+08         0.28435E+06         0.00000E+00
    0.28435E+06        -0.50024E+08         0.00000E+00
    0.00000E+00         0.00000E+00        -0.50656E+08
 
   -0.51276E+08         0.30974E+06         0.00000E+00
    0.30974E+06        -0.50029E+08         0.00000E+00
    0.00000E+00         0.00000E+00        -0.50640E+08
 
   -0.51235E+08         0.33346E+06         0.00000E+00
    0.33346E+06        -0.50035E+08         0.00000E+00
    0.00000E+00         0.00000E+00        -0.50624E+08
 
   -0.51194E+08         0.35554E+06         0.00000E+00
    0.35554E+06        -0.50040E+08         0.00000E+00
    0.00000E+00         0.00000E+00        -0.50608E+08
 
   -0.51151E+08         0.37600E+06         0.00000E+00
    0.37600E+06        -0.50046E+08         0.00000E+00
    0.00000E+00         0.00000E+00        -0.50591E+08
 
   -0.51109E+08         0.39488E+06         0.00000E+00
    0.39488E+06        -0.50052E+08         0.00000E+00
    0.00000E+00         0.00000E+00        -0.50574E+08
 
   -0.51066E+08         0.41221E+06         0.00000E+00
    0.41221E+06        -0.50058E+08         0.00000E+00
    0.00000E+00         0.00000E+00        -0.50556E+08
 
   -0.51022E+08         0.42803E+06         0.00000E+00
    0.42803E+06        -0.50064E+08         0.00000E+00
    0.00000E+00         0.00000E+00        -0.50538E+08
 
   -0.50979E+08         0.44237E+06         0.00000E+00
    0.44237E+06        -0.50070E+08         0.00000E+00
    0.00000E+00         0.00000E+00        -0.50520E+08
 
   -0.50936E+08         0.45529E+06         0.00000E+00
    0.45529E+06        -0.50076E+08         0.00000E+00
    0.00000E+00         0.00000E+00        -0.50503E+08
 
   -0.50893E+08         0.46681E+06         0.00000E+00
    0.46681E+06        -0.50082E+08         0.00000E+00
    0.00000E+00         0.00000E+00        -0.50485E+08
 
   -0.50851E+08         0.47699E+06         0.00000E+00
    0.47699E+06        -0.50088E+08         0.00000E+00
    0.00000E+00         0.00000E+00        -0.50467E+08
 
   -0.50809E+08         0.48586E+06         0.00000E+00
    0.48586E+06        -0.50094E+08         0.00000E+00
    0.00000E+00         0.00000E+00        -0.50450E+08
 
   -0.50767E+08         0.49347E+06         0.00000E+00
    0.49347E+06        -0.50100E+08         0.00000E+00
    0.00000E+00         0.00000E+00        -0.50432E+08
 
   -0.50726E+08         0.49985E+06         0.00000E+00
    0.49985E+06        -0.50106E+08         0.00000E+00
    0.00000E+00         0.00000E+00        -0.50415E+08
 
   -0.50686E+08         0.50505E+06         0.00000E+00
    0.50505E+06        -0.50112E+08         0.00000E+00
    0.00000E+00         0.00000E+00        -0.50398E+08
 
   -0.50647E+08         0.50909E+06         0.00000E+00
    0.50909E+06        -0.50118E+08         0.00000E+00
    0.00000E+00         0.00000E+00        -0.50382E+08
 
   -0.50609E+08         0.51202E+06         0.00000E+00
    0.51202E+06        -0.50124E+08         0.00000E+00
    0.00000E+00         0.00000E+00        -0.50366E+08
 
   -0.50571E+08         0.51386E+06         0.00000E+00
    0.51386E+06        -0.50130E+08         0.00000E+00
    0.00000E+00         0.00000E+00        -0.50350E+08
 
   -0.50535E+08         0.51465E+06         0.00000E+00
    0.51465E+06        -0.50136E+08         0.00000E+00
    0.00000E+00         0.00000E+00        -0.50335E+08
 
   -0.50500E+08         0.51441E+06         0.00000E+00
    0.51441E+06        -0.50141E+08         0.00000E+00
    0.00000E+00         0.00000E+00        -0.50320E+08
 
   -0.50465E+08         0.51318E+06         0.00000E+00
    0.51318E+06        -0.50147E+08         0.00000E+00
    0.00000E+00         0.00000E+00        -0.50306E+08
 
   -0.50433E+08         0.51098E+06         0.00000E+00
    0.51098E+06        -0.50152E+08         0.00000E+00
    0.00000E+00         0.00000E+00        -0.50292E+08
 
   -0.50401E+08         0.50784E+06         0.00000E+00
    0.50784E+06        -0.50157E+08         0.00000E+00
    0.00000E+00         0.00000E+00        -0.50279E+08
 
   -0.50371E+08         0.50378E+06         0.00000E+00
    0.50378E+06        -0.50163E+08         0.00000E+00
    0.00000E+00         0.00000E+00        -0.50266E+08
 
   -0.50343E+08         0.49884E+06         0.00000E+00
    0.49884E+06        -0.50168E+08         0.00000E+00
    0.00000E+00         0.00000E+00        -0.50255E+08
 
   -0.50316E+08         0.49303E+06         0.00000E+00
    0.49303E+06        -0.50172E+08         0.00000E+00
    0.00000E+00         0.00000E+00        -0.50243E+08
 
   -0.50290E+08         0.48640E+06         0.00000E+00
    0.48640E+06        -0.50177E+08         0.00000E+00
    0.00000E+00         0.00000E+00        -0.50233E+08
 
   -0.50267E+08         0.47896E+06         0.00000E+00
    0.47896E+06        -0.50181E+08         0.00000E+00
    0.00000E+00         0.00000E+00        -0.50223E+08
 
   -0.50245E+08         0.47076E+06         0.00000E+00
    0.47076E+06        -0.50185E+08         0.00000E+00
    0.00000E+00         0.00000E+00        -0.50214E+08
 
   -0.50225E+08         0.46184E+06         0.00000E+00
    0.46184E+06        -0.50189E+08         0.00000E+00
    0.00000E+00         0.00000E+00        -0.50205E+08
 
   -0.50207E+08         0.45223E+06         0.00000E+00
    0.45223E+06        -0.50193E+08         0.00000E+00
    0.00000E+00         0.00000E+00        -0.50198E+08
 
   -0.50191E+08         0.44199E+06         0.00000E+00
    0.44199E+06        -0.50195E+08         0.00000E+00
    0.00000E+00         0.00000E+00        -0.50191E+08
 
   -0.50178E+08         0.43118E+06         0.00000E+00
    0.43118E+06        -0.50198E+08         0.00000E+00
    0.00000E+00         0.00000E+00        -0.50185E+08
 
   -0.50167E+08         0.41985E+06         0.00000E+00
    0.41985E+06        -0.50200E+08         0.00000E+00
    0.00000E+00         0.00000E+00        -0.50179E+08
 
   -0.50158E+08         0.40808E+06         0.00000E+00
    0.40808E+06        -0.50201E+08         0.00000E+00
    0.00000E+00         0.00000E+00        -0.50175E+08
 
   -0.50152E+08         0.39595E+06         0.00000E+00
    0.39595E+06        -0.50202E+08         0.00000E+00
    0.00000E+00         0.00000E+00        -0.50171E+08
 
   -0.50148E+08         0.38355E+06         0.00000E+00
    0.38355E+06        -0.50202E+08         0.00000E+00
    0.00000E+00         0.00000E+00        -0.50168E+08
 
   -0.50147E+08         0.37098E+06         0.00000E+00
    0.37098E+06        -0.50201E+08         0.00000E+00
    0.00000E+00         0.00000E+00        -0.50166E+08
 
   -0.50149E+08         0.35836E+06         0.00000E+00
    0.35836E+06        -0.50199E+08         0.00000E+00
    0.00000E+00         0.00000E+00        -0.50165E+08
 
   -0.50153E+08         0.34580E+06         0.00000E+00
    0.34580E+06        -0.50196E+08         0.00000E+00
    0.00000E+00         0.00000E+00        -0.50164E+08
 
   -0.50161E+08         0.33345E+06         0.00000E+00
    0.33345E+06        -0.50193E+08         0.00000E+00
    0.00000E+00         0.00000E+00        -0.50165E+08
 
   -0.51386E+08         0.18555E+05         0.00000E+00
    0.18555E+05        -0.50000E+08         0.00000E+00
    0.00000E+00         0.00000E+00        -0.50662E+08
 
   -0.51369E+08         0.53045E+05         0.00000E+00
    0.53045E+05        -0.50001E+08         0.00000E+00
    0.00000E+00         0.00000E+00        -0.50658E+08
 
   -0.51350E+08         0.86324E+05         0.00000E+00
    0.86324E+05        -0.50003E+08         0.00000E+00
    0.00000E+00         0.00000E+00        -0.50652E+08
 
   -0.51328E+08         0.11833E+06         0.00000E+00
    0.11833E+06        -0.50005E+08         0.00000E+00
    0.00000E+00         0.00000E+00        -0.50646E+08
 
   -0.51304E+08         0.14903E+06         0.00000E+00
    0.14903E+06        -0.50008E+08         0.00000E+00
    0.00000E+00         0.00000E+00        -0.50638E+08
 
   -0.51278E+08         0.17836E+06         0.00000E+00
    0.17836E+06        -0.50012E+08         0.00000E+00
    0.00000E+00         0.00000E+00        -0.50629E+08
 
   -0.51250E+08         0.20632E+06         0.00000E+00
    0.20632E+06        -0.50016E+08         0.00000E+00
    0.00000E+00         0.00000E+00        -0.50619E+08
 
   -0.51220E+08         0.23286E+06         0.00000E+00
    0.23286E+06        -0.50021E+08         0.00000E+00
    0.00000E+00         0.00000E+00        -0.50609E+08
 
   -0.51189E+08         0.25798E+06         0.00000E+00
    0.25798E+06        -0.50027E+08         0.00000E+00
    0.00000E+00         0.00000E+00        -0.50598E+08
 
   -0.51157E+08         0.28168E+06         0.00000E+00
    0.28168E+06        -0.50032E+08         0.00000E+00
    0.00000E+00         0.00000E+00        -0.50586E+08
 
   -0.51124E+08         0.30394E+06         0.00000E+00
    0.30394E+06        -0.50039E+08         0.00000E+00
    0.00000E+00         0.00000E+00        -0.50574E+08
 
   -0.51090E+08         0.32478E+06         0.00000E+00
    0.32478E+06        -0.50045E+08         0.00000E+00
    0.00000E+00         0.00000E+00        -0.50561E+08
 
   -0.51055E+08         0.34421E+06         0.00000E+00
    0.34421E+06        -0.50052E+08         0.00000E+00
    0.00000E+00         0.00000E+00        -0.50548E+08
 
   -0.51020E+08         0.36224E+06         0.00000E+00
    0.36224E+06        -0.50059E+08         0.00000E+00
    0.00000E+00         0.00000E+00        -0.50535E+08
 
   -0.50984E+08         0.37889E+06         0.00000E+00
    0.37889E+06        -0.50066E+08         0.00000E+00
    0.00000E+00         0.00000E+00        -0.50521E+08
 
   -0.50948E+08         0.39418E+06         0.00000E+00
    0.39418E+06        -0.50073E+08         0.00000E+00
    0.00000E+00         0.00000E+00        -0.50507E+08
 
   -0.50912E+08         0.40814E+06         0.00000E+00
    0.40814E+06        -0.50080E+08         0.00000E+00
    0.00000E+00         0.00000E+00        -0.50493E+08
 
   -0.50875E+08         0.42080E+06         0.00000E+00
    0.42080E+06        -0.50088E+08         0.00000E+00
    0.00000E+00         0.00000E+00        -0.50479E+08
 
   -0.50839E+08         0.43218E+06         0.00000E+00
    0.43218E+06        -0.50095E+08         0.00000E+00
    0.00000E+00         0.00000E+00        -0.50465E+08
 
   -0.50803E+08         0.44231E+06         0.00000E+00
    0.44231E+06        -0.50103E+08         0.00000E+00
    0.00000E+00         0.00000E+00        -0.50451E+08
 
   -0.50767E+08         0.45123E+06         0.00000E+00
    0.45123E+06        -0.50110E+08         0.00000E+00
    0.00000E+00         0.00000E+00        -0.50437E+08
 
   -0.50732E+08         0.45896E+06         0.00000E+00
    0.45896E+06        -0.50118E+08         0.00000E+00
    0.00000E+00         0.00000E+00        -0.50424E+08
 
   -0.50697E+08         0.46555E+06         0.00000E+00
    0.46555E+06        -0.50125E+08         0.00000E+00
    0.00000E+00         0.00000E+00        -0.50410E+08
 
   -0.50662E+08         0.47102E+06         0.00000E+00
    0.47102E+06        -0.50133E+08         0.00000E+00
    0.00000E+00         0.00000E+00        -0.50397E+08
 
   -0.50629E+08         0.47541E+06         0.00000E+00
    0.47541E+06        -0.50140E+08         0.00000E+00
    0.00000E+00         0.00000E+00        -0.50384E+08
 
   -0.50596E+08         0.47875E+06         0.00000E+00
    0.47875E+06        -0.50148E+08         0.00000E+00
    0.00000E+00         0.00000E+00        -0.50371E+08
 
   -0.50563E+08         0.48107E+06         0.00000E+00
    0.48107E+06        -0.50155E+08         0.00000E+00
    0.00000E+00         0.00000E+00        -0.50359E+08
 
   -0.50532E+08         0.48242E+06         0.00000E+00
    0.48242E+06        -0.50162E+08         0.00000E+00
    0.00000E+00         0.00000E+00        -0.50347E+08
 
   -0.50501E+08         0.48282E+06         0.00000E+00
    0.48282E+06        -0.50169E+08         0.00000E+00
    0.00000E+00         0.00000E+00        -0.50335E+08
 
   -0.50472E+08         0.48230E+06         0.00000E+00
    0.48230E+06        -0.50176E+08         0.00000E+00
    0.00000E+00         0.00000E+00        -0.50324E+08
 
   -0.50444E+08         0.48092E+06         0.00000E+00
    0.48092E+06        -0.50182E+08         0.00000E+00
    0.00000E+00         0.00000E+00        -0.50313E+08
 
   -0.50417E+08         0.47869E+06         0.00000E+00
    0.47869E+06        -0.50189E+08         0.00000E+00
    0.00000E+00         0.00000E+00        -0.50302E+08
 
   -0.50391E+08         0.47566E+06         0.00000E+00
    0.47566E+06        -0.50195E+08         0.00000E+00
    0.00000E+00         0.00000E+00        -0.50292E+08
 
   -0.50366E+08         0.47187E+06         0.00000E+00
    0.47187E+06        -0.50201E+08         0.00000E+00
    0.00000E+00         0.00000E+00        -0.50283E+08
 
   -0.50343E+08         0.46736E+06         0.00000E+00
    0.46736E+06        -0.50206E+08         0.00000E+00
    0.00000E+00         0.00000E+00        -0.50274E+08
 
   -0.50322E+08         0.46217E+06         0.00000E+00
    0.46217E+06        -0.50212E+08         0.00000E+00
    0.00000E+00         0.00000E+00        -0.50266E+08
 
   -0.50301E+08         0.45635E+06         0.00000E+00
    0.45635E+06        -0.50217E+08         0.00000E+00
    0.00000E+00         0.00000E+00        -0.50258E+08
 
   -0.50283E+08         0.44995E+06         0.00000E+00
    0.44995E+06        -0.50221E+08         0.00000E+00
    0.00000E+00         0.00000E+00        -0.50251E+08
 
   -0.50266E+08         0.44301E+06         0.00000E+00
    0.44301E+06        -0.50226E+08         0.00000E+00
    0.00000E+00         0.00000E+00        -0.50244E+08
 
   -0.50251E+08         0.43560E+06         0.00000E+00
    0.43560E+06        -0.50229E+08         0.00000E+00
    0.00000E+00         0.00000E+00        -0.50238E+08
 
   -0.50238E+08         0.42778E+06         0.00000E+00
    0.42778E+06        -0.50233E+08         0.00000E+00
    0.00000E+00         0.00000E+00        -0.50233E+08
 
   -0.50226E+08         0.41961E+06         0.00000E+00
    0.41961E+06        -0.50235E+08         0.00000E+00
    0.00000E+00         0.00000E+00        -0.50228E+08
 
   -0.50217E+08         0.41117E+06         0.00000E+00
    0.41117E+06        -0.50238E+08         0.00000E+00
    0.00000E+00         0.00000E+00        -0.50224E+08
 
   -0.50209E+08         0.40253E+06         0.00000E+00
    0.40253E+06        -0.50239E+08         0.00000E+00
    0.00000E+00         0.00000E+00        -0.50220E+08
 
   -0.50204E+08         0.39377E+06         0.00000E+00
    0.39377E+06        -0.50240E+08         0.00000E+00
    0.00000E+00         0.00000E+00        -0.50218E+08
 
   -0.50201E+08         0.38499E+06         0.00000E+00
    0.38499E+06        -0.50241E+08         0.00000E+00
    0.00000E+00         0.00000E+00        -0.50215E+08
 
   -0.50200E+08         0.37628E+06         0.00000E+00
    0.37628E+06        -0.50240E+08         0.00000E+00
    0.00000E+00         0.00000E+00        -0.50214E+08
 
   -0.50201E+08         0.36775E+06         0.00000E+00
    0.36775E+06        -0.50239E+08         0.00000E+00
    0.00000E+00         0.00000E+00        -0.50213E+08
 
   -0.50204E+08         0.35950E+06         0.00000E+00
    0.35950E+06        -0.50237E+08         0.00000E+00
    0.00000E+00         0.00000E+00        -0.50212E+08
 
   -0.50210E+08         0.35166E+06         0.00000E+00
    0.35166E+06        -0.50234E+08         0.00000E+00
    0.00000E+00         0.00000E+00        -0.50213E+08
 
   -0.51222E+08         0.16098E+05         0.00000E+00
    0.16098E+05        -0.50000E+08         0.00000E+00
    0.00000E+00         0.00000E+00        -0.50590E+08
 
   -0.51210E+08         0.46371E+05         0.00000E+00
    0.46371E+05        -0.50001E+08         0.00000E+00
    0.00000E+00         0.00000E+00        -0.50587E+08
 
   -0.51196E+08         0.75731E+05         0.00000E+00
    0.75731E+05        -0.50003E+08         0.00000E+00
    0.00000E+00         0.00000E+00        -0.50583E+08
 
   -0.51180E+08         0.10411E+06         0.00000E+00
    0.10411E+06        -0.50005E+08         0.00000E+00
    0.00000E+00         0.00000E+00        -0.50578E+08
 
   -0.51162E+08         0.13146E+06         0.00000E+00
    0.13146E+06        -0.50008E+08         0.00000E+00
    0.00000E+00         0.00000E+00        -0.50573E+08
 
   -0.51142E+08         0.15774E+06         0.00000E+00
    0.15774E+06        -0.50012E+08         0.00000E+00
    0.00000E+00         0.00000E+00        -0.50566E+08
 
   -0.51120E+08         0.18290E+06         0.00000E+00
    0.18290E+06        -0.50016E+08         0.00000E+00
    0.00000E+00         0.00000E+00        -0.50559E+08
 
   -0.51097E+08         0.20692E+06         0.00000E+00
    0.20692E+06        -0.50021E+08         0.00000E+00
    0.00000E+00         0.00000E+00        -0.50551E+08
 
   -0.51073E+08         0.22977E+06         0.00000E+00
    0.22977E+06        -0.50027E+08         0.00000E+00
    0.00000E+00         0.00000E+00        -0.50543E+08
 
   -0.51047E+08         0.25143E+06         0.00000E+00
    0.25143E+06        -0.50033E+08         0.00000E+00
    0.00000E+00         0.00000E+00        -0.50534E+08
 
   -0.51021E+08         0.27190E+06         0.00000E+00
    0.27190E+06        -0.50039E+08         0.00000E+00
    0.00000E+00         0.00000E+00        -0.50525E+08
 
   -0.50993E+08         0.29116E+06         0.00000E+00
    0.29116E+06        -0.50046E+08         0.00000E+00
    0.00000E+00         0.00000E+00        -0.50515E+08
 
   -0.50965E+08         0.30923E+06         0.00000E+00
    0.30923E+06        -0.50053E+08         0.00000E+00
    0.00000E+00         0.00000E+00        -0.50505E+08
 
   -0.50936E+08         0.32609E+06         0.00000E+00
    0.32609E+06        -0.50060E+08         0.00000E+00
    0.00000E+00         0.00000E+00        -0.50495E+08
 
   -0.50906E+08         0.34176E+06         0.00000E+00
    0.34176E+06        -0.50067E+08         0.00000E+00
    0.00000E+00         0.00000E+00        -0.50484E+08
 
   -0.50877E+08         0.35625E+06         0.00000E+00
    0.35625E+06        -0.50075E+08         0.00000E+00
    0.00000E+00         0.00000E+00        -0.50474E+08
 
   -0.50846E+08         0.36958E+06         0.00000E+00
    0.36958E+06        -0.50083E+08         0.00000E+00
    0.00000E+00         0.00000E+00        -0.50463E+08
 
   -0.50816E+08         0.38176E+06         0.00000E+00
    0.38176E+06        -0.50091E+08         0.00000E+00
    0.00000E+00         0.00000E+00        -0.50452E+08
 
   -0.50786E+08         0.39280E+06         0.00000E+00
    0.39280E+06        -0.50099E+08         0.00000E+00
    0.00000E+00         0.00000E+00        -0.50441E+08
 
   -0.50756E+08         0.40275E+06         0.00000E+00
    0.40275E+06        -0.50107E+08         0.00000E+00
    0.00000E+00         0.00000E+00        -0.50430E+08
 
   -0.50725E+08         0.41160E+06         0.00000E+00
    0.41160E+06        -0.50115E+08         0.00000E+00
    0.00000E+00         0.00000E+00        -0.50419E+08
 
   -0.50696E+08         0.41941E+06         0.00000E+00
    0.41941E+06        -0.50123E+08         0.00000E+00
    0.00000E+00         0.00000E+00        -0.50409E+08
 
   -0.50666E+08         0.42618E+06         0.00000E+00
    0.42618E+06        -0.50131E+08         0.00000E+00
    0.00000E+00         0.00000E+00        -0.50398E+08
 
   -0.50637E+08         0.43195E+06         0.00000E+00
    0.43195E+06        -0.50139E+08         0.00000E+00
    0.00000E+00         0.00000E+00        -0.50388E+08
 
   -0.50608E+08         0.43676E+06         0.00000E+00
    0.43676E+06        -0.50147E+08         0.00000E+00
    0.00000E+00         0.00000E+00        -0.50377E+08
 
   -0.50580E+08         0.44062E+06         0.00000E+00
    0.44062E+06        -0.50155E+08         0.00000E+00
    0.00000E+00         0.00000E+00        -0.50367E+08
 
   -0.50552E+08         0.44358E+06         0.00000E+00
    0.44358E+06        -0.50163E+08         0.00000E+00
    0.00000E+00         0.00000E+00        -0.50357E+08
 
   -0.50525E+08         0.44567E+06         0.00000E+00
    0.44567E+06        -0.50171E+08         0.00000E+00
    0.00000E+00         0.00000E+00        -0.50348E+08
 
   -0.50499E+08         0.44692E+06         0.00000E+00
    0.44692E+06        -0.50178E+08         0.00000E+00
    0.00000E+00         0.00000E+00        -0.50338E+08
 
   -0.50474E+08         0.44737E+06         0.00000E+00
    0.44737E+06        -0.50185E+08         0.00000E+00
    0.00000E+00         0.00000E+00        -0.50330E+08
 
   -0.50450E+08         0.44706E+06         0.00000E+00
    0.44706E+06        -0.50192E+08         0.00000E+00
    0.00000E+00         0.00000E+00        -0.50321E+08
 
   -0.50427E+08         0.44604E+06         0.00000E+00
    0.44604E+06        -0.50199E+08         0.00000E+00
    0.00000E+00         0.00000E+00        -0.50313E+08
 
   -0.50404E+08         0.44433E+06         0.00000E+00
    0.44433E+06        -0.50206E+08         0.00000E+00
    0.00000E+00         0.00000E+00        -0.50305E+08
 
   -0.50383E+08         0.44198E+06         0.00000E+00
    0.44198E+06        -0.50212E+08         0.00000E+00
    0.00000E+00         0.00000E+00        -0.50297E+08
 
   -0.50363E+08         0.43904E+06         0.00000E+00
    0.43904E+06        -0.50218E+08         0.00000E+00
    0.00000E+00         0.00000E+00        -0.50290E+08
 
   -0.50345E+08         0.43557E+06         0.00000E+00
    0.43557E+06        -0.50224E+08         0.00000E+00
    0.00000E+00         0.00000E+00        -0.50283E+08
 
   -0.50327E+08         0.43160E+06         0.00000E+00
    0.43160E+06        -0.50229E+08         0.00000E+00
    0.00000E+00         0.00000E+00        -0.50277E+08
 
   -0.50311E+08         0.42719E+06         0.00000E+00
    0.42719E+06        -0.50234E+08         0.00000E+00
    0.00000E+00         0.00000E+00        -0.50271E+08
 
   -0.50296E+08         0.42240E+06         0.00000E+00
    0.42240E+06        -0.50238E+08         0.00000E+00
    0.00000E+00         0.00000E+00        -0.50266E+08
 
   -0.50283E+08         0.41728E+06         0.00000E+00
    0.41728E+06        -0.50242E+08         0.00000E+00
    0.00000E+00         0.00000E+00        -0.50261E+08
 
   -0.50271E+08         0.41191E+06         0.00000E+00
    0.41191E+06        -0.50246E+08         0.00000E+00
    0.00000E+00         0.00000E+00        -0.50257E+08
 
   -0.50261E+08         0.40634E+06         0.00000E+00
    0.40634E+06        -0.50249E+08         0.00000E+00
    0.00000E+00         0.00000E+00        -0.50253E+08
 
   -0.50252E+08         0.40065E+06         0.00000E+00
    0.40065E+06        -0.50252E+08         0.00000E+00
    0.00000E+00         0.00000E+00        -0.50250E+08
 
   -0.50245E+08         0.39490E+06         0.00000E+00
    0.39490E+06        -0.50254E+08         0.00000E+00
    0.00000E+00         0.00000E+00        -0.50247E+08
 
   -0.50240E+08         0.38919E+06         0.00000E+00
    0.38919E+06        -0.50255E+08         0.00000E+00
    0.00000E+00         0.00000E+00        -0.50244E+08
 
   -0.50236E+08         0.38358E+06         0.00000E+00
    0.38358E+06        -0.50256E+08         0.00000E+00
    0.00000E+00         0.00000E+00        -0.50243E+08
 
   -0.50234E+08         0.37817E+06         0.00000E+00
    0.37817E+06        -0.50256E+08         0.00000E+00
    0.00000E+00         0.00000E+00        -0.50241E+08
 
   -0.50234E+08         0.37304E+06         0.00000E+00
    0.37304E+06        -0.50256E+08         0.00000E+00
    0.00000E+00         0.00000E+00        -0.50240E+08
 
   -0.50235E+08         0.36830E+06         0.00000E+00
    0.36830E+06        -0.50255E+08         0.00000E+00
    0.00000E+00         0.00000E+00        -0.50240E+08
 
   -0.50238E+08         0.36403E+06         0.00000E+00
    0.36403E+06        -0.50254E+08         0.00000E+00
    0.00000E+00         0.00000E+00        -0.50240E+08
 
   -0.51079E+08         0.13791E+05         0.00000E+00
    0.13791E+05        -0.50000E+08         0.00000E+00
    0.00000E+00         0.00000E+00        -0.50526E+08
 
   -0.51071E+08         0.40018E+05         0.00000E+00
    0.40018E+05        -0.50001E+08         0.00000E+00
    0.00000E+00         0.00000E+00        -0.50524E+08
 
   -0.51061E+08         0.65575E+05         0.00000E+00
    0.65575E+05        -0.50002E+08         0.00000E+00
    0.00000E+00         0.00000E+00        -0.50521E+08
 
   -0.51049E+08         0.90400E+05         0.00000E+00
    0.90400E+05        -0.50005E+08         0.00000E+00
    0.00000E+00         0.00000E+00        -0.50518E+08
 
   -0.51036E+08         0.11444E+06         0.00000E+00
    0.11444E+06        -0.50008E+08         0.00000E+00
    0.00000E+00         0.00000E+00        -0.50514E+08
 
   -0.51021E+08         0.13764E+06         0.00000E+00
    0.13764E+06        -0.50011E+08         0.00000E+00
    0.00000E+00         0.00000E+00        -0.50509E+08
 
   -0.51004E+08         0.15997E+06         0.00000E+00
    0.15997E+06        -0.50015E+08         0.00000E+00
    0.00000E+00         0.00000E+00        -0.50504E+08
 
   -0.50986E+08         0.18139E+06         0.00000E+00
    0.18139E+06        -0.50020E+08         0.00000E+00
    0.00000E+00         0.00000E+00        -0.50498E+08
 
   -0.50967E+08         0.20188E+06         0.00000E+00
    0.20188E+06        -0.50025E+08         0.00000E+00
    0.00000E+00         0.00000E+00        -0.50492E+08
 
   -0.50947E+08         0.22140E+06         0.00000E+00
    0.22140E+06        -0.50031E+08         0.00000E+00
    0.00000E+00         0.00000E+00        -0.50485E+08
 
   -0.50926E+08         0.23994E+06         0.00000E+00
    0.23994E+06        -0.50037E+08         0.00000E+00
    0.00000E+00         0.00000E+00        -0.50478E+08
 
   -0.50904E+08         0.25750E+06         0.00000E+00
    0.25750E+06        -0.50044E+08         0.00000E+00
    0.00000E+00         0.00000E+00        -0.50471E+08
 
   -0.50881E+08         0.27405E+06         0.00000E+00
    0.27405E+06        -0.50050E+08         0.00000E+00
    0.00000E+00         0.00000E+00        -0.50463E+08
 
   -0.50857E+08         0.28961E+06         0.00000E+00
    0.28961E+06        -0.50057E+08         0.00000E+00
    0.00000E+00         0.00000E+00        -0.50455E+08
 
   -0.50833E+08         0.30416E+06         0.00000E+00
    0.30416E+06        -0.50065E+08         0.00000E+00
    0.00000E+00         0.00000E+00        -0.50447E+08
 
   -0.50809E+08         0.31771E+06         0.00000E+00
    0.31771E+06        -0.50072E+08         0.00000E+00
    0.00000E+00         0.00000E+00        -0.50439E+08
 
   -0.50784E+08         0.33027E+06         0.00000E+00
    0.33027E+06        -0.50080E+08         0.00000E+00
    0.00000E+00         0.00000E+00        -0.50431E+08
 
   -0.50759E+08         0.34186E+06         0.00000E+00
    0.34186E+06        -0.50088E+08         0.00000E+00
    0.00000E+00         0.00000E+00        -0.50423E+08
 
   -0.50734E+08         0.35247E+06         0.00000E+00
    0.35247E+06        -0.50096E+08         0.00000E+00
    0.00000E+00         0.00000E+00        -0.50414E+08
 
   -0.50709E+08         0.36213E+06         0.00000E+00
    0.36213E+06        -0.50104E+08         0.00000E+00
    0.00000E+00         0.00000E+00        -0.50406E+08
 
   -0.50684E+08         0.37086E+06         0.00000E+00
    0.37086E+06        -0.50112E+08         0.00000E+00
    0.00000E+00         0.00000E+00        -0.50397E+08
 
   -0.50659E+08         0.37867E+06         0.00000E+00
    0.37867E+06        -0.50120E+08         0.00000E+00
    0.00000E+00         0.00000E+00        -0.50389E+08
 
   -0.50634E+08         0.38559E+06         0.00000E+00
    0.38559E+06        -0.50128E+08         0.00000E+00
    0.00000E+00         0.00000E+00        -0.50381E+08
 
   -0.50609E+08         0.39165E+06         0.00000E+00
    0.39165E+06        -0.50136E+08         0.00000E+00
    0.00000E+00         0.00000E+00        -0.50372E+08
 
   -0.50585E+08         0.39686E+06         0.00000E+00
    0.39686E+06        -0.50144E+08         0.00000E+00
    0.00000E+00         0.00000E+00        -0.50364E+08
 
   -0.50561E+08         0.40126E+06         0.00000E+00
    0.40126E+06        -0.50152E+08         0.00000E+00
    0.00000E+00         0.00000E+00        -0.50356E+08
 
   -0.50538E+08         0.40488E+06         0.00000E+00
    0.40488E+06        -0.50160E+08         0.00000E+00
    0.00000E+00         0.00000E+00        -0.50348E+08
 
   -0.50515E+08         0.40775E+06         0.00000E+00
    0.40775E+06        -0.50167E+08         0.00000E+00
    0.00000E+00         0.00000E+00        -0.50341E+08
 
   -0.50493E+08         0.40991E+06         0.00000E+00
    0.40991E+06        -0.50175E+08         0.00000E+00
    0.00000E+00         0.00000E+00        -0.50333E+08
 
   -0.50471E+08         0.41138E+06         0.00000E+00
    0.41138E+06        -0.50182E+08         0.00000E+00
    0.00000E+00         0.00000E+00        -0.50326E+08
 
   -0.50450E+08         0.41221E+06         0.00000E+00
    0.41221E+06        -0.50189E+08         0.00000E+00
    0.00000E+00         0.00000E+00        -0.50319E+08
 
   -0.50430E+08         0.41243E+06         0.00000E+00
    0.41243E+06        -0.50196E+08         0.00000E+00
    0.00000E+00         0.00000E+00        -0.50313E+08
 
   -0.50411E+08         0.41209E+06         0.00000E+00
    0.41209E+06        -0.50202E+08         0.00000E+00
    0.00000E+00         0.00000E+00        -0.50306E+08
 
   -0.50393E+08         0.41122E+06         0.00000E+00
    0.41122E+06        -0.50209E+08         0.00000E+00
    0.00000E+00         0.00000E+00        -0.50300E+08
 
   -0.50375E+08         0.40988E+06         0.00000E+00
    0.40988E+06        -0.50215E+08         0.00000E+00
    0.00000E+00         0.00000E+00        -0.50295E+08
 
   -0.50359E+08         0.40811E+06         0.00000E+00
    0.40811E+06        -0.50220E+08         0.00000E+00
    0.00000E+00         0.00000E+00        -0.50289E+08
 
   -0.50343E+08         0.40596E+06         0.00000E+00
    0.40596E+06        -0.50226E+08         0.00000E+00
    0.00000E+00         0.00000E+00        -0.50284E+08
 
   -0.50329E+08         0.40348E+06         0.00000E+00
    0.40348E+06        -0.50231E+08         0.00000E+00
    0.00000E+00         0.00000E+00        -0.50279E+08
 
   -0.50316E+08         0.40073E+06         0.00000E+00
    0.40073E+06        -0.50235E+08         0.00000E+00
    0.00000E+00         0.00000E+00        -0.50275E+08
 
   -0.50304E+08         0.39776E+06         0.00000E+00
    0.39776E+06        -0.50239E+08         0.00000E+00
    0.00000E+00         0.00000E+00        -0.50271E+08
 
   -0.50293E+08         0.39462E+06         0.00000E+00
    0.39462E+06        -0.50243E+08         0.00000E+00
    0.00000E+00         0.00000E+00        -0.50267E+08
 
   -0.50283E+08         0.39139E+06         0.00000E+00
    0.39139E+06        -0.50247E+08         0.00000E+00
    0.00000E+00         0.00000E+00        -0.50264E+08
 
   -0.50274E+08         0.38811E+06         0.00000E+00
    0.38811E+06        -0.50249E+08         0.00000E+00
    0.00000E+00         0.00000E+00        -0.50261E+08
 
   -0.50267E+08         0.38487E+06         0.00000E+00
    0.38487E+06        -0.50252E+08         0.00000E+00
    0.00000E+00         0.00000E+00        -0.50258E+08
 
   -0.50261E+08         0.38173E+06         0.00000E+00
    0.38173E+06        -0.50254E+08         0.00000E+00
    0.00000E+00         0.00000E+00        -0.50256E+08
 
   -0.50257E+08         0.37875E+06         0.00000E+00
    0.37875E+06        -0.50256E+08         0.00000E+00
    0.00000E+00         0.00000E+00        -0.50255E+08
 
   -0.50253E+08         0.37601E+06         0.00000E+00
    0.37601E+06        -0.50257E+08         0.00000E+00
    0.00000E+00         0.00000E+00        -0.50253E+08
 
   -0.50251E+08         0.37359E+06         0.00000E+00
    0.37359E+06        -0.50257E+08         0.00000E+00
    0.00000E+00         0.00000E+00        -0.50252E+08
 
   -0.50250E+08         0.37156E+06         0.00000E+00
    0.37156E+06        -0.50257E+08         0.00000E+00
    0.00000E+00         0.00000E+00        -0.50252E+08
 
   -0.50251E+08         0.37000E+06         0.00000E+00
    0.37000E+06        -0.50257E+08         0.00000E+00
    0.00000E+00         0.00000E+00        -0.50252E+08
 
   -0.50956E+08         0.11715E+05         0.00000E+00
    0.11715E+05        -0.50000E+08         0.00000E+00
    0.00000E+00         0.00000E+00        -0.50470E+08
 
   -0.50950E+08         0.34232E+05         0.00000E+00
    0.34232E+05        -0.50001E+08         0.00000E+00
    0.00000E+00         0.00000E+00        -0.50469E+08
 
   -0.50944E+08         0.56273E+05         0.00000E+00
    0.56273E+05        -0.50002E+08         0.00000E+00
    0.00000E+00         0.00000E+00        -0.50467E+08
 
   -0.50935E+08         0.77783E+05         0.00000E+00
    0.77783E+05        -0.50004E+08         0.00000E+00
    0.00000E+00         0.00000E+00        -0.50464E+08
 
   -0.50925E+08         0.98708E+05         0.00000E+00
    0.98708E+05        -0.50007E+08         0.00000E+00
    0.00000E+00         0.00000E+00        -0.50461E+08
 
   -0.50914E+08         0.11900E+06         0.00000E+00
    0.11900E+06        -0.50010E+08         0.00000E+00
    0.00000E+00         0.00000E+00        -0.50458E+08
 
   -0.50901E+08         0.13863E+06         0.00000E+00
    0.13863E+06        -0.50014E+08         0.00000E+00
    0.00000E+00         0.00000E+00        -0.50454E+08
 
   -0.50887E+08         0.15755E+06         0.00000E+00
    0.15755E+06        -0.50018E+08         0.00000E+00
    0.00000E+00         0.00000E+00        -0.50450E+08
 
   -0.50873E+08         0.17573E+06         0.00000E+00
    0.17573E+06        -0.50023E+08         0.00000E+00
    0.00000E+00         0.00000E+00        -0.50445E+08
 
   -0.50857E+08         0.19315E+06         0.00000E+00
    0.19315E+06        -0.50028E+08         0.00000E+00
    0.00000E+00         0.00000E+00        -0.50440E+08
 
   -0.50840E+08         0.20979E+06         0.00000E+00
    0.20979E+06        -0.50034E+08         0.00000E+00
    0.00000E+00         0.00000E+00        -0.50435E+08
 
   -0.50822E+08         0.22564E+06         0.00000E+00
    0.22564E+06        -0.50040E+08         0.00000E+00
    0.00000E+00         0.00000E+00        -0.50429E+08
 
   -0.50804E+08         0.24067E+06         0.00000E+00
    0.24067E+06        -0.50046E+08         0.00000E+00
    0.00000E+00         0.00000E+00        -0.50424E+08
 
   -0.50785E+08         0.25488E+06         0.00000E+00
    0.25488E+06        -0.50053E+08         0.00000E+00
    0.00000E+00         0.00000E+00        -0.50418E+08
 
   -0.50766E+08         0.26827E+06         0.00000E+00
    0.26827E+06        -0.50059E+08         0.00000E+00
    0.00000E+00         0.00000E+00        -0.50412E+08
 
   -0.50746E+08         0.28084E+06         0.00000E+00
    0.28084E+06        -0.50066E+08         0.00000E+00
    0.00000E+00         0.00000E+00        -0.50405E+08
 
   -0.50726E+08         0.29258E+06         0.00000E+00
    0.29258E+06        -0.50074E+08         0.00000E+00
    0.00000E+00         0.00000E+00        -0.50399E+08
 
   -0.50705E+08         0.30351E+06         0.00000E+00
    0.30351E+06        -0.50081E+08         0.00000E+00
    0.00000E+00         0.00000E+00        -0.50393E+08
 
   -0.50685E+08         0.31363E+06         0.00000E+00
    0.31363E+06        -0.50088E+08         0.00000E+00
    0.00000E+00         0.00000E+00        -0.50386E+08
 
   -0.50664E+08         0.32295E+06         0.00000E+00
    0.32295E+06        -0.50096E+08         0.00000E+00
    0.00000E+00         0.00000E+00        -0.50379E+08
 
   -0.50643E+08         0.33148E+06         0.00000E+00
    0.33148E+06        -0.50104E+08         0.00000E+00
    0.00000E+00         0.00000E+00        -0.50373E+08
 
   -0.50622E+08         0.33925E+06         0.00000E+00
    0.33925E+06        -0.50111E+08         0.00000E+00
    0.00000E+00         0.00000E+00        -0.50366E+08
 
   -0.50601E+08         0.34626E+06         0.00000E+00
    0.34626E+06        -0.50119E+08         0.00000E+00
    0.00000E+00         0.00000E+00        -0.50360E+08
 
   -0.50580E+08         0.35254E+06         0.00000E+00
    0.35254E+06        -0.50127E+08         0.00000E+00
    0.00000E+00         0.00000E+00        -0.50353E+08
 
   -0.50560E+08         0.35812E+06         0.00000E+00
    0.35812E+06        -0.50134E+08         0.00000E+00
    0.00000E+00         0.00000E+00        -0.50347E+08
 
   -0.50540E+08         0.36300E+06         0.00000E+00
    0.36300E+06        -0.50142E+08         0.00000E+00
    0.00000E+00         0.00000E+00        -0.50341E+08
 
   -0.50520E+08         0.36723E+06         0.00000E+00
    0.36723E+06        -0.50149E+08         0.00000E+00
    0.00000E+00         0.00000E+00        -0.50334E+08
 
   -0.50500E+08         0.37082E+06         0.00000E+00
    0.37082E+06        -0.50156E+08         0.00000E+00
    0.00000E+00         0.00000E+00        -0.50328E+08
 
   -0.50481E+08         0.37382E+06         0.00000E+00
    0.37382E+06        -0.50163E+08         0.00000E+00
    0.00000E+00         0.00000E+00        -0.50322E+08
 
   -0.50463E+08         0.37624E+06         0.00000E+00
    0.37624E+06        -0.50170E+08         0.00000E+00
    0.00000E+00         0.00000E+00        -0.50316E+08
 
   -0.50445E+08         0.37813E+06         0.00000E+00
    0.37813E+06        -0.50177E+08         0.00000E+00
    0.00000E+00         0.00000E+00        -0.50311E+08
 
   -0.50427E+08         0.37952E+06         0.00000E+00
    0.37952E+06        -0.50184E+08         0.00000E+00
    0.00000E+00         0.00000E+00        -0.50305E+08
 
   -0.50410E+08         0.38045E+06         0.00000E+00
    0.38045E+06        -0.50190E+08         0.00000E+00
    0.00000E+00         0.00000E+00        -0.50300E+08
 
   -0.50394E+08         0.38095E+06         0.00000E+00
    0.38095E+06        -0.50196E+08         0.00000E+00
    0.00000E+00         0.00000E+00        -0.50295E+08
 
   -0.50379E+08         0.38107E+06         0.00000E+00
    0.38107E+06        -0.50202E+08         0.00000E+00
    0.00000E+00         0.00000E+00        -0.50290E+08
 
   -0.50364E+08         0.38085E+06         0.00000E+00
    0.38085E+06        -0.50207E+08         0.00000E+00
    0.00000E+00         0.00000E+00        -0.50286E+08
 
   -0.50350E+08         0.38033E+06         0.00000E+00
    0.38033E+06        -0.50213E+08         0.00000E+00
    0.00000E+00         0.00000E+00        -0.50282E+08
 
   -0.50337E+08         0.37956E+06         0.00000E+00
    0.37956E+06        -0.50218E+08         0.00000E+00
    0.00000E+00         0.00000E+00        -0.50277E+08
 
   -0.50325E+08         0.37859E+06         0.00000E+00
    0.37859E+06        -0.50222E+08         0.00000E+00
    0.00000E+00         0.00000E+00        -0.50274E+08
 
   -0.50314E+08         0.37747E+06         0.00000E+00
    0.37747E+06        -0.50226E+08         0.00000E+00
    0.00000E+00         0.00000E+00        -0.50270E+08
 
   -0.50304E+08         0.37625E+06         0.00000E+00
    0.37625E+06        -0.50230E+08         0.00000E+00
    0.00000E+00         0.00000E+00        -0.50267E+08
 
   -0.50294E+08         0.37498E+06         0.00000E+00
    0.37498E+06        -0.50234E+08         0.00000E+00
    0.00000E+00         0.00000E+00        -0.50264E+08
 
   -0.50285E+08         0.37372E+06         0.00000E+00
    0.37372E+06        -0.50237E+08         0.00000E+00
    0.00000E+00         0.00000E+00        -0.50261E+08
 
   -0.50278E+08         0.37252E+06         0.00000E+00
    0.37252E+06        -0.50240E+08         0.00000E+00
    0.00000E+00         0.00000E+00        -0.50259E+08
 
   -0.50271E+08         0.37144E+06         0.00000E+00
    0.37144E+06        -0.50243E+08         0.00000E+00
    0.00000E+00         0.00000E+00        -0.50257E+08
 
   -0.50266E+08         0.37054E+06         0.00000E+00
    0.37054E+06        -0.50245E+08         0.00000E+00
    0.00000E+00         0.00000E+00        -0.50255E+08
 
   -0.50261E+08         0.36987E+06         0.00000E+00
    0.36987E+06        -0.50246E+08         0.00000E+00
    0.00000E+00         0.00000E+00        -0.50254E+08
 
   -0.50257E+08         0.36949E+06         0.00000E+00
    0.36949E+06        -0.50248E+08         0.00000E+00
    0.00000E+00         0.00000E+00        -0.50253E+08
 
   -0.50254E+08         0.36948E+06         0.00000E+00
    0.36948E+06        -0.50249E+08         0.00000E+00
    0.00000E+00         0.00000E+00        -0.50252E+08
 
   -0.50252E+08         0.36988E+06         0.00000E+00
    0.36988E+06        -0.50250E+08         0.00000E+00
    0.00000E+00         0.00000E+00        -0.50252E+08
 
   -0.50851E+08         0.99065E+04         0.00000E+00
    0.99065E+04        -0.50000E+08         0.00000E+00
    0.00000E+00         0.00000E+00        -0.50421E+08
 
   -0.50847E+08         0.29137E+05         0.00000E+00
    0.29137E+05        -0.50001E+08         0.00000E+00
    0.00000E+00         0.00000E+00        -0.50420E+08
 
   -0.50842E+08         0.48045E+05         0.00000E+00
    0.48045E+05        -0.50002E+08         0.00000E+00
    0.00000E+00         0.00000E+00        -0.50419E+08
 
   -0.50836E+08         0.66579E+05         0.00000E+00
    0.66579E+05        -0.50004E+08         0.00000E+00
    0.00000E+00         0.00000E+00        -0.50417E+08
 
   -0.50829E+08         0.84690E+05         0.00000E+00
    0.84690E+05        -0.50006E+08         0.00000E+00
    0.00000E+00         0.00000E+00        -0.50415E+08
 
   -0.50821E+08         0.10234E+06         0.00000E+00
    0.10234E+06        -0.50009E+08         0.00000E+00
    0.00000E+00         0.00000E+00        -0.50412E+08
 
   -0.50811E+08         0.11948E+06         0.00000E+00
    0.11948E+06        -0.50012E+08         0.00000E+00
    0.00000E+00         0.00000E+00        -0.50410E+08
 
   -0.50800E+08         0.13609E+06         0.00000E+00
    0.13609E+06        -0.50016E+08         0.00000E+00
    0.00000E+00         0.00000E+00        -0.50406E+08
 
   -0.50789E+08         0.15214E+06         0.00000E+00
    0.15214E+06        -0.50020E+08         0.00000E+00
    0.00000E+00         0.00000E+00        -0.50403E+08
 
   -0.50776E+08         0.16760E+06         0.00000E+00
    0.16760E+06        -0.50025E+08         0.00000E+00
    0.00000E+00         0.00000E+00        -0.50399E+08
 
   -0.50763E+08         0.18244E+06         0.00000E+00
    0.18244E+06        -0.50030E+08         0.00000E+00
    0.00000E+00         0.00000E+00        -0.50395E+08
 
   -0.50749E+08         0.19665E+06         0.00000E+00
    0.19665E+06        -0.50035E+08         0.00000E+00
    0.00000E+00         0.00000E+00        -0.50391E+08
 
   -0.50735E+08         0.21023E+06         0.00000E+00
    0.21023E+06        -0.50041E+08         0.00000E+00
    0.00000E+00         0.00000E+00        -0.50387E+08
 
   -0.50719E+08         0.22314E+06         0.00000E+00
    0.22314E+06        -0.50047E+08         0.00000E+00
    0.00000E+00         0.00000E+00        -0.50382E+08
 
   -0.50704E+08         0.23540E+06         0.00000E+00
    0.23540E+06        -0.50053E+08         0.00000E+00
    0.00000E+00         0.00000E+00        -0.50378E+08
 
   -0.50687E+08         0.24699E+06         0.00000E+00
    0.24699E+06        -0.50059E+08         0.00000E+00
    0.00000E+00         0.00000E+00        -0.50373E+08
 
   -0.50671E+08         0.25791E+06         0.00000E+00
    0.25791E+06        -0.50066E+08         0.00000E+00
    0.00000E+00         0.00000E+00        -0.50368E+08
 
   -0.50654E+08         0.26816E+06         0.00000E+00
    0.26816E+06        -0.50072E+08         0.00000E+00
    0.00000E+00         0.00000E+00        -0.50363E+08
 
   -0.50637E+08         0.27776E+06         0.00000E+00
    0.27776E+06        -0.50079E+08         0.00000E+00
    0.00000E+00         0.00000E+00        -0.50358E+08
 
   -0.50620E+08         0.28669E+06         0.00000E+00
    0.28669E+06        -0.50086E+08         0.00000E+00
    0.00000E+00         0.00000E+00        -0.50353E+08
 
   -0.50602E+08         0.29498E+06         0.00000E+00
    0.29498E+06        -0.50093E+08         0.00000E+00
    0.00000E+00         0.00000E+00        -0.50348E+08
 
   -0.50585E+08         0.30264E+06         0.00000E+00
    0.30264E+06        -0.50100E+08         0.00000E+00
    0.00000E+00         0.00000E+00        -0.50342E+08
 
   -0.50568E+08         0.30968E+06         0.00000E+00
    0.30968E+06        -0.50107E+08         0.00000E+00
    0.00000E+00         0.00000E+00        -0.50337E+08
 
   -0.50550E+08         0.31611E+06         0.00000E+00
    0.31611E+06        -0.50114E+08         0.00000E+00
    0.00000E+00         0.00000E+00        -0.50332E+08
 
   -0.50533E+08         0.32195E+06         0.00000E+00
    0.32195E+06        -0.50121E+08         0.00000E+00
    0.00000E+00         0.00000E+00        -0.50327E+08
 
   -0.50516E+08         0.32722E+06         0.00000E+00
    0.32722E+06        -0.50128E+08         0.00000E+00
    0.00000E+00         0.00000E+00        -0.50322E+08
 
   -0.50499E+08         0.33195E+06         0.00000E+00
    0.33195E+06        -0.50135E+08         0.00000E+00
    0.00000E+00         0.00000E+00        -0.50317E+08
 
   -0.50482E+08         0.33616E+06         0.00000E+00
    0.33616E+06        -0.50141E+08         0.00000E+00
    0.00000E+00         0.00000E+00        -0.50312E+08
 
   -0.50466E+08         0.33987E+06         0.00000E+00
    0.33987E+06        -0.50148E+08         0.00000E+00
    0.00000E+00         0.00000E+00        -0.50307E+08
 
   -0.50450E+08         0.34311E+06         0.00000E+00
    0.34311E+06        -0.50154E+08         0.00000E+00
    0.00000E+00         0.00000E+00        -0.50302E+08
 
   -0.50434E+08         0.34591E+06         0.00000E+00
    0.34591E+06        -0.50161E+08         0.00000E+00
    0.00000E+00         0.00000E+00        -0.50297E+08
 
   -0.50419E+08         0.34830E+06         0.00000E+00
    0.34830E+06        -0.50167E+08         0.00000E+00
    0.00000E+00         0.00000E+00        -0.50293E+08
 
   -0.50404E+08         0.35031E+06         0.00000E+00
    0.35031E+06        -0.50173E+08         0.00000E+00
    0.00000E+00         0.00000E+00        -0.50288E+08
 
   -0.50390E+08         0.35198E+06         0.00000E+00
    0.35198E+06        -0.50178E+08         0.00000E+00
    0.00000E+00         0.00000E+00        -0.50284E+08
 
   -0.50376E+08         0.35334E+06         0.00000E+00
    0.35334E+06        -0.50184E+08         0.00000E+00
    0.00000E+00         0.00000E+00        -0.50280E+08
 
   -0.50363E+08         0.35443E+06         0.00000E+00
    0.35443E+06        -0.50189E+08         0.00000E+00
    0.00000E+00         0.00000E+00        -0.50276E+08
 
   -0.50350E+08         0.35529E+06         0.00000E+00
    0.35529E+06        -0.50194E+08         0.00000E+00
    0.00000E+00         0.00000E+00        -0.50272E+08
 
   -0.50338E+08         0.35595E+06         0.00000E+00
    0.35595E+06        -0.50199E+08         0.00000E+00
    0.00000E+00         0.00000E+00        -0.50269E+08
 
   -0.50327E+08         0.35645E+06         0.00000E+00
    0.35645E+06        -0.50204E+08         0.00000E+00
    0.00000E+00         0.00000E+00        -0.50266E+08
 
   -0.50316E+08         0.35685E+06         0.00000E+00
    0.35685E+06        -0.50208E+08         0.00000E+00
    0.00000E+00         0.00000E+00        -0.50262E+08
 
   -0.50306E+08         0.35718E+06         0.00000E+00
    0.35718E+06        -0.50212E+08         0.00000E+00
    0.00000E+00         0.00000E+00        -0.50260E+08
 
   -0.50296E+08         0.35748E+06         0.00000E+00
    0.35748E+06        -0.50216E+08         0.00000E+00
    0.00000E+00         0.00000E+00        -0.50257E+08
 
   -0.50288E+08         0.35780E+06         0.00000E+00
    0.35780E+06        -0.50219E+08         0.00000E+00
    0.00000E+00         0.00000E+00        -0.50254E+08
 
   -0.50279E+08         0.35819E+06         0.00000E+00
    0.35819E+06        -0.50222E+08         0.00000E+00
    0.00000E+00         0.00000E+00        -0.50252E+08
 
   -0.50272E+08         0.35869E+06         0.00000E+00
    0.35869E+06        -0.50225E+08         0.00000E+00
    0.00000E+00         0.00000E+00        -0.50250E+08
 
   -0.50265E+08         0.35934E+06         0.00000E+00
    0.35934E+06        -0.50228E+08         0.00000E+00
    0.00000E+00         0.00000E+00        -0.50248E+08
 
   -0.50259E+08         0.36020E+06         0.00000E+00
    0.36020E+06        -0.50230E+08         0.00000E+00
    0.00000E+00         0.00000E+00        -0.50247E+08
 
   -0.50254E+08         0.36131E+06         0.00000E+00
    0.36131E+06        -0.50232E+08         0.00000E+00
    0.00000E+00         0.00000E+00        -0.50246E+08
 
   -0.50250E+08         0.36271E+06         0.00000E+00
    0.36271E+06        -0.50234E+08         0.00000E+00
    0.00000E+00         0.00000E+00        -0.50245E+08
 
   -0.50246E+08         0.36446E+06         0.00000E+00
    0.36446E+06        -0.50236E+08         0.00000E+00
    0.00000E+00         0.00000E+00        -0.50244E+08
 
   -0.50761E+08         0.83712E+04         0.00000E+00
    0.83712E+04        -0.50000E+08         0.00000E+00
    0.00000E+00         0.00000E+00        -0.50378E+08
 
   -0.50759E+08         0.24772E+05         0.00000E+00
    0.24772E+05        -0.50000E+08         0.00000E+00
    0.00000E+00         0.00000E+00        -0.50378E+08
 
   -0.50756E+08         0.40964E+05         0.00000E+00
    0.40964E+05        -0.50002E+08         0.00000E+00
    0.00000E+00         0.00000E+00        -0.50377E+08
 
   -0.50751E+08         0.56903E+05         0.00000E+00
    0.56903E+05        -0.50003E+08         0.00000E+00
    0.00000E+00         0.00000E+00        -0.50375E+08
 
   -0.50746E+08         0.72546E+05         0.00000E+00
    0.72546E+05        -0.50005E+08         0.00000E+00
    0.00000E+00         0.00000E+00        -0.50374E+08
 
   -0.50739E+08         0.87856E+05         0.00000E+00
    0.87856E+05        -0.50008E+08         0.00000E+00
    0.00000E+00         0.00000E+00        -0.50372E+08
 
   -0.50732E+08         0.10280E+06         0.00000E+00
    0.10280E+06        -0.50010E+08         0.00000E+00
    0.00000E+00         0.00000E+00        -0.50370E+08
 
   -0.50724E+08         0.11735E+06         0.00000E+00
    0.11735E+06        -0.50014E+08         0.00000E+00
    0.00000E+00         0.00000E+00        -0.50368E+08
 
   -0.50715E+08         0.13147E+06         0.00000E+00
    0.13147E+06        -0.50017E+08         0.00000E+00
    0.00000E+00         0.00000E+00        -0.50365E+08
 
   -0.50705E+08         0.14514E+06         0.00000E+00
    0.14514E+06        -0.50021E+08         0.00000E+00
    0.00000E+00         0.00000E+00        -0.50362E+08
 
   -0.50694E+08         0.15835E+06         0.00000E+00
    0.15835E+06        -0.50026E+08         0.00000E+00
    0.00000E+00         0.00000E+00        -0.50359E+08
 
   -0.50683E+08         0.17107E+06         0.00000E+00
    0.17107E+06        -0.50030E+08         0.00000E+00
    0.00000E+00         0.00000E+00        -0.50356E+08
 
   -0.50672E+08         0.18328E+06         0.00000E+00
    0.18328E+06        -0.50035E+08         0.00000E+00
    0.00000E+00         0.00000E+00        -0.50353E+08
 
   -0.50659E+08         0.19499E+06         0.00000E+00
    0.19499E+06        -0.50040E+08         0.00000E+00
    0.00000E+00         0.00000E+00        -0.50350E+08
 
   -0.50647E+08         0.20617E+06         0.00000E+00
    0.20617E+06        -0.50046E+08         0.00000E+00
    0.00000E+00         0.00000E+00        -0.50346E+08
 
   -0.50633E+08         0.21682E+06         0.00000E+00
    0.21682E+06        -0.50051E+08         0.00000E+00
    0.00000E+00         0.00000E+00        -0.50342E+08
 
   -0.50620E+08         0.22695E+06         0.00000E+00
    0.22695E+06        -0.50057E+08         0.00000E+00
    0.00000E+00         0.00000E+00        -0.50338E+08
 
   -0.50606E+08         0.23653E+06         0.00000E+00
    0.23653E+06        -0.50063E+08         0.00000E+00
    0.00000E+00         0.00000E+00        -0.50334E+08
 
   -0.50592E+08         0.24559E+06         0.00000E+00
    0.24559E+06        -0.50069E+08         0.00000E+00
    0.00000E+00         0.00000E+00        -0.50330E+08
 
   -0.50578E+08         0.25412E+06         0.00000E+00
    0.25412E+06        -0.50075E+08         0.00000E+00
    0.00000E+00         0.00000E+00        -0.50326E+08
 
   -0.50563E+08         0.26212E+06         0.00000E+00
    0.26212E+06        -0.50081E+08         0.00000E+00
    0.00000E+00         0.00000E+00        -0.50322E+08
 
   -0.50549E+08         0.26961E+06         0.00000E+00
    0.26961E+06        -0.50087E+08         0.00000E+00
    0.00000E+00         0.00000E+00        -0.50318E+08
 
   -0.50534E+08         0.27660E+06         0.00000E+00
    0.27660E+06        -0.50094E+08         0.00000E+00
    0.00000E+00         0.00000E+00        -0.50314E+08
 
   -0.50519E+08         0.28309E+06         0.00000E+00
    0.28309E+06        -0.50100E+08         0.00000E+00
    0.00000E+00         0.00000E+00        -0.50310E+08
 
   -0.50504E+08         0.28910E+06         0.00000E+00
    0.28910E+06        -0.50106E+08         0.00000E+00
    0.00000E+00         0.00000E+00        -0.50305E+08
 
   -0.50490E+08         0.29465E+06         0.00000E+00
    0.29465E+06        -0.50112E+08         0.00000E+00
    0.00000E+00         0.00000E+00        -0.50301E+08
 
   -0.50475E+08         0.29976E+06         0.00000E+00
    0.29976E+06        -0.50119E+08         0.00000E+00
    0.00000E+00         0.00000E+00        -0.50297E+08
 
   -0.50461E+08         0.30443E+06         0.00000E+00
    0.30443E+06        -0.50125E+08         0.00000E+00
    0.00000E+00         0.00000E+00        -0.50293E+08
 
   -0.50447E+08         0.30870E+06         0.00000E+00
    0.30870E+06        -0.50131E+08         0.00000E+00
    0.00000E+00         0.00000E+00        -0.50289E+08
 
   -0.50433E+08         0.31259E+06         0.00000E+00
    0.31259E+06        -0.50136E+08         0.00000E+00
    0.00000E+00         0.00000E+00        -0.50285E+08
 
   -0.50419E+08         0.31612E+06         0.00000E+00
    0.31612E+06        -0.50142E+08         0.00000E+00
    0.00000E+00         0.00000E+00        -0.50281E+08
 
   -0.50406E+08         0.31931E+06         0.00000E+00
    0.31931E+06        -0.50148E+08         0.00000E+00
    0.00000E+00         0.00000E+00        -0.50277E+08
 
   -0.50392E+08         0.32219E+06         0.00000E+00
    0.32219E+06        -0.50153E+08         0.00000E+00
    0.00000E+00         0.00000E+00        -0.50273E+08
 
   -0.50380E+08         0.32480E+06         0.00000E+00
    0.32480E+06        -0.50159E+08         0.00000E+00
    0.00000E+00         0.00000E+00        -0.50269E+08
 
   -0.50367E+08         0.32715E+06         0.00000E+00
    0.32715E+06        -0.50164E+08         0.00000E+00
    0.00000E+00         0.00000E+00        -0.50266E+08
 
   -0.50355E+08         0.32928E+06         0.00000E+00
    0.32928E+06        -0.50169E+08         0.00000E+00
    0.00000E+00         0.00000E+00        -0.50262E+08
 
   -0.50343E+08         0.33123E+06         0.00000E+00
    0.33123E+06        -0.50174E+08         0.00000E+00
    0.00000E+00         0.00000E+00        -0.50259E+08
 
   -0.50332E+08         0.33301E+06         0.00000E+00
    0.33301E+06        -0.50178E+08         0.00000E+00
    0.00000E+00         0.00000E+00        -0.50256E+08
 
   -0.50321E+08         0.33467E+06         0.00000E+00
    0.33467E+06        -0.50183E+08         0.00000E+00
    0.00000E+00         0.00000E+00        -0.50253E+08
 
   -0.50311E+08         0.33624E+06         0.00000E+00
    0.33624E+06        -0.50187E+08         0.00000E+00
    0.00000E+00         0.00000E+00        -0.50250E+08
 
   -0.50301E+08         0.33776E+06         0.00000E+00
    0.33776E+06        -0.50191E+08         0.00000E+00
    0.00000E+00         0.00000E+00        -0.50247E+08
 
   -0.50292E+08         0.33926E+06         0.00000E+00
    0.33926E+06        -0.50195E+08         0.00000E+00
    0.00000E+00         0.00000E+00        -0.50245E+08
 
   -0.50283E+08         0.34077E+06         0.00000E+00
    0.34077E+06        -0.50198E+08         0.00000E+00
    0.00000E+00         0.00000E+00        -0.50242E+08
 
   -0.50274E+08         0.34233E+06         0.00000E+00
    0.34233E+06        -0.50202E+08         0.00000E+00
    0.00000E+00         0.00000E+00        -0.50240E+08
 
   -0.50266E+08         0.34398E+06         0.00000E+00
    0.34398E+06        -0.50205E+08         0.00000E+00
    0.00000E+00         0.00000E+00        -0.50238E+08
 
   -0.50259E+08         0.34575E+06         0.00000E+00
    0.34575E+06        -0.50208E+08         0.00000E+00
    0.00000E+00         0.00000E+00        -0.50236E+08
 
   -0.50252E+08         0.34767E+06         0.00000E+00
    0.34767E+06        -0.50211E+08         0.00000E+00
    0.00000E+00         0.00000E+00        -0.50235E+08
 
   -0.50245E+08         0.34979E+06         0.00000E+00
    0.34979E+06        -0.50213E+08         0.00000E+00
    0.00000E+00         0.00000E+00        -0.50233E+08
 
   -0.50239E+08         0.35214E+06         0.00000E+00
    0.35214E+06        -0.50216E+08         0.00000E+00
    0.00000E+00         0.00000E+00        -0.50232E+08
 
   -0.50234E+08         0.35474E+06         0.00000E+00
    0.35474E+06        -0.50218E+08         0.00000E+00
    0.00000E+00         0.00000E+00        -0.50231E+08
 
   -0.50685E+08         0.70958E+04         0.00000E+00
    0.70958E+04        -0.50000E+08         0.00000E+00
    0.00000E+00         0.00000E+00        -0.50341E+08
 
   -0.50683E+08         0.21114E+05         0.00000E+00
    0.21114E+05        -0.50000E+08         0.00000E+00
    0.00000E+00         0.00000E+00        -0.50341E+08
 
   -0.50681E+08         0.35004E+05         0.00000E+00
    0.35004E+05        -0.50001E+08         0.00000E+00
    0.00000E+00         0.00000E+00        -0.50340E+08
 
   -0.50678E+08         0.48730E+05         0.00000E+00
    0.48730E+05        -0.50003E+08         0.00000E+00
    0.00000E+00         0.00000E+00        -0.50339E+08
 
   -0.50674E+08         0.62257E+05         0.00000E+00
    0.62257E+05        -0.50004E+08         0.00000E+00
    0.00000E+00         0.00000E+00        -0.50338E+08
 
   -0.50669E+08         0.75552E+05         0.00000E+00
    0.75552E+05        -0.50006E+08         0.00000E+00
    0.00000E+00         0.00000E+00        -0.50337E+08
 
   -0.50663E+08         0.88586E+05         0.00000E+00
    0.88586E+05        -0.50009E+08         0.00000E+00
    0.00000E+00         0.00000E+00        -0.50335E+08
 
   -0.50656E+08         0.10133E+06         0.00000E+00
    0.10133E+06        -0.50012E+08         0.00000E+00
    0.00000E+00         0.00000E+00        -0.50334E+08
 
   -0.50649E+08         0.11377E+06         0.00000E+00
    0.11377E+06        -0.50015E+08         0.00000E+00
    0.00000E+00         0.00000E+00        -0.50332E+08
 
   -0.50642E+08         0.12587E+06         0.00000E+00
    0.12587E+06        -0.50018E+08         0.00000E+00
    0.00000E+00         0.00000E+00        -0.50329E+08
 
   -0.50633E+08         0.13761E+06         0.00000E+00
    0.13761E+06        -0.50022E+08         0.00000E+00
    0.00000E+00         0.00000E+00        -0.50327E+08
 
   -0.50624E+08         0.14899E+06         0.00000E+00
    0.14899E+06        -0.50026E+08         0.00000E+00
    0.00000E+00         0.00000E+00        -0.50325E+08
 
   -0.50615E+08         0.15998E+06         0.00000E+00
    0.15998E+06        -0.50030E+08         0.00000E+00
    0.00000E+00         0.00000E+00        -0.50322E+08
 
   -0.50605E+08         0.17058E+06         0.00000E+00
    0.17058E+06        -0.50034E+08         0.00000E+00
    0.00000E+00         0.00000E+00        -0.50319E+08
 
   -0.50594E+08         0.18077E+06         0.00000E+00
    0.18077E+06        -0.50039E+08         0.00000E+00
    0.00000E+00         0.00000E+00        -0.50316E+08
 
   -0.50584E+08         0.19055E+06         0.00000E+00
    0.19055E+06        -0.50044E+08         0.00000E+00
    0.00000E+00         0.00000E+00        -0.50314E+08
 
   -0.50572E+08         0.19991E+06         0.00000E+00
    0.19991E+06        -0.50049E+08         0.00000E+00
    0.00000E+00         0.00000E+00        -0.50310E+08
 
   -0.50561E+08         0.20885E+06         0.00000E+00
    0.20885E+06        -0.50054E+08         0.00000E+00
    0.00000E+00         0.00000E+00        -0.50307E+08
 
   -0.50549E+08         0.21738E+06         0.00000E+00
    0.21738E+06        -0.50059E+08         0.00000E+00
    0.00000E+00         0.00000E+00        -0.50304E+08
 
   -0.50537E+08         0.22548E+06         0.00000E+00
    0.22548E+06        -0.50064E+08         0.00000E+00
    0.00000E+00         0.00000E+00        -0.50301E+08
 
   -0.50525E+08         0.23316E+06         0.00000E+00
    0.23316E+06        -0.50070E+08         0.00000E+00
    0.00000E+00         0.00000E+00        -0.50297E+08
 
   -0.50513E+08         0.24043E+06         0.00000E+00
    0.24043E+06        -0.50075E+08         0.00000E+00
    0.00000E+00         0.00000E+00        -0.50294E+08
 
   -0.50500E+08         0.24730E+06         0.00000E+00
    0.24730E+06        -0.50081E+08         0.00000E+00
    0.00000E+00         0.00000E+00        -0.50290E+08
 
   -0.50488E+08         0.25377E+06         0.00000E+00
    0.25377E+06        -0.50086E+08         0.00000E+00
    0.00000E+00         0.00000E+00        -0.50287E+08
 
   -0.50475E+08         0.25985E+06         0.00000E+00
    0.25985E+06        -0.50092E+08         0.00000E+00
    0.00000E+00         0.00000E+00        -0.50283E+08
 
   -0.50463E+08         0.26556E+06         0.00000E+00
    0.26556E+06        -0.50097E+08         0.00000E+00
    0.00000E+00         0.00000E+00        -0.50280E+08
 
   -0.50450E+08         0.27091E+06         0.00000E+00
    0.27091E+06        -0.50103E+08         0.00000E+00
    0.00000E+00         0.00000E+00        -0.50276E+08
 
   -0.50438E+08         0.27591E+06         0.00000E+00
    0.27591E+06        -0.50108E+08         0.00000E+00
    0.00000E+00         0.00000E+00        -0.50273E+08
 
   -0.50425E+08         0.28058E+06         0.00000E+00
    0.28058E+06        -0.50113E+08         0.00000E+00
    0.00000E+00         0.00000E+00        -0.50269E+08
 
   -0.50413E+08         0.28494E+06         0.00000E+00
    0.28494E+06        -0.50119E+08         0.00000E+00
    0.00000E+00         0.00000E+00        -0.50266E+08
 
   -0.50401E+08         0.28900E+06         0.00000E+00
    0.28900E+06        -0.50124E+08         0.00000E+00
    0.00000E+00         0.00000E+00        -0.50263E+08
 
   -0.50389E+08         0.29279E+06         0.00000E+00
    0.29279E+06        -0.50129E+08         0.00000E+00
    0.00000E+00         0.00000E+00        -0.50259E+08
 
   -0.50377E+08         0.29632E+06         0.00000E+00
    0.29632E+06        -0.50134E+08         0.00000E+00
    0.00000E+00         0.00000E+00        -0.50256E+08
 
   -0.50365E+08         0.29963E+06         0.00000E+00
    0.29963E+06        -0.50139E+08         0.00000E+00
    0.00000E+00         0.00000E+00        -0.50253E+08
 
   -0.50354E+08         0.30273E+06         0.00000E+00
    0.30273E+06        -0.50144E+08         0.00000E+00
    0.00000E+00         0.00000E+00        -0.50249E+08
 
   -0.50343E+08         0.30564E+06         0.00000E+00
    0.30564E+06        -0.50148E+08         0.00000E+00
    0.00000E+00         0.00000E+00        -0.50246E+08
 
   -0.50332E+08         0.30840E+06         0.00000E+00
    0.30840E+06        -0.50153E+08         0.00000E+00
    0.00000E+00         0.00000E+00        -0.50243E+08
 
   -0.50321E+08         0.31102E+06         0.00000E+00
    0.31102E+06        -0.50157E+08         0.00000E+00
    0.00000E+00         0.00000E+00        -0.50240E+08
 
   -0.50311E+08         0.31353E+06         0.00000E+00
    0.31353E+06        -0.50161E+08         0.00000E+00
    0.00000E+00         0.00000E+00        -0.50237E+08
 
   -0.50301E+08         0.31597E+06         0.00000E+00
    0.31597E+06        -0.50165E+08         0.00000E+00
    0.00000E+00         0.00000E+00        -0.50235E+08
 
   -0.50291E+08         0.31835E+06         0.00000E+00
    0.31835E+06        -0.50169E+08         0.00000E+00
    0.00000E+00         0.00000E+00        -0.50232E+08
 
   -0.50282E+08         0.32070E+06         0.00000E+00
    0.32070E+06        -0.50173E+08         0.00000E+00
    0.00000E+00         0.00000E+00        -0.50230E+08
 
   -0.50273E+08         0.32305E+06         0.00000E+00
    0.32305E+06        -0.50177E+08         0.00000E+00
    0.00000E+00         0.00000E+00        -0.50227E+08
 
   -0.50264E+08         0.32543E+06         0.00000E+00
    0.32543E+06        -0.50180E+08         0.00000E+00
    0.00000E+00         0.00000E+00        -0.50225E+08
 
   -0.50256E+08         0.32787E+06         0.00000E+00
    0.32787E+06        -0.50184E+08         0.00000E+00
    0.00000E+00         0.00000E+00        -0.50223E+08
 
   -0.50248E+08         0.33039E+06         0.00000E+00
    0.33039E+06        -0.50187E+08         0.00000E+00
    0.00000E+00         0.00000E+00        -0.50221E+08
 
   -0.50240E+08         0.33301E+06         0.00000E+00
    0.33301E+06        -0.50190E+08         0.00000E+00
    0.00000E+00         0.00000E+00        -0.50220E+08
 
   -0.50233E+08         0.33577E+06         0.00000E+00
    0.33577E+06        -0.50193E+08         0.00000E+00
    0.00000E+00         0.00000E+00        -0.50218E+08
 
   -0.50226E+08         0.33868E+06         0.00000E+00
    0.33868E+06        -0.50196E+08         0.00000E+00
    0.00000E+00         0.00000E+00        -0.50217E+08
 
   -0.50219E+08         0.34178E+06         0.00000E+00
    0.34178E+06        -0.50199E+08         0.00000E+00
    0.00000E+00         0.00000E+00        -0.50216E+08
 
   -0.50620E+08         0.60546E+04         0.00000E+00
    0.60546E+04        -0.50000E+08         0.00000E+00
    0.00000E+00         0.00000E+00        -0.50309E+08
 
   -0.50619E+08         0.18100E+05         0.00000E+00
    0.18100E+05        -0.50000E+08         0.00000E+00
    0.00000E+00         0.00000E+00        -0.50309E+08
 
   -0.50617E+08         0.30076E+05         0.00000E+00
    0.30076E+05        -0.50001E+08         0.00000E+00
    0.00000E+00         0.00000E+00        -0.50308E+08
 
   -0.50614E+08         0.41950E+05         0.00000E+00
    0.41950E+05        -0.50002E+08         0.00000E+00
    0.00000E+00         0.00000E+00        -0.50308E+08
 
   -0.50611E+08         0.53695E+05         0.00000E+00
    0.53695E+05        -0.50004E+08         0.00000E+00
    0.00000E+00         0.00000E+00        -0.50307E+08
 
   -0.50607E+08         0.65284E+05         0.00000E+00
    0.65284E+05        -0.50005E+08         0.00000E+00
    0.00000E+00         0.00000E+00        -0.50306E+08
 
   -0.50602E+08         0.76691E+05         0.00000E+00
    0.76691E+05        -0.50007E+08         0.00000E+00
    0.00000E+00         0.00000E+00        -0.50305E+08
 
   -0.50597E+08         0.87894E+05         0.00000E+00
    0.87894E+05        -0.50010E+08         0.00000E+00
    0.00000E+00         0.00000E+00        -0.50303E+08
 
   -0.50592E+08         0.98871E+05         0.00000E+00
    0.98871E+05        -0.50012E+08         0.00000E+00
    0.00000E+00         0.00000E+00        -0.50302E+08
 
   -0.50585E+08         0.10960E+06         0.00000E+00
    0.10960E+06        -0.50015E+08         0.00000E+00
    0.00000E+00         0.00000E+00        -0.50300E+08
 
   -0.50578E+08         0.12008E+06         0.00000E+00
    0.12008E+06        -0.50018E+08         0.00000E+00
    0.00000E+00         0.00000E+00        -0.50298E+08
 
   -0.50571E+08         0.13027E+06         0.00000E+00
    0.13027E+06        -0.50021E+08         0.00000E+00
    0.00000E+00         0.00000E+00        -0.50296E+08
 
   -0.50563E+08         0.14018E+06         0.00000E+00
    0.14018E+06        -0.50025E+08         0.00000E+00
    0.00000E+00         0.00000E+00        -0.50294E+08
 
   -0.50555E+08         0.14978E+06         0.00000E+00
    0.14978E+06        -0.50029E+08         0.00000E+00
    0.00000E+00         0.00000E+00        -0.50292E+08
 
   -0.50547E+08         0.15907E+06         0.00000E+00
    0.15907E+06        -0.50033E+08         0.00000E+00
    0.00000E+00         0.00000E+00        -0.50289E+08
 
   -0.50538E+08         0.16805E+06         0.00000E+00
    0.16805E+06        -0.50037E+08         0.00000E+00
    0.00000E+00         0.00000E+00        -0.50287E+08
 
   -0.50528E+08         0.17670E+06         0.00000E+00
    0.17670E+06        -0.50041E+08         0.00000E+00
    0.00000E+00         0.00000E+00        -0.50285E+08
 
   -0.50519E+08         0.18503E+06         0.00000E+00
    0.18503E+06        -0.50045E+08         0.00000E+00
    0.00000E+00         0.00000E+00        -0.50282E+08
 
   -0.50509E+08         0.19302E+06         0.00000E+00
    0.19302E+06        -0.50050E+08         0.00000E+00
    0.00000E+00         0.00000E+00        -0.50279E+08
 
   -0.50499E+08         0.20069E+06         0.00000E+00
    0.20069E+06        -0.50054E+08         0.00000E+00
    0.00000E+00         0.00000E+00        -0.50276E+08
 
   -0.50488E+08         0.20803E+06         0.00000E+00
    0.20803E+06        -0.50059E+08         0.00000E+00
    0.00000E+00         0.00000E+00        -0.50274E+08
 
   -0.50478E+08         0.21504E+06         0.00000E+00
    0.21504E+06        -0.50064E+08         0.00000E+00
    0.00000E+00         0.00000E+00        -0.50271E+08
 
   -0.50467E+08         0.22172E+06         0.00000E+00
    0.22172E+06        -0.50068E+08         0.00000E+00
    0.00000E+00         0.00000E+00        -0.50268E+08
 
   -0.50457E+08         0.22809E+06         0.00000E+00
    0.22809E+06        -0.50073E+08         0.00000E+00
    0.00000E+00         0.00000E+00        -0.50265E+08
 
   -0.50446E+08         0.23415E+06         0.00000E+00
    0.23415E+06        -0.50078E+08         0.00000E+00
    0.00000E+00         0.00000E+00        -0.50262E+08
 
   -0.50435E+08         0.23991E+06         0.00000E+00
    0.23991E+06        -0.50083E+08         0.00000E+00
    0.00000E+00         0.00000E+00        -0.50259E+08
 
   -0.50424E+08         0.24538E+06         0.00000E+00
    0.24538E+06        -0.50087E+08         0.00000E+00
    0.00000E+00         0.00000E+00        -0.50256E+08
 
   -0.50413E+08         0.25057E+06         0.00000E+00
    0.25057E+06        -0.50092E+08         0.00000E+00
    0.00000E+00         0.00000E+00        -0.50253E+08
 
   -0.50402E+08         0.25549E+06         0.00000E+00
    0.25549E+06        -0.50097E+08         0.00000E+00
    0.00000E+00         0.00000E+00        -0.50250E+08
 
   -0.50391E+08         0.26015E+06         0.00000E+00
    0.26015E+06        -0.50102E+08         0.00000E+00
    0.00000E+00         0.00000E+00        -0.50247E+08
 
   -0.50380E+08         0.26457E+06         0.00000E+00
    0.26457E+06        -0.50106E+08         0.00000E+00
    0.00000E+00         0.00000E+00        -0.50244E+08
 
   -0.50369E+08         0.26877E+06         0.00000E+00
    0.26877E+06        -0.50111E+08         0.00000E+00
    0.00000E+00         0.00000E+00        -0.50241E+08
 
   -0.50359E+08         0.27275E+06         0.00000E+00
    0.27275E+06        -0.50115E+08         0.00000E+00
    0.00000E+00         0.00000E+00        -0.50238E+08
 
   -0.50348E+08         0.27655E+06         0.00000E+00
    0.27655E+06        -0.50120E+08         0.00000E+00
    0.00000E+00         0.00000E+00        -0.50235E+08
 
   -0.50338E+08         0.28016E+06         0.00000E+00
    0.28016E+06        -0.50124E+08         0.00000E+00
    0.00000E+00         0.00000E+00        -0.50232E+08
 
   -0.50327E+08         0.28362E+06         0.00000E+00
    0.28362E+06        -0.50129E+08         0.00000E+00
    0.00000E+00         0.00000E+00        -0.50229E+08
 
   -0.50317E+08         0.28694E+06         0.00000E+00
    0.28694E+06        -0.50133E+08         0.00000E+00
    0.00000E+00         0.00000E+00        -0.50226E+08
 
   -0.50307E+08         0.29015E+06         0.00000E+00
    0.29015E+06        -0.50137E+08         0.00000E+00
    0.00000E+00         0.00000E+00        -0.50223E+08
 
   -0.50297E+08         0.29325E+06         0.00000E+00
    0.29325E+06        -0.50141E+08         0.00000E+00
    0.00000E+00         0.00000E+00        -0.50220E+08
 
   -0.50287E+08         0.29627E+06         0.00000E+00
    0.29627E+06        -0.50145E+08         0.00000E+00
    0.00000E+00         0.00000E+00        -0.50218E+08
 
   -0.50278E+08         0.29924E+06         0.00000E+00
    0.29924E+06        -0.50149E+08         0.00000E+00
    0.00000E+00         0.00000E+00        -0.50215E+08
 
   -0.50269E+08         0.30216E+06         0.00000E+00
    0.30216E+06        -0.50152E+08         0.00000E+00
    0.00000E+00         0.00000E+00        -0.50213E+08
 
   -0.50260E+08         0.30507E+06         0.00000E+00
    0.30507E+06        -0.50156E+08         0.00000E+00
    0.00000E+00         0.00000E+00        -0.50211E+08
 
   -0.50251E+08         0.30798E+06         0.00000E+00
    0.30798E+06        -0.50160E+08         0.00000E+00
    0.00000E+00         0.00000E+00        -0.50208E+08
 
   -0.50242E+08         0.31091E+06         0.00000E+00
    0.31091E+06        -0.50163E+08         0.00000E+00
    0.00000E+00         0.00000E+00        -0.50206E+08
 
   -0.50234E+08         0.31388E+06         0.00000E+00
    0.31388E+06        -0.50166E+08         0.00000E+00
    0.00000E+00         0.00000E+00        -0.50205E+08
 
   -0.50225E+08         0.31691E+06         0.00000E+00
    0.31691E+06        -0.50170E+08         0.00000E+00
    0.00000E+00         0.00000E+00        -0.50203E+08
 
   -0.50218E+08         0.32002E+06         0.00000E+00
    0.32002E+06        -0.50173E+08         0.00000E+00
    0.00000E+00         0.00000E+00        -0.50201E+08
 
   -0.50210E+08         0.32322E+06         0.00000E+00
    0.32322E+06        -0.50176E+08         0.00000E+00
    0.00000E+00         0.00000E+00        -0.50200E+08
 
   -0.50202E+08         0.32653E+06         0.00000E+00
    0.32653E+06        -0.50179E+08         0.00000E+00
    0.00000E+00         0.00000E+00        -0.50199E+08
 
   -0.50563E+08         0.52162E+04         0.00000E+00
    0.52162E+04        -0.50000E+08         0.00000E+00
    0.00000E+00         0.00000E+00        -0.50281E+08
 
   -0.50563E+08         0.15652E+05         0.00000E+00
    0.15652E+05        -0.50000E+08         0.00000E+00
    0.00000E+00         0.00000E+00        -0.50281E+08
 
   -0.50561E+08         0.26056E+05         0.00000E+00
    0.26056E+05        -0.50001E+08         0.00000E+00
    0.00000E+00         0.00000E+00        -0.50281E+08
 
   -0.50559E+08         0.36403E+05         0.00000E+00
    0.36403E+05        -0.50002E+08         0.00000E+00
    0.00000E+00         0.00000E+00        -0.50280E+08
 
   -0.50556E+08         0.46669E+05         0.00000E+00
    0.46669E+05        -0.50003E+08         0.00000E+00
    0.00000E+00         0.00000E+00        -0.50279E+08
 
   -0.50553E+08         0.56832E+05         0.00000E+00
    0.56832E+05        -0.50004E+08         0.00000E+00
    0.00000E+00         0.00000E+00        -0.50278E+08
 
   -0.50549E+08         0.66873E+05         0.00000E+00
    0.66873E+05        -0.50006E+08         0.00000E+00
    0.00000E+00         0.00000E+00        -0.50277E+08
 
   -0.50545E+08         0.76771E+05         0.00000E+00
    0.76771E+05        -0.50008E+08         0.00000E+00
    0.00000E+00         0.00000E+00        -0.50276E+08
 
   -0.50540E+08         0.86509E+05         0.00000E+00
    0.86509E+05        -0.50010E+08         0.00000E+00
    0.00000E+00         0.00000E+00        -0.50275E+08
 
   -0.50535E+08         0.96071E+05         0.00000E+00
    0.96071E+05        -0.50012E+08         0.00000E+00
    0.00000E+00         0.00000E+00        -0.50274E+08
 
   -0.50529E+08         0.10544E+06         0.00000E+00
    0.10544E+06        -0.50015E+08         0.00000E+00
    0.00000E+00         0.00000E+00        -0.50272E+08
 
   -0.50523E+08         0.11461E+06         0.00000E+00
    0.11461E+06        -0.50018E+08         0.00000E+00
    0.00000E+00         0.00000E+00        -0.50270E+08
 
   -0.50517E+08         0.12356E+06         0.00000E+00
    0.12356E+06        -0.50021E+08         0.00000E+00
    0.00000E+00         0.00000E+00        -0.50269E+08
 
   -0.50510E+08         0.13228E+06         0.00000E+00
    0.13228E+06        -0.50024E+08         0.00000E+00
    0.00000E+00         0.00000E+00        -0.50267E+08
 
   -0.50503E+08         0.14077E+06         0.00000E+00
    0.14077E+06        -0.50027E+08         0.00000E+00
    0.00000E+00         0.00000E+00        -0.50265E+08
 
   -0.50495E+08         0.14902E+06         0.00000E+00
    0.14902E+06        -0.50030E+08         0.00000E+00
    0.00000E+00         0.00000E+00        -0.50263E+08
 
   -0.50487E+08         0.15701E+06         0.00000E+00
    0.15701E+06        -0.50034E+08         0.00000E+00
    0.00000E+00         0.00000E+00        -0.50261E+08
 
   -0.50479E+08         0.16476E+06         0.00000E+00
    0.16476E+06        -0.50038E+08         0.00000E+00
    0.00000E+00         0.00000E+00        -0.50258E+08
 
   -0.50471E+08         0.17225E+06         0.00000E+00
    0.17225E+06        -0.50041E+08         0.00000E+00
    0.00000E+00         0.00000E+00        -0.50256E+08
 
   -0.50462E+08         0.17948E+06         0.00000E+00
    0.17948E+06        -0.50045E+08         0.00000E+00
    0.00000E+00         0.00000E+00        -0.50254E+08
 
   -0.50453E+08         0.18645E+06         0.00000E+00
    0.18645E+06        -0.50049E+08         0.00000E+00
    0.00000E+00         0.00000E+00        -0.50251E+08
 
   -0.50444E+08         0.19317E+06         0.00000E+00
    0.19317E+06        -0.50053E+08         0.00000E+00
    0.00000E+00         0.00000E+00        -0.50249E+08
 
   -0.50435E+08         0.19962E+06         0.00000E+00
    0.19962E+06        -0.50057E+08         0.00000E+00
    0.00000E+00         0.00000E+00        -0.50246E+08
 
   -0.50426E+08         0.20583E+06         0.00000E+00
    0.20583E+06        -0.50061E+08         0.00000E+00
    0.00000E+00         0.00000E+00        -0.50244E+08
 
   -0.50416E+08         0.21179E+06         0.00000E+00
    0.21179E+06        -0.50066E+08         0.00000E+00
    0.00000E+00         0.00000E+00        -0.50241E+08
 
   -0.50407E+08         0.21751E+06         0.00000E+00
    0.21751E+06        -0.50070E+08         0.00000E+00
    0.00000E+00         0.00000E+00        -0.50238E+08
 
   -0.50397E+08         0.22299E+06         0.00000E+00
    0.22299E+06        -0.50074E+08         0.00000E+00
    0.00000E+00         0.00000E+00        -0.50236E+08
 
   -0.50387E+08         0.22824E+06         0.00000E+00
    0.22824E+06        -0.50078E+08         0.00000E+00
    0.00000E+00         0.00000E+00        -0.50233E+08
 
   -0.50378E+08         0.23328E+06         0.00000E+00
    0.23328E+06        -0.50082E+08         0.00000E+00
    0.00000E+00         0.00000E+00        -0.50230E+08
 
   -0.50368E+08         0.23810E+06         0.00000E+00
    0.23810E+06        -0.50086E+08         0.00000E+00
    0.00000E+00         0.00000E+00        -0.50227E+08
 
   -0.50358E+08         0.24272E+06         0.00000E+00
    0.24272E+06        -0.50091E+08         0.00000E+00
    0.00000E+00         0.00000E+00        -0.50225E+08
 
   -0.50348E+08         0.24716E+06         0.00000E+00
    0.24716E+06        -0.50095E+08         0.00000E+00
    0.00000E+00         0.00000E+00        -0.50222E+08
 
   -0.50338E+08         0.25142E+06         0.00000E+00
    0.25142E+06        -0.50099E+08         0.00000E+00
    0.00000E+00         0.00000E+00        -0.50219E+08
 
   -0.50329E+08         0.25551E+06         0.00000E+00
    0.25551E+06        -0.50103E+08         0.00000E+00
    0.00000E+00         0.00000E+00        -0.50216E+08
 
   -0.50319E+08         0.25945E+06         0.00000E+00
    0.25945E+06        -0.50107E+08         0.00000E+00
    0.00000E+00         0.00000E+00        -0.50214E+08
 
   -0.50309E+08         0.26325E+06         0.00000E+00
    0.26325E+06        -0.50111E+08         0.00000E+00
    0.00000E+00         0.00000E+00        -0.50211E+08
 
   -0.50300E+08         0.26693E+06         0.00000E+00
    0.26693E+06        -0.50115E+08         0.00000E+00
    0.00000E+00         0.00000E+00        -0.50208E+08
 
   -0.50290E+08         0.27050E+06         0.00000E+00
    0.27050E+06        -0.50118E+08         0.00000E+00
    0.00000E+00         0.00000E+00        -0.50206E+08
 
   -0.50281E+08         0.27397E+06         0.00000E+00
    0.27397E+06        -0.50122E+08         0.00000E+00
    0.00000E+00         0.00000E+00        -0.50203E+08
 
   -0.50271E+08         0.27736E+06         0.00000E+00
    0.27736E+06        -0.50126E+08         0.00000E+00
    0.00000E+00         0.00000E+00        -0.50201E+08
 
   -0.50262E+08         0.28068E+06         0.00000E+00
    0.28068E+06        -0.50130E+08         0.00000E+00
    0.00000E+00         0.00000E+00        -0.50198E+08
 
   -0.50253E+08         0.28395E+06         0.00000E+00
    0.28395E+06        -0.50133E+08         0.00000E+00
    0.00000E+00         0.00000E+00        -0.50196E+08
 
   -0.50244E+08         0.28718E+06         0.00000E+00
    0.28718E+06        -0.50137E+08         0.00000E+00
    0.00000E+00         0.00000E+00        -0.50194E+08
 
   -0.50235E+08         0.29039E+06         0.00000E+00
    0.29039E+06        -0.50140E+08         0.00000E+00
    0.00000E+00         0.00000E+00        -0.50191E+08
 
   -0.50227E+08         0.29358E+06         0.00000E+00
    0.29358E+06        -0.50144E+08         0.00000E+00
    0.00000E+00         0.00000E+00        -0.50189E+08
 
   -0.50218E+08         0.29679E+06         0.00000E+00
    0.29679E+06        -0.50147E+08         0.00000E+00
    0.00000E+00         0.00000E+00        -0.50188E+08
 
   -0.50210E+08         0.30000E+06         0.00000E+00
    0.30000E+06        -0.50151E+08         0.00000E+00
    0.00000E+00         0.00000E+00        -0.50186E+08
 
   -0.50201E+08         0.30325E+06         0.00000E+00
    0.30325E+06        -0.50154E+08         0.00000E+00
    0.00000E+00         0.00000E+00        -0.50184E+08
 
   -0.50193E+08         0.30654E+06         0.00000E+00
    0.30654E+06        -0.50158E+08         0.00000E+00
    0.00000E+00         0.00000E+00        -0.50183E+08
 
   -0.50185E+08         0.30987E+06         0.00000E+00
    0.30987E+06        -0.50161E+08         0.00000E+00
    0.00000E+00         0.00000E+00        -0.50182E+08
 
   -0.50515E+08         0.45481E+04         0.00000E+00
    0.45481E+04        -0.50000E+08         0.00000E+00
    0.00000E+00         0.00000E+00        -0.50257E+08
 
   -0.50514E+08         0.13684E+05         0.00000E+00
    0.13684E+05        -0.50000E+08         0.00000E+00
    0.00000E+00         0.00000E+00        -0.50256E+08
 
   -0.50512E+08         0.22811E+05         0.00000E+00
    0.22811E+05        -0.50001E+08         0.00000E+00
    0.00000E+00         0.00000E+00        -0.50256E+08
 
   -0.50511E+08         0.31909E+05         0.00000E+00
    0.31909E+05        -0.50001E+08         0.00000E+00
    0.00000E+00         0.00000E+00        -0.50256E+08
 
   -0.50508E+08         0.40960E+05         0.00000E+00
    0.40960E+05        -0.50002E+08         0.00000E+00
    0.00000E+00         0.00000E+00        -0.50255E+08
 
   -0.50506E+08         0.49945E+05         0.00000E+00
    0.49945E+05        -0.50003E+08         0.00000E+00
    0.00000E+00         0.00000E+00        -0.50254E+08
 
   -0.50502E+08         0.58849E+05         0.00000E+00
    0.58849E+05        -0.50005E+08         0.00000E+00
    0.00000E+00         0.00000E+00        -0.50253E+08
 
   -0.50499E+08         0.67655E+05         0.00000E+00
    0.67655E+05        -0.50006E+08         0.00000E+00
    0.00000E+00         0.00000E+00        -0.50252E+08
 
   -0.50495E+08         0.76348E+05         0.00000E+00
    0.76348E+05        -0.50008E+08         0.00000E+00
    0.00000E+00         0.00000E+00        -0.50251E+08
 
   -0.50490E+08         0.84915E+05         0.00000E+00
    0.84915E+05        -0.50010E+08         0.00000E+00
    0.00000E+00         0.00000E+00        -0.50250E+08
 
   -0.50485E+08         0.93344E+05         0.00000E+00
    0.93344E+05        -0.50012E+08         0.00000E+00
    0.00000E+00         0.00000E+00        -0.50249E+08
 
   -0.50480E+08         0.10162E+06         0.00000E+00
    0.10162E+06        -0.50014E+08         0.00000E+00
    0.00000E+00         0.00000E+00        -0.50247E+08
 
   -0.50475E+08         0.10974E+06         0.00000E+00
    0.10974E+06        -0.50017E+08         0.00000E+00
    0.00000E+00         0.00000E+00        -0.50246E+08
 
   -0.50469E+08         0.11769E+06         0.00000E+00
    0.11769E+06        -0.50019E+08         0.00000E+00
    0.00000E+00         0.00000E+00        -0.50244E+08
 
   -0.50463E+08         0.12546E+06         0.00000E+00
    0.12546E+06        -0.50022E+08         0.00000E+00
    0.00000E+00         0.00000E+00        -0.50242E+08
 
   -0.50456E+08         0.13305E+06         0.00000E+00
    0.13305E+06        -0.50025E+08         0.00000E+00
    0.00000E+00         0.00000E+00        -0.50241E+08
 
   -0.50449E+08         0.14045E+06         0.00000E+00
    0.14045E+06        -0.50028E+08         0.00000E+00
    0.00000E+00         0.00000E+00        -0.50239E+08
 
   -0.50442E+08         0.14765E+06         0.00000E+00
    0.14765E+06        -0.50031E+08         0.00000E+00
    0.00000E+00         0.00000E+00        -0.50237E+08
 
   -0.50435E+08         0.15466E+06         0.00000E+00
    0.15466E+06        -0.50034E+08         0.00000E+00
    0.00000E+00         0.00000E+00        -0.50235E+08
 
   -0.50428E+08         0.16146E+06         0.00000E+00
    0.16146E+06        -0.50038E+08         0.00000E+00
    0.00000E+00         0.00000E+00        -0.50233E+08
 
   -0.50420E+08         0.16806E+06         0.00000E+00
    0.16806E+06        -0.50041E+08         0.00000E+00
    0.00000E+00         0.00000E+00        -0.50230E+08
 
   -0.50412E+08         0.17446E+06         0.00000E+00
    0.17446E+06        -0.50044E+08         0.00000E+00
    0.00000E+00         0.00000E+00        -0.50228E+08
 
   -0.50404E+08         0.18065E+06         0.00000E+00
    0.18065E+06        -0.50048E+08         0.00000E+00
    0.00000E+00         0.00000E+00        -0.50226E+08
 
   -0.50396E+08         0.18664E+06         0.00000E+00
    0.18664E+06        -0.50051E+08         0.00000E+00
    0.00000E+00         0.00000E+00        -0.50224E+08
 
   -0.50387E+08         0.19244E+06         0.00000E+00
    0.19244E+06        -0.50055E+08         0.00000E+00
    0.00000E+00         0.00000E+00        -0.50221E+08
 
   -0.50379E+08         0.19804E+06         0.00000E+00
    0.19804E+06        -0.50059E+08         0.00000E+00
    0.00000E+00         0.00000E+00        -0.50219E+08
 
   -0.50370E+08         0.20344E+06         0.00000E+00
    0.20344E+06        -0.50062E+08         0.00000E+00
    0.00000E+00         0.00000E+00        -0.50216E+08
 
   -0.50362E+08         0.20866E+06         0.00000E+00
    0.20866E+06        -0.50066E+08         0.00000E+00
    0.00000E+00         0.00000E+00        -0.50214E+08
 
   -0.50353E+08         0.21370E+06         0.00000E+00
    0.21370E+06        -0.50069E+08         0.00000E+00
    0.00000E+00         0.00000E+00        -0.50211E+08
 
   -0.50344E+08         0.21857E+06         0.00000E+00
    0.21857E+06        -0.50073E+08         0.00000E+00
    0.00000E+00         0.00000E+00        -0.50209E+08
 
   -0.50335E+08         0.22326E+06         0.00000E+00
    0.22326E+06        -0.50077E+08         0.00000E+00
    0.00000E+00         0.00000E+00        -0.50206E+08
 
   -0.50326E+08         0.22780E+06         0.00000E+00
    0.22780E+06        -0.50080E+08         0.00000E+00
    0.00000E+00         0.00000E+00        -0.50204E+08
 
   -0.50317E+08         0.23218E+06         0.00000E+00
    0.23218E+06        -0.50084E+08         0.00000E+00
    0.00000E+00         0.00000E+00        -0.50201E+08
 
   -0.50308E+08         0.23642E+06         0.00000E+00
    0.23642E+06        -0.50088E+08         0.00000E+00
    0.00000E+00         0.00000E+00        -0.50199E+08
 
   -0.50299E+08         0.24052E+06         0.00000E+00
    0.24052E+06        -0.50091E+08         0.00000E+00
    0.00000E+00         0.00000E+00        -0.50196E+08
 
   -0.50290E+08         0.24450E+06         0.00000E+00
    0.24450E+06        -0.50095E+08         0.00000E+00
    0.00000E+00         0.00000E+00        -0.50194E+08
 
   -0.50281E+08         0.24837E+06         0.00000E+00
    0.24837E+06        -0.50099E+08         0.00000E+00
    0.00000E+00         0.00000E+00        -0.50191E+08
 
   -0.50272E+08         0.25212E+06         0.00000E+00
    0.25212E+06        -0.50102E+08         0.00000E+00
    0.00000E+00         0.00000E+00        -0.50189E+08
 
   -0.50263E+08         0.25578E+06         0.00000E+00
    0.25578E+06        -0.50106E+08         0.00000E+00
    0.00000E+00         0.00000E+00        -0.50186E+08
 
   -0.50254E+08         0.25936E+06         0.00000E+00
    0.25936E+06        -0.50109E+08         0.00000E+00
    0.00000E+00         0.00000E+00        -0.50184E+08
 
   -0.50245E+08         0.26286E+06         0.00000E+00
    0.26286E+06        -0.50113E+08         0.00000E+00
    0.00000E+00         0.00000E+00        -0.50181E+08
 
   -0.50236E+08         0.26629E+06         0.00000E+00
    0.26629E+06        -0.50116E+08         0.00000E+00
    0.00000E+00         0.00000E+00        -0.50179E+08
 
   -0.50228E+08         0.26967E+06         0.00000E+00
    0.26967E+06        -0.50120E+08         0.00000E+00
    0.00000E+00         0.00000E+00        -0.50177E+08
 
   -0.50219E+08         0.27300E+06         0.00000E+00
    0.27300E+06        -0.50123E+08         0.00000E+00
    0.00000E+00         0.00000E+00        -0.50175E+08
 
   -0.50210E+08         0.27630E+06         0.00000E+00
    0.27630E+06        -0.50126E+08         0.00000E+00
    0.00000E+00         0.00000E+00        -0.50173E+08
 
   -0.50202E+08         0.27957E+06         0.00000E+00
    0.27957E+06        -0.50130E+08         0.00000E+00
    0.00000E+00         0.00000E+00        -0.50171E+08
 
   -0.50193E+08         0.28282E+06         0.00000E+00
    0.28282E+06        -0.50133E+08         0.00000E+00
    0.00000E+00         0.00000E+00        -0.50169E+08
 
   -0.50185E+08         0.28605E+06         0.00000E+00
    0.28605E+06        -0.50137E+08         0.00000E+00
    0.00000E+00         0.00000E+00        -0.50168E+08
 
   -0.50177E+08         0.28929E+06         0.00000E+00
    0.28929E+06        -0.50140E+08         0.00000E+00
    0.00000E+00         0.00000E+00        -0.50166E+08
 
   -0.50169E+08         0.29252E+06         0.00000E+00
    0.29252E+06        -0.50144E+08         0.00000E+00
    0.00000E+00         0.00000E+00        -0.50165E+08
 
   -0.50472E+08         0.40190E+04         0.00000E+00
    0.40190E+04        -0.50000E+08         0.00000E+00
    0.00000E+00         0.00000E+00        -0.50235E+08
 
   -0.50471E+08         0.12112E+05         0.00000E+00
    0.12112E+05        -0.50000E+08         0.00000E+00
    0.00000E+00         0.00000E+00        -0.50235E+08
 
   -0.50469E+08         0.20208E+05         0.00000E+00
    0.20208E+05        -0.50001E+08         0.00000E+00
    0.00000E+00         0.00000E+00        -0.50234E+08
 
   -0.50468E+08         0.28293E+05         0.00000E+00
    0.28293E+05        -0.50001E+08         0.00000E+00
    0.00000E+00         0.00000E+00        -0.50234E+08
 
   -0.50466E+08         0.36350E+05         0.00000E+00
    0.36350E+05        -0.50002E+08         0.00000E+00
    0.00000E+00         0.00000E+00        -0.50233E+08
 
   -0.50463E+08         0.44367E+05         0.00000E+00
    0.44367E+05        -0.50003E+08         0.00000E+00
    0.00000E+00         0.00000E+00        -0.50233E+08
 
   -0.50460E+08         0.52330E+05         0.00000E+00
    0.52330E+05        -0.50004E+08         0.00000E+00
    0.00000E+00         0.00000E+00        -0.50232E+08
 
   -0.50457E+08         0.60227E+05         0.00000E+00
    0.60227E+05        -0.50005E+08         0.00000E+00
    0.00000E+00         0.00000E+00        -0.50231E+08
 
   -0.50454E+08         0.68044E+05         0.00000E+00
    0.68044E+05        -0.50007E+08         0.00000E+00
    0.00000E+00         0.00000E+00        -0.50230E+08
 
   -0.50450E+08         0.75772E+05         0.00000E+00
    0.75772E+05        -0.50008E+08         0.00000E+00
    0.00000E+00         0.00000E+00        -0.50229E+08
 
   -0.50446E+08         0.83400E+05         0.00000E+00
    0.83400E+05        -0.50010E+08         0.00000E+00
    0.00000E+00         0.00000E+00        -0.50228E+08
 
   -0.50441E+08         0.90917E+05         0.00000E+00
    0.90917E+05        -0.50012E+08         0.00000E+00
    0.00000E+00         0.00000E+00        -0.50226E+08
 
   -0.50436E+08         0.98315E+05         0.00000E+00
    0.98315E+05        -0.50014E+08         0.00000E+00
    0.00000E+00         0.00000E+00        -0.50225E+08
 
   -0.50431E+08         0.10559E+06         0.00000E+00
    0.10559E+06        -0.50016E+08         0.00000E+00
    0.00000E+00         0.00000E+00        -0.50223E+08
 
   -0.50426E+08         0.11272E+06         0.00000E+00
    0.11272E+06        -0.50018E+08         0.00000E+00
    0.00000E+00         0.00000E+00        -0.50222E+08
 
   -0.50420E+08         0.11972E+06         0.00000E+00
    0.11972E+06        -0.50020E+08         0.00000E+00
    0.00000E+00         0.00000E+00        -0.50220E+08
 
   -0.50414E+08         0.12657E+06         0.00000E+00
    0.12657E+06        -0.50023E+08         0.00000E+00
    0.00000E+00         0.00000E+00        -0.50219E+08
 
   -0.50408E+08         0.13327E+06         0.00000E+00
    0.13327E+06        -0.50026E+08         0.00000E+00
    0.00000E+00         0.00000E+00        -0.50217E+08
 
   -0.50402E+08         0.13982E+06         0.00000E+00
    0.13982E+06        -0.50028E+08         0.00000E+00
    0.00000E+00         0.00000E+00        -0.50215E+08
 
   -0.50395E+08         0.14620E+06         0.00000E+00
    0.14620E+06        -0.50031E+08         0.00000E+00
    0.00000E+00         0.00000E+00        -0.50213E+08
 
   -0.50388E+08         0.15243E+06         0.00000E+00
    0.15243E+06        -0.50034E+08         0.00000E+00
    0.00000E+00         0.00000E+00        -0.50211E+08
 
   -0.50381E+08         0.15850E+06         0.00000E+00
    0.15850E+06        -0.50037E+08         0.00000E+00
    0.00000E+00         0.00000E+00        -0.50209E+08
 
   -0.50374E+08         0.16440E+06         0.00000E+00
    0.16440E+06        -0.50040E+08         0.00000E+00
    0.00000E+00         0.00000E+00        -0.50207E+08
 
   -0.50367E+08         0.17015E+06         0.00000E+00
    0.17015E+06        -0.50043E+08         0.00000E+00
    0.00000E+00         0.00000E+00        -0.50205E+08
 
   -0.50359E+08         0.17573E+06         0.00000E+00
    0.17573E+06        -0.50046E+08         0.00000E+00
    0.00000E+00         0.00000E+00        -0.50203E+08
 
   -0.50352E+08         0.18115E+06         0.00000E+00
    0.18115E+06        -0.50049E+08         0.00000E+00
    0.00000E+00         0.00000E+00        -0.50201E+08
 
   -0.50344E+08         0.18641E+06         0.00000E+00
    0.18641E+06        -0.50052E+08         0.00000E+00
    0.00000E+00         0.00000E+00        -0.50198E+08
 
   -0.50336E+08         0.19152E+06         0.00000E+00
    0.19152E+06        -0.50055E+08         0.00000E+00
    0.00000E+00         0.00000E+00        -0.50196E+08
 
   -0.50328E+08         0.19648E+06         0.00000E+00
    0.19648E+06        -0.50059E+08         0.00000E+00
    0.00000E+00         0.00000E+00        -0.50194E+08
 
   -0.50320E+08         0.20129E+06         0.00000E+00
    0.20129E+06        -0.50062E+08         0.00000E+00
    0.00000E+00         0.00000E+00        -0.50191E+08
 
   -0.50312E+08         0.20595E+06         0.00000E+00
    0.20595E+06        -0.50065E+08         0.00000E+00
    0.00000E+00         0.00000E+00        -0.50189E+08
 
   -0.50304E+08         0.21048E+06         0.00000E+00
    0.21048E+06        -0.50068E+08         0.00000E+00
    0.00000E+00         0.00000E+00        -0.50187E+08
 
   -0.50296E+08         0.21487E+06         0.00000E+00
    0.21487E+06        -0.50072E+08         0.00000E+00
    0.00000E+00         0.00000E+00        -0.50184E+08
 
   -0.50287E+08         0.21914E+06         0.00000E+00
    0.21914E+06        -0.50075E+08         0.00000E+00
    0.00000E+00         0.00000E+00        -0.50182E+08
 
   -0.50279E+08         0.22328E+06         0.00000E+00
    0.22328E+06        -0.50078E+08         0.00000E+00
    0.00000E+00         0.00000E+00        -0.50179E+08
 
   -0.50270E+08         0.22731E+06         0.00000E+00
    0.22731E+06        -0.50081E+08         0.00000E+00
    0.00000E+00         0.00000E+00        -0.50177E+08
 
   -0.50262E+08         0.23122E+06         0.00000E+00
    0.23122E+06        -0.50085E+08         0.00000E+00
    0.00000E+00         0.00000E+00        -0.50175E+08
 
   -0.50253E+08         0.23504E+06         0.00000E+00
    0.23504E+06        -0.50088E+08         0.00000E+00
    0.00000E+00         0.00000E+00        -0.50172E+08
 
   -0.50245E+08         0.23875E+06         0.00000E+00
    0.23875E+06        -0.50091E+08         0.00000E+00
    0.00000E+00         0.00000E+00        -0.50170E+08
 
   -0.50236E+08         0.24238E+06         0.00000E+00
    0.24238E+06        -0.50095E+08         0.00000E+00
    0.00000E+00         0.00000E+00        -0.50167E+08
 
   -0.50228E+08         0.24592E+06         0.00000E+00
    0.24592E+06        -0.50098E+08         0.00000E+00
    0.00000E+00         0.00000E+00        -0.50165E+08
 
   -0.50219E+08         0.24939E+06         0.00000E+00
    0.24939E+06        -0.50101E+08         0.00000E+00
    0.00000E+00         0.00000E+00        -0.50163E+08
 
   -0.50211E+08         0.25278E+06         0.00000E+00
    0.25278E+06        -0.50105E+08         0.00000E+00
    0.00000E+00         0.00000E+00        -0.50161E+08
 
   -0.50202E+08         0.25611E+06         0.00000E+00
    0.25611E+06        -0.50108E+08         0.00000E+00
    0.00000E+00         0.00000E+00        -0.50159E+08
 
   -0.50194E+08         0.25938E+06         0.00000E+00
    0.25938E+06        -0.50111E+08         0.00000E+00
    0.00000E+00         0.00000E+00        -0.50157E+08
 
   -0.50186E+08         0.26260E+06         0.00000E+00
    0.26260E+06        -0.50114E+08         0.00000E+00
    0.00000E+00         0.00000E+00        -0.50155E+08
 
   -0.50177E+08         0.26578E+06         0.00000E+00
    0.26578E+06        -0.50118E+08         0.00000E+00
    0.00000E+00         0.00000E+00        -0.50154E+08
 
   -0.50169E+08         0.26890E+06         0.00000E+00
    0.26890E+06        -0.50121E+08         0.00000E+00
    0.00000E+00         0.00000E+00        -0.50152E+08
 
   -0.50161E+08         0.27200E+06         0.00000E+00
    0.27200E+06        -0.50125E+08         0.00000E+00
    0.00000E+00         0.00000E+00        -0.50151E+08
 
   -0.50153E+08         0.27505E+06         0.00000E+00
    0.27505E+06        -0.50128E+08         0.00000E+00
    0.00000E+00         0.00000E+00        -0.50150E+08
 
   -0.50433E+08         0.36006E+04         0.00000E+00
    0.36006E+04        -0.50000E+08         0.00000E+00
    0.00000E+00         0.00000E+00        -0.50215E+08
 
   -0.50432E+08         0.10858E+05         0.00000E+00
    0.10858E+05        -0.50000E+08         0.00000E+00
    0.00000E+00         0.00000E+00        -0.50215E+08
 
   -0.50431E+08         0.18124E+05         0.00000E+00
    0.18124E+05        -0.50000E+08         0.00000E+00
    0.00000E+00         0.00000E+00        -0.50215E+08
 
   -0.50430E+08         0.25387E+05         0.00000E+00
    0.25387E+05        -0.50001E+08         0.00000E+00
    0.00000E+00         0.00000E+00        -0.50214E+08
 
   -0.50428E+08         0.32636E+05         0.00000E+00
    0.32636E+05        -0.50001E+08         0.00000E+00
    0.00000E+00         0.00000E+00        -0.50214E+08
 
   -0.50425E+08         0.39859E+05         0.00000E+00
    0.39859E+05        -0.50002E+08         0.00000E+00
    0.00000E+00         0.00000E+00        -0.50213E+08
 
   -0.50423E+08         0.47046E+05         0.00000E+00
    0.47046E+05        -0.50003E+08         0.00000E+00
    0.00000E+00         0.00000E+00        -0.50212E+08
 
   -0.50420E+08         0.54187E+05         0.00000E+00
    0.54187E+05        -0.50004E+08         0.00000E+00
    0.00000E+00         0.00000E+00        -0.50212E+08
 
   -0.50417E+08         0.61272E+05         0.00000E+00
    0.61272E+05        -0.50005E+08         0.00000E+00
    0.00000E+00         0.00000E+00        -0.50211E+08
 
   -0.50413E+08         0.68292E+05         0.00000E+00
    0.68292E+05        -0.50007E+08         0.00000E+00
    0.00000E+00         0.00000E+00        -0.50210E+08
 
   -0.50410E+08         0.75238E+05         0.00000E+00
    0.75238E+05        -0.50008E+08         0.00000E+00
    0.00000E+00         0.00000E+00        -0.50209E+08
 
   -0.50405E+08         0.82102E+05         0.00000E+00
    0.82102E+05        -0.50010E+08         0.00000E+00
    0.00000E+00         0.00000E+00        -0.50207E+08
 
   -0.50401E+08         0.88877E+05         0.00000E+00
    0.88877E+05        -0.50011E+08         0.00000E+00
    0.00000E+00         0.00000E+00        -0.50206E+08
 
   -0.50397E+08         0.95556E+05         0.00000E+00
    0.95556E+05        -0.50013E+08         0.00000E+00
    0.00000E+00         0.00000E+00        -0.50205E+08
 
   -0.50392E+08         0.10213E+06         0.00000E+00
    0.10213E+06        -0.50015E+08         0.00000E+00
    0.00000E+00         0.00000E+00        -0.50203E+08
 
   -0.50387E+08         0.10860E+06         0.00000E+00
    0.10860E+06        -0.50017E+08         0.00000E+00
    0.00000E+00         0.00000E+00        -0.50202E+08
 
   -0.50382E+08         0.11495E+06         0.00000E+00
    0.11495E+06        -0.50019E+08         0.00000E+00
    0.00000E+00         0.00000E+00        -0.50200E+08
 
   -0.50376E+08         0.12119E+06         0.00000E+00
    0.12119E+06        -0.50021E+08         0.00000E+00
    0.00000E+00         0.00000E+00        -0.50199E+08
 
   -0.50370E+08         0.12731E+06         0.00000E+00
    0.12731E+06        -0.50023E+08         0.00000E+00
    0.00000E+00         0.00000E+00        -0.50197E+08
 
   -0.50365E+08         0.13330E+06         0.00000E+00
    0.13330E+06        -0.50026E+08         0.00000E+00
    0.00000E+00         0.00000E+00        -0.50195E+08
 
   -0.50359E+08         0.13916E+06         0.00000E+00
    0.13916E+06        -0.50028E+08         0.00000E+00
    0.00000E+00         0.00000E+00        -0.50193E+08
 
   -0.50352E+08         0.14489E+06         0.00000E+00
    0.14489E+06        -0.50031E+08         0.00000E+00
    0.00000E+00         0.00000E+00        -0.50191E+08
 
   -0.50346E+08         0.15049E+06         0.00000E+00
    0.15049E+06        -0.50033E+08         0.00000E+00
    0.00000E+00         0.00000E+00        -0.50190E+08
 
   -0.50339E+08         0.15596E+06         0.00000E+00
    0.15596E+06        -0.50036E+08         0.00000E+00
    0.00000E+00         0.00000E+00        -0.50188E+08
 
   -0.50333E+08         0.16130E+06         0.00000E+00
    0.16130E+06        -0.50038E+08         0.00000E+00
    0.00000E+00         0.00000E+00        -0.50186E+08
 
   -0.50326E+08         0.16650E+06         0.00000E+00
    0.16650E+06        -0.50041E+08         0.00000E+00
    0.00000E+00         0.00000E+00        -0.50184E+08
 
   -0.50319E+08         0.17157E+06         0.00000E+00
    0.17157E+06        -0.50044E+08         0.00000E+00
    0.00000E+00         0.00000E+00        -0.50181E+08
 
   -0.50311E+08         0.17651E+06         0.00000E+00
    0.17651E+06        -0.50047E+08         0.00000E+00
    0.00000E+00         0.00000E+00        -0.50179E+08
 
   -0.50304E+08         0.18132E+06         0.00000E+00
    0.18132E+06        -0.50049E+08         0.00000E+00
    0.00000E+00         0.00000E+00        -0.50177E+08
 
   -0.50297E+08         0.18601E+06         0.00000E+00
    0.18601E+06        -0.50052E+08         0.00000E+00
    0.00000E+00         0.00000E+00        -0.50175E+08
 
   -0.50289E+08         0.19056E+06         0.00000E+00
    0.19056E+06        -0.50055E+08         0.00000E+00
    0.00000E+00         0.00000E+00        -0.50173E+08
 
   -0.50282E+08         0.19500E+06         0.00000E+00
    0.19500E+06        -0.50058E+08         0.00000E+00
    0.00000E+00         0.00000E+00        -0.50170E+08
 
   -0.50274E+08         0.19932E+06         0.00000E+00
    0.19932E+06        -0.50061E+08         0.00000E+00
    0.00000E+00         0.00000E+00        -0.50168E+08
 
   -0.50266E+08         0.20352E+06         0.00000E+00
    0.20352E+06        -0.50064E+08         0.00000E+00
    0.00000E+00         0.00000E+00        -0.50166E+08
 
   -0.50258E+08         0.20760E+06         0.00000E+00
    0.20760E+06        -0.50067E+08         0.00000E+00
    0.00000E+00         0.00000E+00        -0.50164E+08
 
   -0.50251E+08         0.21158E+06         0.00000E+00
    0.21158E+06        -0.50070E+08         0.00000E+00
    0.00000E+00         0.00000E+00        -0.50161E+08
 
   -0.50243E+08         0.21545E+06         0.00000E+00
    0.21545E+06        -0.50073E+08         0.00000E+00
    0.00000E+00         0.00000E+00        -0.50159E+08
 
   -0.50235E+08         0.21922E+06         0.00000E+00
    0.21922E+06        -0.50076E+08         0.00000E+00
    0.00000E+00         0.00000E+00        -0.50157E+08
 
   -0.50227E+08         0.22289E+06         0.00000E+00
    0.22289E+06        -0.50079E+08         0.00000E+00
    0.00000E+00         0.00000E+00        -0.50155E+08
 
   -0.50219E+08         0.22647E+06         0.00000E+00
    0.22647E+06        -0.50082E+08         0.00000E+00
    0.00000E+00         0.00000E+00        -0.50152E+08
 
   -0.50210E+08         0.22996E+06         0.00000E+00
    0.22996E+06        -0.50085E+08         0.00000E+00
    0.00000E+00         0.00000E+00        -0.50150E+08
 
   -0.50202E+08         0.23336E+06         0.00000E+00
    0.23336E+06        -0.50088E+08         0.00000E+00
    0.00000E+00         0.00000E+00        -0.50148E+08
 
   -0.50194E+08         0.23668E+06         0.00000E+00
    0.23668E+06        -0.50091E+08         0.00000E+00
    0.00000E+00         0.00000E+00        -0.50146E+08
 
   -0.50186E+08         0.23992E+06         0.00000E+00
    0.23992E+06        -0.50095E+08         0.00000E+00
    0.00000E+00         0.00000E+00        -0.50144E+08
 
   -0.50178E+08         0.24309E+06         0.00000E+00
    0.24309E+06        -0.50098E+08         0.00000E+00
    0.00000E+00         0.00000E+00        -0.50142E+08
 
   -0.50170E+08         0.24618E+06         0.00000E+00
    0.24618E+06        -0.50101E+08         0.00000E+00
    0.00000E+00         0.00000E+00        -0.50141E+08
 
   -0.50162E+08         0.24921E+06         0.00000E+00
    0.24921E+06        -0.50104E+08         0.00000E+00
    0.00000E+00         0.00000E+00        -0.50139E+08
 
   -0.50154E+08         0.25217E+06         0.00000E+00
    0.25217E+06        -0.50107E+08         0.00000E+00
    0.00000E+00         0.00000E+00        -0.50137E+08
 
   -0.50146E+08         0.25507E+06         0.00000E+00
    0.25507E+06        -0.50111E+08         0.00000E+00
    0.00000E+00         0.00000E+00        -0.50136E+08
 
   -0.50139E+08         0.25790E+06         0.00000E+00
    0.25790E+06        -0.50114E+08         0.00000E+00
    0.00000E+00         0.00000E+00        -0.50135E+08
 
   -0.50399E+08         0.32688E+04         0.00000E+00
    0.32688E+04        -0.50000E+08         0.00000E+00
    0.00000E+00         0.00000E+00        -0.50198E+08
 
   -0.50398E+08         0.98555E+04         0.00000E+00
    0.98555E+04        -0.50000E+08         0.00000E+00
    0.00000E+00         0.00000E+00        -0.50198E+08
 
   -0.50397E+08         0.16451E+05         0.00000E+00
    0.16451E+05        -0.50000E+08         0.00000E+00
    0.00000E+00         0.00000E+00        -0.50197E+08
 
   -0.50395E+08         0.23048E+05         0.00000E+00
    0.23048E+05        -0.50001E+08         0.00000E+00
    0.00000E+00         0.00000E+00        -0.50197E+08
 
   -0.50393E+08         0.29636E+05         0.00000E+00
    0.29636E+05        -0.50001E+08         0.00000E+00
    0.00000E+00         0.00000E+00        -0.50196E+08
 
   -0.50391E+08         0.36206E+05         0.00000E+00
    0.36206E+05        -0.50002E+08         0.00000E+00
    0.00000E+00         0.00000E+00        -0.50196E+08
 
   -0.50389E+08         0.42752E+05         0.00000E+00
    0.42752E+05        -0.50003E+08         0.00000E+00
    0.00000E+00         0.00000E+00        -0.50195E+08
 
   -0.50386E+08         0.49264E+05         0.00000E+00
    0.49264E+05        -0.50003E+08         0.00000E+00
    0.00000E+00         0.00000E+00        -0.50194E+08
 
   -0.50383E+08         0.55735E+05         0.00000E+00
    0.55735E+05        -0.50004E+08         0.00000E+00
    0.00000E+00         0.00000E+00        -0.50193E+08
 
   -0.50380E+08         0.62158E+05         0.00000E+00
    0.62158E+05        -0.50005E+08         0.00000E+00
    0.00000E+00         0.00000E+00        -0.50192E+08
 
   -0.50376E+08         0.68525E+05         0.00000E+00
    0.68525E+05        -0.50007E+08         0.00000E+00
    0.00000E+00         0.00000E+00        -0.50191E+08
 
   -0.50373E+08         0.74829E+05         0.00000E+00
    0.74829E+05        -0.50008E+08         0.00000E+00
    0.00000E+00         0.00000E+00        -0.50190E+08
 
   -0.50369E+08         0.81065E+05         0.00000E+00
    0.81065E+05        -0.50009E+08         0.00000E+00
    0.00000E+00         0.00000E+00        -0.50189E+08
 
   -0.50365E+08         0.87225E+05         0.00000E+00
    0.87225E+05        -0.50011E+08         0.00000E+00
    0.00000E+00         0.00000E+00        -0.50188E+08
 
   -0.50361E+08         0.93306E+05         0.00000E+00
    0.93306E+05        -0.50012E+08         0.00000E+00
    0.00000E+00         0.00000E+00        -0.50186E+08
 
   -0.50356E+08         0.99301E+05         0.00000E+00
    0.99301E+05        -0.50014E+08         0.00000E+00
    0.00000E+00         0.00000E+00        -0.50185E+08
 
   -0.50351E+08         0.10521E+06         0.00000E+00
    0.10521E+06        -0.50016E+08         0.00000E+00
    0.00000E+00         0.00000E+00        -0.50183E+08
 
   -0.50346E+08         0.11102E+06         0.00000E+00
    0.11102E+06        -0.50017E+08         0.00000E+00
    0.00000E+00         0.00000E+00        -0.50182E+08
 
   -0.50341E+08         0.11673E+06         0.00000E+00
    0.11673E+06        -0.50019E+08         0.00000E+00
    0.00000E+00         0.00000E+00        -0.50180E+08
 
   -0.50336E+08         0.12234E+06         0.00000E+00
    0.12234E+06        -0.50021E+08         0.00000E+00
    0.00000E+00         0.00000E+00        -0.50179E+08
 
   -0.50330E+08         0.12785E+06         0.00000E+00
    0.12785E+06        -0.50023E+08         0.00000E+00
    0.00000E+00         0.00000E+00        -0.50177E+08
 
   -0.50325E+08         0.13325E+06         0.00000E+00
    0.13325E+06        -0.50025E+08         0.00000E+00
    0.00000E+00         0.00000E+00        -0.50175E+08
 
   -0.50319E+08         0.13854E+06         0.00000E+00
    0.13854E+06        -0.50028E+08         0.00000E+00
    0.00000E+00         0.00000E+00        -0.50173E+08
 
   -0.50313E+08         0.14373E+06         0.00000E+00
    0.14373E+06        -0.50030E+08         0.00000E+00
    0.00000E+00         0.00000E+00        -0.50172E+08
 
   -0.50307E+08         0.14880E+06         0.00000E+00
    0.14880E+06        -0.50032E+08         0.00000E+00
    0.00000E+00         0.00000E+00        -0.50170E+08
 
   -0.50301E+08         0.15376E+06         0.00000E+00
    0.15376E+06        -0.50035E+08         0.00000E+00
    0.00000E+00         0.00000E+00        -0.50168E+08
 
   -0.50294E+08         0.15860E+06         0.00000E+00
    0.15860E+06        -0.50037E+08         0.00000E+00
    0.00000E+00         0.00000E+00        -0.50166E+08
 
   -0.50288E+08         0.16334E+06         0.00000E+00
    0.16334E+06        -0.50039E+08         0.00000E+00
    0.00000E+00         0.00000E+00        -0.50164E+08
 
   -0.50281E+08         0.16796E+06         0.00000E+00
    0.16796E+06        -0.50042E+08         0.00000E+00
    0.00000E+00         0.00000E+00        -0.50162E+08
 
   -0.50274E+08         0.17247E+06         0.00000E+00
    0.17247E+06        -0.50044E+08         0.00000E+00
    0.00000E+00         0.00000E+00        -0.50160E+08
 
   -0.50267E+08         0.17686E+06         0.00000E+00
    0.17686E+06        -0.50047E+08         0.00000E+00
    0.00000E+00         0.00000E+00        -0.50158E+08
 
   -0.50260E+08         0.18115E+06         0.00000E+00
    0.18115E+06        -0.50050E+08         0.00000E+00
    0.00000E+00         0.00000E+00        -0.50155E+08
 
   -0.50253E+08         0.18533E+06         0.00000E+00
    0.18533E+06        -0.50052E+08         0.00000E+00
    0.00000E+00         0.00000E+00        -0.50153E+08
 
   -0.50246E+08         0.18940E+06         0.00000E+00
    0.18940E+06        -0.50055E+08         0.00000E+00
    0.00000E+00         0.00000E+00        -0.50151E+08
 
   -0.50239E+08         0.19336E+06         0.00000E+00
    0.19336E+06        -0.50058E+08         0.00000E+00
    0.00000E+00         0.00000E+00        -0.50149E+08
 
   -0.50231E+08         0.19722E+06         0.00000E+00
    0.19722E+06        -0.50060E+08         0.00000E+00
    0.00000E+00         0.00000E+00        -0.50147E+08
 
   -0.50224E+08         0.20098E+06         0.00000E+00
    0.20098E+06        -0.50063E+08         0.00000E+00
    0.00000E+00         0.00000E+00        -0.50145E+08
 
   -0.50216E+08         0.20464E+06         0.00000E+00
    0.20464E+06        -0.50066E+08         0.00000E+00
    0.00000E+00         0.00000E+00        -0.50142E+08
 
   -0.50209E+08         0.20819E+06         0.00000E+00
    0.20819E+06        -0.50069E+08         0.00000E+00
    0.00000E+00         0.00000E+00        -0.50140E+08
 
   -0.50201E+08         0.21166E+06         0.00000E+00
    0.21166E+06        -0.50072E+08         0.00000E+00
    0.00000E+00         0.00000E+00        -0.50138E+08
 
   -0.50194E+08         0.21502E+06         0.00000E+00
    0.21502E+06        -0.50074E+08         0.00000E+00
    0.00000E+00         0.00000E+00        -0.50136E+08
 
   -0.50186E+08         0.21830E+06         0.00000E+00
    0.21830E+06        -0.50077E+08         0.00000E+00
    0.00000E+00         0.00000E+00        -0.50134E+08
 
   -0.50178E+08         0.22148E+06         0.00000E+00
    0.22148E+06        -0.50080E+08         0.00000E+00
    0.00000E+00         0.00000E+00        -0.50132E+08
 
   -0.50171E+08         0.22458E+06         0.00000E+00
    0.22458E+06        -0.50083E+08         0.00000E+00
    0.00000E+00         0.00000E+00        -0.50130E+08
 
   -0.50163E+08         0.22759E+06         0.00000E+00
    0.22759E+06        -0.50086E+08         0.00000E+00
    0.00000E+00         0.00000E+00        -0.50129E+08
 
   -0.50155E+08         0.23051E+06         0.00000E+00
    0.23051E+06        -0.50089E+08         0.00000E+00
    0.00000E+00         0.00000E+00        -0.50127E+08
 
   -0.50148E+08         0.23336E+06         0.00000E+00
    0.23336E+06        -0.50092E+08         0.00000E+00
    0.00000E+00         0.00000E+00        -0.50125E+08
 
   -0.50140E+08         0.23611E+06         0.00000E+00
    0.23611E+06        -0.50095E+08         0.00000E+00
    0.00000E+00         0.00000E+00        -0.50124E+08
 
   -0.50133E+08         0.23879E+06         0.00000E+00
    0.23879E+06        -0.50099E+08         0.00000E+00
    0.00000E+00         0.00000E+00        -0.50123E+08
 
   -0.50125E+08         0.24139E+06         0.00000E+00
    0.24139E+06        -0.50102E+08         0.00000E+00
    0.00000E+00         0.00000E+00        -0.50122E+08
 
   -0.50367E+08         0.30034E+04         0.00000E+00
    0.30034E+04        -0.50000E+08         0.00000E+00
    0.00000E+00         0.00000E+00        -0.50182E+08
 
   -0.50366E+08         0.90476E+04         0.00000E+00
    0.90476E+04        -0.50000E+08         0.00000E+00
    0.00000E+00         0.00000E+00        -0.50182E+08
 
   -0.50365E+08         0.15099E+05         0.00000E+00
    0.15099E+05        -0.50000E+08         0.00000E+00
    0.00000E+00         0.00000E+00        -0.50181E+08
 
   -0.50363E+08         0.21151E+05         0.00000E+00
    0.21151E+05        -0.50001E+08         0.00000E+00
    0.00000E+00         0.00000E+00        -0.50181E+08
 
   -0.50362E+08         0.27196E+05         0.00000E+00
    0.27196E+05        -0.50001E+08         0.00000E+00
    0.00000E+00         0.00000E+00        -0.50180E+08
 
   -0.50360E+08         0.33229E+05         0.00000E+00
    0.33229E+05        -0.50001E+08         0.00000E+00
    0.00000E+00         0.00000E+00        -0.50180E+08
 
   -0.50357E+08         0.39241E+05         0.00000E+00
    0.39241E+05        -0.50002E+08         0.00000E+00
    0.00000E+00         0.00000E+00        -0.50179E+08
 
   -0.50355E+08         0.45228E+05         0.00000E+00
    0.45228E+05        -0.50003E+08         0.00000E+00
    0.00000E+00         0.00000E+00        -0.50178E+08
 
   -0.50352E+08         0.51182E+05         0.00000E+00
    0.51182E+05        -0.50004E+08         0.00000E+00
    0.00000E+00         0.00000E+00        -0.50177E+08
 
   -0.50349E+08         0.57098E+05         0.00000E+00
    0.57098E+05        -0.50004E+08         0.00000E+00
    0.00000E+00         0.00000E+00        -0.50176E+08
 
   -0.50346E+08         0.62970E+05         0.00000E+00
    0.62970E+05        -0.50005E+08         0.00000E+00
    0.00000E+00         0.00000E+00        -0.50175E+08
 
   -0.50343E+08         0.68792E+05         0.00000E+00
    0.68792E+05        -0.50006E+08         0.00000E+00
    0.00000E+00         0.00000E+00        -0.50174E+08
 
   -0.50339E+08         0.74560E+05         0.00000E+00
    0.74560E+05        -0.50008E+08         0.00000E+00
    0.00000E+00         0.00000E+00        -0.50173E+08
 
   -0.50335E+08         0.80267E+05         0.00000E+00
    0.80267E+05        -0.50009E+08         0.00000E+00
    0.00000E+00         0.00000E+00        -0.50172E+08
 
   -0.50331E+08         0.85909E+05         0.00000E+00
    0.85909E+05        -0.50010E+08         0.00000E+00
    0.00000E+00         0.00000E+00        -0.50171E+08
 
   -0.50327E+08         0.91481E+05         0.00000E+00
    0.91481E+05        -0.50012E+08         0.00000E+00
    0.00000E+00         0.00000E+00        -0.50169E+08
 
   -0.50323E+08         0.96981E+05         0.00000E+00
    0.96981E+05        -0.50013E+08         0.00000E+00
    0.00000E+00         0.00000E+00        -0.50168E+08
 
   -0.50318E+08         0.10240E+06         0.00000E+00
    0.10240E+06        -0.50015E+08         0.00000E+00
    0.00000E+00         0.00000E+00        -0.50166E+08
 
   -0.50314E+08         0.10774E+06         0.00000E+00
    0.10774E+06        -0.50016E+08         0.00000E+00
    0.00000E+00         0.00000E+00        -0.50165E+08
 
   -0.50309E+08         0.11300E+06         0.00000E+00
    0.11300E+06        -0.50018E+08         0.00000E+00
    0.00000E+00         0.00000E+00        -0.50163E+08
 
   -0.50304E+08         0.11817E+06         0.00000E+00
    0.11817E+06        -0.50020E+08         0.00000E+00
    0.00000E+00         0.00000E+00        -0.50162E+08
 
   -0.50299E+08         0.12325E+06         0.00000E+00
    0.12325E+06        -0.50021E+08         0.00000E+00
    0.00000E+00         0.00000E+00        -0.50160E+08
 
   -0.50293E+08         0.12824E+06         0.00000E+00
    0.12824E+06        -0.50023E+08         0.00000E+00
    0.00000E+00         0.00000E+00        -0.50158E+08
 
   -0.50288E+08         0.13313E+06         0.00000E+00
    0.13313E+06        -0.50025E+08         0.00000E+00
    0.00000E+00         0.00000E+00        -0.50157E+08
 
   -0.50282E+08         0.13793E+06         0.00000E+00
    0.13793E+06        -0.50027E+08         0.00000E+00
    0.00000E+00         0.00000E+00        -0.50155E+08
 
   -0.50277E+08         0.14263E+06         0.00000E+00
    0.14263E+06        -0.50029E+08         0.00000E+00
    0.00000E+00         0.00000E+00        -0.50153E+08
 
   -0.50271E+08         0.14723E+06         0.00000E+00
    0.14723E+06        -0.50031E+08         0.00000E+00
    0.00000E+00         0.00000E+00        -0.50151E+08
 
   -0.50265E+08         0.15173E+06         0.00000E+00
    0.15173E+06        -0.50034E+08         0.00000E+00
    0.00000E+00         0.00000E+00        -0.50149E+08
 
   -0.50259E+08         0.15614E+06         0.00000E+00
    0.15614E+06        -0.50036E+08         0.00000E+00
    0.00000E+00         0.00000E+00        -0.50147E+08
 
   -0.50252E+08         0.16044E+06         0.00000E+00
    0.16044E+06        -0.50038E+08         0.00000E+00
    0.00000E+00         0.00000E+00        -0.50146E+08
 
   -0.50246E+08         0.16464E+06         0.00000E+00
    0.16464E+06        -0.50040E+08         0.00000E+00
    0.00000E+00         0.00000E+00        -0.50144E+08
 
   -0.50240E+08         0.16874E+06         0.00000E+00
    0.16874E+06        -0.50043E+08         0.00000E+00
    0.00000E+00         0.00000E+00        -0.50142E+08
 
   -0.50233E+08         0.17274E+06         0.00000E+00
    0.17274E+06        -0.50045E+08         0.00000E+00
    0.00000E+00         0.00000E+00        -0.50140E+08
 
   -0.50226E+08         0.17664E+06         0.00000E+00
    0.17664E+06        -0.50047E+08         0.00000E+00
    0.00000E+00         0.00000E+00        -0.50138E+08
 
   -0.50219E+08         0.18043E+06         0.00000E+00
    0.18043E+06        -0.50050E+08         0.00000E+00
    0.00000E+00         0.00000E+00        -0.50135E+08
 
   -0.50213E+08         0.18413E+06         0.00000E+00
    0.18413E+06        -0.50052E+08         0.00000E+00
    0.00000E+00         0.00000E+00        -0.50133E+08
 
   -0.50206E+08         0.18773E+06         0.00000E+00
    0.18773E+06        -0.50055E+08         0.00000E+00
    0.00000E+00         0.00000E+00        -0.50131E+08
 
   -0.50199E+08         0.19123E+06         0.00000E+00
    0.19123E+06        -0.50057E+08         0.00000E+00
    0.00000E+00         0.00000E+00        -0.50129E+08
 
   -0.50192E+08         0.19463E+06         0.00000E+00
    0.19463E+06        -0.50060E+08         0.00000E+00
    0.00000E+00         0.00000E+00        -0.50127E+08
 
   -0.50184E+08         0.19793E+06         0.00000E+00
    0.19793E+06        -0.50063E+08         0.00000E+00
    0.00000E+00         0.00000E+00        -0.50125E+08
 
   -0.50177E+08         0.20114E+06         0.00000E+00
    0.20114E+06        -0.50065E+08         0.00000E+00
    0.00000E+00         0.00000E+00        -0.50123E+08
 
   -0.50170E+08         0.20424E+06         0.00000E+00
    0.20424E+06        -0.50068E+08         0.00000E+00
    0.00000E+00         0.00000E+00        -0.50122E+08
 
   -0.50163E+08         0.20726E+06         0.00000E+00
    0.20726E+06        -0.50071E+08         0.00000E+00
    0.00000E+00         0.00000E+00        -0.50120E+08
 
   -0.50156E+08         0.21018E+06         0.00000E+00
    0.21018E+06        -0.50073E+08         0.00000E+00
    0.00000E+00         0.00000E+00        -0.50118E+08
 
   -0.50148E+08         0.21300E+06         0.00000E+00
    0.21300E+06        -0.50076E+08         0.00000E+00
    0.00000E+00         0.00000E+00        -0.50116E+08
 
   -0.50141E+08         0.21574E+06         0.00000E+00
    0.21574E+06        -0.50079E+08         0.00000E+00
    0.00000E+00         0.00000E+00        -0.50115E+08
 
   -0.50134E+08         0.21837E+06         0.00000E+00
    0.21837E+06        -0.50082E+08         0.00000E+00
    0.00000E+00         0.00000E+00        -0.50113E+08
 
   -0.50127E+08         0.22092E+06         0.00000E+00
    0.22092E+06        -0.50085E+08         0.00000E+00
    0.00000E+00         0.00000E+00        -0.50112E+08
 
   -0.50120E+08         0.22338E+06         0.00000E+00
    0.22338E+06        -0.50088E+08         0.00000E+00
    0.00000E+00         0.00000E+00        -0.50111E+08
 
   -0.50113E+08         0.22574E+06         0.00000E+00
    0.22574E+06        -0.50091E+08         0.00000E+00
    0.00000E+00         0.00000E+00        -0.50110E+08
 
   -0.50338E+08         0.27881E+04         0.00000E+00
    0.27881E+04        -0.50000E+08         0.00000E+00
    0.00000E+00         0.00000E+00        -0.50167E+08
 
   -0.50337E+08         0.83886E+04         0.00000E+00
    0.83886E+04        -0.50000E+08         0.00000E+00
    0.00000E+00         0.00000E+00        -0.50167E+08
 
   -0.50336E+08         0.13993E+05         0.00000E+00
    0.13993E+05        -0.50000E+08         0.00000E+00
    0.00000E+00         0.00000E+00        -0.50167E+08
 
   -0.50334E+08         0.19595E+05         0.00000E+00
    0.19595E+05        -0.50000E+08         0.00000E+00
    0.00000E+00         0.00000E+00        -0.50166E+08
 
   -0.50332E+08         0.25191E+05         0.00000E+00
    0.25191E+05        -0.50001E+08         0.00000E+00
    0.00000E+00         0.00000E+00        -0.50166E+08
 
   -0.50331E+08         0.30775E+05         0.00000E+00
    0.30775E+05        -0.50001E+08         0.00000E+00
    0.00000E+00         0.00000E+00        -0.50165E+08
 
   -0.50328E+08         0.36341E+05         0.00000E+00
    0.36341E+05        -0.50002E+08         0.00000E+00
    0.00000E+00         0.00000E+00        -0.50164E+08
 
   -0.50326E+08         0.41885E+05         0.00000E+00
    0.41885E+05        -0.50002E+08         0.00000E+00
    0.00000E+00         0.00000E+00        -0.50164E+08
 
   -0.50323E+08         0.47401E+05         0.00000E+00
    0.47401E+05        -0.50003E+08         0.00000E+00
    0.00000E+00         0.00000E+00        -0.50163E+08
 
   -0.50321E+08         0.52885E+05         0.00000E+00
    0.52885E+05        -0.50004E+08         0.00000E+00
    0.00000E+00         0.00000E+00        -0.50162E+08
 
   -0.50318E+08         0.58332E+05         0.00000E+00
    0.58332E+05        -0.50004E+08         0.00000E+00
    0.00000E+00         0.00000E+00        -0.50161E+08
 
   -0.50315E+08         0.63737E+05         0.00000E+00
    0.63737E+05        -0.50005E+08         0.00000E+00
    0.00000E+00         0.00000E+00        -0.50160E+08
 
   -0.50311E+08         0.69096E+05         0.00000E+00
    0.69096E+05        -0.50006E+08         0.00000E+00
    0.00000E+00         0.00000E+00        -0.50159E+08
 
   -0.50308E+08         0.74404E+05         0.00000E+00
    0.74404E+05        -0.50007E+08         0.00000E+00
    0.00000E+00         0.00000E+00        -0.50157E+08
 
   -0.50304E+08         0.79657E+05         0.00000E+00
    0.79657E+05        -0.50008E+08         0.00000E+00
    0.00000E+00         0.00000E+00        -0.50156E+08
 
   -0.50301E+08         0.84852E+05         0.00000E+00
    0.84852E+05        -0.50010E+08         0.00000E+00
    0.00000E+00         0.00000E+00        -0.50155E+08
 
   -0.50297E+08         0.89985E+05         0.00000E+00
    0.89985E+05        -0.50011E+08         0.00000E+00
    0.00000E+00         0.00000E+00        -0.50154E+08
 
   -0.50292E+08         0.95051E+05         0.00000E+00
    0.95051E+05        -0.50012E+08         0.00000E+00
    0.00000E+00         0.00000E+00        -0.50152E+08
 
   -0.50288E+08         0.10005E+06         0.00000E+00
    0.10005E+06        -0.50014E+08         0.00000E+00
    0.00000E+00         0.00000E+00        -0.50151E+08
 
   -0.50284E+08         0.10497E+06         0.00000E+00
    0.10497E+06        -0.50015E+08         0.00000E+00
    0.00000E+00         0.00000E+00        -0.50149E+08
 
   -0.50279E+08         0.10982E+06         0.00000E+00
    0.10982E+06        -0.50017E+08         0.00000E+00
    0.00000E+00         0.00000E+00        -0.50148E+08
 
   -0.50274E+08         0.11460E+06         0.00000E+00
    0.11460E+06        -0.50018E+08         0.00000E+00
    0.00000E+00         0.00000E+00        -0.50146E+08
 
   -0.50270E+08         0.11929E+06         0.00000E+00
    0.11929E+06        -0.50020E+08         0.00000E+00
    0.00000E+00         0.00000E+00        -0.50145E+08
 
   -0.50264E+08         0.12390E+06         0.00000E+00
    0.12390E+06        -0.50022E+08         0.00000E+00
    0.00000E+00         0.00000E+00        -0.50143E+08
 
   -0.50259E+08         0.12842E+06         0.00000E+00
    0.12842E+06        -0.50023E+08         0.00000E+00
    0.00000E+00         0.00000E+00        -0.50141E+08
 
   -0.50254E+08         0.13286E+06         0.00000E+00
    0.13286E+06        -0.50025E+08         0.00000E+00
    0.00000E+00         0.00000E+00        -0.50140E+08
 
   -0.50249E+08         0.13721E+06         0.00000E+00
    0.13721E+06        -0.50027E+08         0.00000E+00
    0.00000E+00         0.00000E+00        -0.50138E+08
 
   -0.50243E+08         0.14147E+06         0.00000E+00
    0.14147E+06        -0.50029E+08         0.00000E+00
    0.00000E+00         0.00000E+00        -0.50136E+08
 
   -0.50237E+08         0.14564E+06         0.00000E+00
    0.14564E+06        -0.50031E+08         0.00000E+00
    0.00000E+00         0.00000E+00        -0.50134E+08
 
   -0.50232E+08         0.14972E+06         0.00000E+00
    0.14972E+06        -0.50033E+08         0.00000E+00
    0.00000E+00         0.00000E+00        -0.50133E+08
 
   -0.50226E+08         0.15371E+06         0.00000E+00
    0.15371E+06        -0.50035E+08         0.00000E+00
    0.00000E+00         0.00000E+00        -0.50131E+08
 
   -0.50220E+08         0.15760E+06         0.00000E+00
    0.15760E+06        -0.50037E+08         0.00000E+00
    0.00000E+00         0.00000E+00        -0.50129E+08
 
   -0.50214E+08         0.16139E+06         0.00000E+00
    0.16139E+06        -0.50039E+08         0.00000E+00
    0.00000E+00         0.00000E+00        -0.50127E+08
 
   -0.50207E+08         0.16509E+06         0.00000E+00
    0.16509E+06        -0.50041E+08         0.00000E+00
    0.00000E+00         0.00000E+00        -0.50125E+08
 
   -0.50201E+08         0.16870E+06         0.00000E+00
    0.16870E+06        -0.50044E+08         0.00000E+00
    0.00000E+00         0.00000E+00        -0.50123E+08
 
   -0.50195E+08         0.17221E+06         0.00000E+00
    0.17221E+06        -0.50046E+08         0.00000E+00
    0.00000E+00         0.00000E+00        -0.50121E+08
 
   -0.50188E+08         0.17562E+06         0.00000E+00
    0.17562E+06        -0.50048E+08         0.00000E+00
    0.00000E+00         0.00000E+00        -0.50119E+08
 
   -0.50182E+08         0.17893E+06         0.00000E+00
    0.17893E+06        -0.50050E+08         0.00000E+00
    0.00000E+00         0.00000E+00        -0.50117E+08
 
   -0.50175E+08         0.18215E+06         0.00000E+00
    0.18215E+06        -0.50053E+08         0.00000E+00
    0.00000E+00         0.00000E+00        -0.50115E+08
 
   -0.50169E+08         0.18527E+06         0.00000E+00
    0.18527E+06        -0.50055E+08         0.00000E+00
    0.00000E+00         0.00000E+00        -0.50114E+08
 
   -0.50162E+08         0.18829E+06         0.00000E+00
    0.18829E+06        -0.50058E+08         0.00000E+00
    0.00000E+00         0.00000E+00        -0.50112E+08
 
   -0.50155E+08         0.19122E+06         0.00000E+00
    0.19122E+06        -0.50060E+08         0.00000E+00
    0.00000E+00         0.00000E+00        -0.50110E+08
 
   -0.50149E+08         0.19404E+06         0.00000E+00
    0.19404E+06        -0.50063E+08         0.00000E+00
    0.00000E+00         0.00000E+00        -0.50108E+08
 
   -0.50142E+08         0.19677E+06         0.00000E+00
    0.19677E+06        -0.50065E+08         0.00000E+00
    0.00000E+00         0.00000E+00        -0.50107E+08
 
   -0.50135E+08         0.19940E+06         0.00000E+00
    0.19940E+06        -0.50068E+08         0.00000E+00
    0.00000E+00         0.00000E+00        -0.50105E+08
 
   -0.50128E+08         0.20193E+06         0.00000E+00
    0.20193E+06        -0.50070E+08         0.00000E+00
    0.00000E+00         0.00000E+00        -0.50104E+08
 
   -0.50122E+08         0.20437E+06         0.00000E+00
    0.20437E+06        -0.50073E+08         0.00000E+00
    0.00000E+00         0.00000E+00        -0.50102E+08
 
   -0.50115E+08         0.20670E+06         0.00000E+00
    0.20670E+06        -0.50076E+08         0.00000E+00
    0.00000E+00         0.00000E+00        -0.50101E+08
 
   -0.50108E+08         0.20894E+06         0.00000E+00
    0.20894E+06        -0.50079E+08         0.00000E+00
    0.00000E+00         0.00000E+00        -0.50100E+08
 
   -0.50102E+08         0.21108E+06         0.00000E+00
    0.21108E+06        -0.50081E+08         0.00000E+00
    0.00000E+00         0.00000E+00        -0.50099E+08
 
   -0.50311E+08         0.26103E+04         0.00000E+00
    0.26103E+04        -0.50000E+08         0.00000E+00
    0.00000E+00         0.00000E+00        -0.50154E+08
 
   -0.50310E+08         0.78422E+04         0.00000E+00
    0.78422E+04        -0.50000E+08         0.00000E+00
    0.00000E+00         0.00000E+00        -0.50153E+08
 
   -0.50309E+08         0.13074E+05         0.00000E+00
    0.13074E+05        -0.50000E+08         0.00000E+00
    0.00000E+00         0.00000E+00        -0.50153E+08
 
   -0.50307E+08         0.18301E+05         0.00000E+00
    0.18301E+05        -0.50000E+08         0.00000E+00
    0.00000E+00         0.00000E+00        -0.50153E+08
 
   -0.50306E+08         0.23519E+05         0.00000E+00
    0.23519E+05        -0.50001E+08         0.00000E+00
    0.00000E+00         0.00000E+00        -0.50152E+08
 
   -0.50304E+08         0.28724E+05         0.00000E+00
    0.28724E+05        -0.50001E+08         0.00000E+00
    0.00000E+00         0.00000E+00        -0.50151E+08
 
   -0.50302E+08         0.33912E+05         0.00000E+00
    0.33912E+05        -0.50001E+08         0.00000E+00
    0.00000E+00         0.00000E+00        -0.50151E+08
 
   -0.50299E+08         0.39079E+05         0.00000E+00
    0.39079E+05        -0.50002E+08         0.00000E+00
    0.00000E+00         0.00000E+00        -0.50150E+08
 
   -0.50297E+08         0.44221E+05         0.00000E+00
    0.44221E+05        -0.50002E+08         0.00000E+00
    0.00000E+00         0.00000E+00        -0.50149E+08
 
   -0.50294E+08         0.49333E+05         0.00000E+00
    0.49333E+05        -0.50003E+08         0.00000E+00
    0.00000E+00         0.00000E+00        -0.50148E+08
 
   -0.50292E+08         0.54413E+05         0.00000E+00
    0.54413E+05        -0.50004E+08         0.00000E+00
    0.00000E+00         0.00000E+00        -0.50147E+08
 
   -0.50289E+08         0.59454E+05         0.00000E+00
    0.59454E+05        -0.50005E+08         0.00000E+00
    0.00000E+00         0.00000E+00        -0.50146E+08
 
   -0.50286E+08         0.64455E+05         0.00000E+00
    0.64455E+05        -0.50005E+08         0.00000E+00
    0.00000E+00         0.00000E+00        -0.50145E+08
 
   -0.50282E+08         0.69411E+05         0.00000E+00
    0.69411E+05        -0.50006E+08         0.00000E+00
    0.00000E+00         0.00000E+00        -0.50144E+08
 
   -0.50279E+08         0.74319E+05         0.00000E+00
    0.74319E+05        -0.50007E+08         0.00000E+00
    0.00000E+00         0.00000E+00        -0.50143E+08
 
   -0.50276E+08         0.79176E+05         0.00000E+00
    0.79176E+05        -0.50008E+08         0.00000E+00
    0.00000E+00         0.00000E+00        -0.50142E+08
 
   -0.50272E+08         0.83977E+05         0.00000E+00
    0.83977E+05        -0.50009E+08         0.00000E+00
    0.00000E+00         0.00000E+00        -0.50140E+08
 
   -0.50268E+08         0.88720E+05         0.00000E+00
    0.88720E+05        -0.50010E+08         0.00000E+00
    0.00000E+00         0.00000E+00        -0.50139E+08
 
   -0.50264E+08         0.93402E+05         0.00000E+00
    0.93402E+05        -0.50012E+08         0.00000E+00
    0.00000E+00         0.00000E+00        -0.50138E+08
 
   -0.50260E+08         0.98020E+05         0.00000E+00
    0.98020E+05        -0.50013E+08         0.00000E+00
    0.00000E+00         0.00000E+00        -0.50136E+08
 
   -0.50256E+08         0.10257E+06         0.00000E+00
    0.10257E+06        -0.50014E+08         0.00000E+00
    0.00000E+00         0.00000E+00        -0.50135E+08
 
   -0.50251E+08         0.10705E+06         0.00000E+00
    0.10705E+06        -0.50016E+08         0.00000E+00
    0.00000E+00         0.00000E+00        -0.50134E+08
 
   -0.50247E+08         0.11146E+06         0.00000E+00
    0.11146E+06        -0.50017E+08         0.00000E+00
    0.00000E+00         0.00000E+00        -0.50132E+08
 
   -0.50242E+08         0.11580E+06         0.00000E+00
    0.11580E+06        -0.50019E+08         0.00000E+00
    0.00000E+00         0.00000E+00        -0.50131E+08
 
   -0.50238E+08         0.12006E+06         0.00000E+00
    0.12006E+06        -0.50020E+08         0.00000E+00
    0.00000E+00         0.00000E+00        -0.50129E+08
 
   -0.50233E+08         0.12424E+06         0.00000E+00
    0.12424E+06        -0.50022E+08         0.00000E+00
    0.00000E+00         0.00000E+00        -0.50127E+08
 
   -0.50228E+08         0.12834E+06         0.00000E+00
    0.12834E+06        -0.50023E+08         0.00000E+00
    0.00000E+00         0.00000E+00        -0.50126E+08
 
   -0.50223E+08         0.13236E+06         0.00000E+00
    0.13236E+06        -0.50025E+08         0.00000E+00
    0.00000E+00         0.00000E+00        -0.50124E+08
 
   -0.50217E+08         0.13629E+06         0.00000E+00
    0.13629E+06        -0.50027E+08         0.00000E+00
    0.00000E+00         0.00000E+00        -0.50122E+08
 
   -0.50212E+08         0.14014E+06         0.00000E+00
    0.14014E+06        -0.50029E+08         0.00000E+00
    0.00000E+00         0.00000E+00        -0.50121E+08
 
   -0.50207E+08         0.14390E+06         0.00000E+00
    0.14390E+06        -0.50030E+08         0.00000E+00
    0.00000E+00         0.00000E+00        -0.50119E+08
 
   -0.50201E+08         0.14757E+06         0.00000E+00
    0.14757E+06        -0.50032E+08         0.00000E+00
    0.00000E+00         0.00000E+00        -0.50117E+08
 
   -0.50195E+08         0.15116E+06         0.00000E+00
    0.15116E+06        -0.50034E+08         0.00000E+00
    0.00000E+00         0.00000E+00        -0.50115E+08
 
   -0.50190E+08         0.15465E+06         0.00000E+00
    0.15465E+06        -0.50036E+08         0.00000E+00
    0.00000E+00         0.00000E+00        -0.50114E+08
 
   -0.50184E+08         0.15805E+06         0.00000E+00
    0.15805E+06        -0.50038E+08         0.00000E+00
    0.00000E+00         0.00000E+00        -0.50112E+08
 
   -0.50178E+08         0.16136E+06         0.00000E+00
    0.16136E+06        -0.50040E+08         0.00000E+00
    0.00000E+00         0.00000E+00        -0.50110E+08
 
   -0.50172E+08         0.16457E+06         0.00000E+00
    0.16457E+06        -0.50042E+08         0.00000E+00
    0.00000E+00         0.00000E+00        -0.50108E+08
 
   -0.50166E+08         0.16769E+06         0.00000E+00
    0.16769E+06        -0.50044E+08         0.00000E+00
    0.00000E+00         0.00000E+00        -0.50106E+08
 
   -0.50160E+08         0.17071E+06         0.00000E+00
    0.17071E+06        -0.50047E+08         0.00000E+00
    0.00000E+00         0.00000E+00        -0.50105E+08
 
   -0.50154E+08         0.17364E+06         0.00000E+00
    0.17364E+06        -0.50049E+08         0.00000E+00
    0.00000E+00         0.00000E+00        -0.50103E+08
 
   -0.50148E+08         0.17647E+06         0.00000E+00
    0.17647E+06        -0.50051E+08         0.00000E+00
    0.00000E+00         0.00000E+00        -0.50101E+08
 
   -0.50141E+08         0.17920E+06         0.00000E+00
    0.17920E+06        -0.50053E+08         0.00000E+00
    0.00000E+00         0.00000E+00        -0.50100E+08
 
   -0.50135E+08         0.18184E+06         0.00000E+00
    0.18184E+06        -0.50056E+08         0.00000E+00
    0.00000E+00         0.00000E+00        -0.50098E+08
 
   -0.50129E+08         0.18437E+06         0.00000E+00
    0.18437E+06        -0.50058E+08         0.00000E+00
    0.00000E+00         0.00000E+00        -0.50096E+08
 
   -0.50123E+08         0.18681E+06         0.00000E+00
    0.18681E+06        -0.50060E+08         0.00000E+00
    0.00000E+00         0.00000E+00        -0.50095E+08
 
   -0.50116E+08         0.18915E+06         0.00000E+00
    0.18915E+06        -0.50063E+08         0.00000E+00
    0.00000E+00         0.00000E+00        -0.50094E+08
 
   -0.50110E+08         0.19138E+06         0.00000E+00
    0.19138E+06        -0.50065E+08         0.00000E+00
    0.00000E+00         0.00000E+00        -0.50092E+08
 
   -0.50104E+08         0.19352E+06         0.00000E+00
    0.19352E+06        -0.50068E+08         0.00000E+00
    0.00000E+00         0.00000E+00        -0.50091E+08
 
   -0.50098E+08         0.19555E+06         0.00000E+00
    0.19555E+06        -0.50070E+08         0.00000E+00
    0.00000E+00         0.00000E+00        -0.50090E+08
 
   -0.50092E+08         0.19749E+06         0.00000E+00
    0.19749E+06        -0.50073E+08         0.00000E+00
    0.00000E+00         0.00000E+00        -0.50089E+08
 
   -0.50286E+08         0.24604E+04         0.00000E+00
    0.24604E+04        -0.50000E+08         0.00000E+00
    0.00000E+00         0.00000E+00        -0.50141E+08
 
   -0.50285E+08         0.73806E+04         0.00000E+00
    0.73806E+04        -0.50000E+08         0.00000E+00
    0.00000E+00         0.00000E+00        -0.50141E+08
 
   -0.50283E+08         0.12296E+05         0.00000E+00
    0.12296E+05        -0.50000E+08         0.00000E+00
    0.00000E+00         0.00000E+00        -0.50140E+08
 
   -0.50282E+08         0.17204E+05         0.00000E+00
    0.17204E+05        -0.50000E+08         0.00000E+00
    0.00000E+00         0.00000E+00        -0.50140E+08
 
   -0.50280E+08         0.22101E+05         0.00000E+00
    0.22101E+05        -0.50001E+08         0.00000E+00
    0.00000E+00         0.00000E+00        -0.50139E+08
 
   -0.50278E+08         0.26983E+05         0.00000E+00
    0.26983E+05        -0.50001E+08         0.00000E+00
    0.00000E+00         0.00000E+00        -0.50139E+08
 
   -0.50277E+08         0.31847E+05         0.00000E+00
    0.31847E+05        -0.50001E+08         0.00000E+00
    0.00000E+00         0.00000E+00        -0.50138E+08
 
   -0.50274E+08         0.36690E+05         0.00000E+00
    0.36690E+05        -0.50002E+08         0.00000E+00
    0.00000E+00         0.00000E+00        -0.50137E+08
 
   -0.50272E+08         0.41508E+05         0.00000E+00
    0.41508E+05        -0.50002E+08         0.00000E+00
    0.00000E+00         0.00000E+00        -0.50137E+08
 
   -0.50270E+08         0.46298E+05         0.00000E+00
    0.46298E+05        -0.50003E+08         0.00000E+00
    0.00000E+00         0.00000E+00        -0.50136E+08
 
   -0.50267E+08         0.51056E+05         0.00000E+00
    0.51056E+05        -0.50003E+08         0.00000E+00
    0.00000E+00         0.00000E+00        -0.50135E+08
 
   -0.50264E+08         0.55780E+05         0.00000E+00
    0.55780E+05        -0.50004E+08         0.00000E+00
    0.00000E+00         0.00000E+00        -0.50134E+08
 
   -0.50262E+08         0.60465E+05         0.00000E+00
    0.60465E+05        -0.50005E+08         0.00000E+00
    0.00000E+00         0.00000E+00        -0.50133E+08
 
   -0.50259E+08         0.65110E+05         0.00000E+00
    0.65110E+05        -0.50005E+08         0.00000E+00
    0.00000E+00         0.00000E+00        -0.50132E+08
 
   -0.50255E+08         0.69710E+05         0.00000E+00
    0.69710E+05        -0.50006E+08         0.00000E+00
    0.00000E+00         0.00000E+00        -0.50131E+08
 
   -0.50252E+08         0.74263E+05         0.00000E+00
    0.74263E+05        -0.50007E+08         0.00000E+00
    0.00000E+00         0.00000E+00        -0.50129E+08
 
   -0.50249E+08         0.78765E+05         0.00000E+00
    0.78765E+05        -0.50008E+08         0.00000E+00
    0.00000E+00         0.00000E+00        -0.50128E+08
 
   -0.50245E+08         0.83214E+05         0.00000E+00
    0.83214E+05        -0.50009E+08         0.00000E+00
    0.00000E+00         0.00000E+00        -0.50127E+08
 
   -0.50242E+08         0.87608E+05         0.00000E+00
    0.87608E+05        -0.50010E+08         0.00000E+00
    0.00000E+00         0.00000E+00        -0.50126E+08
 
   -0.50238E+08         0.91943E+05         0.00000E+00
    0.91943E+05        -0.50011E+08         0.00000E+00
    0.00000E+00         0.00000E+00        -0.50124E+08
 
   -0.50234E+08         0.96216E+05         0.00000E+00
    0.96216E+05        -0.50012E+08         0.00000E+00
    0.00000E+00         0.00000E+00        -0.50123E+08
 
   -0.50230E+08         0.10043E+06         0.00000E+00
    0.10043E+06        -0.50014E+08         0.00000E+00
    0.00000E+00         0.00000E+00        -0.50122E+08
 
   -0.50226E+08         0.10457E+06         0.00000E+00
    0.10457E+06        -0.50015E+08         0.00000E+00
    0.00000E+00         0.00000E+00        -0.50120E+08
 
   -0.50221E+08         0.10865E+06         0.00000E+00
    0.10865E+06        -0.50016E+08         0.00000E+00
    0.00000E+00         0.00000E+00        -0.50119E+08
 
   -0.50217E+08         0.11265E+06         0.00000E+00
    0.11265E+06        -0.50018E+08         0.00000E+00
    0.00000E+00         0.00000E+00        -0.50117E+08
 
   -0.50213E+08         0.11658E+06         0.00000E+00
    0.11658E+06        -0.50019E+08         0.00000E+00
    0.00000E+00         0.00000E+00        -0.50116E+08
 
   -0.50208E+08         0.12044E+06         0.00000E+00
    0.12044E+06        -0.50020E+08         0.00000E+00
    0.00000E+00         0.00000E+00        -0.50114E+08
 
   -0.50203E+08         0.12422E+06         0.00000E+00
    0.12422E+06        -0.50022E+08         0.00000E+00
    0.00000E+00         0.00000E+00        -0.50113E+08
 
   -0.50199E+08         0.12792E+06         0.00000E+00
    0.12792E+06        -0.50024E+08         0.00000E+00
    0.00000E+00         0.00000E+00        -0.50111E+08
 
   -0.50194E+08         0.13155E+06         0.00000E+00
    0.13155E+06        -0.50025E+08         0.00000E+00
    0.00000E+00         0.00000E+00        -0.50110E+08
 
   -0.50189E+08         0.13509E+06         0.00000E+00
    0.13509E+06        -0.50027E+08         0.00000E+00
    0.00000E+00         0.00000E+00        -0.50108E+08
 
   -0.50183E+08         0.13854E+06         0.00000E+00
    0.13854E+06        -0.50028E+08         0.00000E+00
    0.00000E+00         0.00000E+00        -0.50106E+08
 
   -0.50178E+08         0.14191E+06         0.00000E+00
    0.14191E+06        -0.50030E+08         0.00000E+00
    0.00000E+00         0.00000E+00        -0.50105E+08
 
   -0.50173E+08         0.14520E+06         0.00000E+00
    0.14520E+06        -0.50032E+08         0.00000E+00
    0.00000E+00         0.00000E+00        -0.50103E+08
 
   -0.50168E+08         0.14839E+06         0.00000E+00
    0.14839E+06        -0.50034E+08         0.00000E+00
    0.00000E+00         0.00000E+00        -0.50101E+08
 
   -0.50162E+08         0.15150E+06         0.00000E+00
    0.15150E+06        -0.50036E+08         0.00000E+00
    0.00000E+00         0.00000E+00        -0.50100E+08
 
   -0.50157E+08         0.15451E+06         0.00000E+00
    0.15451E+06        -0.50038E+08         0.00000E+00
    0.00000E+00         0.00000E+00        -0.50098E+08
 
   -0.50151E+08         0.15743E+06         0.00000E+00
    0.15743E+06        -0.50040E+08         0.00000E+00
    0.00000E+00         0.00000E+00        -0.50096E+08
 
   -0.50146E+08         0.16026E+06         0.00000E+00
    0.16026E+06        -0.50041E+08         0.00000E+00
    0.00000E+00         0.00000E+00        -0.50095E+08
 
   -0.50140E+08         0.16300E+06         0.00000E+00
    0.16300E+06        -0.50043E+08         0.00000E+00
    0.00000E+00         0.00000E+00        -0.50093E+08
 
   -0.50134E+08         0.16564E+06         0.00000E+00
    0.16564E+06        -0.50046E+08         0.00000E+00
    0.00000E+00         0.00000E+00        -0.50092E+08
 
   -0.50128E+08         0.16818E+06         0.00000E+00
    0.16818E+06        -0.50048E+08         0.00000E+00
    0.00000E+00         0.00000E+00        -0.50090E+08
 
   -0.50123E+08         0.17063E+06         0.00000E+00
    0.17063E+06        -0.50050E+08         0.00000E+00
    0.00000E+00         0.00000E+00        -0.50089E+08
 
   -0.50117E+08         0.17298E+06         0.00000E+00
    0.17298E+06        -0.50052E+08         0.00000E+00
    0.00000E+00         0.00000E+00        -0.50087E+08
 
   -0.50111E+08         0.17523E+06         0.00000E+00
    0.17523E+06        -0.50054E+08         0.00000E+00
    0.00000E+00         0.00000E+00        -0.50086E+08
 
   -0.50105E+08         0.17738E+06         0.00000E+00
    0.17738E+06        -0.50056E+08         0.00000E+00
    0.00000E+00         0.00000E+00        -0.50085E+08
 
   -0.50100E+08         0.17943E+06         0.00000E+00
    0.17943E+06        -0.50059E+08         0.00000E+00
    0.00000E+00         0.00000E+00        -0.50083E+08
 
   -0.50094E+08         0.18139E+06         0.00000E+00
    0.18139E+06        -0.50061E+08         0.00000E+00
    0.00000E+00         0.00000E+00        -0.50082E+08
 
   -0.50089E+08         0.18324E+06         0.00000E+00
    0.18324E+06        -0.50063E+08         0.00000E+00
    0.00000E+00         0.00000E+00        -0.50081E+08
 
   -0.50083E+08         0.18499E+06         0.00000E+00
    0.18499E+06        -0.50066E+08         0.00000E+00
    0.00000E+00         0.00000E+00        -0.50081E+08
 
   -0.50262E+08         0.23312E+04         0.00000E+00
    0.23312E+04        -0.50000E+08         0.00000E+00
    0.00000E+00         0.00000E+00        -0.50129E+08
 
   -0.50261E+08         0.69829E+04         0.00000E+00
    0.69829E+04        -0.50000E+08         0.00000E+00
    0.00000E+00         0.00000E+00        -0.50129E+08
 
   -0.50260E+08         0.11626E+05         0.00000E+00
    0.11626E+05        -0.50000E+08         0.00000E+00
    0.00000E+00         0.00000E+00        -0.50128E+08
 
   -0.50258E+08         0.16259E+05         0.00000E+00
    0.16259E+05        -0.50000E+08         0.00000E+00
    0.00000E+00         0.00000E+00        -0.50128E+08
 
   -0.50257E+08         0.20878E+05         0.00000E+00
    0.20878E+05        -0.50000E+08         0.00000E+00
    0.00000E+00         0.00000E+00        -0.50127E+08
 
   -0.50255E+08         0.25481E+05         0.00000E+00
    0.25481E+05        -0.50001E+08         0.00000E+00
    0.00000E+00         0.00000E+00        -0.50127E+08
 
   -0.50253E+08         0.30064E+05         0.00000E+00
    0.30064E+05        -0.50001E+08         0.00000E+00
    0.00000E+00         0.00000E+00        -0.50126E+08
 
   -0.50251E+08         0.34624E+05         0.00000E+00
    0.34624E+05        -0.50001E+08         0.00000E+00
    0.00000E+00         0.00000E+00        -0.50126E+08
 
   -0.50249E+08         0.39160E+05         0.00000E+00
    0.39160E+05        -0.50002E+08         0.00000E+00
    0.00000E+00         0.00000E+00        -0.50125E+08
 
   -0.50247E+08         0.43667E+05         0.00000E+00
    0.43667E+05        -0.50002E+08         0.00000E+00
    0.00000E+00         0.00000E+00        -0.50124E+08
 
   -0.50244E+08         0.48144E+05         0.00000E+00
    0.48144E+05        -0.50003E+08         0.00000E+00
    0.00000E+00         0.00000E+00        -0.50123E+08
 
   -0.50242E+08         0.52586E+05         0.00000E+00
    0.52586E+05        -0.50003E+08         0.00000E+00
    0.00000E+00         0.00000E+00        -0.50122E+08
 
   -0.50239E+08         0.56992E+05         0.00000E+00
    0.56992E+05        -0.50004E+08         0.00000E+00
    0.00000E+00         0.00000E+00        -0.50121E+08
 
   -0.50236E+08         0.61359E+05         0.00000E+00
    0.61359E+05        -0.50005E+08         0.00000E+00
    0.00000E+00         0.00000E+00        -0.50120E+08
 
   -0.50233E+08         0.65684E+05         0.00000E+00
    0.65684E+05        -0.50005E+08         0.00000E+00
    0.00000E+00         0.00000E+00        -0.50119E+08
 
   -0.50230E+08         0.69964E+05         0.00000E+00
    0.69964E+05        -0.50006E+08         0.00000E+00
    0.00000E+00         0.00000E+00        -0.50118E+08
 
   -0.50227E+08         0.74197E+05         0.00000E+00
    0.74197E+05        -0.50007E+08         0.00000E+00
    0.00000E+00         0.00000E+00        -0.50117E+08
 
   -0.50224E+08         0.78380E+05         0.00000E+00
    0.78380E+05        -0.50008E+08         0.00000E+00
    0.00000E+00         0.00000E+00        -0.50116E+08
 
   -0.50220E+08         0.82510E+05         0.00000E+00
    0.82510E+05        -0.50009E+08         0.00000E+00
    0.00000E+00         0.00000E+00        -0.50115E+08
 
   -0.50217E+08         0.86586E+05         0.00000E+00
    0.86586E+05        -0.50010E+08         0.00000E+00
    0.00000E+00         0.00000E+00        -0.50113E+08
 
   -0.50213E+08         0.90604E+05         0.00000E+00
    0.90604E+05        -0.50011E+08         0.00000E+00
    0.00000E+00         0.00000E+00        -0.50112E+08
 
   -0.50210E+08         0.94563E+05         0.00000E+00
    0.94563E+05        -0.50012E+08         0.00000E+00
    0.00000E+00         0.00000E+00        -0.50111E+08
 
   -0.50206E+08         0.98459E+05         0.00000E+00
    0.98459E+05        -0.50013E+08         0.00000E+00
    0.00000E+00         0.00000E+00        -0.50109E+08
 
   -0.50202E+08         0.10229E+06         0.00000E+00
    0.10229E+06        -0.50014E+08         0.00000E+00
    0.00000E+00         0.00000E+00        -0.50108E+08
 
   -0.50198E+08         0.10606E+06         0.00000E+00
    0.10606E+06        -0.50015E+08         0.00000E+00
    0.00000E+00         0.00000E+00        -0.50107E+08
 
   -0.50194E+08         0.10976E+06         0.00000E+00
    0.10976E+06        -0.50017E+08         0.00000E+00
    0.00000E+00         0.00000E+00        -0.50105E+08
 
   -0.50190E+08         0.11338E+06         0.00000E+00
    0.11338E+06        -0.50018E+08         0.00000E+00
    0.00000E+00         0.00000E+00        -0.50104E+08
 
   -0.50185E+08         0.11694E+06         0.00000E+00
    0.11694E+06        -0.50019E+08         0.00000E+00
    0.00000E+00         0.00000E+00        -0.50102E+08
 
   -0.50181E+08         0.12042E+06         0.00000E+00
    0.12042E+06        -0.50021E+08         0.00000E+00
    0.00000E+00         0.00000E+00        -0.50101E+08
 
   -0.50176E+08         0.12382E+06         0.00000E+00
    0.12382E+06        -0.50022E+08         0.00000E+00
    0.00000E+00         0.00000E+00        -0.50099E+08
 
   -0.50172E+08         0.12715E+06         0.00000E+00
    0.12715E+06        -0.50024E+08         0.00000E+00
    0.00000E+00         0.00000E+00        -0.50098E+08
 
   -0.50167E+08         0.13039E+06         0.00000E+00
    0.13039E+06        -0.50025E+08         0.00000E+00
    0.00000E+00         0.00000E+00        -0.50096E+08
 
   -0.50162E+08         0.13356E+06         0.00000E+00
    0.13356E+06        -0.50027E+08         0.00000E+00
    0.00000E+00         0.00000E+00        -0.50095E+08
 
   -0.50157E+08         0.13664E+06         0.00000E+00
    0.13664E+06        -0.50028E+08         0.00000E+00
    0.00000E+00         0.00000E+00        -0.50093E+08
 
   -0.50152E+08         0.13963E+06         0.00000E+00
    0.13963E+06        -0.50030E+08         0.00000E+00
    0.00000E+00         0.00000E+00        -0.50092E+08
 
   -0.50147E+08         0.14254E+06         0.00000E+00
    0.14254E+06        -0.50032E+08         0.00000E+00
    0.00000E+00         0.00000E+00        -0.50090E+08
 
   -0.50142E+08         0.14537E+06         0.00000E+00
    0.14537E+06        -0.50034E+08         0.00000E+00
    0.00000E+00         0.00000E+00        -0.50089E+08
 
   -0.50137E+08         0.14810E+06         0.00000E+00
    0.14810E+06        -0.50035E+08         0.00000E+00
    0.00000E+00         0.00000E+00        -0.50087E+08
 
   -0.50132E+08         0.15074E+06         0.00000E+00
    0.15074E+06        -0.50037E+08         0.00000E+00
    0.00000E+00         0.00000E+00        -0.50086E+08
 
   -0.50127E+08         0.15329E+06         0.00000E+00
    0.15329E+06        -0.50039E+08         0.00000E+00
    0.00000E+00         0.00000E+00        -0.50084E+08
 
   -0.50122E+08         0.15575E+06         0.00000E+00
    0.15575E+06        -0.50041E+08         0.00000E+00
    0.00000E+00         0.00000E+00        -0.50083E+08
 
   -0.50116E+08         0.15811E+06         0.00000E+00
    0.15811E+06        -0.50043E+08         0.00000E+00
    0.00000E+00         0.00000E+00        -0.50081E+08
 
   -0.50111E+08         0.16038E+06         0.00000E+00
    0.16038E+06        -0.50045E+08         0.00000E+00
    0.00000E+00         0.00000E+00        -0.50080E+08
 
   -0.50106E+08         0.16256E+06         0.00000E+00
    0.16256E+06        -0.50047E+08         0.00000E+00
    0.00000E+00         0.00000E+00        -0.50079E+08
 
   -0.50101E+08         0.16464E+06         0.00000E+00
    0.16464E+06        -0.50049E+08         0.00000E+00
    0.00000E+00         0.00000E+00        -0.50077E+08
 
   -0.50095E+08         0.16662E+06         0.00000E+00
    0.16662E+06        -0.50051E+08         0.00000E+00
    0.00000E+00         0.00000E+00        -0.50076E+08
 
   -0.50090E+08         0.16851E+06         0.00000E+00
    0.16851E+06        -0.50053E+08         0.00000E+00
    0.00000E+00         0.00000E+00        -0.50075E+08
 
   -0.50085E+08         0.17030E+06         0.00000E+00
    0.17030E+06        -0.50055E+08         0.00000E+00
    0.00000E+00         0.00000E+00        -0.50074E+08
 
   -0.50080E+08         0.17199E+06         0.00000E+00
    0.17199E+06        -0.50057E+08         0.00000E+00
    0.00000E+00         0.00000E+00        -0.50073E+08
 
   -0.50075E+08         0.17358E+06         0.00000E+00
    0.17358E+06        -0.50059E+08         0.00000E+00
    0.00000E+00         0.00000E+00        -0.50073E+08
 
   -0.50239E+08         0.22176E+04         0.00000E+00
    0.22176E+04        -0.50000E+08         0.00000E+00
    0.00000E+00         0.00000E+00        -0.50118E+08
 
   -0.50238E+08         0.66340E+04         0.00000E+00
    0.66340E+04        -0.50000E+08         0.00000E+00
    0.00000E+00         0.00000E+00        -0.50117E+08
 
   -0.50237E+08         0.11039E+05         0.00000E+00
    0.11039E+05        -0.50000E+08         0.00000E+00
    0.00000E+00         0.00000E+00        -0.50117E+08
 
   -0.50236E+08         0.15431E+05         0.00000E+00
    0.15431E+05        -0.50000E+08         0.00000E+00
    0.00000E+00         0.00000E+00        -0.50117E+08
 
   -0.50234E+08         0.19807E+05         0.00000E+00
    0.19807E+05        -0.50000E+08         0.00000E+00
    0.00000E+00         0.00000E+00        -0.50116E+08
 
   -0.50232E+08         0.24164E+05         0.00000E+00
    0.24164E+05        -0.50001E+08         0.00000E+00
    0.00000E+00         0.00000E+00        -0.50116E+08
 
   -0.50231E+08         0.28500E+05         0.00000E+00
    0.28500E+05        -0.50001E+08         0.00000E+00
    0.00000E+00         0.00000E+00        -0.50115E+08
 
   -0.50229E+08         0.32813E+05         0.00000E+00
    0.32813E+05        -0.50001E+08         0.00000E+00
    0.00000E+00         0.00000E+00        -0.50114E+08
 
   -0.50227E+08         0.37099E+05         0.00000E+00
    0.37099E+05        -0.50002E+08         0.00000E+00
    0.00000E+00         0.00000E+00        -0.50114E+08
 
   -0.50225E+08         0.41357E+05         0.00000E+00
    0.41357E+05        -0.50002E+08         0.00000E+00
    0.00000E+00         0.00000E+00        -0.50113E+08
 
   -0.50222E+08         0.45584E+05         0.00000E+00
    0.45584E+05        -0.50002E+08         0.00000E+00
    0.00000E+00         0.00000E+00        -0.50112E+08
 
   -0.50220E+08         0.49778E+05         0.00000E+00
    0.49778E+05        -0.50003E+08         0.00000E+00
    0.00000E+00         0.00000E+00        -0.50111E+08
 
   -0.50218E+08         0.53935E+05         0.00000E+00
    0.53935E+05        -0.50004E+08         0.00000E+00
    0.00000E+00         0.00000E+00        -0.50110E+08
 
   -0.50215E+08         0.58054E+05         0.00000E+00
    0.58054E+05        -0.50004E+08         0.00000E+00
    0.00000E+00         0.00000E+00        -0.50109E+08
 
   -0.50212E+08         0.62133E+05         0.00000E+00
    0.62133E+05        -0.50005E+08         0.00000E+00
    0.00000E+00         0.00000E+00        -0.50108E+08
 
   -0.50210E+08         0.66168E+05         0.00000E+00
    0.66168E+05        -0.50005E+08         0.00000E+00
    0.00000E+00         0.00000E+00        -0.50107E+08
 
   -0.50207E+08         0.70158E+05         0.00000E+00
    0.70158E+05        -0.50006E+08         0.00000E+00
    0.00000E+00         0.00000E+00        -0.50106E+08
 
   -0.50204E+08         0.74099E+05         0.00000E+00
    0.74099E+05        -0.50007E+08         0.00000E+00
    0.00000E+00         0.00000E+00        -0.50105E+08
 
   -0.50201E+08         0.77991E+05         0.00000E+00
    0.77991E+05        -0.50008E+08         0.00000E+00
    0.00000E+00         0.00000E+00        -0.50104E+08
 
   -0.50197E+08         0.81830E+05         0.00000E+00
    0.81830E+05        -0.50009E+08         0.00000E+00
    0.00000E+00         0.00000E+00        -0.50103E+08
 
   -0.50194E+08         0.85615E+05         0.00000E+00
    0.85615E+05        -0.50010E+08         0.00000E+00
    0.00000E+00         0.00000E+00        -0.50102E+08
 
   -0.50191E+08         0.89343E+05         0.00000E+00
    0.89343E+05        -0.50011E+08         0.00000E+00
    0.00000E+00         0.00000E+00        -0.50101E+08
 
   -0.50187E+08         0.93011E+05         0.00000E+00
    0.93011E+05        -0.50012E+08         0.00000E+00
    0.00000E+00         0.00000E+00        -0.50099E+08
 
   -0.50183E+08         0.96619E+05         0.00000E+00
    0.96619E+05        -0.50013E+08         0.00000E+00
    0.00000E+00         0.00000E+00        -0.50098E+08
 
   -0.50180E+08         0.10016E+06         0.00000E+00
    0.10016E+06        -0.50014E+08         0.00000E+00
    0.00000E+00         0.00000E+00        -0.50097E+08
 
   -0.50176E+08         0.10364E+06         0.00000E+00
    0.10364E+06        -0.50015E+08         0.00000E+00
    0.00000E+00         0.00000E+00        -0.50096E+08
 
   -0.50172E+08         0.10705E+06         0.00000E+00
    0.10705E+06        -0.50016E+08         0.00000E+00
    0.00000E+00         0.00000E+00        -0.50094E+08
 
   -0.50168E+08         0.11040E+06         0.00000E+00
    0.11040E+06        -0.50017E+08         0.00000E+00
    0.00000E+00         0.00000E+00        -0.50093E+08
 
   -0.50164E+08         0.11367E+06         0.00000E+00
    0.11367E+06        -0.50019E+08         0.00000E+00
    0.00000E+00         0.00000E+00        -0.50091E+08
 
   -0.50160E+08         0.11687E+06         0.00000E+00
    0.11687E+06        -0.50020E+08         0.00000E+00
    0.00000E+00         0.00000E+00        -0.50090E+08
 
   -0.50156E+08         0.11999E+06         0.00000E+00
    0.11999E+06        -0.50021E+08         0.00000E+00
    0.00000E+00         0.00000E+00        -0.50089E+08
 
   -0.50151E+08         0.12304E+06         0.00000E+00
    0.12304E+06        -0.50023E+08         0.00000E+00
    0.00000E+00         0.00000E+00        -0.50087E+08
 
   -0.50147E+08         0.12601E+06         0.00000E+00
    0.12601E+06        -0.50024E+08         0.00000E+00
    0.00000E+00         0.00000E+00        -0.50086E+08
 
   -0.50143E+08         0.12890E+06         0.00000E+00
    0.12890E+06        -0.50025E+08         0.00000E+00
    0.00000E+00         0.00000E+00        -0.50084E+08
 
   -0.50138E+08         0.13171E+06         0.00000E+00
    0.13171E+06        -0.50027E+08         0.00000E+00
    0.00000E+00         0.00000E+00        -0.50083E+08
 
   -0.50134E+08         0.13443E+06         0.00000E+00
    0.13443E+06        -0.50028E+08         0.00000E+00
    0.00000E+00         0.00000E+00        -0.50082E+08
 
   -0.50129E+08         0.13707E+06         0.00000E+00
    0.13707E+06        -0.50030E+08         0.00000E+00
    0.00000E+00         0.00000E+00        -0.50080E+08
 
   -0.50124E+08         0.13962E+06         0.00000E+00
    0.13962E+06        -0.50032E+08         0.00000E+00
    0.00000E+00         0.00000E+00        -0.50079E+08
 
   -0.50120E+08         0.14209E+06         0.00000E+00
    0.14209E+06        -0.50033E+08         0.00000E+00
    0.00000E+00         0.00000E+00        -0.50077E+08
 
   -0.50115E+08         0.14447E+06         0.00000E+00
    0.14447E+06        -0.50035E+08         0.00000E+00
    0.00000E+00         0.00000E+00        -0.50076E+08
 
   -0.50110E+08         0.14676E+06         0.00000E+00
    0.14676E+06        -0.50037E+08         0.00000E+00
    0.00000E+00         0.00000E+00        -0.50075E+08
 
   -0.50105E+08         0.14896E+06         0.00000E+00
    0.14896E+06        -0.50038E+08         0.00000E+00
    0.00000E+00         0.00000E+00        -0.50073E+08
 
   -0.50100E+08         0.15107E+06         0.00000E+00
    0.15107E+06        -0.50040E+08         0.00000E+00
    0.00000E+00         0.00000E+00        -0.50072E+08
 
   -0.50096E+08         0.15308E+06         0.00000E+00
    0.15308E+06        -0.50042E+08         0.00000E+00
    0.00000E+00         0.00000E+00        -0.50071E+08
 
   -0.50091E+08         0.15501E+06         0.00000E+00
    0.15501E+06        -0.50044E+08         0.00000E+00
    0.00000E+00         0.00000E+00        -0.50070E+08
 
   -0.50086E+08         0.15684E+06         0.00000E+00
    0.15684E+06        -0.50046E+08         0.00000E+00
    0.00000E+00         0.00000E+00        -0.50069E+08
 
   -0.50081E+08         0.15857E+06         0.00000E+00
    0.15857E+06        -0.50047E+08         0.00000E+00
    0.00000E+00         0.00000E+00        -0.50068E+08
 
   -0.50077E+08         0.16022E+06         0.00000E+00
    0.16022E+06        -0.50049E+08         0.00000E+00
    0.00000E+00         0.00000E+00        -0.50067E+08
 
   -0.50072E+08         0.16177E+06         0.00000E+00
    0.16177E+06        -0.50051E+08         0.00000E+00
    0.00000E+00         0.00000E+00        -0.50066E+08
 
   -0.50068E+08         0.16322E+06         0.00000E+00
    0.16322E+06        -0.50053E+08         0.00000E+00
    0.00000E+00         0.00000E+00        -0.50066E+08
 
   -0.50218E+08         0.21161E+04         0.00000E+00
    0.21161E+04        -0.50000E+08         0.00000E+00
    0.00000E+00         0.00000E+00        -0.50107E+08
 
   -0.50217E+08         0.63234E+04         0.00000E+00
    0.63234E+04        -0.50000E+08         0.00000E+00
    0.00000E+00         0.00000E+00        -0.50107E+08
 
   -0.50215E+08         0.10517E+05         0.00000E+00
    0.10517E+05        -0.50000E+08         0.00000E+00
    0.00000E+00         0.00000E+00        -0.50106E+08
 
   -0.50214E+08         0.14695E+05         0.00000E+00
    0.14695E+05        -0.50000E+08         0.00000E+00
    0.00000E+00         0.00000E+00        -0.50106E+08
 
   -0.50213E+08         0.18855E+05         0.00000E+00
    0.18855E+05        -0.50000E+08         0.00000E+00
    0.00000E+00         0.00000E+00        -0.50106E+08
 
   -0.50211E+08         0.22995E+05         0.00000E+00
    0.22995E+05        -0.50001E+08         0.00000E+00
    0.00000E+00         0.00000E+00        -0.50105E+08
 
   -0.50210E+08         0.27112E+05         0.00000E+00
    0.27112E+05        -0.50001E+08         0.00000E+00
    0.00000E+00         0.00000E+00        -0.50104E+08
 
   -0.50208E+08         0.31205E+05         0.00000E+00
    0.31205E+05        -0.50001E+08         0.00000E+00
    0.00000E+00         0.00000E+00        -0.50104E+08
 
   -0.50206E+08         0.35270E+05         0.00000E+00
    0.35270E+05        -0.50001E+08         0.00000E+00
    0.00000E+00         0.00000E+00        -0.50103E+08
 
   -0.50204E+08         0.39307E+05         0.00000E+00
    0.39307E+05        -0.50002E+08         0.00000E+00
    0.00000E+00         0.00000E+00        -0.50102E+08
 
   -0.50202E+08         0.43312E+05         0.00000E+00
    0.43312E+05        -0.50002E+08         0.00000E+00
    0.00000E+00         0.00000E+00        -0.50102E+08
 
   -0.50200E+08         0.47283E+05         0.00000E+00
    0.47283E+05        -0.50003E+08         0.00000E+00
    0.00000E+00         0.00000E+00        -0.50101E+08
 
   -0.50198E+08         0.51219E+05         0.00000E+00
    0.51219E+05        -0.50003E+08         0.00000E+00
    0.00000E+00         0.00000E+00        -0.50100E+08
 
   -0.50195E+08         0.55117E+05         0.00000E+00
    0.55117E+05        -0.50004E+08         0.00000E+00
    0.00000E+00         0.00000E+00        -0.50099E+08
 
   -0.50193E+08         0.58974E+05         0.00000E+00
    0.58974E+05        -0.50004E+08         0.00000E+00
    0.00000E+00         0.00000E+00        -0.50098E+08
 
   -0.50190E+08         0.62790E+05         0.00000E+00
    0.62790E+05        -0.50005E+08         0.00000E+00
    0.00000E+00         0.00000E+00        -0.50097E+08
 
   -0.50187E+08         0.66560E+05         0.00000E+00
    0.66560E+05        -0.50006E+08         0.00000E+00
    0.00000E+00         0.00000E+00        -0.50096E+08
 
   -0.50185E+08         0.70285E+05         0.00000E+00
    0.70285E+05        -0.50006E+08         0.00000E+00
    0.00000E+00         0.00000E+00        -0.50095E+08
 
   -0.50182E+08         0.73960E+05         0.00000E+00
    0.73960E+05        -0.50007E+08         0.00000E+00
    0.00000E+00         0.00000E+00        -0.50094E+08
 
   -0.50179E+08         0.77585E+05         0.00000E+00
    0.77585E+05        -0.50008E+08         0.00000E+00
    0.00000E+00         0.00000E+00        -0.50093E+08
 
   -0.50176E+08         0.81157E+05         0.00000E+00
    0.81157E+05        -0.50009E+08         0.00000E+00
    0.00000E+00         0.00000E+00        -0.50092E+08
 
   -0.50173E+08         0.84674E+05         0.00000E+00
    0.84674E+05        -0.50009E+08         0.00000E+00
    0.00000E+00         0.00000E+00        -0.50091E+08
 
   -0.50169E+08         0.88135E+05         0.00000E+00
    0.88135E+05        -0.50010E+08         0.00000E+00
    0.00000E+00         0.00000E+00        -0.50090E+08
 
   -0.50166E+08         0.91537E+05         0.00000E+00
    0.91537E+05        -0.50011E+08         0.00000E+00
    0.00000E+00         0.00000E+00        -0.50089E+08
 
   -0.50163E+08         0.94878E+05         0.00000E+00
    0.94878E+05        -0.50012E+08         0.00000E+00
    0.00000E+00         0.00000E+00        -0.50088E+08
 
   -0.50159E+08         0.98156E+05         0.00000E+00
    0.98156E+05        -0.50013E+08         0.00000E+00
    0.00000E+00         0.00000E+00        -0.50086E+08
 
   -0.50156E+08         0.10137E+06         0.00000E+00
    0.10137E+06        -0.50014E+08         0.00000E+00
    0.00000E+00         0.00000E+00        -0.50085E+08
 
   -0.50152E+08         0.10452E+06         0.00000E+00
    0.10452E+06        -0.50015E+08         0.00000E+00
    0.00000E+00         0.00000E+00        -0.50084E+08
 
   -0.50148E+08         0.10760E+06         0.00000E+00
    0.10760E+06        -0.50017E+08         0.00000E+00
    0.00000E+00         0.00000E+00        -0.50083E+08
 
   -0.50145E+08         0.11061E+06         0.00000E+00
    0.11061E+06        -0.50018E+08         0.00000E+00
    0.00000E+00         0.00000E+00        -0.50081E+08
 
   -0.50141E+08         0.11354E+06         0.00000E+00
    0.11354E+06        -0.50019E+08         0.00000E+00
    0.00000E+00         0.00000E+00        -0.50080E+08
 
   -0.50137E+08         0.11641E+06         0.00000E+00
    0.11641E+06        -0.50020E+08         0.00000E+00
    0.00000E+00         0.00000E+00        -0.50079E+08
 
   -0.50133E+08         0.11919E+06         0.00000E+00
    0.11919E+06        -0.50021E+08         0.00000E+00
    0.00000E+00         0.00000E+00        -0.50078E+08
 
   -0.50129E+08         0.12191E+06         0.00000E+00
    0.12191E+06        -0.50023E+08         0.00000E+00
    0.00000E+00         0.00000E+00        -0.50076E+08
 
   -0.50125E+08         0.12454E+06         0.00000E+00
    0.12454E+06        -0.50024E+08         0.00000E+00
    0.00000E+00         0.00000E+00        -0.50075E+08
 
   -0.50121E+08         0.12709E+06         0.00000E+00
    0.12709E+06        -0.50026E+08         0.00000E+00
    0.00000E+00         0.00000E+00        -0.50074E+08
 
   -0.50116E+08         0.12957E+06         0.00000E+00
    0.12957E+06        -0.50027E+08         0.00000E+00
    0.00000E+00         0.00000E+00        -0.50072E+08
 
   -0.50112E+08         0.13196E+06         0.00000E+00
    0.13196E+06        -0.50028E+08         0.00000E+00
    0.00000E+00         0.00000E+00        -0.50071E+08
 
   -0.50108E+08         0.13426E+06         0.00000E+00
    0.13426E+06        -0.50030E+08         0.00000E+00
    0.00000E+00         0.00000E+00        -0.50070E+08
 
   -0.50104E+08         0.13648E+06         0.00000E+00
    0.13648E+06        -0.50031E+08         0.00000E+00
    0.00000E+00         0.00000E+00        -0.50069E+08
 
   -0.50099E+08         0.13862E+06         0.00000E+00
    0.13862E+06        -0.50033E+08         0.00000E+00
    0.00000E+00         0.00000E+00        -0.50067E+08
 
   -0.50095E+08         0.14067E+06         0.00000E+00
    0.14067E+06        -0.50034E+08         0.00000E+00
    0.00000E+00         0.00000E+00        -0.50066E+08
 
   -0.50091E+08         0.14263E+06         0.00000E+00
    0.14263E+06        -0.50036E+08         0.00000E+00
    0.00000E+00         0.00000E+00        -0.50065E+08
 
   -0.50086E+08         0.14450E+06         0.00000E+00
    0.14450E+06        -0.50038E+08         0.00000E+00
    0.00000E+00         0.00000E+00        -0.50064E+08
 
   -0.50082E+08         0.14629E+06         0.00000E+00
    0.14629E+06        -0.50039E+08         0.00000E+00
    0.00000E+00         0.00000E+00        -0.50063E+08
 
   -0.50078E+08         0.14798E+06         0.00000E+00
    0.14798E+06        -0.50041E+08         0.00000E+00
    0.00000E+00         0.00000E+00        -0.50062E+08
 
   -0.50073E+08         0.14959E+06         0.00000E+00
    0.14959E+06        -0.50043E+08         0.00000E+00
    0.00000E+00         0.00000E+00        -0.50061E+08
 
   -0.50069E+08         0.15110E+06         0.00000E+00
    0.15110E+06        -0.50044E+08         0.00000E+00
    0.00000E+00         0.00000E+00        -0.50060E+08
 
   -0.50065E+08         0.15253E+06         0.00000E+00
    0.15253E+06        -0.50046E+08         0.00000E+00
    0.00000E+00         0.00000E+00        -0.50060E+08
 
   -0.50061E+08         0.15387E+06         0.00000E+00
    0.15387E+06        -0.50048E+08         0.00000E+00
    0.00000E+00         0.00000E+00        -0.50059E+08
 
   -0.50197E+08         0.20245E+04         0.00000E+00
    0.20245E+04        -0.50000E+08         0.00000E+00
    0.00000E+00         0.00000E+00        -0.50097E+08
 
   -0.50196E+08         0.60439E+04         0.00000E+00
    0.60439E+04        -0.50000E+08         0.00000E+00
    0.00000E+00         0.00000E+00        -0.50097E+08
 
   -0.50195E+08         0.10048E+05         0.00000E+00
    0.10048E+05        -0.50000E+08         0.00000E+00
    0.00000E+00         0.00000E+00        -0.50096E+08
 
   -0.50194E+08         0.14035E+05         0.00000E+00
    0.14035E+05        -0.50000E+08         0.00000E+00
    0.00000E+00         0.00000E+00        -0.50096E+08
 
   -0.50193E+08         0.18002E+05         0.00000E+00
    0.18002E+05        -0.50000E+08         0.00000E+00
    0.00000E+00         0.00000E+00        -0.50095E+08
 
   -0.50191E+08         0.21948E+05         0.00000E+00
    0.21948E+05        -0.50001E+08         0.00000E+00
    0.00000E+00         0.00000E+00        -0.50095E+08
 
   -0.50190E+08         0.25870E+05         0.00000E+00
    0.25870E+05        -0.50001E+08         0.00000E+00
    0.00000E+00         0.00000E+00        -0.50094E+08
 
   -0.50188E+08         0.29766E+05         0.00000E+00
    0.29766E+05        -0.50001E+08         0.00000E+00
    0.00000E+00         0.00000E+00        -0.50094E+08
 
   -0.50186E+08         0.33635E+05         0.00000E+00
    0.33635E+05        -0.50001E+08         0.00000E+00
    0.00000E+00         0.00000E+00        -0.50093E+08
 
   -0.50184E+08         0.37473E+05         0.00000E+00
    0.37473E+05        -0.50002E+08         0.00000E+00
    0.00000E+00         0.00000E+00        -0.50093E+08
 
   -0.50183E+08         0.41280E+05         0.00000E+00
    0.41280E+05        -0.50002E+08         0.00000E+00
    0.00000E+00         0.00000E+00        -0.50092E+08
 
   -0.50181E+08         0.45053E+05         0.00000E+00
    0.45053E+05        -0.50002E+08         0.00000E+00
    0.00000E+00         0.00000E+00        -0.50091E+08
 
   -0.50178E+08         0.48791E+05         0.00000E+00
    0.48791E+05        -0.50003E+08         0.00000E+00
    0.00000E+00         0.00000E+00        -0.50090E+08
 
   -0.50176E+08         0.52490E+05         0.00000E+00
    0.52490E+05        -0.50003E+08         0.00000E+00
    0.00000E+00         0.00000E+00        -0.50090E+08
 
   -0.50174E+08         0.56150E+05         0.00000E+00
    0.56150E+05        -0.50004E+08         0.00000E+00
    0.00000E+00         0.00000E+00        -0.50089E+08
 
   -0.50172E+08         0.59768E+05         0.00000E+00
    0.59768E+05        -0.50004E+08         0.00000E+00
    0.00000E+00         0.00000E+00        -0.50088E+08
 
   -0.50169E+08         0.63342E+05         0.00000E+00
    0.63342E+05        -0.50005E+08         0.00000E+00
    0.00000E+00         0.00000E+00        -0.50087E+08
 
   -0.50167E+08         0.66870E+05         0.00000E+00
    0.66870E+05        -0.50006E+08         0.00000E+00
    0.00000E+00         0.00000E+00        -0.50086E+08
 
   -0.50164E+08         0.70351E+05         0.00000E+00
    0.70351E+05        -0.50006E+08         0.00000E+00
    0.00000E+00         0.00000E+00        -0.50085E+08
 
   -0.50161E+08         0.73783E+05         0.00000E+00
    0.73783E+05        -0.50007E+08         0.00000E+00
    0.00000E+00         0.00000E+00        -0.50084E+08
 
   -0.50159E+08         0.77163E+05         0.00000E+00
    0.77163E+05        -0.50008E+08         0.00000E+00
    0.00000E+00         0.00000E+00        -0.50083E+08
 
   -0.50156E+08         0.80490E+05         0.00000E+00
    0.80490E+05        -0.50008E+08         0.00000E+00
    0.00000E+00         0.00000E+00        -0.50082E+08
 
   -0.50153E+08         0.83762E+05         0.00000E+00
    0.83762E+05        -0.50009E+08         0.00000E+00
    0.00000E+00         0.00000E+00        -0.50081E+08
 
   -0.50150E+08         0.86977E+05         0.00000E+00
    0.86977E+05        -0.50010E+08         0.00000E+00
    0.00000E+00         0.00000E+00        -0.50080E+08
 
   -0.50147E+08         0.90133E+05         0.00000E+00
    0.90133E+05        -0.50011E+08         0.00000E+00
    0.00000E+00         0.00000E+00        -0.50079E+08
 
   -0.50143E+08         0.93229E+05         0.00000E+00
    0.93229E+05        -0.50012E+08         0.00000E+00
    0.00000E+00         0.00000E+00        -0.50078E+08
 
   -0.50140E+08         0.96262E+05         0.00000E+00
    0.96262E+05        -0.50013E+08         0.00000E+00
    0.00000E+00         0.00000E+00        -0.50077E+08
 
   -0.50137E+08         0.99231E+05         0.00000E+00
    0.99231E+05        -0.50014E+08         0.00000E+00
    0.00000E+00         0.00000E+00        -0.50076E+08
 
   -0.50134E+08         0.10213E+06         0.00000E+00
    0.10213E+06        -0.50015E+08         0.00000E+00
    0.00000E+00         0.00000E+00        -0.50074E+08
 
   -0.50130E+08         0.10497E+06         0.00000E+00
    0.10497E+06        -0.50016E+08         0.00000E+00
    0.00000E+00         0.00000E+00        -0.50073E+08
 
   -0.50127E+08         0.10774E+06         0.00000E+00
    0.10774E+06        -0.50017E+08         0.00000E+00
    0.00000E+00         0.00000E+00        -0.50072E+08
 
   -0.50123E+08         0.11043E+06         0.00000E+00
    0.11043E+06        -0.50018E+08         0.00000E+00
    0.00000E+00         0.00000E+00        -0.50071E+08
 
   -0.50120E+08         0.11306E+06         0.00000E+00
    0.11306E+06        -0.50019E+08         0.00000E+00
    0.00000E+00         0.00000E+00        -0.50070E+08
 
   -0.50116E+08         0.11561E+06         0.00000E+00
    0.11561E+06        -0.50020E+08         0.00000E+00
    0.00000E+00         0.00000E+00        -0.50069E+08
 
   -0.50112E+08         0.11808E+06         0.00000E+00
    0.11808E+06        -0.50022E+08         0.00000E+00
    0.00000E+00         0.00000E+00        -0.50067E+08
 
   -0.50108E+08         0.12048E+06         0.00000E+00
    0.12048E+06        -0.50023E+08         0.00000E+00
    0.00000E+00         0.00000E+00        -0.50066E+08
 
   -0.50105E+08         0.12280E+06         0.00000E+00
    0.12280E+06        -0.50024E+08         0.00000E+00
    0.00000E+00         0.00000E+00        -0.50065E+08
 
   -0.50101E+08         0.12504E+06         0.00000E+00
    0.12504E+06        -0.50025E+08         0.00000E+00
    0.00000E+00         0.00000E+00        -0.50064E+08
 
   -0.50097E+08         0.12720E+06         0.00000E+00
    0.12720E+06        -0.50027E+08         0.00000E+00
    0.00000E+00         0.00000E+00        -0.50063E+08
 
   -0.50093E+08         0.12928E+06         0.00000E+00
    0.12928E+06        -0.50028E+08         0.00000E+00
    0.00000E+00         0.00000E+00        -0.50062E+08
 
   -0.50089E+08         0.13128E+06         0.00000E+00
    0.13128E+06        -0.50030E+08         0.00000E+00
    0.00000E+00         0.00000E+00        -0.50060E+08
 
   -0.50085E+08         0.13320E+06         0.00000E+00
    0.13320E+06        -0.50031E+08         0.00000E+00
    0.00000E+00         0.00000E+00        -0.50059E+08
 
   -0.50081E+08         0.13503E+06         0.00000E+00
    0.13503E+06        -0.50032E+08         0.00000E+00
    0.00000E+00         0.00000E+00        -0.50058E+08
 
   -0.50077E+08         0.13677E+06         0.00000E+00
    0.13677E+06        -0.50034E+08         0.00000E+00
    0.00000E+00         0.00000E+00        -0.50057E+08
 
   -0.50073E+08         0.13844E+06         0.00000E+00
    0.13844E+06        -0.50035E+08         0.00000E+00
    0.00000E+00         0.00000E+00        -0.50056E+08
 
   -0.50070E+08         0.14001E+06         0.00000E+00
    0.14001E+06        -0.50037E+08         0.00000E+00
    0.00000E+00         0.00000E+00        -0.50056E+08
 
   -0.50066E+08         0.14151E+06         0.00000E+00
    0.14151E+06        -0.50038E+08         0.00000E+00
    0.00000E+00         0.00000E+00        -0.50055E+08
 
   -0.50062E+08         0.14291E+06         0.00000E+00
    0.14291E+06        -0.50040E+08         0.00000E+00
    0.00000E+00         0.00000E+00        -0.50054E+08
 
   -0.50058E+08         0.14424E+06         0.00000E+00
    0.14424E+06        -0.50041E+08         0.00000E+00
    0.00000E+00         0.00000E+00        -0.50053E+08
 
   -0.50055E+08         0.14548E+06         0.00000E+00
    0.14548E+06        -0.50043E+08         0.00000E+00
    0.00000E+00         0.00000E+00        -0.50053E+08
 
   -0.50177E+08         0.19412E+04         0.00000E+00
    0.19412E+04        -0.50000E+08         0.00000E+00
    0.00000E+00         0.00000E+00        -0.50087E+08
 
   -0.50176E+08         0.57910E+04         0.00000E+00
    0.57910E+04        -0.50000E+08         0.00000E+00
    0.00000E+00         0.00000E+00        -0.50087E+08
 
   -0.50175E+08         0.96243E+04         0.00000E+00
    0.96243E+04        -0.50000E+08         0.00000E+00
    0.00000E+00         0.00000E+00        -0.50087E+08
 
   -0.50174E+08         0.13439E+05         0.00000E+00
    0.13439E+05        -0.50000E+08         0.00000E+00
    0.00000E+00         0.00000E+00        -0.50086E+08
 
   -0.50173E+08         0.17233E+05         0.00000E+00
    0.17233E+05        -0.50000E+08         0.00000E+00
    0.00000E+00         0.00000E+00        -0.50086E+08
 
   -0.50172E+08         0.21005E+05         0.00000E+00
    0.21005E+05        -0.50000E+08         0.00000E+00
    0.00000E+00         0.00000E+00        -0.50085E+08
 
   -0.50171E+08         0.24752E+05         0.00000E+00
    0.24752E+05        -0.50001E+08         0.00000E+00
    0.00000E+00         0.00000E+00        -0.50085E+08
 
   -0.50169E+08         0.28473E+05         0.00000E+00
    0.28473E+05        -0.50001E+08         0.00000E+00
    0.00000E+00         0.00000E+00        -0.50084E+08
 
   -0.50167E+08         0.32165E+05         0.00000E+00
    0.32165E+05        -0.50001E+08         0.00000E+00
    0.00000E+00         0.00000E+00        -0.50084E+08
 
   -0.50166E+08         0.35827E+05         0.00000E+00
    0.35827E+05        -0.50001E+08         0.00000E+00
    0.00000E+00         0.00000E+00        -0.50083E+08
 
   -0.50164E+08         0.39456E+05         0.00000E+00
    0.39456E+05        -0.50002E+08         0.00000E+00
    0.00000E+00         0.00000E+00        -0.50083E+08
 
   -0.50162E+08         0.43052E+05         0.00000E+00
    0.43052E+05        -0.50002E+08         0.00000E+00
    0.00000E+00         0.00000E+00        -0.50082E+08
 
   -0.50160E+08         0.46612E+05         0.00000E+00
    0.46612E+05        -0.50003E+08         0.00000E+00
    0.00000E+00         0.00000E+00        -0.50081E+08
 
   -0.50158E+08         0.50134E+05         0.00000E+00
    0.50134E+05        -0.50003E+08         0.00000E+00
    0.00000E+00         0.00000E+00        -0.50080E+08
 
   -0.50156E+08         0.53617E+05         0.00000E+00
    0.53617E+05        -0.50003E+08         0.00000E+00
    0.00000E+00         0.00000E+00        -0.50080E+08
 
   -0.50154E+08         0.57058E+05         0.00000E+00
    0.57058E+05        -0.50004E+08         0.00000E+00
    0.00000E+00         0.00000E+00        -0.50079E+08
 
   -0.50152E+08         0.60456E+05         0.00000E+00
    0.60456E+05        -0.50004E+08         0.00000E+00
    0.00000E+00         0.00000E+00        -0.50078E+08
 
   -0.50150E+08         0.63810E+05         0.00000E+00
    0.63810E+05        -0.50005E+08         0.00000E+00
    0.00000E+00         0.00000E+00        -0.50077E+08
 
   -0.50147E+08         0.67116E+05         0.00000E+00
    0.67116E+05        -0.50006E+08         0.00000E+00
    0.00000E+00         0.00000E+00        -0.50076E+08
 
   -0.50145E+08         0.70374E+05         0.00000E+00
    0.70374E+05        -0.50006E+08         0.00000E+00
    0.00000E+00         0.00000E+00        -0.50075E+08
 
   -0.50142E+08         0.73582E+05         0.00000E+00
    0.73582E+05        -0.50007E+08         0.00000E+00
    0.00000E+00         0.00000E+00        -0.50075E+08
 
   -0.50140E+08         0.76738E+05         0.00000E+00
    0.76738E+05        -0.50008E+08         0.00000E+00
    0.00000E+00         0.00000E+00        -0.50074E+08
 
   -0.50137E+08         0.79841E+05         0.00000E+00
    0.79841E+05        -0.50008E+08         0.00000E+00
    0.00000E+00         0.00000E+00        -0.50073E+08
 
   -0.50134E+08         0.82888E+05         0.00000E+00
    0.82888E+05        -0.50009E+08         0.00000E+00
    0.00000E+00         0.00000E+00        -0.50072E+08
 
   -0.50131E+08         0.85878E+05         0.00000E+00
    0.85878E+05        -0.50010E+08         0.00000E+00
    0.00000E+00         0.00000E+00        -0.50071E+08
 
   -0.50129E+08         0.88809E+05         0.00000E+00
    0.88809E+05        -0.50011E+08         0.00000E+00
    0.00000E+00         0.00000E+00        -0.50070E+08
 
   -0.50126E+08         0.91680E+05         0.00000E+00
    0.91680E+05        -0.50012E+08         0.00000E+00
    0.00000E+00         0.00000E+00        -0.50069E+08
 
   -0.50123E+08         0.94489E+05         0.00000E+00
    0.94489E+05        -0.50012E+08         0.00000E+00
    0.00000E+00         0.00000E+00        -0.50068E+08
 
   -0.50120E+08         0.97234E+05         0.00000E+00
    0.97234E+05        -0.50013E+08         0.00000E+00
    0.00000E+00         0.00000E+00        -0.50067E+08
 
   -0.50117E+08         0.99915E+05         0.00000E+00
    0.99915E+05        -0.50014E+08         0.00000E+00
    0.00000E+00         0.00000E+00        -0.50066E+08
 
   -0.50113E+08         0.10253E+06         0.00000E+00
    0.10253E+06        -0.50015E+08         0.00000E+00
    0.00000E+00         0.00000E+00        -0.50065E+08
 
   -0.50110E+08         0.10507E+06         0.00000E+00
    0.10507E+06        -0.50016E+08         0.00000E+00
    0.00000E+00         0.00000E+00        -0.50063E+08
 
   -0.50107E+08         0.10755E+06         0.00000E+00
    0.10755E+06        -0.50017E+08         0.00000E+00
    0.00000E+00         0.00000E+00        -0.50062E+08
 
   -0.50104E+08         0.10996E+06         0.00000E+00
    0.10996E+06        -0.50018E+08         0.00000E+00
    0.00000E+00         0.00000E+00        -0.50061E+08
 
   -0.50100E+08         0.11229E+06         0.00000E+00
    0.11229E+06        -0.50019E+08         0.00000E+00
    0.00000E+00         0.00000E+00        -0.50060E+08
 
   -0.50097E+08         0.11455E+06         0.00000E+00
    0.11455E+06        -0.50021E+08         0.00000E+00
    0.00000E+00         0.00000E+00        -0.50059E+08
 
   -0.50094E+08         0.11673E+06         0.00000E+00
    0.11673E+06        -0.50022E+08         0.00000E+00
    0.00000E+00         0.00000E+00        -0.50058E+08
 
   -0.50090E+08         0.11884E+06         0.00000E+00
    0.11884E+06        -0.50023E+08         0.00000E+00
    0.00000E+00         0.00000E+00        -0.50057E+08
 
   -0.50087E+08         0.12087E+06         0.00000E+00
    0.12087E+06        -0.50024E+08         0.00000E+00
    0.00000E+00         0.00000E+00        -0.50056E+08
 
   -0.50083E+08         0.12283E+06         0.00000E+00
    0.12283E+06        -0.50025E+08         0.00000E+00
    0.00000E+00         0.00000E+00        -0.50055E+08
 
   -0.50080E+08         0.12470E+06         0.00000E+00
    0.12470E+06        -0.50026E+08         0.00000E+00
    0.00000E+00         0.00000E+00        -0.50054E+08
 
   -0.50076E+08         0.12650E+06         0.00000E+00
    0.12650E+06        -0.50028E+08         0.00000E+00
    0.00000E+00         0.00000E+00        -0.50053E+08
 
   -0.50073E+08         0.12821E+06         0.00000E+00
    0.12821E+06        -0.50029E+08         0.00000E+00
    0.00000E+00         0.00000E+00        -0.50052E+08
 
   -0.50069E+08         0.12985E+06         0.00000E+00
    0.12985E+06        -0.50030E+08         0.00000E+00
    0.00000E+00         0.00000E+00        -0.50051E+08
 
   -0.50066E+08         0.13141E+06         0.00000E+00
    0.13141E+06        -0.50032E+08         0.00000E+00
    0.00000E+00         0.00000E+00        -0.50050E+08
 
   -0.50062E+08         0.13288E+06         0.00000E+00
    0.13288E+06        -0.50033E+08         0.00000E+00
    0.00000E+00         0.00000E+00        -0.50050E+08
 
   -0.50059E+08         0.13428E+06         0.00000E+00
    0.13428E+06        -0.50034E+08         0.00000E+00
    0.00000E+00         0.00000E+00        -0.50049E+08
 
   -0.50055E+08         0.13559E+06         0.00000E+00
    0.13559E+06        -0.50036E+08         0.00000E+00
    0.00000E+00         0.00000E+00        -0.50048E+08
 
   -0.50052E+08         0.13683E+06         0.00000E+00
    0.13683E+06        -0.50037E+08         0.00000E+00
    0.00000E+00         0.00000E+00        -0.50048E+08
 
   -0.50049E+08         0.13799E+06         0.00000E+00
    0.13799E+06        -0.50038E+08         0.00000E+00
    0.00000E+00         0.00000E+00        -0.50047E+08
 
   -0.50158E+08         0.18654E+04         0.00000E+00
    0.18654E+04        -0.50000E+08         0.00000E+00
    0.00000E+00         0.00000E+00        -0.50078E+08
 
   -0.50158E+08         0.55619E+04         0.00000E+00
    0.55619E+04        -0.50000E+08         0.00000E+00
    0.00000E+00         0.00000E+00        -0.50078E+08
 
   -0.50157E+08         0.92410E+04         0.00000E+00
    0.92410E+04        -0.50000E+08         0.00000E+00
    0.00000E+00         0.00000E+00        -0.50077E+08
 
   -0.50156E+08         0.12901E+05         0.00000E+00
    0.12901E+05        -0.50000E+08         0.00000E+00
    0.00000E+00         0.00000E+00        -0.50077E+08
 
   -0.50155E+08         0.16539E+05         0.00000E+00
    0.16539E+05        -0.50000E+08         0.00000E+00
    0.00000E+00         0.00000E+00        -0.50077E+08
 
   -0.50154E+08         0.20155E+05         0.00000E+00
    0.20155E+05        -0.50000E+08         0.00000E+00
    0.00000E+00         0.00000E+00        -0.50076E+08
 
   -0.50152E+08         0.23745E+05         0.00000E+00
    0.23745E+05        -0.50001E+08         0.00000E+00
    0.00000E+00         0.00000E+00        -0.50076E+08
 
   -0.50151E+08         0.27309E+05         0.00000E+00
    0.27309E+05        -0.50001E+08         0.00000E+00
    0.00000E+00         0.00000E+00        -0.50075E+08
 
   -0.50149E+08         0.30843E+05         0.00000E+00
    0.30843E+05        -0.50001E+08         0.00000E+00
    0.00000E+00         0.00000E+00        -0.50075E+08
 
   -0.50148E+08         0.34347E+05         0.00000E+00
    0.34347E+05        -0.50001E+08         0.00000E+00
    0.00000E+00         0.00000E+00        -0.50074E+08
 
   -0.50146E+08         0.37819E+05         0.00000E+00
    0.37819E+05        -0.50002E+08         0.00000E+00
    0.00000E+00         0.00000E+00        -0.50074E+08
 
   -0.50145E+08         0.41256E+05         0.00000E+00
    0.41256E+05        -0.50002E+08         0.00000E+00
    0.00000E+00         0.00000E+00        -0.50073E+08
 
   -0.50143E+08         0.44658E+05         0.00000E+00
    0.44658E+05        -0.50002E+08         0.00000E+00
    0.00000E+00         0.00000E+00        -0.50072E+08
 
   -0.50141E+08         0.48022E+05         0.00000E+00
    0.48022E+05        -0.50003E+08         0.00000E+00
    0.00000E+00         0.00000E+00        -0.50072E+08
 
   -0.50139E+08         0.51347E+05         0.00000E+00
    0.51347E+05        -0.50003E+08         0.00000E+00
    0.00000E+00         0.00000E+00        -0.50071E+08
 
   -0.50137E+08         0.54631E+05         0.00000E+00
    0.54631E+05        -0.50004E+08         0.00000E+00
    0.00000E+00         0.00000E+00        -0.50070E+08
 
   -0.50135E+08         0.57873E+05         0.00000E+00
    0.57873E+05        -0.50004E+08         0.00000E+00
    0.00000E+00         0.00000E+00        -0.50070E+08
 
   -0.50133E+08         0.61070E+05         0.00000E+00
    0.61070E+05        -0.50005E+08         0.00000E+00
    0.00000E+00         0.00000E+00        -0.50069E+08
 
   -0.50131E+08         0.64221E+05         0.00000E+00
    0.64221E+05        -0.50005E+08         0.00000E+00
    0.00000E+00         0.00000E+00        -0.50068E+08
 
   -0.50129E+08         0.67324E+05         0.00000E+00
    0.67324E+05        -0.50006E+08         0.00000E+00
    0.00000E+00         0.00000E+00        -0.50067E+08
 
   -0.50127E+08         0.70379E+05         0.00000E+00
    0.70379E+05        -0.50006E+08         0.00000E+00
    0.00000E+00         0.00000E+00        -0.50066E+08
 
   -0.50124E+08         0.73383E+05         0.00000E+00
    0.73383E+05        -0.50007E+08         0.00000E+00
    0.00000E+00         0.00000E+00        -0.50066E+08
 
   -0.50122E+08         0.76334E+05         0.00000E+00
    0.76334E+05        -0.50007E+08         0.00000E+00
    0.00000E+00         0.00000E+00        -0.50065E+08
 
   -0.50120E+08         0.79231E+05         0.00000E+00
    0.79231E+05        -0.50008E+08         0.00000E+00
    0.00000E+00         0.00000E+00        -0.50064E+08
 
   -0.50117E+08         0.82073E+05         0.00000E+00
    0.82073E+05        -0.50009E+08         0.00000E+00
    0.00000E+00         0.00000E+00        -0.50063E+08
 
   -0.50114E+08         0.84858E+05         0.00000E+00
    0.84858E+05        -0.50010E+08         0.00000E+00
    0.00000E+00         0.00000E+00        -0.50062E+08
 
   -0.50112E+08         0.87584E+05         0.00000E+00
    0.87584E+05        -0.50010E+08         0.00000E+00
    0.00000E+00         0.00000E+00        -0.50061E+08
 
   -0.50109E+08         0.90250E+05         0.00000E+00
    0.90250E+05        -0.50011E+08         0.00000E+00
    0.00000E+00         0.00000E+00        -0.50060E+08
 
   -0.50106E+08         0.92855E+05         0.00000E+00
    0.92855E+05        -0.50012E+08         0.00000E+00
    0.00000E+00         0.00000E+00        -0.50059E+08
 
   -0.50104E+08         0.95397E+05         0.00000E+00
    0.95397E+05        -0.50013E+08         0.00000E+00
    0.00000E+00         0.00000E+00        -0.50058E+08
 
   -0.50101E+08         0.97874E+05         0.00000E+00
    0.97874E+05        -0.50014E+08         0.00000E+00
    0.00000E+00         0.00000E+00        -0.50057E+08
 
   -0.50098E+08         0.10029E+06         0.00000E+00
    0.10029E+06        -0.50015E+08         0.00000E+00
    0.00000E+00         0.00000E+00        -0.50056E+08
 
   -0.50095E+08         0.10263E+06         0.00000E+00
    0.10263E+06        -0.50015E+08         0.00000E+00
    0.00000E+00         0.00000E+00        -0.50056E+08
 
   -0.50092E+08         0.10491E+06         0.00000E+00
    0.10491E+06        -0.50016E+08         0.00000E+00
    0.00000E+00         0.00000E+00        -0.50055E+08
 
   -0.50089E+08         0.10711E+06         0.00000E+00
    0.10711E+06        -0.50017E+08         0.00000E+00
    0.00000E+00         0.00000E+00        -0.50054E+08
 
   -0.50086E+08         0.10925E+06         0.00000E+00
    0.10925E+06        -0.50018E+08         0.00000E+00
    0.00000E+00         0.00000E+00        -0.50053E+08
 
   -0.50083E+08         0.11131E+06         0.00000E+00
    0.11131E+06        -0.50019E+08         0.00000E+00
    0.00000E+00         0.00000E+00        -0.50052E+08
 
   -0.50080E+08         0.11330E+06         0.00000E+00
    0.11330E+06        -0.50020E+08         0.00000E+00
    0.00000E+00         0.00000E+00        -0.50051E+08
 
   -0.50077E+08         0.11522E+06         0.00000E+00
    0.11522E+06        -0.50021E+08         0.00000E+00
    0.00000E+00         0.00000E+00        -0.50050E+08
 
   -0.50074E+08         0.11707E+06         0.00000E+00
    0.11707E+06        -0.50023E+08         0.00000E+00
    0.00000E+00         0.00000E+00        -0.50049E+08
 
   -0.50071E+08         0.11883E+06         0.00000E+00
    0.11883E+06        -0.50024E+08         0.00000E+00
    0.00000E+00         0.00000E+00        -0.50048E+08
 
   -0.50068E+08         0.12053E+06         0.00000E+00
    0.12053E+06        -0.50025E+08         0.00000E+00
    0.00000E+00         0.00000E+00        -0.50047E+08
 
   -0.50064E+08         0.12214E+06         0.00000E+00
    0.12214E+06        -0.50026E+08         0.00000E+00
    0.00000E+00         0.00000E+00        -0.50046E+08
 
   -0.50061E+08         0.12369E+06         0.00000E+00
    0.12369E+06        -0.50027E+08         0.00000E+00
    0.00000E+00         0.00000E+00        -0.50046E+08
 
   -0.50058E+08         0.12515E+06         0.00000E+00
    0.12515E+06        -0.50028E+08         0.00000E+00
    0.00000E+00         0.00000E+00        -0.50045E+08
 
   -0.50055E+08         0.12654E+06         0.00000E+00
    0.12654E+06        -0.50029E+08         0.00000E+00
    0.00000E+00         0.00000E+00        -0.50044E+08
 
   -0.50052E+08         0.12785E+06         0.00000E+00
    0.12785E+06        -0.50031E+08         0.00000E+00
    0.00000E+00         0.00000E+00        -0.50044E+08
 
   -0.50049E+08         0.12909E+06         0.00000E+00
    0.12909E+06        -0.50032E+08         0.00000E+00
    0.00000E+00         0.00000E+00        -0.50043E+08
 
   -0.50046E+08         0.13025E+06         0.00000E+00
    0.13025E+06        -0.50033E+08         0.00000E+00
    0.00000E+00         0.00000E+00        -0.50042E+08
 
   -0.50043E+08         0.13134E+06         0.00000E+00
    0.13134E+06        -0.50034E+08         0.00000E+00
    0.00000E+00         0.00000E+00        -0.50042E+08
 
   -0.50140E+08         0.17967E+04         0.00000E+00
    0.17967E+04        -0.50000E+08         0.00000E+00
    0.00000E+00         0.00000E+00        -0.50069E+08
 
   -0.50140E+08         0.53549E+04         0.00000E+00
    0.53549E+04        -0.50000E+08         0.00000E+00
    0.00000E+00         0.00000E+00        -0.50069E+08
 
   -0.50139E+08         0.88954E+04         0.00000E+00
    0.88954E+04        -0.50000E+08         0.00000E+00
    0.00000E+00         0.00000E+00        -0.50068E+08
 
   -0.50138E+08         0.12416E+05         0.00000E+00
    0.12416E+05        -0.50000E+08         0.00000E+00
    0.00000E+00         0.00000E+00        -0.50068E+08
 
   -0.50137E+08         0.15915E+05         0.00000E+00
    0.15915E+05        -0.50000E+08         0.00000E+00
    0.00000E+00         0.00000E+00        -0.50068E+08
 
   -0.50136E+08         0.19391E+05         0.00000E+00
    0.19391E+05        -0.50000E+08         0.00000E+00
    0.00000E+00         0.00000E+00        -0.50067E+08
 
   -0.50135E+08         0.22841E+05         0.00000E+00
    0.22841E+05        -0.50001E+08         0.00000E+00
    0.00000E+00         0.00000E+00        -0.50067E+08
 
   -0.50134E+08         0.26265E+05         0.00000E+00
    0.26265E+05        -0.50001E+08         0.00000E+00
    0.00000E+00         0.00000E+00        -0.50067E+08
 
   -0.50132E+08         0.29659E+05         0.00000E+00
    0.29659E+05        -0.50001E+08         0.00000E+00
    0.00000E+00         0.00000E+00        -0.50066E+08
 
   -0.50131E+08         0.33022E+05         0.00000E+00
    0.33022E+05        -0.50001E+08         0.00000E+00
    0.00000E+00         0.00000E+00        -0.50066E+08
 
   -0.50129E+08         0.36354E+05         0.00000E+00
    0.36354E+05        -0.50001E+08         0.00000E+00
    0.00000E+00         0.00000E+00        -0.50065E+08
 
   -0.50128E+08         0.39651E+05         0.00000E+00
    0.39651E+05        -0.50002E+08         0.00000E+00
    0.00000E+00         0.00000E+00        -0.50065E+08
 
   -0.50126E+08         0.42912E+05         0.00000E+00
    0.42912E+05        -0.50002E+08         0.00000E+00
    0.00000E+00         0.00000E+00        -0.50064E+08
 
   -0.50125E+08         0.46136E+05         0.00000E+00
    0.46136E+05        -0.50002E+08         0.00000E+00
    0.00000E+00         0.00000E+00        -0.50063E+08
 
   -0.50123E+08         0.49321E+05         0.00000E+00
    0.49321E+05        -0.50003E+08         0.00000E+00
    0.00000E+00         0.00000E+00        -0.50063E+08
 
   -0.50121E+08         0.52466E+05         0.00000E+00
    0.52466E+05        -0.50003E+08         0.00000E+00
    0.00000E+00         0.00000E+00        -0.50062E+08
 
   -0.50120E+08         0.55569E+05         0.00000E+00
    0.55569E+05        -0.50004E+08         0.00000E+00
    0.00000E+00         0.00000E+00        -0.50062E+08
 
   -0.50118E+08         0.58627E+05         0.00000E+00
    0.58627E+05        -0.50004E+08         0.00000E+00
    0.00000E+00         0.00000E+00        -0.50061E+08
 
   -0.50116E+08         0.61641E+05         0.00000E+00
    0.61641E+05        -0.50004E+08         0.00000E+00
    0.00000E+00         0.00000E+00        -0.50060E+08
 
   -0.50114E+08         0.64608E+05         0.00000E+00
    0.64608E+05        -0.50005E+08         0.00000E+00
    0.00000E+00         0.00000E+00        -0.50059E+08
 
   -0.50112E+08         0.67527E+05         0.00000E+00
    0.67527E+05        -0.50006E+08         0.00000E+00
    0.00000E+00         0.00000E+00        -0.50059E+08
 
   -0.50110E+08         0.70396E+05         0.00000E+00
    0.70396E+05        -0.50006E+08         0.00000E+00
    0.00000E+00         0.00000E+00        -0.50058E+08
 
   -0.50108E+08         0.73214E+05         0.00000E+00
    0.73214E+05        -0.50007E+08         0.00000E+00
    0.00000E+00         0.00000E+00        -0.50057E+08
 
   -0.50105E+08         0.75979E+05         0.00000E+00
    0.75979E+05        -0.50007E+08         0.00000E+00
    0.00000E+00         0.00000E+00        -0.50056E+08
 
   -0.50103E+08         0.78690E+05         0.00000E+00
    0.78690E+05        -0.50008E+08         0.00000E+00
    0.00000E+00         0.00000E+00        -0.50056E+08
 
   -0.50101E+08         0.81346E+05         0.00000E+00
    0.81346E+05        -0.50009E+08         0.00000E+00
    0.00000E+00         0.00000E+00        -0.50055E+08
 
   -0.50099E+08         0.83944E+05         0.00000E+00
    0.83944E+05        -0.50009E+08         0.00000E+00
    0.00000E+00         0.00000E+00        -0.50054E+08
 
   -0.50096E+08         0.86485E+05         0.00000E+00
    0.86485E+05        -0.50010E+08         0.00000E+00
    0.00000E+00         0.00000E+00        -0.50053E+08
 
   -0.50094E+08         0.88965E+05         0.00000E+00
    0.88965E+05        -0.50011E+08         0.00000E+00
    0.00000E+00         0.00000E+00        -0.50052E+08
 
   -0.50091E+08         0.91385E+05         0.00000E+00
    0.91385E+05        -0.50011E+08         0.00000E+00
    0.00000E+00         0.00000E+00        -0.50052E+08
 
   -0.50089E+08         0.93742E+05         0.00000E+00
    0.93742E+05        -0.50012E+08         0.00000E+00
    0.00000E+00         0.00000E+00        -0.50051E+08
 
   -0.50086E+08         0.96036E+05         0.00000E+00
    0.96036E+05        -0.50013E+08         0.00000E+00
    0.00000E+00         0.00000E+00        -0.50050E+08
 
   -0.50084E+08         0.98265E+05         0.00000E+00
    0.98265E+05        -0.50014E+08         0.00000E+00
    0.00000E+00         0.00000E+00        -0.50049E+08
 
   -0.50081E+08         0.10043E+06         0.00000E+00
    0.10043E+06        -0.50015E+08         0.00000E+00
    0.00000E+00         0.00000E+00        -0.50048E+08
 
   -0.50079E+08         0.10252E+06         0.00000E+00
    0.10252E+06        -0.50015E+08         0.00000E+00
    0.00000E+00         0.00000E+00        -0.50047E+08
 
   -0.50076E+08         0.10455E+06         0.00000E+00
    0.10455E+06        -0.50016E+08         0.00000E+00
    0.00000E+00         0.00000E+00        -0.50046E+08
 
   -0.50073E+08         0.10651E+06         0.00000E+00
    0.10651E+06        -0.50017E+08         0.00000E+00
    0.00000E+00         0.00000E+00        -0.50046E+08
 
   -0.50071E+08         0.10840E+06         0.00000E+00
    0.10840E+06        -0.50018E+08         0.00000E+00
    0.00000E+00         0.00000E+00        -0.50045E+08
 
   -0.50068E+08         0.11022E+06         0.00000E+00
    0.11022E+06        -0.50019E+08         0.00000E+00
    0.00000E+00         0.00000E+00        -0.50044E+08
 
   -0.50065E+08         0.11197E+06         0.00000E+00
    0.11197E+06        -0.50020E+08         0.00000E+00
    0.00000E+00         0.00000E+00        -0.50043E+08
 
   -0.50062E+08         0.11365E+06         0.00000E+00
    0.11365E+06        -0.50021E+08         0.00000E+00
    0.00000E+00         0.00000E+00        -0.50042E+08
 
   -0.50060E+08         0.11525E+06         0.00000E+00
    0.11525E+06        -0.50022E+08         0.00000E+00
    0.00000E+00         0.00000E+00        -0.50042E+08
 
   -0.50057E+08         0.11678E+06         0.00000E+00
    0.11678E+06        -0.50023E+08         0.00000E+00
    0.00000E+00         0.00000E+00        -0.50041E+08
 
   -0.50054E+08         0.11824E+06         0.00000E+00
    0.11824E+06        -0.50024E+08         0.00000E+00
    0.00000E+00         0.00000E+00        -0.50040E+08
 
   -0.50051E+08         0.11963E+06         0.00000E+00
    0.11963E+06        -0.50025E+08         0.00000E+00
    0.00000E+00         0.00000E+00        -0.50040E+08
 
   -0.50049E+08         0.12094E+06         0.00000E+00
    0.12094E+06        -0.50026E+08         0.00000E+00
    0.00000E+00         0.00000E+00        -0.50039E+08
 
   -0.50046E+08         0.12218E+06         0.00000E+00
    0.12218E+06        -0.50027E+08         0.00000E+00
    0.00000E+00         0.00000E+00        -0.50038E+08
 
   -0.50043E+08         0.12335E+06         0.00000E+00
    0.12335E+06        -0.50028E+08         0.00000E+00
    0.00000E+00         0.00000E+00        -0.50038E+08
 
   -0.50041E+08         0.12445E+06         0.00000E+00
    0.12445E+06        -0.50029E+08         0.00000E+00
    0.00000E+00         0.00000E+00        -0.50037E+08
 
   -0.50038E+08         0.12548E+06         0.00000E+00
    0.12548E+06        -0.50030E+08         0.00000E+00
    0.00000E+00         0.00000E+00        -0.50037E+08
 
   -0.50123E+08         0.17350E+04         0.00000E+00
    0.17350E+04        -0.50000E+08         0.00000E+00
    0.00000E+00         0.00000E+00        -0.50060E+08
 
   -0.50122E+08         0.51695E+04         0.00000E+00
    0.51695E+04        -0.50000E+08         0.00000E+00
    0.00000E+00         0.00000E+00        -0.50060E+08
 
   -0.50121E+08         0.85861E+04         0.00000E+00
    0.85861E+04        -0.50000E+08         0.00000E+00
    0.00000E+00         0.00000E+00        -0.50060E+08
 
   -0.50121E+08         0.11983E+05         0.00000E+00
    0.11983E+05        -0.50000E+08         0.00000E+00
    0.00000E+00         0.00000E+00        -0.50060E+08
 
   -0.50120E+08         0.15358E+05         0.00000E+00
    0.15358E+05        -0.50000E+08         0.00000E+00
    0.00000E+00         0.00000E+00        -0.50059E+08
 
   -0.50119E+08         0.18710E+05         0.00000E+00
    0.18710E+05        -0.50000E+08         0.00000E+00
    0.00000E+00         0.00000E+00        -0.50059E+08
 
   -0.50118E+08         0.22036E+05         0.00000E+00
    0.22036E+05        -0.50000E+08         0.00000E+00
    0.00000E+00         0.00000E+00        -0.50059E+08
 
   -0.50117E+08         0.25335E+05         0.00000E+00
    0.25335E+05        -0.50001E+08         0.00000E+00
    0.00000E+00         0.00000E+00        -0.50058E+08
 
   -0.50116E+08         0.28605E+05         0.00000E+00
    0.28605E+05        -0.50001E+08         0.00000E+00
    0.00000E+00         0.00000E+00        -0.50058E+08
 
   -0.50114E+08         0.31845E+05         0.00000E+00
    0.31845E+05        -0.50001E+08         0.00000E+00
    0.00000E+00         0.00000E+00        -0.50057E+08
 
   -0.50113E+08         0.35052E+05         0.00000E+00
    0.35052E+05        -0.50001E+08         0.00000E+00
    0.00000E+00         0.00000E+00        -0.50057E+08
 
   -0.50112E+08         0.38225E+05         0.00000E+00
    0.38225E+05        -0.50002E+08         0.00000E+00
    0.00000E+00         0.00000E+00        -0.50057E+08
 
   -0.50111E+08         0.41363E+05         0.00000E+00
    0.41363E+05        -0.50002E+08         0.00000E+00
    0.00000E+00         0.00000E+00        -0.50056E+08
 
   -0.50109E+08         0.44464E+05         0.00000E+00
    0.44464E+05        -0.50002E+08         0.00000E+00
    0.00000E+00         0.00000E+00        -0.50055E+08
 
   -0.50108E+08         0.47527E+05         0.00000E+00
    0.47527E+05        -0.50002E+08         0.00000E+00
    0.00000E+00         0.00000E+00        -0.50055E+08
 
   -0.50106E+08         0.50549E+05         0.00000E+00
    0.50549E+05        -0.50003E+08         0.00000E+00
    0.00000E+00         0.00000E+00        -0.50054E+08
 
   -0.50105E+08         0.53530E+05         0.00000E+00
    0.53530E+05        -0.50003E+08         0.00000E+00
    0.00000E+00         0.00000E+00        -0.50054E+08
 
   -0.50103E+08         0.56468E+05         0.00000E+00
    0.56468E+05        -0.50004E+08         0.00000E+00
    0.00000E+00         0.00000E+00        -0.50053E+08
 
   -0.50101E+08         0.59361E+05         0.00000E+00
    0.59361E+05        -0.50004E+08         0.00000E+00
    0.00000E+00         0.00000E+00        -0.50053E+08
 
   -0.50099E+08         0.62208E+05         0.00000E+00
    0.62208E+05        -0.50004E+08         0.00000E+00
    0.00000E+00         0.00000E+00        -0.50052E+08
 
   -0.50098E+08         0.65008E+05         0.00000E+00
    0.65008E+05        -0.50005E+08         0.00000E+00
    0.00000E+00         0.00000E+00        -0.50051E+08
 
   -0.50096E+08         0.67760E+05         0.00000E+00
    0.67760E+05        -0.50005E+08         0.00000E+00
    0.00000E+00         0.00000E+00        -0.50051E+08
 
   -0.50094E+08         0.70461E+05         0.00000E+00
    0.70461E+05        -0.50006E+08         0.00000E+00
    0.00000E+00         0.00000E+00        -0.50050E+08
 
   -0.50092E+08         0.73111E+05         0.00000E+00
    0.73111E+05        -0.50006E+08         0.00000E+00
    0.00000E+00         0.00000E+00        -0.50049E+08
 
   -0.50090E+08         0.75708E+05         0.00000E+00
    0.75708E+05        -0.50007E+08         0.00000E+00
    0.00000E+00         0.00000E+00        -0.50049E+08
 
   -0.50088E+08         0.78250E+05         0.00000E+00
    0.78250E+05        -0.50007E+08         0.00000E+00
    0.00000E+00         0.00000E+00        -0.50048E+08
 
   -0.50086E+08         0.80738E+05         0.00000E+00
    0.80738E+05        -0.50008E+08         0.00000E+00
    0.00000E+00         0.00000E+00        -0.50047E+08
 
   -0.50084E+08         0.83168E+05         0.00000E+00
    0.83168E+05        -0.50009E+08         0.00000E+00
    0.00000E+00         0.00000E+00        -0.50046E+08
 
   -0.50082E+08         0.85541E+05         0.00000E+00
    0.85541E+05        -0.50009E+08         0.00000E+00
    0.00000E+00         0.00000E+00        -0.50046E+08
 
   -0.50080E+08         0.87855E+05         0.00000E+00
    0.87855E+05        -0.50010E+08         0.00000E+00
    0.00000E+00         0.00000E+00        -0.50045E+08
 
   -0.50078E+08         0.90108E+05         0.00000E+00
    0.90108E+05        -0.50011E+08         0.00000E+00
    0.00000E+00         0.00000E+00        -0.50044E+08
 
   -0.50075E+08         0.92299E+05         0.00000E+00
    0.92299E+05        -0.50011E+08         0.00000E+00
    0.00000E+00         0.00000E+00        -0.50043E+08
 
   -0.50073E+08         0.94429E+05         0.00000E+00
    0.94429E+05        -0.50012E+08         0.00000E+00
    0.00000E+00         0.00000E+00        -0.50043E+08
 
   -0.50071E+08         0.96494E+05         0.00000E+00
    0.96494E+05        -0.50013E+08         0.00000E+00
    0.00000E+00         0.00000E+00        -0.50042E+08
 
   -0.50069E+08         0.98495E+05         0.00000E+00
    0.98495E+05        -0.50014E+08         0.00000E+00
    0.00000E+00         0.00000E+00        -0.50041E+08
 
   -0.50066E+08         0.10043E+06         0.00000E+00
    0.10043E+06        -0.50014E+08         0.00000E+00
    0.00000E+00         0.00000E+00        -0.50041E+08
 
   -0.50064E+08         0.10230E+06         0.00000E+00
    0.10230E+06        -0.50015E+08         0.00000E+00
    0.00000E+00         0.00000E+00        -0.50040E+08
 
   -0.50061E+08         0.10410E+06         0.00000E+00
    0.10410E+06        -0.50016E+08         0.00000E+00
    0.00000E+00         0.00000E+00        -0.50039E+08
 
   -0.50059E+08         0.10584E+06         0.00000E+00
    0.10584E+06        -0.50017E+08         0.00000E+00
    0.00000E+00         0.00000E+00        -0.50038E+08
 
   -0.50057E+08         0.10750E+06         0.00000E+00
    0.10750E+06        -0.50017E+08         0.00000E+00
    0.00000E+00         0.00000E+00        -0.50038E+08
 
   -0.50054E+08         0.10910E+06         0.00000E+00
    0.10910E+06        -0.50018E+08         0.00000E+00
    0.00000E+00         0.00000E+00        -0.50037E+08
 
   -0.50052E+08         0.11063E+06         0.00000E+00
    0.11063E+06        -0.50019E+08         0.00000E+00
    0.00000E+00         0.00000E+00        -0.50036E+08
 
   -0.50050E+08         0.11209E+06         0.00000E+00
    0.11209E+06        -0.50020E+08         0.00000E+00
    0.00000E+00         0.00000E+00        -0.50036E+08
 
   -0.50047E+08         0.11348E+06         0.00000E+00
    0.11348E+06        -0.50021E+08         0.00000E+00
    0.00000E+00         0.00000E+00        -0.50035E+08
 
   -0.50045E+08         0.11480E+06         0.00000E+00
    0.11480E+06        -0.50022E+08         0.00000E+00
    0.00000E+00         0.00000E+00        -0.50035E+08
 
   -0.50042E+08         0.11605E+06         0.00000E+00
    0.11605E+06        -0.50023E+08         0.00000E+00
    0.00000E+00         0.00000E+00        -0.50034E+08
 
   -0.50040E+08         0.11723E+06         0.00000E+00
    0.11723E+06        -0.50024E+08         0.00000E+00
    0.00000E+00         0.00000E+00        -0.50034E+08
 
   -0.50038E+08         0.11835E+06         0.00000E+00
    0.11835E+06        -0.50025E+08         0.00000E+00
    0.00000E+00         0.00000E+00        -0.50033E+08
 
   -0.50036E+08         0.11940E+06         0.00000E+00
    0.11940E+06        -0.50025E+08         0.00000E+00
    0.00000E+00         0.00000E+00        -0.50033E+08
 
   -0.50033E+08         0.12038E+06         0.00000E+00
    0.12038E+06        -0.50026E+08         0.00000E+00
    0.00000E+00         0.00000E+00        -0.50032E+08
 
   -0.50106E+08         0.16803E+04         0.00000E+00
    0.16803E+04        -0.50000E+08         0.00000E+00
    0.00000E+00         0.00000E+00        -0.50052E+08
 
   -0.50105E+08         0.50054E+04         0.00000E+00
    0.50054E+04        -0.50000E+08         0.00000E+00
    0.00000E+00         0.00000E+00        -0.50052E+08
 
   -0.50105E+08         0.83129E+04         0.00000E+00
    0.83129E+04        -0.50000E+08         0.00000E+00
    0.00000E+00         0.00000E+00        -0.50052E+08
 
   -0.50104E+08         0.11601E+05         0.00000E+00
    0.11601E+05        -0.50000E+08         0.00000E+00
    0.00000E+00         0.00000E+00        -0.50051E+08
 
   -0.50103E+08         0.14867E+05         0.00000E+00
    0.14867E+05        -0.50000E+08         0.00000E+00
    0.00000E+00         0.00000E+00        -0.50051E+08
 
   -0.50102E+08         0.18109E+05         0.00000E+00
    0.18109E+05        -0.50000E+08         0.00000E+00
    0.00000E+00         0.00000E+00        -0.50051E+08
 
   -0.50102E+08         0.21327E+05         0.00000E+00
    0.21327E+05        -0.50000E+08         0.00000E+00
    0.00000E+00         0.00000E+00        -0.50051E+08
 
   -0.50101E+08         0.24517E+05         0.00000E+00
    0.24517E+05        -0.50001E+08         0.00000E+00
    0.00000E+00         0.00000E+00        -0.50050E+08
 
   -0.50100E+08         0.27679E+05         0.00000E+00
    0.27679E+05        -0.50001E+08         0.00000E+00
    0.00000E+00         0.00000E+00        -0.50050E+08
 
   -0.50099E+08         0.30810E+05         0.00000E+00
    0.30810E+05        -0.50001E+08         0.00000E+00
    0.00000E+00         0.00000E+00        -0.50050E+08
 
   -0.50098E+08         0.33909E+05         0.00000E+00
    0.33909E+05        -0.50001E+08         0.00000E+00
    0.00000E+00         0.00000E+00        -0.50049E+08
 
   -0.50096E+08         0.36975E+05         0.00000E+00
    0.36975E+05        -0.50001E+08         0.00000E+00
    0.00000E+00         0.00000E+00        -0.50049E+08
 
   -0.50095E+08         0.40005E+05         0.00000E+00
    0.40005E+05        -0.50002E+08         0.00000E+00
    0.00000E+00         0.00000E+00        -0.50048E+08
 
   -0.50094E+08         0.42999E+05         0.00000E+00
    0.42999E+05        -0.50002E+08         0.00000E+00
    0.00000E+00         0.00000E+00        -0.50048E+08
 
   -0.50093E+08         0.45955E+05         0.00000E+00
    0.45955E+05        -0.50002E+08         0.00000E+00
    0.00000E+00         0.00000E+00        -0.50047E+08
 
   -0.50091E+08         0.48871E+05         0.00000E+00
    0.48871E+05        -0.50002E+08         0.00000E+00
    0.00000E+00         0.00000E+00        -0.50047E+08
 
   -0.50090E+08         0.51747E+05         0.00000E+00
    0.51747E+05        -0.50003E+08         0.00000E+00
    0.00000E+00         0.00000E+00        -0.50046E+08
 
   -0.50089E+08         0.54580E+05         0.00000E+00
    0.54580E+05        -0.50003E+08         0.00000E+00
    0.00000E+00         0.00000E+00        -0.50046E+08
 
   -0.50087E+08         0.57369E+05         0.00000E+00
    0.57369E+05        -0.50003E+08         0.00000E+00
    0.00000E+00         0.00000E+00        -0.50045E+08
 
   -0.50086E+08         0.60113E+05         0.00000E+00
    0.60113E+05        -0.50004E+08         0.00000E+00
    0.00000E+00         0.00000E+00        -0.50045E+08
 
   -0.50084E+08         0.62810E+05         0.00000E+00
    0.62810E+05        -0.50004E+08         0.00000E+00
    0.00000E+00         0.00000E+00        -0.50044E+08
 
   -0.50082E+08         0.65460E+05         0.00000E+00
    0.65460E+05        -0.50005E+08         0.00000E+00
    0.00000E+00         0.00000E+00        -0.50044E+08
 
   -0.50081E+08         0.68060E+05         0.00000E+00
    0.68060E+05        -0.50005E+08         0.00000E+00
    0.00000E+00         0.00000E+00        -0.50043E+08
 
   -0.50079E+08         0.70611E+05         0.00000E+00
    0.70611E+05        -0.50006E+08         0.00000E+00
    0.00000E+00         0.00000E+00        -0.50042E+08
 
   -0.50078E+08         0.73109E+05         0.00000E+00
    0.73109E+05        -0.50006E+08         0.00000E+00
    0.00000E+00         0.00000E+00        -0.50042E+08
 
   -0.50076E+08         0.75555E+05         0.00000E+00
    0.75555E+05        -0.50007E+08         0.00000E+00
    0.00000E+00         0.00000E+00        -0.50041E+08
 
   -0.50074E+08         0.77947E+05         0.00000E+00
    0.77947E+05        -0.50007E+08         0.00000E+00
    0.00000E+00         0.00000E+00        -0.50041E+08
 
   -0.50072E+08         0.80283E+05         0.00000E+00
    0.80283E+05        -0.50008E+08         0.00000E+00
    0.00000E+00         0.00000E+00        -0.50040E+08
 
   -0.50070E+08         0.82563E+05         0.00000E+00
    0.82563E+05        -0.50008E+08         0.00000E+00
    0.00000E+00         0.00000E+00        -0.50039E+08
 
   -0.50069E+08         0.84786E+05         0.00000E+00
    0.84786E+05        -0.50009E+08         0.00000E+00
    0.00000E+00         0.00000E+00        -0.50039E+08
 
   -0.50067E+08         0.86950E+05         0.00000E+00
    0.86950E+05        -0.50009E+08         0.00000E+00
    0.00000E+00         0.00000E+00        -0.50038E+08
 
   -0.50065E+08         0.89054E+05         0.00000E+00
    0.89054E+05        -0.50010E+08         0.00000E+00
    0.00000E+00         0.00000E+00        -0.50037E+08
 
   -0.50063E+08         0.91097E+05         0.00000E+00
    0.91097E+05        -0.50010E+08         0.00000E+00
    0.00000E+00         0.00000E+00        -0.50037E+08
 
   -0.50061E+08         0.93080E+05         0.00000E+00
    0.93080E+05        -0.50011E+08         0.00000E+00
    0.00000E+00         0.00000E+00        -0.50036E+08
 
   -0.50059E+08         0.94999E+05         0.00000E+00
    0.94999E+05        -0.50012E+08         0.00000E+00
    0.00000E+00         0.00000E+00        -0.50036E+08
 
   -0.50057E+08         0.96855E+05         0.00000E+00
    0.96855E+05        -0.50012E+08         0.00000E+00
    0.00000E+00         0.00000E+00        -0.50035E+08
 
   -0.50055E+08         0.98648E+05         0.00000E+00
    0.98648E+05        -0.50013E+08         0.00000E+00
    0.00000E+00         0.00000E+00        -0.50034E+08
 
   -0.50053E+08         0.10038E+06         0.00000E+00
    0.10038E+06        -0.50014E+08         0.00000E+00
    0.00000E+00         0.00000E+00        -0.50034E+08
 
   -0.50051E+08         0.10204E+06         0.00000E+00
    0.10204E+06        -0.50014E+08         0.00000E+00
    0.00000E+00         0.00000E+00        -0.50033E+08
 
   -0.50049E+08         0.10363E+06         0.00000E+00
    0.10363E+06        -0.50015E+08         0.00000E+00
    0.00000E+00         0.00000E+00        -0.50032E+08
 
   -0.50047E+08         0.10517E+06         0.00000E+00
    0.10517E+06        -0.50016E+08         0.00000E+00
    0.00000E+00         0.00000E+00        -0.50032E+08
 
   -0.50045E+08         0.10663E+06         0.00000E+00
    0.10663E+06        -0.50017E+08         0.00000E+00
    0.00000E+00         0.00000E+00        -0.50031E+08
 
   -0.50043E+08         0.10803E+06         0.00000E+00
    0.10803E+06        -0.50017E+08         0.00000E+00
    0.00000E+00         0.00000E+00        -0.50031E+08
 
   -0.50040E+08         0.10936E+06         0.00000E+00
    0.10936E+06        -0.50018E+08         0.00000E+00
    0.00000E+00         0.00000E+00        -0.50030E+08
 
   -0.50038E+08         0.11062E+06         0.00000E+00
    0.11062E+06        -0.50019E+08         0.00000E+00
    0.00000E+00         0.00000E+00        -0.50030E+08
 
   -0.50036E+08         0.11182E+06         0.00000E+00
    0.11182E+06        -0.50020E+08         0.00000E+00
    0.00000E+00         0.00000E+00        -0.50029E+08
 
   -0.50034E+08         0.11296E+06         0.00000E+00
    0.11296E+06        -0.50020E+08         0.00000E+00
    0.00000E+00         0.00000E+00        -0.50029E+08
 
   -0.50032E+08         0.11403E+06         0.00000E+00
    0.11403E+06        -0.50021E+08         0.00000E+00
    0.00000E+00         0.00000E+00        -0.50028E+08
 
   -0.50031E+08         0.11503E+06         0.00000E+00
    0.11503E+06        -0.50022E+08         0.00000E+00
    0.00000E+00         0.00000E+00        -0.50028E+08
 
   -0.50029E+08         0.11598E+06         0.00000E+00
    0.11598E+06        -0.50023E+08         0.00000E+00
    0.00000E+00         0.00000E+00        -0.50028E+08
 
   -0.50089E+08         0.16326E+04         0.00000E+00
    0.16326E+04        -0.50000E+08         0.00000E+00
    0.00000E+00         0.00000E+00        -0.50044E+08
 
   -0.50089E+08         0.48629E+04         0.00000E+00
    0.48629E+04        -0.50000E+08         0.00000E+00
    0.00000E+00         0.00000E+00        -0.50044E+08
 
   -0.50088E+08         0.80756E+04         0.00000E+00
    0.80756E+04        -0.50000E+08         0.00000E+00
    0.00000E+00         0.00000E+00        -0.50044E+08
 
   -0.50088E+08         0.11269E+05         0.00000E+00
    0.11269E+05        -0.50000E+08         0.00000E+00
    0.00000E+00         0.00000E+00        -0.50043E+08
 
   -0.50087E+08         0.14441E+05         0.00000E+00
    0.14441E+05        -0.50000E+08         0.00000E+00
    0.00000E+00         0.00000E+00        -0.50043E+08
 
   -0.50087E+08         0.17590E+05         0.00000E+00
    0.17590E+05        -0.50000E+08         0.00000E+00
    0.00000E+00         0.00000E+00        -0.50043E+08
 
   -0.50086E+08         0.20713E+05         0.00000E+00
    0.20713E+05        -0.50000E+08         0.00000E+00
    0.00000E+00         0.00000E+00        -0.50043E+08
 
   -0.50085E+08         0.23810E+05         0.00000E+00
    0.23810E+05        -0.50000E+08         0.00000E+00
    0.00000E+00         0.00000E+00        -0.50042E+08
 
   -0.50084E+08         0.26878E+05         0.00000E+00
    0.26878E+05        -0.50001E+08         0.00000E+00
    0.00000E+00         0.00000E+00        -0.50042E+08
 
   -0.50083E+08         0.29917E+05         0.00000E+00
    0.29917E+05        -0.50001E+08         0.00000E+00
    0.00000E+00         0.00000E+00        -0.50042E+08
 
   -0.50082E+08         0.32923E+05         0.00000E+00
    0.32923E+05        -0.50001E+08         0.00000E+00
    0.00000E+00         0.00000E+00        -0.50041E+08
 
   -0.50081E+08         0.35896E+05         0.00000E+00
    0.35896E+05        -0.50001E+08         0.00000E+00
    0.00000E+00         0.00000E+00        -0.50041E+08
 
   -0.50080E+08         0.38835E+05         0.00000E+00
    0.38835E+05        -0.50001E+08         0.00000E+00
    0.00000E+00         0.00000E+00        -0.50041E+08
 
   -0.50079E+08         0.41737E+05         0.00000E+00
    0.41737E+05        -0.50002E+08         0.00000E+00
    0.00000E+00         0.00000E+00        -0.50040E+08
 
   -0.50078E+08         0.44602E+05         0.00000E+00
    0.44602E+05        -0.50002E+08         0.00000E+00
    0.00000E+00         0.00000E+00        -0.50040E+08
 
   -0.50077E+08         0.47428E+05         0.00000E+00
    0.47428E+05        -0.50002E+08         0.00000E+00
    0.00000E+00         0.00000E+00        -0.50040E+08
 
   -0.50076E+08         0.50213E+05         0.00000E+00
    0.50213E+05        -0.50002E+08         0.00000E+00
    0.00000E+00         0.00000E+00        -0.50039E+08
 
   -0.50075E+08         0.52957E+05         0.00000E+00
    0.52957E+05        -0.50003E+08         0.00000E+00
    0.00000E+00         0.00000E+00        -0.50039E+08
 
   -0.50073E+08         0.55657E+05         0.00000E+00
    0.55657E+05        -0.50003E+08         0.00000E+00
    0.00000E+00         0.00000E+00        -0.50038E+08
 
   -0.50072E+08         0.58313E+05         0.00000E+00
    0.58313E+05        -0.50003E+08         0.00000E+00
    0.00000E+00         0.00000E+00        -0.50038E+08
 
   -0.50071E+08         0.60924E+05         0.00000E+00
    0.60924E+05        -0.50004E+08         0.00000E+00
    0.00000E+00         0.00000E+00        -0.50037E+08
 
   -0.50070E+08         0.63487E+05         0.00000E+00
    0.63487E+05        -0.50004E+08         0.00000E+00
    0.00000E+00         0.00000E+00        -0.50037E+08
 
   -0.50068E+08         0.66003E+05         0.00000E+00
    0.66003E+05        -0.50004E+08         0.00000E+00
    0.00000E+00         0.00000E+00        -0.50036E+08
 
   -0.50067E+08         0.68468E+05         0.00000E+00
    0.68468E+05        -0.50005E+08         0.00000E+00
    0.00000E+00         0.00000E+00        -0.50036E+08
 
   -0.50065E+08         0.70884E+05         0.00000E+00
    0.70884E+05        -0.50005E+08         0.00000E+00
    0.00000E+00         0.00000E+00        -0.50035E+08
 
   -0.50064E+08         0.73248E+05         0.00000E+00
    0.73248E+05        -0.50006E+08         0.00000E+00
    0.00000E+00         0.00000E+00        -0.50035E+08
 
   -0.50062E+08         0.75558E+05         0.00000E+00
    0.75558E+05        -0.50006E+08         0.00000E+00
    0.00000E+00         0.00000E+00        -0.50034E+08
 
   -0.50061E+08         0.77815E+05         0.00000E+00
    0.77815E+05        -0.50006E+08         0.00000E+00
    0.00000E+00         0.00000E+00        -0.50034E+08
 
   -0.50059E+08         0.80017E+05         0.00000E+00
    0.80017E+05        -0.50007E+08         0.00000E+00
    0.00000E+00         0.00000E+00        -0.50033E+08
 
   -0.50058E+08         0.82163E+05         0.00000E+00
    0.82163E+05        -0.50007E+08         0.00000E+00
    0.00000E+00         0.00000E+00        -0.50033E+08
 
   -0.50056E+08         0.84251E+05         0.00000E+00
    0.84251E+05        -0.50008E+08         0.00000E+00
    0.00000E+00         0.00000E+00        -0.50032E+08
 
   -0.50055E+08         0.86282E+05         0.00000E+00
    0.86282E+05        -0.50008E+08         0.00000E+00
    0.00000E+00         0.00000E+00        -0.50032E+08
 
   -0.50053E+08         0.88254E+05         0.00000E+00
    0.88254E+05        -0.50009E+08         0.00000E+00
    0.00000E+00         0.00000E+00        -0.50031E+08
 
   -0.50051E+08         0.90166E+05         0.00000E+00
    0.90166E+05        -0.50009E+08         0.00000E+00
    0.00000E+00         0.00000E+00        -0.50030E+08
 
   -0.50050E+08         0.92017E+05         0.00000E+00
    0.92017E+05        -0.50010E+08         0.00000E+00
    0.00000E+00         0.00000E+00        -0.50030E+08
 
   -0.50048E+08         0.93807E+05         0.00000E+00
    0.93807E+05        -0.50010E+08         0.00000E+00
    0.00000E+00         0.00000E+00        -0.50029E+08
 
   -0.50046E+08         0.95535E+05         0.00000E+00
    0.95535E+05        -0.50011E+08         0.00000E+00
    0.00000E+00         0.00000E+00        -0.50029E+08
 
   -0.50045E+08         0.97201E+05         0.00000E+00
    0.97201E+05        -0.50012E+08         0.00000E+00
    0.00000E+00         0.00000E+00        -0.50028E+08
 
   -0.50043E+08         0.98803E+05         0.00000E+00
    0.98803E+05        -0.50012E+08         0.00000E+00
    0.00000E+00         0.00000E+00        -0.50028E+08
 
   -0.50041E+08         0.10034E+06         0.00000E+00
    0.10034E+06        -0.50013E+08         0.00000E+00
    0.00000E+00         0.00000E+00        -0.50027E+08
 
   -0.50039E+08         0.10182E+06         0.00000E+00
    0.10182E+06        -0.50013E+08         0.00000E+00
    0.00000E+00         0.00000E+00        -0.50027E+08
 
   -0.50038E+08         0.10323E+06         0.00000E+00
    0.10323E+06        -0.50014E+08         0.00000E+00
    0.00000E+00         0.00000E+00        -0.50026E+08
 
   -0.50036E+08         0.10458E+06         0.00000E+00
    0.10458E+06        -0.50015E+08         0.00000E+00
    0.00000E+00         0.00000E+00        -0.50026E+08
 
   -0.50034E+08         0.10586E+06         0.00000E+00
    0.10586E+06        -0.50015E+08         0.00000E+00
    0.00000E+00         0.00000E+00        -0.50025E+08
 
   -0.50032E+08         0.10708E+06         0.00000E+00
    0.10708E+06        -0.50016E+08         0.00000E+00
    0.00000E+00         0.00000E+00        -0.50025E+08
 
   -0.50031E+08         0.10824E+06         0.00000E+00
    0.10824E+06        -0.50017E+08         0.00000E+00
    0.00000E+00         0.00000E+00        -0.50025E+08
 
   -0.50029E+08         0.10933E+06         0.00000E+00
    0.10933E+06        -0.50017E+08         0.00000E+00
    0.00000E+00         0.00000E+00        -0.50024E+08
 
   -0.50027E+08         0.11036E+06         0.00000E+00
    0.11036E+06        -0.50018E+08         0.00000E+00
    0.00000E+00         0.00000E+00        -0.50024E+08
 
   -0.50026E+08         0.11134E+06         0.00000E+00
    0.11134E+06        -0.50019E+08         0.00000E+00
    0.00000E+00         0.00000E+00        -0.50024E+08
 
   -0.50024E+08         0.11225E+06         0.00000E+00
    0.11225E+06        -0.50019E+08         0.00000E+00
    0.00000E+00         0.00000E+00        -0.50024E+08
 
   -0.50073E+08         0.15921E+04         0.00000E+00
    0.15921E+04        -0.50000E+08         0.00000E+00
    0.00000E+00         0.00000E+00        -0.50036E+08
 
   -0.50073E+08         0.47421E+04         0.00000E+00
    0.47421E+04        -0.50000E+08         0.00000E+00
    0.00000E+00         0.00000E+00        -0.50036E+08
 
   -0.50073E+08         0.78749E+04         0.00000E+00
    0.78749E+04        -0.50000E+08         0.00000E+00
    0.00000E+00         0.00000E+00        -0.50036E+08
 
   -0.50072E+08         0.10988E+05         0.00000E+00
    0.10988E+05        -0.50000E+08         0.00000E+00
    0.00000E+00         0.00000E+00        -0.50036E+08
 
   -0.50072E+08         0.14081E+05         0.00000E+00
    0.14081E+05        -0.50000E+08         0.00000E+00
    0.00000E+00         0.00000E+00        -0.50035E+08
 
   -0.50071E+08         0.17150E+05         0.00000E+00
    0.17150E+05        -0.50000E+08         0.00000E+00
    0.00000E+00         0.00000E+00        -0.50035E+08
 
   -0.50070E+08         0.20195E+05         0.00000E+00
    0.20195E+05        -0.50000E+08         0.00000E+00
    0.00000E+00         0.00000E+00        -0.50035E+08
 
   -0.50070E+08         0.23213E+05         0.00000E+00
    0.23213E+05        -0.50000E+08         0.00000E+00
    0.00000E+00         0.00000E+00        -0.50035E+08
 
   -0.50069E+08         0.26203E+05         0.00000E+00
    0.26203E+05        -0.50001E+08         0.00000E+00
    0.00000E+00         0.00000E+00        -0.50035E+08
 
   -0.50068E+08         0.29164E+05         0.00000E+00
    0.29164E+05        -0.50001E+08         0.00000E+00
    0.00000E+00         0.00000E+00        -0.50034E+08
 
   -0.50068E+08         0.32093E+05         0.00000E+00
    0.32093E+05        -0.50001E+08         0.00000E+00
    0.00000E+00         0.00000E+00        -0.50034E+08
 
   -0.50067E+08         0.34989E+05         0.00000E+00
    0.34989E+05        -0.50001E+08         0.00000E+00
    0.00000E+00         0.00000E+00        -0.50034E+08
 
   -0.50066E+08         0.37850E+05         0.00000E+00
    0.37850E+05        -0.50001E+08         0.00000E+00
    0.00000E+00         0.00000E+00        -0.50033E+08
 
   -0.50065E+08         0.40676E+05         0.00000E+00
    0.40676E+05        -0.50001E+08         0.00000E+00
    0.00000E+00         0.00000E+00        -0.50033E+08
 
   -0.50064E+08         0.43465E+05         0.00000E+00
    0.43465E+05        -0.50002E+08         0.00000E+00
    0.00000E+00         0.00000E+00        -0.50033E+08
 
   -0.50063E+08         0.46216E+05         0.00000E+00
    0.46216E+05        -0.50002E+08         0.00000E+00
    0.00000E+00         0.00000E+00        -0.50032E+08
 
   -0.50062E+08         0.48926E+05         0.00000E+00
    0.48926E+05        -0.50002E+08         0.00000E+00
    0.00000E+00         0.00000E+00        -0.50032E+08
 
   -0.50061E+08         0.51595E+05         0.00000E+00
    0.51595E+05        -0.50002E+08         0.00000E+00
    0.00000E+00         0.00000E+00        -0.50032E+08
 
   -0.50060E+08         0.54222E+05         0.00000E+00
    0.54222E+05        -0.50002E+08         0.00000E+00
    0.00000E+00         0.00000E+00        -0.50031E+08
 
   -0.50059E+08         0.56805E+05         0.00000E+00
    0.56805E+05        -0.50003E+08         0.00000E+00
    0.00000E+00         0.00000E+00        -0.50031E+08
 
   -0.50058E+08         0.59343E+05         0.00000E+00
    0.59343E+05        -0.50003E+08         0.00000E+00
    0.00000E+00         0.00000E+00        -0.50031E+08
 
   -0.50057E+08         0.61835E+05         0.00000E+00
    0.61835E+05        -0.50003E+08         0.00000E+00
    0.00000E+00         0.00000E+00        -0.50030E+08
 
   -0.50056E+08         0.64280E+05         0.00000E+00
    0.64280E+05        -0.50004E+08         0.00000E+00
    0.00000E+00         0.00000E+00        -0.50030E+08
 
   -0.50055E+08         0.66676E+05         0.00000E+00
    0.66676E+05        -0.50004E+08         0.00000E+00
    0.00000E+00         0.00000E+00        -0.50029E+08
 
   -0.50054E+08         0.69022E+05         0.00000E+00
    0.69022E+05        -0.50004E+08         0.00000E+00
    0.00000E+00         0.00000E+00        -0.50029E+08
 
   -0.50052E+08         0.71318E+05         0.00000E+00
    0.71318E+05        -0.50005E+08         0.00000E+00
    0.00000E+00         0.00000E+00        -0.50029E+08
 
   -0.50051E+08         0.73562E+05         0.00000E+00
    0.73562E+05        -0.50005E+08         0.00000E+00
    0.00000E+00         0.00000E+00        -0.50028E+08
 
   -0.50050E+08         0.75753E+05         0.00000E+00
    0.75753E+05        -0.50005E+08         0.00000E+00
    0.00000E+00         0.00000E+00        -0.50028E+08
 
   -0.50049E+08         0.77891E+05         0.00000E+00
    0.77891E+05        -0.50006E+08         0.00000E+00
    0.00000E+00         0.00000E+00        -0.50027E+08
 
   -0.50047E+08         0.79973E+05         0.00000E+00
    0.79973E+05        -0.50006E+08         0.00000E+00
    0.00000E+00         0.00000E+00        -0.50027E+08
 
   -0.50046E+08         0.82000E+05         0.00000E+00
    0.82000E+05        -0.50006E+08         0.00000E+00
    0.00000E+00         0.00000E+00        -0.50026E+08
 
   -0.50045E+08         0.83970E+05         0.00000E+00
    0.83970E+05        -0.50007E+08         0.00000E+00
    0.00000E+00         0.00000E+00        -0.50026E+08
 
   -0.50043E+08         0.85883E+05         0.00000E+00
    0.85883E+05        -0.50007E+08         0.00000E+00
    0.00000E+00         0.00000E+00        -0.50025E+08
 
   -0.50042E+08         0.87737E+05         0.00000E+00
    0.87737E+05        -0.50008E+08         0.00000E+00
    0.00000E+00         0.00000E+00        -0.50025E+08
 
   -0.50041E+08         0.89533E+05         0.00000E+00
    0.89533E+05        -0.50008E+08         0.00000E+00
    0.00000E+00         0.00000E+00        -0.50025E+08
 
   -0.50039E+08         0.91268E+05         0.00000E+00
    0.91268E+05        -0.50009E+08         0.00000E+00
    0.00000E+00         0.00000E+00        -0.50024E+08
 
   -0.50038E+08         0.92944E+05         0.00000E+00
    0.92944E+05        -0.50009E+08         0.00000E+00
    0.00000E+00         0.00000E+00        -0.50024E+08
 
   -0.50036E+08         0.94559E+05         0.00000E+00
    0.94559E+05        -0.50010E+08         0.00000E+00
    0.00000E+00         0.00000E+00        -0.50023E+08
 
   -0.50035E+08         0.96112E+05         0.00000E+00
    0.96112E+05        -0.50010E+08         0.00000E+00
    0.00000E+00         0.00000E+00        -0.50023E+08
 
   -0.50034E+08         0.97604E+05         0.00000E+00
    0.97604E+05        -0.50011E+08         0.00000E+00
    0.00000E+00         0.00000E+00        -0.50022E+08
 
   -0.50032E+08         0.99035E+05         0.00000E+00
    0.99035E+05        -0.50011E+08         0.00000E+00
    0.00000E+00         0.00000E+00        -0.50022E+08
 
   -0.50031E+08         0.10040E+06         0.00000E+00
    0.10040E+06        -0.50012E+08         0.00000E+00
    0.00000E+00         0.00000E+00        -0.50022E+08
 
   -0.50029E+08         0.10171E+06         0.00000E+00
    0.10171E+06        -0.50012E+08         0.00000E+00
    0.00000E+00         0.00000E+00        -0.50021E+08
 
   -0.50028E+08         0.10295E+06         0.00000E+00
    0.10295E+06        -0.50013E+08         0.00000E+00
    0.00000E+00         0.00000E+00        -0.50021E+08
 
   -0.50027E+08         0.10414E+06         0.00000E+00
    0.10414E+06        -0.50013E+08         0.00000E+00
    0.00000E+00         0.00000E+00        -0.50021E+08
 
   -0.50025E+08         0.10526E+06         0.00000E+00
    0.10526E+06        -0.50014E+08         0.00000E+00
    0.00000E+00         0.00000E+00        -0.50020E+08
 
   -0.50024E+08         0.10632E+06         0.00000E+00
    0.10632E+06        -0.50014E+08         0.00000E+00
    0.00000E+00         0.00000E+00        -0.50020E+08
 
   -0.50022E+08         0.10733E+06         0.00000E+00
    0.10733E+06        -0.50015E+08         0.00000E+00
    0.00000E+00         0.00000E+00        -0.50020E+08
 
   -0.50021E+08         0.10827E+06         0.00000E+00
    0.10827E+06        -0.50015E+08         0.00000E+00
    0.00000E+00         0.00000E+00        -0.50019E+08
 
   -0.50020E+08         0.10916E+06         0.00000E+00
    0.10916E+06        -0.50016E+08         0.00000E+00
    0.00000E+00         0.00000E+00        -0.50019E+08
 
   -0.50058E+08         0.15590E+04         0.00000E+00
    0.15590E+04        -0.50000E+08         0.00000E+00
    0.00000E+00         0.00000E+00        -0.50028E+08
 
   -0.50057E+08         0.46435E+04         0.00000E+00
    0.46435E+04        -0.50000E+08         0.00000E+00
    0.00000E+00         0.00000E+00        -0.50028E+08
 
   -0.50057E+08         0.77110E+04         0.00000E+00
    0.77110E+04        -0.50000E+08         0.00000E+00
    0.00000E+00         0.00000E+00        -0.50028E+08
 
   -0.50057E+08         0.10760E+05         0.00000E+00
    0.10760E+05        -0.50000E+08         0.00000E+00
    0.00000E+00         0.00000E+00        -0.50028E+08
 
   -0.50056E+08         0.13787E+05         0.00000E+00
    0.13787E+05        -0.50000E+08         0.00000E+00
    0.00000E+00         0.00000E+00        -0.50028E+08
 
   -0.50056E+08         0.16793E+05         0.00000E+00
    0.16793E+05        -0.50000E+08         0.00000E+00
    0.00000E+00         0.00000E+00        -0.50028E+08
 
   -0.50055E+08         0.19773E+05         0.00000E+00
    0.19773E+05        -0.50000E+08         0.00000E+00
    0.00000E+00         0.00000E+00        -0.50028E+08
 
   -0.50055E+08         0.22728E+05         0.00000E+00
    0.22728E+05        -0.50000E+08         0.00000E+00
    0.00000E+00         0.00000E+00        -0.50027E+08
 
   -0.50054E+08         0.25654E+05         0.00000E+00
    0.25654E+05        -0.50000E+08         0.00000E+00
    0.00000E+00         0.00000E+00        -0.50027E+08
 
   -0.50054E+08         0.28552E+05         0.00000E+00
    0.28552E+05        -0.50001E+08         0.00000E+00
    0.00000E+00         0.00000E+00        -0.50027E+08
 
   -0.50053E+08         0.31418E+05         0.00000E+00
    0.31418E+05        -0.50001E+08         0.00000E+00
    0.00000E+00         0.00000E+00        -0.50027E+08
 
   -0.50053E+08         0.34252E+05         0.00000E+00
    0.34252E+05        -0.50001E+08         0.00000E+00
    0.00000E+00         0.00000E+00        -0.50027E+08
 
   -0.50052E+08         0.37051E+05         0.00000E+00
    0.37051E+05        -0.50001E+08         0.00000E+00
    0.00000E+00         0.00000E+00        -0.50026E+08
 
   -0.50051E+08         0.39816E+05         0.00000E+00
    0.39816E+05        -0.50001E+08         0.00000E+00
    0.00000E+00         0.00000E+00        -0.50026E+08
 
   -0.50051E+08         0.42543E+05         0.00000E+00
    0.42543E+05        -0.50001E+08         0.00000E+00
    0.00000E+00         0.00000E+00        -0.50026E+08
 
   -0.50050E+08         0.45233E+05         0.00000E+00
    0.45233E+05        -0.50001E+08         0.00000E+00
    0.00000E+00         0.00000E+00        -0.50026E+08
 
   -0.50049E+08         0.47883E+05         0.00000E+00
    0.47883E+05        -0.50002E+08         0.00000E+00
    0.00000E+00         0.00000E+00        -0.50025E+08
 
   -0.50048E+08         0.50492E+05         0.00000E+00
    0.50492E+05        -0.50002E+08         0.00000E+00
    0.00000E+00         0.00000E+00        -0.50025E+08
 
   -0.50047E+08         0.53060E+05         0.00000E+00
    0.53060E+05        -0.50002E+08         0.00000E+00
    0.00000E+00         0.00000E+00        -0.50025E+08
 
   -0.50047E+08         0.55584E+05         0.00000E+00
    0.55584E+05        -0.50002E+08         0.00000E+00
    0.00000E+00         0.00000E+00        -0.50024E+08
 
   -0.50046E+08         0.58064E+05         0.00000E+00
    0.58064E+05        -0.50002E+08         0.00000E+00
    0.00000E+00         0.00000E+00        -0.50024E+08
 
   -0.50045E+08         0.60499E+05         0.00000E+00
    0.60499E+05        -0.50003E+08         0.00000E+00
    0.00000E+00         0.00000E+00        -0.50024E+08
 
   -0.50044E+08         0.62887E+05         0.00000E+00
    0.62887E+05        -0.50003E+08         0.00000E+00
    0.00000E+00         0.00000E+00        -0.50023E+08
 
   -0.50043E+08         0.65227E+05         0.00000E+00
    0.65227E+05        -0.50003E+08         0.00000E+00
    0.00000E+00         0.00000E+00        -0.50023E+08
 
   -0.50042E+08         0.67519E+05         0.00000E+00
    0.67519E+05        -0.50003E+08         0.00000E+00
    0.00000E+00         0.00000E+00        -0.50023E+08
 
   -0.50041E+08         0.69760E+05         0.00000E+00
    0.69760E+05        -0.50004E+08         0.00000E+00
    0.00000E+00         0.00000E+00        -0.50022E+08
 
   -0.50040E+08         0.71951E+05         0.00000E+00
    0.71951E+05        -0.50004E+08         0.00000E+00
    0.00000E+00         0.00000E+00        -0.50022E+08
 
   -0.50039E+08         0.74089E+05         0.00000E+00
    0.74089E+05        -0.50004E+08         0.00000E+00
    0.00000E+00         0.00000E+00        -0.50022E+08
 
   -0.50038E+08         0.76175E+05         0.00000E+00
    0.76175E+05        -0.50004E+08         0.00000E+00
    0.00000E+00         0.00000E+00        -0.50021E+08
 
   -0.50037E+08         0.78207E+05         0.00000E+00
    0.78207E+05        -0.50005E+08         0.00000E+00
    0.00000E+00         0.00000E+00        -0.50021E+08
 
   -0.50036E+08         0.80185E+05         0.00000E+00
    0.80185E+05        -0.50005E+08         0.00000E+00
    0.00000E+00         0.00000E+00        -0.50021E+08
 
   -0.50035E+08         0.82107E+05         0.00000E+00
    0.82107E+05        -0.50005E+08         0.00000E+00
    0.00000E+00         0.00000E+00        -0.50020E+08
 
   -0.50034E+08         0.83972E+05         0.00000E+00
    0.83972E+05        -0.50006E+08         0.00000E+00
    0.00000E+00         0.00000E+00        -0.50020E+08
 
   -0.50033E+08         0.85781E+05         0.00000E+00
    0.85781E+05        -0.50006E+08         0.00000E+00
    0.00000E+00         0.00000E+00        -0.50020E+08
 
   -0.50032E+08         0.87532E+05         0.00000E+00
    0.87532E+05        -0.50006E+08         0.00000E+00
    0.00000E+00         0.00000E+00        -0.50019E+08
 
   -0.50031E+08         0.89225E+05         0.00000E+00
    0.89225E+05        -0.50007E+08         0.00000E+00
    0.00000E+00         0.00000E+00        -0.50019E+08
 
   -0.50030E+08         0.90859E+05         0.00000E+00
    0.90859E+05        -0.50007E+08         0.00000E+00
    0.00000E+00         0.00000E+00        -0.50019E+08
 
   -0.50029E+08         0.92433E+05         0.00000E+00
    0.92433E+05        -0.50008E+08         0.00000E+00
    0.00000E+00         0.00000E+00        -0.50018E+08
 
   -0.50028E+08         0.93948E+05         0.00000E+00
    0.93948E+05        -0.50008E+08         0.00000E+00
    0.00000E+00         0.00000E+00        -0.50018E+08
 
   -0.50026E+08         0.95403E+05         0.00000E+00
    0.95403E+05        -0.50008E+08         0.00000E+00
    0.00000E+00         0.00000E+00        -0.50018E+08
 
   -0.50025E+08         0.96798E+05         0.00000E+00
    0.96798E+05        -0.50009E+08         0.00000E+00
    0.00000E+00         0.00000E+00        -0.50017E+08
 
   -0.50024E+08         0.98133E+05         0.00000E+00
    0.98133E+05        -0.50009E+08         0.00000E+00
    0.00000E+00         0.00000E+00        -0.50017E+08
 
   -0.50023E+08         0.99407E+05         0.00000E+00
    0.99407E+05        -0.50009E+08         0.00000E+00
    0.00000E+00         0.00000E+00        -0.50017E+08
 
   -0.50022E+08         0.10062E+06         0.00000E+00
    0.10062E+06        -0.50010E+08         0.00000E+00
    0.00000E+00         0.00000E+00        -0.50016E+08
 
   -0.50021E+08         0.10178E+06         0.00000E+00
    0.10178E+06        -0.50010E+08         0.00000E+00
    0.00000E+00         0.00000E+00        -0.50016E+08
 
   -0.50020E+08         0.10287E+06         0.00000E+00
    0.10287E+06        -0.50011E+08         0.00000E+00
    0.00000E+00         0.00000E+00        -0.50016E+08
 
   -0.50019E+08         0.10391E+06         0.00000E+00
    0.10391E+06        -0.50011E+08         0.00000E+00
    0.00000E+00         0.00000E+00        -0.50016E+08
 
   -0.50018E+08         0.10489E+06         0.00000E+00
    0.10489E+06        -0.50012E+08         0.00000E+00
    0.00000E+00         0.00000E+00        -0.50015E+08
 
   -0.50017E+08         0.10581E+06         0.00000E+00
    0.10581E+06        -0.50012E+08         0.00000E+00
    0.00000E+00         0.00000E+00        -0.50015E+08
 
   -0.50016E+08         0.10668E+06         0.00000E+00
    0.10668E+06        -0.50012E+08         0.00000E+00
    0.00000E+00         0.00000E+00        -0.50015E+08
 
   -0.50042E+08         0.15334E+04         0.00000E+00
    0.15334E+04        -0.50000E+08         0.00000E+00
    0.00000E+00         0.00000E+00        -0.50021E+08
 
   -0.50042E+08         0.45674E+04         0.00000E+00
    0.45674E+04        -0.50000E+08         0.00000E+00
    0.00000E+00         0.00000E+00        -0.50021E+08
 
   -0.50042E+08         0.75847E+04         0.00000E+00
    0.75847E+04        -0.50000E+08         0.00000E+00
    0.00000E+00         0.00000E+00        -0.50021E+08
 
   -0.50042E+08         0.10583E+05         0.00000E+00
    0.10583E+05        -0.50000E+08         0.00000E+00
    0.00000E+00         0.00000E+00        -0.50021E+08
 
   -0.50041E+08         0.13561E+05         0.00000E+00
    0.13561E+05        -0.50000E+08         0.00000E+00
    0.00000E+00         0.00000E+00        -0.50021E+08
 
   -0.50041E+08         0.16517E+05         0.00000E+00
    0.16517E+05        -0.50000E+08         0.00000E+00
    0.00000E+00         0.00000E+00        -0.50020E+08
 
   -0.50041E+08         0.19449E+05         0.00000E+00
    0.19449E+05        -0.50000E+08         0.00000E+00
    0.00000E+00         0.00000E+00        -0.50020E+08
 
   -0.50040E+08         0.22354E+05         0.00000E+00
    0.22354E+05        -0.50000E+08         0.00000E+00
    0.00000E+00         0.00000E+00        -0.50020E+08
 
   -0.50040E+08         0.25232E+05         0.00000E+00
    0.25232E+05        -0.50000E+08         0.00000E+00
    0.00000E+00         0.00000E+00        -0.50020E+08
 
   -0.50040E+08         0.28081E+05         0.00000E+00
    0.28081E+05        -0.50000E+08         0.00000E+00
    0.00000E+00         0.00000E+00        -0.50020E+08
 
   -0.50039E+08         0.30899E+05         0.00000E+00
    0.30899E+05        -0.50000E+08         0.00000E+00
    0.00000E+00         0.00000E+00        -0.50020E+08
 
   -0.50039E+08         0.33685E+05         0.00000E+00
    0.33685E+05        -0.50001E+08         0.00000E+00
    0.00000E+00         0.00000E+00        -0.50020E+08
 
   -0.50038E+08         0.36438E+05         0.00000E+00
    0.36438E+05        -0.50001E+08         0.00000E+00
    0.00000E+00         0.00000E+00        -0.50019E+08
 
   -0.50038E+08         0.39155E+05         0.00000E+00
    0.39155E+05        -0.50001E+08         0.00000E+00
    0.00000E+00         0.00000E+00        -0.50019E+08
 
   -0.50037E+08         0.41836E+05         0.00000E+00
    0.41836E+05        -0.50001E+08         0.00000E+00
    0.00000E+00         0.00000E+00        -0.50019E+08
 
   -0.50037E+08         0.44479E+05         0.00000E+00
    0.44479E+05        -0.50001E+08         0.00000E+00
    0.00000E+00         0.00000E+00        -0.50019E+08
 
   -0.50036E+08         0.47083E+05         0.00000E+00
    0.47083E+05        -0.50001E+08         0.00000E+00
    0.00000E+00         0.00000E+00        -0.50019E+08
 
   -0.50035E+08         0.49647E+05         0.00000E+00
    0.49647E+05        -0.50001E+08         0.00000E+00
    0.00000E+00         0.00000E+00        -0.50018E+08
 
   -0.50035E+08         0.52170E+05         0.00000E+00
    0.52170E+05        -0.50001E+08         0.00000E+00
    0.00000E+00         0.00000E+00        -0.50018E+08
 
   -0.50034E+08         0.54649E+05         0.00000E+00
    0.54649E+05        -0.50002E+08         0.00000E+00
    0.00000E+00         0.00000E+00        -0.50018E+08
 
   -0.50034E+08         0.57085E+05         0.00000E+00
    0.57085E+05        -0.50002E+08         0.00000E+00
    0.00000E+00         0.00000E+00        -0.50018E+08
 
   -0.50033E+08         0.59476E+05         0.00000E+00
    0.59476E+05        -0.50002E+08         0.00000E+00
    0.00000E+00         0.00000E+00        -0.50017E+08
 
   -0.50032E+08         0.61821E+05         0.00000E+00
    0.61821E+05        -0.50002E+08         0.00000E+00
    0.00000E+00         0.00000E+00        -0.50017E+08
 
   -0.50032E+08         0.64118E+05         0.00000E+00
    0.64118E+05        -0.50002E+08         0.00000E+00
    0.00000E+00         0.00000E+00        -0.50017E+08
 
   -0.50031E+08         0.66368E+05         0.00000E+00
    0.66368E+05        -0.50002E+08         0.00000E+00
    0.00000E+00         0.00000E+00        -0.50017E+08
 
   -0.50030E+08         0.68568E+05         0.00000E+00
    0.68568E+05        -0.50003E+08         0.00000E+00
    0.00000E+00         0.00000E+00        -0.50016E+08
 
   -0.50030E+08         0.70718E+05         0.00000E+00
    0.70718E+05        -0.50003E+08         0.00000E+00
    0.00000E+00         0.00000E+00        -0.50016E+08
 
   -0.50029E+08         0.72817E+05         0.00000E+00
    0.72817E+05        -0.50003E+08         0.00000E+00
    0.00000E+00         0.00000E+00        -0.50016E+08
 
   -0.50028E+08         0.74864E+05         0.00000E+00
    0.74864E+05        -0.50003E+08         0.00000E+00
    0.00000E+00         0.00000E+00        -0.50016E+08
 
   -0.50027E+08         0.76858E+05         0.00000E+00
    0.76858E+05        -0.50004E+08         0.00000E+00
    0.00000E+00         0.00000E+00        -0.50015E+08
 
   -0.50027E+08         0.78798E+05         0.00000E+00
    0.78798E+05        -0.50004E+08         0.00000E+00
    0.00000E+00         0.00000E+00        -0.50015E+08
 
   -0.50026E+08         0.80683E+05         0.00000E+00
    0.80683E+05        -0.50004E+08         0.00000E+00
    0.00000E+00         0.00000E+00        -0.50015E+08
 
   -0.50025E+08         0.82513E+05         0.00000E+00
    0.82513E+05        -0.50004E+08         0.00000E+00
    0.00000E+00         0.00000E+00        -0.50015E+08
 
   -0.50024E+08         0.84287E+05         0.00000E+00
    0.84287E+05        -0.50004E+08         0.00000E+00
    0.00000E+00         0.00000E+00        -0.50014E+08
 
   -0.50023E+08         0.86005E+05         0.00000E+00
    0.86005E+05        -0.50005E+08         0.00000E+00
    0.00000E+00         0.00000E+00        -0.50014E+08
 
   -0.50023E+08         0.87665E+05         0.00000E+00
    0.87665E+05        -0.50005E+08         0.00000E+00
    0.00000E+00         0.00000E+00        -0.50014E+08
 
   -0.50022E+08         0.89268E+05         0.00000E+00
    0.89268E+05        -0.50005E+08         0.00000E+00
    0.00000E+00         0.00000E+00        -0.50014E+08
 
   -0.50021E+08         0.90812E+05         0.00000E+00
    0.90812E+05        -0.50006E+08         0.00000E+00
    0.00000E+00         0.00000E+00        -0.50013E+08
 
   -0.50020E+08         0.92298E+05         0.00000E+00
    0.92298E+05        -0.50006E+08         0.00000E+00
    0.00000E+00         0.00000E+00        -0.50013E+08
 
   -0.50019E+08         0.93725E+05         0.00000E+00
    0.93725E+05        -0.50006E+08         0.00000E+00
    0.00000E+00         0.00000E+00        -0.50013E+08
 
   -0.50019E+08         0.95093E+05         0.00000E+00
    0.95093E+05        -0.50006E+08         0.00000E+00
    0.00000E+00         0.00000E+00        -0.50013E+08
 
   -0.50018E+08         0.96403E+05         0.00000E+00
    0.96403E+05        -0.50007E+08         0.00000E+00
    0.00000E+00         0.00000E+00        -0.50012E+08
 
   -0.50017E+08         0.97653E+05         0.00000E+00
    0.97653E+05        -0.50007E+08         0.00000E+00
    0.00000E+00         0.00000E+00        -0.50012E+08
 
   -0.50016E+08         0.98845E+05         0.00000E+00
    0.98845E+05        -0.50007E+08         0.00000E+00
    0.00000E+00         0.00000E+00        -0.50012E+08
 
   -0.50015E+08         0.99979E+05         0.00000E+00
    0.99979E+05        -0.50008E+08         0.00000E+00
    0.00000E+00         0.00000E+00        -0.50012E+08
 
   -0.50014E+08         0.10105E+06         0.00000E+00
    0.10105E+06        -0.50008E+08         0.00000E+00
    0.00000E+00         0.00000E+00        -0.50012E+08
 
   -0.50014E+08         0.10207E+06         0.00000E+00
    0.10207E+06        -0.50008E+08         0.00000E+00
    0.00000E+00         0.00000E+00        -0.50012E+08
 
   -0.50013E+08         0.10304E+06         0.00000E+00
    0.10304E+06        -0.50009E+08         0.00000E+00
    0.00000E+00         0.00000E+00        -0.50011E+08
 
   -0.50012E+08         0.10394E+06         0.00000E+00
    0.10394E+06        -0.50009E+08         0.00000E+00
    0.00000E+00         0.00000E+00        -0.50011E+08
 
   -0.50011E+08         0.10480E+06         0.00000E+00
    0.10480E+06        -0.50009E+08         0.00000E+00
    0.00000E+00         0.00000E+00        -0.50011E+08
 
   -0.50027E+08         0.15155E+04         0.00000E+00
    0.15155E+04        -0.50000E+08         0.00000E+00
    0.00000E+00         0.00000E+00        -0.50013E+08
 
   -0.50027E+08         0.45142E+04         0.00000E+00
    0.45142E+04        -0.50000E+08         0.00000E+00
    0.00000E+00         0.00000E+00        -0.50013E+08
 
   -0.50027E+08         0.74964E+04         0.00000E+00
    0.74964E+04        -0.50000E+08         0.00000E+00
    0.00000E+00         0.00000E+00        -0.50013E+08
 
   -0.50027E+08         0.10460E+05         0.00000E+00
    0.10460E+05        -0.50000E+08         0.00000E+00
    0.00000E+00         0.00000E+00        -0.50013E+08
 
   -0.50027E+08         0.13404E+05         0.00000E+00
    0.13404E+05        -0.50000E+08         0.00000E+00
    0.00000E+00         0.00000E+00        -0.50013E+08
 
   -0.50026E+08         0.16325E+05         0.00000E+00
    0.16325E+05        -0.50000E+08         0.00000E+00
    0.00000E+00         0.00000E+00        -0.50013E+08
 
   -0.50026E+08         0.19222E+05         0.00000E+00
    0.19222E+05        -0.50000E+08         0.00000E+00
    0.00000E+00         0.00000E+00        -0.50013E+08
 
   -0.50026E+08         0.22094E+05         0.00000E+00
    0.22094E+05        -0.50000E+08         0.00000E+00
    0.00000E+00         0.00000E+00        -0.50013E+08
 
   -0.50026E+08         0.24938E+05         0.00000E+00
    0.24938E+05        -0.50000E+08         0.00000E+00
    0.00000E+00         0.00000E+00        -0.50013E+08
 
   -0.50025E+08         0.27753E+05         0.00000E+00
    0.27753E+05        -0.50000E+08         0.00000E+00
    0.00000E+00         0.00000E+00        -0.50013E+08
 
   -0.50025E+08         0.30538E+05         0.00000E+00
    0.30538E+05        -0.50000E+08         0.00000E+00
    0.00000E+00         0.00000E+00        -0.50013E+08
 
   -0.50025E+08         0.33291E+05         0.00000E+00
    0.33291E+05        -0.50000E+08         0.00000E+00
    0.00000E+00         0.00000E+00        -0.50013E+08
 
   -0.50025E+08         0.36010E+05         0.00000E+00
    0.36010E+05        -0.50000E+08         0.00000E+00
    0.00000E+00         0.00000E+00        -0.50012E+08
 
   -0.50024E+08         0.38695E+05         0.00000E+00
    0.38695E+05        -0.50000E+08         0.00000E+00
    0.00000E+00         0.00000E+00        -0.50012E+08
 
   -0.50024E+08         0.41343E+05         0.00000E+00
    0.41343E+05        -0.50001E+08         0.00000E+00
    0.00000E+00         0.00000E+00        -0.50012E+08
 
   -0.50024E+08         0.43954E+05         0.00000E+00
    0.43954E+05        -0.50001E+08         0.00000E+00
    0.00000E+00         0.00000E+00        -0.50012E+08
 
   -0.50023E+08         0.46527E+05         0.00000E+00
    0.46527E+05        -0.50001E+08         0.00000E+00
    0.00000E+00         0.00000E+00        -0.50012E+08
 
   -0.50023E+08         0.49059E+05         0.00000E+00
    0.49059E+05        -0.50001E+08         0.00000E+00
    0.00000E+00         0.00000E+00        -0.50012E+08
 
   -0.50022E+08         0.51550E+05         0.00000E+00
    0.51550E+05        -0.50001E+08         0.00000E+00
    0.00000E+00         0.00000E+00        -0.50012E+08
 
   -0.50022E+08         0.53999E+05         0.00000E+00
    0.53999E+05        -0.50001E+08         0.00000E+00
    0.00000E+00         0.00000E+00        -0.50011E+08
 
   -0.50022E+08         0.56404E+05         0.00000E+00
    0.56404E+05        -0.50001E+08         0.00000E+00
    0.00000E+00         0.00000E+00        -0.50011E+08
 
   -0.50021E+08         0.58764E+05         0.00000E+00
    0.58764E+05        -0.50001E+08         0.00000E+00
    0.00000E+00         0.00000E+00        -0.50011E+08
 
   -0.50021E+08         0.61079E+05         0.00000E+00
    0.61079E+05        -0.50001E+08         0.00000E+00
    0.00000E+00         0.00000E+00        -0.50011E+08
 
   -0.50020E+08         0.63347E+05         0.00000E+00
    0.63347E+05        -0.50001E+08         0.00000E+00
    0.00000E+00         0.00000E+00        -0.50011E+08
 
   -0.50020E+08         0.65568E+05         0.00000E+00
    0.65568E+05        -0.50002E+08         0.00000E+00
    0.00000E+00         0.00000E+00        -0.50011E+08
 
   -0.50019E+08         0.67739E+05         0.00000E+00
    0.67739E+05        -0.50002E+08         0.00000E+00
    0.00000E+00         0.00000E+00        -0.50011E+08
 
   -0.50019E+08         0.69861E+05         0.00000E+00
    0.69861E+05        -0.50002E+08         0.00000E+00
    0.00000E+00         0.00000E+00        -0.50010E+08
 
   -0.50018E+08         0.71933E+05         0.00000E+00
    0.71933E+05        -0.50002E+08         0.00000E+00
    0.00000E+00         0.00000E+00        -0.50010E+08
 
   -0.50018E+08         0.73952E+05         0.00000E+00
    0.73952E+05        -0.50002E+08         0.00000E+00
    0.00000E+00         0.00000E+00        -0.50010E+08
 
   -0.50018E+08         0.75919E+05         0.00000E+00
    0.75919E+05        -0.50002E+08         0.00000E+00
    0.00000E+00         0.00000E+00        -0.50010E+08
 
   -0.50017E+08         0.77834E+05         0.00000E+00
    0.77834E+05        -0.50002E+08         0.00000E+00
    0.00000E+00         0.00000E+00        -0.50010E+08
 
   -0.50017E+08         0.79694E+05         0.00000E+00
    0.79694E+05        -0.50003E+08         0.00000E+00
    0.00000E+00         0.00000E+00        -0.50010E+08
 
   -0.50016E+08         0.81499E+05         0.00000E+00
    0.81499E+05        -0.50003E+08         0.00000E+00
    0.00000E+00         0.00000E+00        -0.50009E+08
 
   -0.50016E+08         0.83249E+05         0.00000E+00
    0.83249E+05        -0.50003E+08         0.00000E+00
    0.00000E+00         0.00000E+00        -0.50009E+08
 
   -0.50015E+08         0.84944E+05         0.00000E+00
    0.84944E+05        -0.50003E+08         0.00000E+00
    0.00000E+00         0.00000E+00        -0.50009E+08
 
   -0.50015E+08         0.86581E+05         0.00000E+00
    0.86581E+05        -0.50003E+08         0.00000E+00
    0.00000E+00         0.00000E+00        -0.50009E+08
 
   -0.50014E+08         0.88162E+05         0.00000E+00
    0.88162E+05        -0.50003E+08         0.00000E+00
    0.00000E+00         0.00000E+00        -0.50009E+08
 
   -0.50013E+08         0.89686E+05         0.00000E+00
    0.89686E+05        -0.50004E+08         0.00000E+00
    0.00000E+00         0.00000E+00        -0.50009E+08
 
   -0.50013E+08         0.91152E+05         0.00000E+00
    0.91152E+05        -0.50004E+08         0.00000E+00
    0.00000E+00         0.00000E+00        -0.50008E+08
 
   -0.50012E+08         0.92560E+05         0.00000E+00
    0.92560E+05        -0.50004E+08         0.00000E+00
    0.00000E+00         0.00000E+00        -0.50008E+08
 
   -0.50012E+08         0.93910E+05         0.00000E+00
    0.93910E+05        -0.50004E+08         0.00000E+00
    0.00000E+00         0.00000E+00        -0.50008E+08
 
   -0.50011E+08         0.95202E+05         0.00000E+00
    0.95202E+05        -0.50004E+08         0.00000E+00
    0.00000E+00         0.00000E+00        -0.50008E+08
 
   -0.50011E+08         0.96436E+05         0.00000E+00
    0.96436E+05        -0.50004E+08         0.00000E+00
    0.00000E+00         0.00000E+00        -0.50008E+08
 
   -0.50010E+08         0.97612E+05         0.00000E+00
    0.97612E+05        -0.50005E+08         0.00000E+00
    0.00000E+00         0.00000E+00        -0.50008E+08
 
   -0.50010E+08         0.98732E+05         0.00000E+00
    0.98732E+05        -0.50005E+08         0.00000E+00
    0.00000E+00         0.00000E+00        -0.50008E+08
 
   -0.50009E+08         0.99794E+05         0.00000E+00
    0.99794E+05        -0.50005E+08         0.00000E+00
    0.00000E+00         0.00000E+00        -0.50007E+08
 
   -0.50009E+08         0.10080E+06         0.00000E+00
    0.10080E+06        -0.50005E+08         0.00000E+00
    0.00000E+00         0.00000E+00        -0.50007E+08
 
   -0.50008E+08         0.10175E+06         0.00000E+00
    0.10175E+06        -0.50005E+08         0.00000E+00
    0.00000E+00         0.00000E+00        -0.50007E+08
 
   -0.50008E+08         0.10265E+06         0.00000E+00
    0.10265E+06        -0.50006E+08         0.00000E+00
    0.00000E+00         0.00000E+00        -0.50007E+08
 
   -0.50007E+08         0.10349E+06         0.00000E+00
    0.10349E+06        -0.50006E+08         0.00000E+00
    0.00000E+00         0.00000E+00        -0.50007E+08
 
   -0.50012E+08         0.15054E+04         0.00000E+00
    0.15054E+04        -0.50000E+08         0.00000E+00
    0.00000E+00         0.00000E+00        -0.50006E+08
 
   -0.50012E+08         0.44842E+04         0.00000E+00
    0.44842E+04        -0.50000E+08         0.00000E+00
    0.00000E+00         0.00000E+00        -0.50006E+08
 
   -0.50012E+08         0.74467E+04         0.00000E+00
    0.74467E+04        -0.50000E+08         0.00000E+00
    0.00000E+00         0.00000E+00        -0.50006E+08
 
   -0.50012E+08         0.10391E+05         0.00000E+00
    0.10391E+05        -0.50000E+08         0.00000E+00
    0.00000E+00         0.00000E+00        -0.50006E+08
 
   -0.50012E+08         0.13315E+05         0.00000E+00
    0.13315E+05        -0.50000E+08         0.00000E+00
    0.00000E+00         0.00000E+00        -0.50006E+08
 
   -0.50012E+08         0.16217E+05         0.00000E+00
    0.16217E+05        -0.50000E+08         0.00000E+00
    0.00000E+00         0.00000E+00        -0.50006E+08
 
   -0.50012E+08         0.19095E+05         0.00000E+00
    0.19095E+05        -0.50000E+08         0.00000E+00
    0.00000E+00         0.00000E+00        -0.50006E+08
 
   -0.50012E+08         0.21948E+05         0.00000E+00
    0.21948E+05        -0.50000E+08         0.00000E+00
    0.00000E+00         0.00000E+00        -0.50006E+08
 
   -0.50012E+08         0.24773E+05         0.00000E+00
    0.24773E+05        -0.50000E+08         0.00000E+00
    0.00000E+00         0.00000E+00        -0.50006E+08
 
   -0.50011E+08         0.27569E+05         0.00000E+00
    0.27569E+05        -0.50000E+08         0.00000E+00
    0.00000E+00         0.00000E+00        -0.50006E+08
 
   -0.50011E+08         0.30335E+05         0.00000E+00
    0.30335E+05        -0.50000E+08         0.00000E+00
    0.00000E+00         0.00000E+00        -0.50006E+08
 
   -0.50011E+08         0.33070E+05         0.00000E+00
    0.33070E+05        -0.50000E+08         0.00000E+00
    0.00000E+00         0.00000E+00        -0.50006E+08
 
   -0.50011E+08         0.35770E+05         0.00000E+00
    0.35770E+05        -0.50000E+08         0.00000E+00
    0.00000E+00         0.00000E+00        -0.50006E+08
 
   -0.50011E+08         0.38437E+05         0.00000E+00
    0.38437E+05        -0.50000E+08         0.00000E+00
    0.00000E+00         0.00000E+00        -0.50006E+08
 
   -0.50011E+08         0.41067E+05         0.00000E+00
    0.41067E+05        -0.50000E+08         0.00000E+00
    0.00000E+00         0.00000E+00        -0.50005E+08
 
   -0.50011E+08         0.43660E+05         0.00000E+00
    0.43660E+05        -0.50000E+08         0.00000E+00
    0.00000E+00         0.00000E+00        -0.50005E+08
 
   -0.50010E+08         0.46214E+05         0.00000E+00
    0.46214E+05        -0.50000E+08         0.00000E+00
    0.00000E+00         0.00000E+00        -0.50005E+08
 
   -0.50010E+08         0.48728E+05         0.00000E+00
    0.48728E+05        -0.50000E+08         0.00000E+00
    0.00000E+00         0.00000E+00        -0.50005E+08
 
   -0.50010E+08         0.51202E+05         0.00000E+00
    0.51202E+05        -0.50000E+08         0.00000E+00
    0.00000E+00         0.00000E+00        -0.50005E+08
 
   -0.50010E+08         0.53633E+05         0.00000E+00
    0.53633E+05        -0.50000E+08         0.00000E+00
    0.00000E+00         0.00000E+00        -0.50005E+08
 
   -0.50010E+08         0.56020E+05         0.00000E+00
    0.56020E+05        -0.50000E+08         0.00000E+00
    0.00000E+00         0.00000E+00        -0.50005E+08
 
   -0.50010E+08         0.58364E+05         0.00000E+00
    0.58364E+05        -0.50001E+08         0.00000E+00
    0.00000E+00         0.00000E+00        -0.50005E+08
 
   -0.50009E+08         0.60662E+05         0.00000E+00
    0.60662E+05        -0.50001E+08         0.00000E+00
    0.00000E+00         0.00000E+00        -0.50005E+08
 
   -0.50009E+08         0.62913E+05         0.00000E+00
    0.62913E+05        -0.50001E+08         0.00000E+00
    0.00000E+00         0.00000E+00        -0.50005E+08
 
   -0.50009E+08         0.65117E+05         0.00000E+00
    0.65117E+05        -0.50001E+08         0.00000E+00
    0.00000E+00         0.00000E+00        -0.50005E+08
 
   -0.50009E+08         0.67272E+05         0.00000E+00
    0.67272E+05        -0.50001E+08         0.00000E+00
    0.00000E+00         0.00000E+00        -0.50005E+08
 
   -0.50009E+08         0.69378E+05         0.00000E+00
    0.69378E+05        -0.50001E+08         0.00000E+00
    0.00000E+00         0.00000E+00        -0.50005E+08
 
   -0.50008E+08         0.71433E+05         0.00000E+00
    0.71433E+05        -0.50001E+08         0.00000E+00
    0.00000E+00         0.00000E+00        -0.50005E+08
 
   -0.50008E+08         0.73437E+05         0.00000E+00
    0.73437E+05        -0.50001E+08         0.00000E+00
    0.00000E+00         0.00000E+00        -0.50005E+08
 
   -0.50008E+08         0.75389E+05         0.00000E+00
    0.75389E+05        -0.50001E+08         0.00000E+00
    0.00000E+00         0.00000E+00        -0.50004E+08
 
   -0.50008E+08         0.77289E+05         0.00000E+00
    0.77289E+05        -0.50001E+08         0.00000E+00
    0.00000E+00         0.00000E+00        -0.50004E+08
 
   -0.50007E+08         0.79134E+05         0.00000E+00
    0.79134E+05        -0.50001E+08         0.00000E+00
    0.00000E+00         0.00000E+00        -0.50004E+08
 
   -0.50007E+08         0.80926E+05         0.00000E+00
    0.80926E+05        -0.50001E+08         0.00000E+00
    0.00000E+00         0.00000E+00        -0.50004E+08
 
   -0.50007E+08         0.82662E+05         0.00000E+00
    0.82662E+05        -0.50001E+08         0.00000E+00
    0.00000E+00         0.00000E+00        -0.50004E+08
 
   -0.50007E+08         0.84343E+05         0.00000E+00
    0.84343E+05        -0.50001E+08         0.00000E+00
    0.00000E+00         0.00000E+00        -0.50004E+08
 
   -0.50007E+08         0.85968E+05         0.00000E+00
    0.85968E+05        -0.50001E+08         0.00000E+00
    0.00000E+00         0.00000E+00        -0.50004E+08
 
   -0.50006E+08         0.87536E+05         0.00000E+00
    0.87536E+05        -0.50001E+08         0.00000E+00
    0.00000E+00         0.00000E+00        -0.50004E+08
 
   -0.50006E+08         0.89048E+05         0.00000E+00
    0.89048E+05        -0.50002E+08         0.00000E+00
    0.00000E+00         0.00000E+00        -0.50004E+08
 
   -0.50006E+08         0.90502E+05         0.00000E+00
    0.90502E+05        -0.50002E+08         0.00000E+00
    0.00000E+00         0.00000E+00        -0.50004E+08
 
   -0.50006E+08         0.91900E+05         0.00000E+00
    0.91900E+05        -0.50002E+08         0.00000E+00
    0.00000E+00         0.00000E+00        -0.50004E+08
 
   -0.50005E+08         0.93239E+05         0.00000E+00
    0.93239E+05        -0.50002E+08         0.00000E+00
    0.00000E+00         0.00000E+00        -0.50004E+08
 
   -0.50005E+08         0.94521E+05         0.00000E+00
    0.94521E+05        -0.50002E+08         0.00000E+00
    0.00000E+00         0.00000E+00        -0.50004E+08
 
   -0.50005E+08         0.95746E+05         0.00000E+00
    0.95746E+05        -0.50002E+08         0.00000E+00
    0.00000E+00         0.00000E+00        -0.50004E+08
 
   -0.50005E+08         0.96914E+05         0.00000E+00
    0.96914E+05        -0.50002E+08         0.00000E+00
    0.00000E+00         0.00000E+00        -0.50003E+08
 
   -0.50004E+08         0.98025E+05         0.00000E+00
    0.98025E+05        -0.50002E+08         0.00000E+00
    0.00000E+00         0.00000E+00        -0.50003E+08
 
   -0.50004E+08         0.99080E+05         0.00000E+00
    0.99080E+05        -0.50002E+08         0.00000E+00
    0.00000E+00         0.00000E+00        -0.50003E+08
 
   -0.50004E+08         0.10008E+06         0.00000E+00
    0.10008E+06        -0.50002E+08         0.00000E+00
    0.00000E+00         0.00000E+00        -0.50003E+08
 
   -0.50004E+08         0.10102E+06         0.00000E+00
    0.10102E+06        -0.50002E+08         0.00000E+00
    0.00000E+00         0.00000E+00        -0.50003E+08
 
   -0.50003E+08         0.10192E+06         0.00000E+00
    0.10192E+06        -0.50003E+08         0.00000E+00
    0.00000E+00         0.00000E+00        -0.50003E+08
 
   -0.50003E+08         0.10275E+06         0.00000E+00
    0.10275E+06        -0.50003E+08         0.00000E+00
    0.00000E+00         0.00000E+00        -0.50003E+08
 
   -0.49997E+08         0.15032E+04         0.00000E+00
    0.15032E+04        -0.50000E+08         0.00000E+00
    0.00000E+00         0.00000E+00        -0.49999E+08
 
   -0.49997E+08         0.44778E+04         0.00000E+00
    0.44778E+04        -0.50000E+08         0.00000E+00
    0.00000E+00         0.00000E+00        -0.49999E+08
 
   -0.49997E+08         0.74362E+04         0.00000E+00
    0.74362E+04        -0.50000E+08         0.00000E+00
    0.00000E+00         0.00000E+00        -0.49999E+08
 
   -0.49997E+08         0.10376E+05         0.00000E+00
    0.10376E+05        -0.50000E+08         0.00000E+00
    0.00000E+00         0.00000E+00        -0.49999E+08
 
   -0.49998E+08         0.13296E+05         0.00000E+00
    0.13296E+05        -0.50000E+08         0.00000E+00
    0.00000E+00         0.00000E+00        -0.49999E+08
 
   -0.49998E+08         0.16194E+05         0.00000E+00
    0.16194E+05        -0.50000E+08         0.00000E+00
    0.00000E+00         0.00000E+00        -0.49999E+08
 
   -0.49998E+08         0.19068E+05         0.00000E+00
    0.19068E+05        -0.50000E+08         0.00000E+00
    0.00000E+00         0.00000E+00        -0.49999E+08
 
   -0.49998E+08         0.21917E+05         0.00000E+00
    0.21917E+05        -0.50000E+08         0.00000E+00
    0.00000E+00         0.00000E+00        -0.49999E+08
 
   -0.49998E+08         0.24738E+05         0.00000E+00
    0.24738E+05        -0.50000E+08         0.00000E+00
    0.00000E+00         0.00000E+00        -0.49999E+08
 
   -0.49998E+08         0.27530E+05         0.00000E+00
    0.27530E+05        -0.50000E+08         0.00000E+00
    0.00000E+00         0.00000E+00        -0.49999E+08
 
   -0.49998E+08         0.30292E+05         0.00000E+00
    0.30292E+05        -0.50000E+08         0.00000E+00
    0.00000E+00         0.00000E+00        -0.49999E+08
 
   -0.49998E+08         0.33022E+05         0.00000E+00
    0.33022E+05        -0.50000E+08         0.00000E+00
    0.00000E+00         0.00000E+00        -0.49999E+08
 
   -0.49998E+08         0.35719E+05         0.00000E+00
    0.35719E+05        -0.50000E+08         0.00000E+00
    0.00000E+00         0.00000E+00        -0.49999E+08
 
   -0.49998E+08         0.38381E+05         0.00000E+00
    0.38381E+05        -0.50000E+08         0.00000E+00
    0.00000E+00         0.00000E+00        -0.49999E+08
 
   -0.49998E+08         0.41007E+05         0.00000E+00
    0.41007E+05        -0.50000E+08         0.00000E+00
    0.00000E+00         0.00000E+00        -0.49999E+08
 
   -0.49998E+08         0.43596E+05         0.00000E+00
    0.43596E+05        -0.50000E+08         0.00000E+00
    0.00000E+00         0.00000E+00        -0.49999E+08
 
   -0.49998E+08         0.46146E+05         0.00000E+00
    0.46146E+05        -0.50000E+08         0.00000E+00
    0.00000E+00         0.00000E+00        -0.49999E+08
 
   -0.49998E+08         0.48656E+05         0.00000E+00
    0.48656E+05        -0.50000E+08         0.00000E+00
    0.00000E+00         0.00000E+00        -0.49999E+08
 
   -0.49998E+08         0.51125E+05         0.00000E+00
    0.51125E+05        -0.50000E+08         0.00000E+00
    0.00000E+00         0.00000E+00        -0.49999E+08
 
   -0.49998E+08         0.53552E+05         0.00000E+00
    0.53552E+05        -0.50000E+08         0.00000E+00
    0.00000E+00         0.00000E+00        -0.49999E+08
 
   -0.49998E+08         0.55936E+05         0.00000E+00
    0.55936E+05        -0.50000E+08         0.00000E+00
    0.00000E+00         0.00000E+00        -0.49999E+08
 
   -0.49998E+08         0.58275E+05         0.00000E+00
    0.58275E+05        -0.50000E+08         0.00000E+00
    0.00000E+00         0.00000E+00        -0.49999E+08
 
   -0.49998E+08         0.60568E+05         0.00000E+00
    0.60568E+05        -0.50000E+08         0.00000E+00
    0.00000E+00         0.00000E+00        -0.49999E+08
 
   -0.49998E+08         0.62815E+05         0.00000E+00
    0.62815E+05        -0.50000E+08         0.00000E+00
    0.00000E+00         0.00000E+00        -0.49999E+08
 
   -0.49998E+08         0.65014E+05         0.00000E+00
    0.65014E+05        -0.50000E+08         0.00000E+00
    0.00000E+00         0.00000E+00        -0.49999E+08
 
   -0.49998E+08         0.67165E+05         0.00000E+00
    0.67165E+05        -0.50000E+08         0.00000E+00
    0.00000E+00         0.00000E+00        -0.49999E+08
 
   -0.49998E+08         0.69267E+05         0.00000E+00
    0.69267E+05        -0.50000E+08         0.00000E+00
    0.00000E+00         0.00000E+00        -0.49999E+08
 
   -0.49998E+08         0.71318E+05         0.00000E+00
    0.71318E+05        -0.50000E+08         0.00000E+00
    0.00000E+00         0.00000E+00        -0.49999E+08
 
   -0.49998E+08         0.73318E+05         0.00000E+00
    0.73318E+05        -0.50000E+08         0.00000E+00
    0.00000E+00         0.00000E+00        -0.49999E+08
 
   -0.49998E+08         0.75266E+05         0.00000E+00
    0.75266E+05        -0.50000E+08         0.00000E+00
    0.00000E+00         0.00000E+00        -0.49999E+08
 
   -0.49998E+08         0.77161E+05         0.00000E+00
    0.77161E+05        -0.50000E+08         0.00000E+00
    0.00000E+00         0.00000E+00        -0.49999E+08
 
   -0.49998E+08         0.79003E+05         0.00000E+00
    0.79003E+05        -0.50000E+08         0.00000E+00
    0.00000E+00         0.00000E+00        -0.49999E+08
 
   -0.49998E+08         0.80790E+05         0.00000E+00
    0.80790E+05        -0.50000E+08         0.00000E+00
    0.00000E+00         0.00000E+00        -0.49999E+08
 
   -0.49998E+08         0.82523E+05         0.00000E+00
    0.82523E+05        -0.50000E+08         0.00000E+00
    0.00000E+00         0.00000E+00        -0.49999E+08
 
   -0.49998E+08         0.84200E+05         0.00000E+00
    0.84200E+05        -0.50000E+08         0.00000E+00
    0.00000E+00         0.00000E+00        -0.49999E+08
 
   -0.49999E+08         0.85821E+05         0.00000E+00
    0.85821E+05        -0.50000E+08         0.00000E+00
    0.00000E+00         0.00000E+00        -0.49999E+08
 
   -0.49999E+08         0.87386E+05         0.00000E+00
    0.87386E+05        -0.50000E+08         0.00000E+00
    0.00000E+00         0.00000E+00        -0.49999E+08
 
   -0.49999E+08         0.88895E+05         0.00000E+00
    0.88895E+05        -0.50000E+08         0.00000E+00
    0.00000E+00         0.00000E+00        -0.49999E+08
 
   -0.49999E+08         0.90346E+05         0.00000E+00
    0.90346E+05        -0.50000E+08         0.00000E+00
    0.00000E+00         0.00000E+00        -0.49999E+08
 
   -0.49999E+08         0.91740E+05         0.00000E+00
    0.91740E+05        -0.50000E+08         0.00000E+00
    0.00000E+00         0.00000E+00        -0.49999E+08
 
   -0.49999E+08         0.93077E+05         0.00000E+00
    0.93077E+05        -0.50000E+08         0.00000E+00
    0.00000E+00         0.00000E+00        -0.49999E+08
 
   -0.49999E+08         0.94357E+05         0.00000E+00
    0.94357E+05        -0.50000E+08         0.00000E+00
    0.00000E+00         0.00000E+00        -0.49999E+08
 
   -0.49999E+08         0.95580E+05         0.00000E+00
    0.95580E+05        -0.49999E+08         0.00000E+00
    0.00000E+00         0.00000E+00        -0.49999E+08
 
   -0.49999E+08         0.96745E+05         0.00000E+00
    0.96745E+05        -0.49999E+08         0.00000E+00
    0.00000E+00         0.00000E+00        -0.49999E+08
 
   -0.49999E+08         0.97855E+05         0.00000E+00
    0.97855E+05        -0.49999E+08         0.00000E+00
    0.00000E+00         0.00000E+00        -0.49999E+08
 
   -0.49999E+08         0.98908E+05         0.00000E+00
    0.98908E+05        -0.49999E+08         0.00000E+00
    0.00000E+00         0.00000E+00        -0.49999E+08
 
   -0.49999E+08         0.99906E+05         0.00000E+00
    0.99906E+05        -0.49999E+08         0.00000E+00
    0.00000E+00         0.00000E+00        -0.49999E+08
 
   -0.49999E+08         0.10085E+06         0.00000E+00
    0.10085E+06        -0.49999E+08         0.00000E+00
    0.00000E+00         0.00000E+00        -0.49999E+08
 
   -0.49999E+08         0.10174E+06         0.00000E+00
    0.10174E+06        -0.49999E+08         0.00000E+00
    0.00000E+00         0.00000E+00        -0.49999E+08
 
   -0.49999E+08         0.10258E+06         0.00000E+00
    0.10258E+06        -0.49999E+08         0.00000E+00
    0.00000E+00         0.00000E+00        -0.49999E+08
 
   -0.49983E+08         0.15090E+04         0.00000E+00
    0.15090E+04        -0.50000E+08         0.00000E+00
    0.00000E+00         0.00000E+00        -0.49991E+08
 
   -0.49983E+08         0.44952E+04         0.00000E+00
    0.44952E+04        -0.50000E+08         0.00000E+00
    0.00000E+00         0.00000E+00        -0.49991E+08
 
   -0.49983E+08         0.74652E+04         0.00000E+00
    0.74652E+04        -0.50000E+08         0.00000E+00
    0.00000E+00         0.00000E+00        -0.49991E+08
 
   -0.49983E+08         0.10417E+05         0.00000E+00
    0.10417E+05        -0.50000E+08         0.00000E+00
    0.00000E+00         0.00000E+00        -0.49991E+08
 
   -0.49983E+08         0.13348E+05         0.00000E+00
    0.13348E+05        -0.50000E+08         0.00000E+00
    0.00000E+00         0.00000E+00        -0.49992E+08
 
   -0.49983E+08         0.16258E+05         0.00000E+00
    0.16258E+05        -0.50000E+08         0.00000E+00
    0.00000E+00         0.00000E+00        -0.49992E+08
 
   -0.49983E+08         0.19143E+05         0.00000E+00
    0.19143E+05        -0.50000E+08         0.00000E+00
    0.00000E+00         0.00000E+00        -0.49992E+08
 
   -0.49983E+08         0.22002E+05         0.00000E+00
    0.22002E+05        -0.50000E+08         0.00000E+00
    0.00000E+00         0.00000E+00        -0.49992E+08
 
   -0.49984E+08         0.24835E+05         0.00000E+00
    0.24835E+05        -0.50000E+08         0.00000E+00
    0.00000E+00         0.00000E+00        -0.49992E+08
 
   -0.49984E+08         0.27638E+05         0.00000E+00
    0.27638E+05        -0.50000E+08         0.00000E+00
    0.00000E+00         0.00000E+00        -0.49992E+08
 
   -0.49984E+08         0.30411E+05         0.00000E+00
    0.30411E+05        -0.50000E+08         0.00000E+00
    0.00000E+00         0.00000E+00        -0.49992E+08
 
   -0.49984E+08         0.33151E+05         0.00000E+00
    0.33151E+05        -0.50000E+08         0.00000E+00
    0.00000E+00         0.00000E+00        -0.49992E+08
 
   -0.49984E+08         0.35858E+05         0.00000E+00
    0.35858E+05        -0.50000E+08         0.00000E+00
    0.00000E+00         0.00000E+00        -0.49992E+08
 
   -0.49984E+08         0.38531E+05         0.00000E+00
    0.38531E+05        -0.50000E+08         0.00000E+00
    0.00000E+00         0.00000E+00        -0.49992E+08
 
   -0.49985E+08         0.41167E+05         0.00000E+00
    0.41167E+05        -0.50000E+08         0.00000E+00
    0.00000E+00         0.00000E+00        -0.49992E+08
 
   -0.49985E+08         0.43765E+05         0.00000E+00
    0.43765E+05        -0.50000E+08         0.00000E+00
    0.00000E+00         0.00000E+00        -0.49992E+08
 
   -0.49985E+08         0.46325E+05         0.00000E+00
    0.46325E+05        -0.49999E+08         0.00000E+00
    0.00000E+00         0.00000E+00        -0.49992E+08
 
   -0.49985E+08         0.48844E+05         0.00000E+00
    0.48844E+05        -0.49999E+08         0.00000E+00
    0.00000E+00         0.00000E+00        -0.49992E+08
 
   -0.49986E+08         0.51323E+05         0.00000E+00
    0.51323E+05        -0.49999E+08         0.00000E+00
    0.00000E+00         0.00000E+00        -0.49992E+08
 
   -0.49986E+08         0.53758E+05         0.00000E+00
    0.53758E+05        -0.49999E+08         0.00000E+00
    0.00000E+00         0.00000E+00        -0.49993E+08
 
   -0.49986E+08         0.56151E+05         0.00000E+00
    0.56151E+05        -0.49999E+08         0.00000E+00
    0.00000E+00         0.00000E+00        -0.49993E+08
 
   -0.49986E+08         0.58498E+05         0.00000E+00
    0.58498E+05        -0.49999E+08         0.00000E+00
    0.00000E+00         0.00000E+00        -0.49993E+08
 
   -0.49987E+08         0.60800E+05         0.00000E+00
    0.60800E+05        -0.49999E+08         0.00000E+00
    0.00000E+00         0.00000E+00        -0.49993E+08
 
   -0.49987E+08         0.63055E+05         0.00000E+00
    0.63055E+05        -0.49999E+08         0.00000E+00
    0.00000E+00         0.00000E+00        -0.49993E+08
 
   -0.49987E+08         0.65262E+05         0.00000E+00
    0.65262E+05        -0.49999E+08         0.00000E+00
    0.00000E+00         0.00000E+00        -0.49993E+08
 
   -0.49987E+08         0.67421E+05         0.00000E+00
    0.67421E+05        -0.49999E+08         0.00000E+00
    0.00000E+00         0.00000E+00        -0.49993E+08
 
   -0.49988E+08         0.69530E+05         0.00000E+00
    0.69530E+05        -0.49999E+08         0.00000E+00
    0.00000E+00         0.00000E+00        -0.49993E+08
 
   -0.49988E+08         0.71588E+05         0.00000E+00
    0.71588E+05        -0.49999E+08         0.00000E+00
    0.00000E+00         0.00000E+00        -0.49993E+08
 
   -0.49988E+08         0.73595E+05         0.00000E+00
    0.73595E+05        -0.49999E+08         0.00000E+00
    0.00000E+00         0.00000E+00        -0.49993E+08
 
   -0.49989E+08         0.75550E+05         0.00000E+00
    0.75550E+05        -0.49998E+08         0.00000E+00
    0.00000E+00         0.00000E+00        -0.49994E+08
 
   -0.49989E+08         0.77451E+05         0.00000E+00
    0.77451E+05        -0.49998E+08         0.00000E+00
    0.00000E+00         0.00000E+00        -0.49994E+08
 
   -0.49989E+08         0.79299E+05         0.00000E+00
    0.79299E+05        -0.49998E+08         0.00000E+00
    0.00000E+00         0.00000E+00        -0.49994E+08
 
   -0.49990E+08         0.81093E+05         0.00000E+00
    0.81093E+05        -0.49998E+08         0.00000E+00
    0.00000E+00         0.00000E+00        -0.49994E+08
 
   -0.49990E+08         0.82832E+05         0.00000E+00
    0.82832E+05        -0.49998E+08         0.00000E+00
    0.00000E+00         0.00000E+00        -0.49994E+08
 
   -0.49990E+08         0.84514E+05         0.00000E+00
    0.84514E+05        -0.49998E+08         0.00000E+00
    0.00000E+00         0.00000E+00        -0.49994E+08
 
   -0.49991E+08         0.86141E+05         0.00000E+00
    0.86141E+05        -0.49998E+08         0.00000E+00
    0.00000E+00         0.00000E+00        -0.49994E+08
 
   -0.49991E+08         0.87712E+05         0.00000E+00
    0.87712E+05        -0.49998E+08         0.00000E+00
    0.00000E+00         0.00000E+00        -0.49994E+08
 
   -0.49991E+08         0.89225E+05         0.00000E+00
    0.89225E+05        -0.49998E+08         0.00000E+00
    0.00000E+00         0.00000E+00        -0.49994E+08
 
   -0.49992E+08         0.90682E+05         0.00000E+00
    0.90682E+05        -0.49997E+08         0.00000E+00
    0.00000E+00         0.00000E+00        -0.49994E+08
 
   -0.49992E+08         0.92081E+05         0.00000E+00
    0.92081E+05        -0.49997E+08         0.00000E+00
    0.00000E+00         0.00000E+00        -0.49995E+08
 
   -0.49992E+08         0.93422E+05         0.00000E+00
    0.93422E+05        -0.49997E+08         0.00000E+00
    0.00000E+00         0.00000E+00        -0.49995E+08
 
   -0.49993E+08         0.94707E+05         0.00000E+00
    0.94707E+05        -0.49997E+08         0.00000E+00
    0.00000E+00         0.00000E+00        -0.49995E+08
 
   -0.49993E+08         0.95934E+05         0.00000E+00
    0.95934E+05        -0.49997E+08         0.00000E+00
    0.00000E+00         0.00000E+00        -0.49995E+08
 
   -0.49993E+08         0.97104E+05         0.00000E+00
    0.97104E+05        -0.49997E+08         0.00000E+00
    0.00000E+00         0.00000E+00        -0.49995E+08
 
   -0.49994E+08         0.98217E+05         0.00000E+00
    0.98217E+05        -0.49997E+08         0.00000E+00
    0.00000E+00         0.00000E+00        -0.49995E+08
 
   -0.49994E+08         0.99275E+05         0.00000E+00
    0.99275E+05        -0.49997E+08         0.00000E+00
    0.00000E+00         0.00000E+00        -0.49995E+08
 
   -0.49994E+08         0.10028E+06         0.00000E+00
    0.10028E+06        -0.49996E+08         0.00000E+00
    0.00000E+00         0.00000E+00        -0.49995E+08
 
   -0.49995E+08         0.10122E+06         0.00000E+00
    0.10122E+06        -0.49996E+08         0.00000E+00
    0.00000E+00         0.00000E+00        -0.49995E+08
 
   -0.49995E+08         0.10212E+06         0.00000E+00
    0.10212E+06        -0.49996E+08         0.00000E+00
    0.00000E+00         0.00000E+00        -0.49995E+08
 
   -0.49995E+08         0.10296E+06         0.00000E+00
    0.10296E+06        -0.49996E+08         0.00000E+00
    0.00000E+00         0.00000E+00        -0.49995E+08
 
   -0.49967E+08         0.15230E+04         0.00000E+00
    0.15230E+04        -0.50000E+08         0.00000E+00
    0.00000E+00         0.00000E+00        -0.49984E+08
 
   -0.49968E+08         0.45369E+04         0.00000E+00
    0.45369E+04        -0.50000E+08         0.00000E+00
    0.00000E+00         0.00000E+00        -0.49984E+08
 
   -0.49968E+08         0.75343E+04         0.00000E+00
    0.75343E+04        -0.50000E+08         0.00000E+00
    0.00000E+00         0.00000E+00        -0.49984E+08
 
   -0.49968E+08         0.10513E+05         0.00000E+00
    0.10513E+05        -0.50000E+08         0.00000E+00
    0.00000E+00         0.00000E+00        -0.49984E+08
 
   -0.49968E+08         0.13472E+05         0.00000E+00
    0.13472E+05        -0.50000E+08         0.00000E+00
    0.00000E+00         0.00000E+00        -0.49984E+08
 
   -0.49969E+08         0.16408E+05         0.00000E+00
    0.16408E+05        -0.50000E+08         0.00000E+00
    0.00000E+00         0.00000E+00        -0.49984E+08
 
   -0.49969E+08         0.19320E+05         0.00000E+00
    0.19320E+05        -0.50000E+08         0.00000E+00
    0.00000E+00         0.00000E+00        -0.49984E+08
 
   -0.49969E+08         0.22206E+05         0.00000E+00
    0.22206E+05        -0.50000E+08         0.00000E+00
    0.00000E+00         0.00000E+00        -0.49985E+08
 
   -0.49969E+08         0.25064E+05         0.00000E+00
    0.25064E+05        -0.50000E+08         0.00000E+00
    0.00000E+00         0.00000E+00        -0.49985E+08
 
   -0.49970E+08         0.27894E+05         0.00000E+00
    0.27894E+05        -0.50000E+08         0.00000E+00
    0.00000E+00         0.00000E+00        -0.49985E+08
 
   -0.49970E+08         0.30692E+05         0.00000E+00
    0.30692E+05        -0.50000E+08         0.00000E+00
    0.00000E+00         0.00000E+00        -0.49985E+08
 
   -0.49970E+08         0.33458E+05         0.00000E+00
    0.33458E+05        -0.50000E+08         0.00000E+00
    0.00000E+00         0.00000E+00        -0.49985E+08
 
   -0.49971E+08         0.36190E+05         0.00000E+00
    0.36190E+05        -0.49999E+08         0.00000E+00
    0.00000E+00         0.00000E+00        -0.49985E+08
 
   -0.49971E+08         0.38887E+05         0.00000E+00
    0.38887E+05        -0.49999E+08         0.00000E+00
    0.00000E+00         0.00000E+00        -0.49985E+08
 
   -0.49972E+08         0.41547E+05         0.00000E+00
    0.41547E+05        -0.49999E+08         0.00000E+00
    0.00000E+00         0.00000E+00        -0.49985E+08
 
   -0.49972E+08         0.44169E+05         0.00000E+00
    0.44169E+05        -0.49999E+08         0.00000E+00
    0.00000E+00         0.00000E+00        -0.49986E+08
 
   -0.49972E+08         0.46752E+05         0.00000E+00
    0.46752E+05        -0.49999E+08         0.00000E+00
    0.00000E+00         0.00000E+00        -0.49986E+08
 
   -0.49973E+08         0.49295E+05         0.00000E+00
    0.49295E+05        -0.49999E+08         0.00000E+00
    0.00000E+00         0.00000E+00        -0.49986E+08
 
   -0.49973E+08         0.51796E+05         0.00000E+00
    0.51796E+05        -0.49999E+08         0.00000E+00
    0.00000E+00         0.00000E+00        -0.49986E+08
 
   -0.49974E+08         0.54254E+05         0.00000E+00
    0.54254E+05        -0.49999E+08         0.00000E+00
    0.00000E+00         0.00000E+00        -0.49986E+08
 
   -0.49974E+08         0.56668E+05         0.00000E+00
    0.56668E+05        -0.49999E+08         0.00000E+00
    0.00000E+00         0.00000E+00        -0.49986E+08
 
   -0.49975E+08         0.59037E+05         0.00000E+00
    0.59037E+05        -0.49998E+08         0.00000E+00
    0.00000E+00         0.00000E+00        -0.49987E+08
 
   -0.49975E+08         0.61359E+05         0.00000E+00
    0.61359E+05        -0.49998E+08         0.00000E+00
    0.00000E+00         0.00000E+00        -0.49987E+08
 
   -0.49976E+08         0.63635E+05         0.00000E+00
    0.63635E+05        -0.49998E+08         0.00000E+00
    0.00000E+00         0.00000E+00        -0.49987E+08
 
   -0.49976E+08         0.65862E+05         0.00000E+00
    0.65862E+05        -0.49998E+08         0.00000E+00
    0.00000E+00         0.00000E+00        -0.49987E+08
 
   -0.49977E+08         0.68040E+05         0.00000E+00
    0.68040E+05        -0.49998E+08         0.00000E+00
    0.00000E+00         0.00000E+00        -0.49987E+08
 
   -0.49977E+08         0.70168E+05         0.00000E+00
    0.70168E+05        -0.49998E+08         0.00000E+00
    0.00000E+00         0.00000E+00        -0.49987E+08
 
   -0.49978E+08         0.72245E+05         0.00000E+00
    0.72245E+05        -0.49998E+08         0.00000E+00
    0.00000E+00         0.00000E+00        -0.49988E+08
 
   -0.49978E+08         0.74270E+05         0.00000E+00
    0.74270E+05        -0.49997E+08         0.00000E+00
    0.00000E+00         0.00000E+00        -0.49988E+08
 
   -0.49979E+08         0.76243E+05         0.00000E+00
    0.76243E+05        -0.49997E+08         0.00000E+00
    0.00000E+00         0.00000E+00        -0.49988E+08
 
   -0.49980E+08         0.78162E+05         0.00000E+00
    0.78162E+05        -0.49997E+08         0.00000E+00
    0.00000E+00         0.00000E+00        -0.49988E+08
 
   -0.49980E+08         0.80026E+05         0.00000E+00
    0.80026E+05        -0.49997E+08         0.00000E+00
    0.00000E+00         0.00000E+00        -0.49988E+08
 
   -0.49981E+08         0.81836E+05         0.00000E+00
    0.81836E+05        -0.49997E+08         0.00000E+00
    0.00000E+00         0.00000E+00        -0.49989E+08
 
   -0.49981E+08         0.83590E+05         0.00000E+00
    0.83590E+05        -0.49996E+08         0.00000E+00
    0.00000E+00         0.00000E+00        -0.49989E+08
 
   -0.49982E+08         0.85288E+05         0.00000E+00
    0.85288E+05        -0.49996E+08         0.00000E+00
    0.00000E+00         0.00000E+00        -0.49989E+08
 
   -0.49983E+08         0.86930E+05         0.00000E+00
    0.86930E+05        -0.49996E+08         0.00000E+00
    0.00000E+00         0.00000E+00        -0.49989E+08
 
   -0.49983E+08         0.88514E+05         0.00000E+00
    0.88514E+05        -0.49996E+08         0.00000E+00
    0.00000E+00         0.00000E+00        -0.49989E+08
 
   -0.49984E+08         0.90041E+05         0.00000E+00
    0.90041E+05        -0.49996E+08         0.00000E+00
    0.00000E+00         0.00000E+00        -0.49990E+08
 
   -0.49984E+08         0.91511E+05         0.00000E+00
    0.91511E+05        -0.49995E+08         0.00000E+00
    0.00000E+00         0.00000E+00        -0.49990E+08
 
   -0.49985E+08         0.92922E+05         0.00000E+00
    0.92922E+05        -0.49995E+08         0.00000E+00
    0.00000E+00         0.00000E+00        -0.49990E+08
 
   -0.49986E+08         0.94276E+05         0.00000E+00
    0.94276E+05        -0.49995E+08         0.00000E+00
    0.00000E+00         0.00000E+00        -0.49990E+08
 
   -0.49986E+08         0.95572E+05         0.00000E+00
    0.95572E+05        -0.49995E+08         0.00000E+00
    0.00000E+00         0.00000E+00        -0.49990E+08
 
   -0.49987E+08         0.96810E+05         0.00000E+00
    0.96810E+05        -0.49994E+08         0.00000E+00
    0.00000E+00         0.00000E+00        -0.49990E+08
 
   -0.49987E+08         0.97991E+05         0.00000E+00
    0.97991E+05        -0.49994E+08         0.00000E+00
    0.00000E+00         0.00000E+00        -0.49991E+08
 
   -0.49988E+08         0.99114E+05         0.00000E+00
    0.99114E+05        -0.49994E+08         0.00000E+00
    0.00000E+00         0.00000E+00        -0.49991E+08
 
   -0.49989E+08         0.10018E+06         0.00000E+00
    0.10018E+06        -0.49994E+08         0.00000E+00
    0.00000E+00         0.00000E+00        -0.49991E+08
 
   -0.49989E+08         0.10119E+06         0.00000E+00
    0.10119E+06        -0.49994E+08         0.00000E+00
    0.00000E+00         0.00000E+00        -0.49991E+08
 
   -0.49990E+08         0.10215E+06         0.00000E+00
    0.10215E+06        -0.49993E+08         0.00000E+00
    0.00000E+00         0.00000E+00        -0.49991E+08
 
   -0.49990E+08         0.10305E+06         0.00000E+00
    0.10305E+06        -0.49993E+08         0.00000E+00
    0.00000E+00         0.00000E+00        -0.49991E+08
 
   -0.49991E+08         0.10390E+06         0.00000E+00
    0.10390E+06        -0.49993E+08         0.00000E+00
    0.00000E+00         0.00000E+00        -0.49991E+08
 
   -0.49952E+08         0.15452E+04         0.00000E+00
    0.15452E+04        -0.50000E+08         0.00000E+00
    0.00000E+00         0.00000E+00        -0.49977E+08
 
   -0.49953E+08         0.46029E+04         0.00000E+00
    0.46029E+04        -0.50000E+08         0.00000E+00
    0.00000E+00         0.00000E+00        -0.49977E+08
 
   -0.49953E+08         0.76440E+04         0.00000E+00
    0.76440E+04        -0.50000E+08         0.00000E+00
    0.00000E+00         0.00000E+00        -0.49977E+08
 
   -0.49953E+08         0.10666E+05         0.00000E+00
    0.10666E+05        -0.50000E+08         0.00000E+00
    0.00000E+00         0.00000E+00        -0.49977E+08
 
   -0.49953E+08         0.13668E+05         0.00000E+00
    0.13668E+05        -0.50000E+08         0.00000E+00
    0.00000E+00         0.00000E+00        -0.49977E+08
 
   -0.49954E+08         0.16647E+05         0.00000E+00
    0.16647E+05        -0.50000E+08         0.00000E+00
    0.00000E+00         0.00000E+00        -0.49977E+08
 
   -0.49954E+08         0.19601E+05         0.00000E+00
    0.19601E+05        -0.50000E+08         0.00000E+00
    0.00000E+00         0.00000E+00        -0.49977E+08
 
   -0.49955E+08         0.22529E+05         0.00000E+00
    0.22529E+05        -0.50000E+08         0.00000E+00
    0.00000E+00         0.00000E+00        -0.49977E+08
 
   -0.49955E+08         0.25429E+05         0.00000E+00
    0.25429E+05        -0.50000E+08         0.00000E+00
    0.00000E+00         0.00000E+00        -0.49977E+08
 
   -0.49956E+08         0.28299E+05         0.00000E+00
    0.28299E+05        -0.50000E+08         0.00000E+00
    0.00000E+00         0.00000E+00        -0.49978E+08
 
   -0.49956E+08         0.31138E+05         0.00000E+00
    0.31138E+05        -0.49999E+08         0.00000E+00
    0.00000E+00         0.00000E+00        -0.49978E+08
 
   -0.49957E+08         0.33944E+05         0.00000E+00
    0.33944E+05        -0.49999E+08         0.00000E+00
    0.00000E+00         0.00000E+00        -0.49978E+08
 
   -0.49957E+08         0.36716E+05         0.00000E+00
    0.36716E+05        -0.49999E+08         0.00000E+00
    0.00000E+00         0.00000E+00        -0.49978E+08
 
   -0.49958E+08         0.39452E+05         0.00000E+00
    0.39452E+05        -0.49999E+08         0.00000E+00
    0.00000E+00         0.00000E+00        -0.49978E+08
 
   -0.49958E+08         0.42150E+05         0.00000E+00
    0.42150E+05        -0.49999E+08         0.00000E+00
    0.00000E+00         0.00000E+00        -0.49979E+08
 
   -0.49959E+08         0.44811E+05         0.00000E+00
    0.44811E+05        -0.49999E+08         0.00000E+00
    0.00000E+00         0.00000E+00        -0.49979E+08
 
   -0.49959E+08         0.47431E+05         0.00000E+00
    0.47431E+05        -0.49999E+08         0.00000E+00
    0.00000E+00         0.00000E+00        -0.49979E+08
 
   -0.49960E+08         0.50011E+05         0.00000E+00
    0.50011E+05        -0.49998E+08         0.00000E+00
    0.00000E+00         0.00000E+00        -0.49979E+08
 
   -0.49961E+08         0.52548E+05         0.00000E+00
    0.52548E+05        -0.49998E+08         0.00000E+00
    0.00000E+00         0.00000E+00        -0.49980E+08
 
   -0.49961E+08         0.55041E+05         0.00000E+00
    0.55041E+05        -0.49998E+08         0.00000E+00
    0.00000E+00         0.00000E+00        -0.49980E+08
 
   -0.49962E+08         0.57490E+05         0.00000E+00
    0.57490E+05        -0.49998E+08         0.00000E+00
    0.00000E+00         0.00000E+00        -0.49980E+08
 
   -0.49963E+08         0.59894E+05         0.00000E+00
    0.59894E+05        -0.49998E+08         0.00000E+00
    0.00000E+00         0.00000E+00        -0.49980E+08
 
   -0.49964E+08         0.62250E+05         0.00000E+00
    0.62250E+05        -0.49998E+08         0.00000E+00
    0.00000E+00         0.00000E+00        -0.49981E+08
 
   -0.49964E+08         0.64559E+05         0.00000E+00
    0.64559E+05        -0.49997E+08         0.00000E+00
    0.00000E+00         0.00000E+00        -0.49981E+08
 
   -0.49965E+08         0.66818E+05         0.00000E+00
    0.66818E+05        -0.49997E+08         0.00000E+00
    0.00000E+00         0.00000E+00        -0.49981E+08
 
   -0.49966E+08         0.69028E+05         0.00000E+00
    0.69028E+05        -0.49997E+08         0.00000E+00
    0.00000E+00         0.00000E+00        -0.49981E+08
 
   -0.49967E+08         0.71187E+05         0.00000E+00
    0.71187E+05        -0.49997E+08         0.00000E+00
    0.00000E+00         0.00000E+00        -0.49982E+08
 
   -0.49967E+08         0.73294E+05         0.00000E+00
    0.73294E+05        -0.49996E+08         0.00000E+00
    0.00000E+00         0.00000E+00        -0.49982E+08
 
   -0.49968E+08         0.75348E+05         0.00000E+00
    0.75348E+05        -0.49996E+08         0.00000E+00
    0.00000E+00         0.00000E+00        -0.49982E+08
 
   -0.49969E+08         0.77349E+05         0.00000E+00
    0.77349E+05        -0.49996E+08         0.00000E+00
    0.00000E+00         0.00000E+00        -0.49982E+08
 
   -0.49970E+08         0.79296E+05         0.00000E+00
    0.79296E+05        -0.49996E+08         0.00000E+00
    0.00000E+00         0.00000E+00        -0.49983E+08
 
   -0.49971E+08         0.81187E+05         0.00000E+00
    0.81187E+05        -0.49995E+08         0.00000E+00
    0.00000E+00         0.00000E+00        -0.49983E+08
 
   -0.49972E+08         0.83023E+05         0.00000E+00
    0.83023E+05        -0.49995E+08         0.00000E+00
    0.00000E+00         0.00000E+00        -0.49983E+08
 
   -0.49973E+08         0.84803E+05         0.00000E+00
    0.84803E+05        -0.49995E+08         0.00000E+00
    0.00000E+00         0.00000E+00        -0.49984E+08
 
   -0.49974E+08         0.86525E+05         0.00000E+00
    0.86525E+05        -0.49994E+08         0.00000E+00
    0.00000E+00         0.00000E+00        -0.49984E+08
 
   -0.49974E+08         0.88191E+05         0.00000E+00
    0.88191E+05        -0.49994E+08         0.00000E+00
    0.00000E+00         0.00000E+00        -0.49984E+08
 
   -0.49975E+08         0.89798E+05         0.00000E+00
    0.89798E+05        -0.49994E+08         0.00000E+00
    0.00000E+00         0.00000E+00        -0.49984E+08
 
   -0.49976E+08         0.91347E+05         0.00000E+00
    0.91347E+05        -0.49994E+08         0.00000E+00
    0.00000E+00         0.00000E+00        -0.49985E+08
 
   -0.49977E+08         0.92838E+05         0.00000E+00
    0.92838E+05        -0.49993E+08         0.00000E+00
    0.00000E+00         0.00000E+00        -0.49985E+08
 
   -0.49978E+08         0.94270E+05         0.00000E+00
    0.94270E+05        -0.49993E+08         0.00000E+00
    0.00000E+00         0.00000E+00        -0.49985E+08
 
   -0.49979E+08         0.95643E+05         0.00000E+00
    0.95643E+05        -0.49993E+08         0.00000E+00
    0.00000E+00         0.00000E+00        -0.49986E+08
 
   -0.49980E+08         0.96958E+05         0.00000E+00
    0.96958E+05        -0.49992E+08         0.00000E+00
    0.00000E+00         0.00000E+00        -0.49986E+08
 
   -0.49981E+08         0.98213E+05         0.00000E+00
    0.98213E+05        -0.49992E+08         0.00000E+00
    0.00000E+00         0.00000E+00        -0.49986E+08
 
   -0.49982E+08         0.99411E+05         0.00000E+00
    0.99411E+05        -0.49992E+08         0.00000E+00
    0.00000E+00         0.00000E+00        -0.49986E+08
 
   -0.49983E+08         0.10055E+06         0.00000E+00
    0.10055E+06        -0.49991E+08         0.00000E+00
    0.00000E+00         0.00000E+00        -0.49986E+08
 
   -0.49983E+08         0.10163E+06         0.00000E+00
    0.10163E+06        -0.49991E+08         0.00000E+00
    0.00000E+00         0.00000E+00        -0.49987E+08
 
   -0.49984E+08         0.10266E+06         0.00000E+00
    0.10266E+06        -0.49991E+08         0.00000E+00
    0.00000E+00         0.00000E+00        -0.49987E+08
 
   -0.49985E+08         0.10363E+06         0.00000E+00
    0.10363E+06        -0.49990E+08         0.00000E+00
    0.00000E+00         0.00000E+00        -0.49987E+08
 
   -0.49986E+08         0.10454E+06         0.00000E+00
    0.10454E+06        -0.49990E+08         0.00000E+00
    0.00000E+00         0.00000E+00        -0.49987E+08
 
   -0.49987E+08         0.10540E+06         0.00000E+00
    0.10540E+06        -0.49990E+08         0.00000E+00
    0.00000E+00         0.00000E+00        -0.49987E+08
 
   -0.49937E+08         0.15757E+04         0.00000E+00
    0.15757E+04        -0.50000E+08         0.00000E+00
    0.00000E+00         0.00000E+00        -0.49969E+08
 
   -0.49937E+08         0.46938E+04         0.00000E+00
    0.46938E+04        -0.50000E+08         0.00000E+00
    0.00000E+00         0.00000E+00        -0.49969E+08
 
   -0.49937E+08         0.77948E+04         0.00000E+00
    0.77948E+04        -0.50000E+08         0.00000E+00
    0.00000E+00         0.00000E+00        -0.49969E+08
 
   -0.49938E+08         0.10877E+05         0.00000E+00
    0.10877E+05        -0.50000E+08         0.00000E+00
    0.00000E+00         0.00000E+00        -0.49969E+08
 
   -0.49938E+08         0.13937E+05         0.00000E+00
    0.13937E+05        -0.50000E+08         0.00000E+00
    0.00000E+00         0.00000E+00        -0.49969E+08
 
   -0.49939E+08         0.16975E+05         0.00000E+00
    0.16975E+05        -0.50000E+08         0.00000E+00
    0.00000E+00         0.00000E+00        -0.49970E+08
 
   -0.49939E+08         0.19987E+05         0.00000E+00
    0.19987E+05        -0.50000E+08         0.00000E+00
    0.00000E+00         0.00000E+00        -0.49970E+08
 
   -0.49940E+08         0.22973E+05         0.00000E+00
    0.22973E+05        -0.50000E+08         0.00000E+00
    0.00000E+00         0.00000E+00        -0.49970E+08
 
   -0.49940E+08         0.25929E+05         0.00000E+00
    0.25929E+05        -0.50000E+08         0.00000E+00
    0.00000E+00         0.00000E+00        -0.49970E+08
 
   -0.49941E+08         0.28856E+05         0.00000E+00
    0.28856E+05        -0.49999E+08         0.00000E+00
    0.00000E+00         0.00000E+00        -0.49970E+08
 
   -0.49942E+08         0.31751E+05         0.00000E+00
    0.31751E+05        -0.49999E+08         0.00000E+00
    0.00000E+00         0.00000E+00        -0.49971E+08
 
   -0.49942E+08         0.34612E+05         0.00000E+00
    0.34612E+05        -0.49999E+08         0.00000E+00
    0.00000E+00         0.00000E+00        -0.49971E+08
 
   -0.49943E+08         0.37438E+05         0.00000E+00
    0.37438E+05        -0.49999E+08         0.00000E+00
    0.00000E+00         0.00000E+00        -0.49971E+08
 
   -0.49944E+08         0.40228E+05         0.00000E+00
    0.40228E+05        -0.49999E+08         0.00000E+00
    0.00000E+00         0.00000E+00        -0.49971E+08
 
   -0.49945E+08         0.42980E+05         0.00000E+00
    0.42980E+05        -0.49999E+08         0.00000E+00
    0.00000E+00         0.00000E+00        -0.49972E+08
 
   -0.49945E+08         0.45693E+05         0.00000E+00
    0.45693E+05        -0.49998E+08         0.00000E+00
    0.00000E+00         0.00000E+00        -0.49972E+08
 
   -0.49946E+08         0.48365E+05         0.00000E+00
    0.48365E+05        -0.49998E+08         0.00000E+00
    0.00000E+00         0.00000E+00        -0.49972E+08
 
   -0.49947E+08         0.50995E+05         0.00000E+00
    0.50995E+05        -0.49998E+08         0.00000E+00
    0.00000E+00         0.00000E+00        -0.49973E+08
 
   -0.49948E+08         0.53582E+05         0.00000E+00
    0.53582E+05        -0.49998E+08         0.00000E+00
    0.00000E+00         0.00000E+00        -0.49973E+08
 
   -0.49949E+08         0.56125E+05         0.00000E+00
    0.56125E+05        -0.49998E+08         0.00000E+00
    0.00000E+00         0.00000E+00        -0.49973E+08
 
   -0.49950E+08         0.58622E+05         0.00000E+00
    0.58622E+05        -0.49997E+08         0.00000E+00
    0.00000E+00         0.00000E+00        -0.49974E+08
 
   -0.49951E+08         0.61073E+05         0.00000E+00
    0.61073E+05        -0.49997E+08         0.00000E+00
    0.00000E+00         0.00000E+00        -0.49974E+08
 
   -0.49952E+08         0.63476E+05         0.00000E+00
    0.63476E+05        -0.49997E+08         0.00000E+00
    0.00000E+00         0.00000E+00        -0.49974E+08
 
   -0.49953E+08         0.65830E+05         0.00000E+00
    0.65830E+05        -0.49996E+08         0.00000E+00
    0.00000E+00         0.00000E+00        -0.49975E+08
 
   -0.49954E+08         0.68135E+05         0.00000E+00
    0.68135E+05        -0.49996E+08         0.00000E+00
    0.00000E+00         0.00000E+00        -0.49975E+08
 
   -0.49955E+08         0.70388E+05         0.00000E+00
    0.70388E+05        -0.49996E+08         0.00000E+00
    0.00000E+00         0.00000E+00        -0.49975E+08
 
   -0.49956E+08         0.72590E+05         0.00000E+00
    0.72590E+05        -0.49996E+08         0.00000E+00
    0.00000E+00         0.00000E+00        -0.49976E+08
 
   -0.49957E+08         0.74739E+05         0.00000E+00
    0.74739E+05        -0.49995E+08         0.00000E+00
    0.00000E+00         0.00000E+00        -0.49976E+08
 
   -0.49958E+08         0.76834E+05         0.00000E+00
    0.76834E+05        -0.49995E+08         0.00000E+00
    0.00000E+00         0.00000E+00        -0.49976E+08
 
   -0.49959E+08         0.78874E+05         0.00000E+00
    0.78874E+05        -0.49995E+08         0.00000E+00
    0.00000E+00         0.00000E+00        -0.49977E+08
 
   -0.49960E+08         0.80860E+05         0.00000E+00
    0.80860E+05        -0.49994E+08         0.00000E+00
    0.00000E+00         0.00000E+00        -0.49977E+08
 
   -0.49961E+08         0.82789E+05         0.00000E+00
    0.82789E+05        -0.49994E+08         0.00000E+00
    0.00000E+00         0.00000E+00        -0.49978E+08
 
   -0.49963E+08         0.84661E+05         0.00000E+00
    0.84661E+05        -0.49993E+08         0.00000E+00
    0.00000E+00         0.00000E+00        -0.49978E+08
 
   -0.49964E+08         0.86476E+05         0.00000E+00
    0.86476E+05        -0.49993E+08         0.00000E+00
    0.00000E+00         0.00000E+00        -0.49978E+08
 
   -0.49965E+08         0.88233E+05         0.00000E+00
    0.88233E+05        -0.49993E+08         0.00000E+00
    0.00000E+00         0.00000E+00        -0.49979E+08
 
   -0.49966E+08         0.89931E+05         0.00000E+00
    0.89931E+05        -0.49992E+08         0.00000E+00
    0.00000E+00         0.00000E+00        -0.49979E+08
 
   -0.49967E+08         0.91570E+05         0.00000E+00
    0.91570E+05        -0.49992E+08         0.00000E+00
    0.00000E+00         0.00000E+00        -0.49979E+08
 
   -0.49969E+08         0.93150E+05         0.00000E+00
    0.93150E+05        -0.49991E+08         0.00000E+00
    0.00000E+00         0.00000E+00        -0.49980E+08
 
   -0.49970E+08         0.94670E+05         0.00000E+00
    0.94670E+05        -0.49991E+08         0.00000E+00
    0.00000E+00         0.00000E+00        -0.49980E+08
 
   -0.49971E+08         0.96130E+05         0.00000E+00
    0.96130E+05        -0.49991E+08         0.00000E+00
    0.00000E+00         0.00000E+00        -0.49981E+08
 
   -0.49972E+08         0.97530E+05         0.00000E+00
    0.97530E+05        -0.49990E+08         0.00000E+00
    0.00000E+00         0.00000E+00        -0.49981E+08
 
   -0.49973E+08         0.98871E+05         0.00000E+00
    0.98871E+05        -0.49990E+08         0.00000E+00
    0.00000E+00         0.00000E+00        -0.49981E+08
 
   -0.49975E+08         0.10015E+06         0.00000E+00
    0.10015E+06        -0.49989E+08         0.00000E+00
    0.00000E+00         0.00000E+00        -0.49982E+08
 
   -0.49976E+08         0.10137E+06         0.00000E+00
    0.10137E+06        -0.49989E+08         0.00000E+00
    0.00000E+00         0.00000E+00        -0.49982E+08
 
   -0.49977E+08         0.10253E+06         0.00000E+00
    0.10253E+06        -0.49988E+08         0.00000E+00
    0.00000E+00         0.00000E+00        -0.49982E+08
 
   -0.49978E+08         0.10364E+06         0.00000E+00
    0.10364E+06        -0.49988E+08         0.00000E+00
    0.00000E+00         0.00000E+00        -0.49982E+08
 
   -0.49979E+08         0.10468E+06         0.00000E+00
    0.10468E+06        -0.49988E+08         0.00000E+00
    0.00000E+00         0.00000E+00        -0.49983E+08
 
   -0.49980E+08         0.10567E+06         0.00000E+00
    0.10567E+06        -0.49987E+08         0.00000E+00
    0.00000E+00         0.00000E+00        -0.49983E+08
 
   -0.49982E+08         0.10660E+06         0.00000E+00
    0.10660E+06        -0.49987E+08         0.00000E+00
    0.00000E+00         0.00000E+00        -0.49983E+08
 
   -0.49983E+08         0.10748E+06         0.00000E+00
    0.10748E+06        -0.49986E+08         0.00000E+00
    0.00000E+00         0.00000E+00        -0.49983E+08
 
   -0.49921E+08         0.16147E+04         0.00000E+00
    0.16147E+04        -0.50000E+08         0.00000E+00
    0.00000E+00         0.00000E+00        -0.49961E+08
 
   -0.49921E+08         0.48096E+04         0.00000E+00
    0.48096E+04        -0.50000E+08         0.00000E+00
    0.00000E+00         0.00000E+00        -0.49961E+08
 
   -0.49922E+08         0.79870E+04         0.00000E+00
    0.79870E+04        -0.50000E+08         0.00000E+00
    0.00000E+00         0.00000E+00        -0.49961E+08
 
   -0.49922E+08         0.11145E+05         0.00000E+00
    0.11145E+05        -0.50000E+08         0.00000E+00
    0.00000E+00         0.00000E+00        -0.49962E+08
 
   -0.49923E+08         0.14281E+05         0.00000E+00
    0.14281E+05        -0.50000E+08         0.00000E+00
    0.00000E+00         0.00000E+00        -0.49962E+08
 
   -0.49924E+08         0.17393E+05         0.00000E+00
    0.17393E+05        -0.50000E+08         0.00000E+00
    0.00000E+00         0.00000E+00        -0.49962E+08
 
   -0.49924E+08         0.20479E+05         0.00000E+00
    0.20479E+05        -0.50000E+08         0.00000E+00
    0.00000E+00         0.00000E+00        -0.49962E+08
 
   -0.49925E+08         0.23538E+05         0.00000E+00
    0.23538E+05        -0.50000E+08         0.00000E+00
    0.00000E+00         0.00000E+00        -0.49962E+08
 
   -0.49926E+08         0.26568E+05         0.00000E+00
    0.26568E+05        -0.49999E+08         0.00000E+00
    0.00000E+00         0.00000E+00        -0.49963E+08
 
   -0.49926E+08         0.29567E+05         0.00000E+00
    0.29567E+05        -0.49999E+08         0.00000E+00
    0.00000E+00         0.00000E+00        -0.49963E+08
 
   -0.49927E+08         0.32532E+05         0.00000E+00
    0.32532E+05        -0.49999E+08         0.00000E+00
    0.00000E+00         0.00000E+00        -0.49963E+08
 
   -0.49928E+08         0.35464E+05         0.00000E+00
    0.35464E+05        -0.49999E+08         0.00000E+00
    0.00000E+00         0.00000E+00        -0.49964E+08
 
   -0.49929E+08         0.38360E+05         0.00000E+00
    0.38360E+05        -0.49999E+08         0.00000E+00
    0.00000E+00         0.00000E+00        -0.49964E+08
 
   -0.49930E+08         0.41219E+05         0.00000E+00
    0.41219E+05        -0.49998E+08         0.00000E+00
    0.00000E+00         0.00000E+00        -0.49964E+08
 
   -0.49931E+08         0.44039E+05         0.00000E+00
    0.44039E+05        -0.49998E+08         0.00000E+00
    0.00000E+00         0.00000E+00        -0.49965E+08
 
   -0.49932E+08         0.46818E+05         0.00000E+00
    0.46818E+05        -0.49998E+08         0.00000E+00
    0.00000E+00         0.00000E+00        -0.49965E+08
 
   -0.49933E+08         0.49556E+05         0.00000E+00
    0.49556E+05        -0.49998E+08         0.00000E+00
    0.00000E+00         0.00000E+00        -0.49965E+08
 
   -0.49934E+08         0.52252E+05         0.00000E+00
    0.52252E+05        -0.49997E+08         0.00000E+00
    0.00000E+00         0.00000E+00        -0.49966E+08
 
   -0.49935E+08         0.54903E+05         0.00000E+00
    0.54903E+05        -0.49997E+08         0.00000E+00
    0.00000E+00         0.00000E+00        -0.49966E+08
 
   -0.49936E+08         0.57509E+05         0.00000E+00
    0.57509E+05        -0.49997E+08         0.00000E+00
    0.00000E+00         0.00000E+00        -0.49967E+08
 
   -0.49937E+08         0.60069E+05         0.00000E+00
    0.60069E+05        -0.49997E+08         0.00000E+00
    0.00000E+00         0.00000E+00        -0.49967E+08
 
   -0.49939E+08         0.62580E+05         0.00000E+00
    0.62580E+05        -0.49996E+08         0.00000E+00
    0.00000E+00         0.00000E+00        -0.49967E+08
 
   -0.49940E+08         0.65043E+05         0.00000E+00
    0.65043E+05        -0.49996E+08         0.00000E+00
    0.00000E+00         0.00000E+00        -0.49968E+08
 
   -0.49941E+08         0.67456E+05         0.00000E+00
    0.67456E+05        -0.49996E+08         0.00000E+00
    0.00000E+00         0.00000E+00        -0.49968E+08
 
   -0.49942E+08         0.69818E+05         0.00000E+00
    0.69818E+05        -0.49995E+08         0.00000E+00
    0.00000E+00         0.00000E+00        -0.49969E+08
 
   -0.49944E+08         0.72128E+05         0.00000E+00
    0.72128E+05        -0.49995E+08         0.00000E+00
    0.00000E+00         0.00000E+00        -0.49969E+08
 
   -0.49945E+08         0.74384E+05         0.00000E+00
    0.74384E+05        -0.49994E+08         0.00000E+00
    0.00000E+00         0.00000E+00        -0.49970E+08
 
   -0.49946E+08         0.76587E+05         0.00000E+00
    0.76587E+05        -0.49994E+08         0.00000E+00
    0.00000E+00         0.00000E+00        -0.49970E+08
 
   -0.49948E+08         0.78735E+05         0.00000E+00
    0.78735E+05        -0.49994E+08         0.00000E+00
    0.00000E+00         0.00000E+00        -0.49971E+08
 
   -0.49949E+08         0.80826E+05         0.00000E+00
    0.80826E+05        -0.49993E+08         0.00000E+00
    0.00000E+00         0.00000E+00        -0.49971E+08
 
   -0.49950E+08         0.82861E+05         0.00000E+00
    0.82861E+05        -0.49993E+08         0.00000E+00
    0.00000E+00         0.00000E+00        -0.49971E+08
 
   -0.49952E+08         0.84839E+05         0.00000E+00
    0.84839E+05        -0.49992E+08         0.00000E+00
    0.00000E+00         0.00000E+00        -0.49972E+08
 
   -0.49953E+08         0.86758E+05         0.00000E+00
    0.86758E+05        -0.49992E+08         0.00000E+00
    0.00000E+00         0.00000E+00        -0.49972E+08
 
   -0.49955E+08         0.88618E+05         0.00000E+00
    0.88618E+05        -0.49991E+08         0.00000E+00
    0.00000E+00         0.00000E+00        -0.49973E+08
 
   -0.49956E+08         0.90419E+05         0.00000E+00
    0.90419E+05        -0.49991E+08         0.00000E+00
    0.00000E+00         0.00000E+00        -0.49973E+08
 
   -0.49958E+08         0.92160E+05         0.00000E+00
    0.92160E+05        -0.49990E+08         0.00000E+00
    0.00000E+00         0.00000E+00        -0.49974E+08
 
   -0.49959E+08         0.93840E+05         0.00000E+00
    0.93840E+05        -0.49990E+08         0.00000E+00
    0.00000E+00         0.00000E+00        -0.49974E+08
 
   -0.49961E+08         0.95460E+05         0.00000E+00
    0.95460E+05        -0.49989E+08         0.00000E+00
    0.00000E+00         0.00000E+00        -0.49975E+08
 
   -0.49962E+08         0.97018E+05         0.00000E+00
    0.97018E+05        -0.49989E+08         0.00000E+00
    0.00000E+00         0.00000E+00        -0.49975E+08
 
   -0.49964E+08         0.98514E+05         0.00000E+00
    0.98514E+05        -0.49988E+08         0.00000E+00
    0.00000E+00         0.00000E+00        -0.49976E+08
 
   -0.49965E+08         0.99949E+05         0.00000E+00
    0.99949E+05        -0.49988E+08         0.00000E+00
    0.00000E+00         0.00000E+00        -0.49976E+08
 
   -0.49967E+08         0.10132E+06         0.00000E+00
    0.10132E+06        -0.49987E+08         0.00000E+00
    0.00000E+00         0.00000E+00        -0.49977E+08
 
   -0.49968E+08         0.10263E+06         0.00000E+00
    0.10263E+06        -0.49987E+08         0.00000E+00
    0.00000E+00         0.00000E+00        -0.49977E+08
 
   -0.49970E+08         0.10389E+06         0.00000E+00
    0.10389E+06        -0.49986E+08         0.00000E+00
    0.00000E+00         0.00000E+00        -0.49977E+08
 
   -0.49971E+08         0.10508E+06         0.00000E+00
    0.10508E+06        -0.49986E+08         0.00000E+00
    0.00000E+00         0.00000E+00        -0.49978E+08
 
   -0.49973E+08         0.10621E+06         0.00000E+00
    0.10621E+06        -0.49985E+08         0.00000E+00
    0.00000E+00         0.00000E+00        -0.49978E+08
 
   -0.49974E+08         0.10728E+06         0.00000E+00
    0.10728E+06        -0.49984E+08         0.00000E+00
    0.00000E+00         0.00000E+00        -0.49978E+08
 
   -0.49976E+08         0.10829E+06         0.00000E+00
    0.10829E+06        -0.49984E+08         0.00000E+00
    0.00000E+00         0.00000E+00        -0.49979E+08
 
   -0.49977E+08         0.10924E+06         0.00000E+00
    0.10924E+06        -0.49983E+08         0.00000E+00
    0.00000E+00         0.00000E+00        -0.49979E+08
 
   -0.49978E+08         0.11014E+06         0.00000E+00
    0.11014E+06        -0.49983E+08         0.00000E+00
    0.00000E+00         0.00000E+00        -0.49979E+08
 
   -0.49905E+08         0.16621E+04         0.00000E+00
    0.16621E+04        -0.50000E+08         0.00000E+00
    0.00000E+00         0.00000E+00        -0.49953E+08
 
   -0.49905E+08         0.49507E+04         0.00000E+00
    0.49507E+04        -0.50000E+08         0.00000E+00
    0.00000E+00         0.00000E+00        -0.49953E+08
 
   -0.49906E+08         0.82212E+04         0.00000E+00
    0.82212E+04        -0.50000E+08         0.00000E+00
    0.00000E+00         0.00000E+00        -0.49954E+08
 
   -0.49906E+08         0.11471E+05         0.00000E+00
    0.11471E+05        -0.50000E+08         0.00000E+00
    0.00000E+00         0.00000E+00        -0.49954E+08
 
   -0.49907E+08         0.14699E+05         0.00000E+00
    0.14699E+05        -0.50000E+08         0.00000E+00
    0.00000E+00         0.00000E+00        -0.49954E+08
 
   -0.49908E+08         0.17902E+05         0.00000E+00
    0.17902E+05        -0.50000E+08         0.00000E+00
    0.00000E+00         0.00000E+00        -0.49954E+08
 
   -0.49909E+08         0.21079E+05         0.00000E+00
    0.21079E+05        -0.50000E+08         0.00000E+00
    0.00000E+00         0.00000E+00        -0.49954E+08
 
   -0.49909E+08         0.24228E+05         0.00000E+00
    0.24228E+05        -0.49999E+08         0.00000E+00
    0.00000E+00         0.00000E+00        -0.49955E+08
 
   -0.49910E+08         0.27346E+05         0.00000E+00
    0.27346E+05        -0.49999E+08         0.00000E+00
    0.00000E+00         0.00000E+00        -0.49955E+08
 
   -0.49911E+08         0.30433E+05         0.00000E+00
    0.30433E+05        -0.49999E+08         0.00000E+00
    0.00000E+00         0.00000E+00        -0.49955E+08
 
   -0.49912E+08         0.33485E+05         0.00000E+00
    0.33485E+05        -0.49999E+08         0.00000E+00
    0.00000E+00         0.00000E+00        -0.49956E+08
 
   -0.49913E+08         0.36503E+05         0.00000E+00
    0.36503E+05        -0.49999E+08         0.00000E+00
    0.00000E+00         0.00000E+00        -0.49956E+08
 
   -0.49914E+08         0.39484E+05         0.00000E+00
    0.39484E+05        -0.49998E+08         0.00000E+00
    0.00000E+00         0.00000E+00        -0.49957E+08
 
   -0.49915E+08         0.42427E+05         0.00000E+00
    0.42427E+05        -0.49998E+08         0.00000E+00
    0.00000E+00         0.00000E+00        -0.49957E+08
 
   -0.49917E+08         0.45330E+05         0.00000E+00
    0.45330E+05        -0.49998E+08         0.00000E+00
    0.00000E+00         0.00000E+00        -0.49957E+08
 
   -0.49918E+08         0.48192E+05         0.00000E+00
    0.48192E+05        -0.49998E+08         0.00000E+00
    0.00000E+00         0.00000E+00        -0.49958E+08
 
   -0.49919E+08         0.51011E+05         0.00000E+00
    0.51011E+05        -0.49997E+08         0.00000E+00
    0.00000E+00         0.00000E+00        -0.49958E+08
 
   -0.49920E+08         0.53786E+05         0.00000E+00
    0.53786E+05        -0.49997E+08         0.00000E+00
    0.00000E+00         0.00000E+00        -0.49959E+08
 
   -0.49922E+08         0.56516E+05         0.00000E+00
    0.56516E+05        -0.49997E+08         0.00000E+00
    0.00000E+00         0.00000E+00        -0.49959E+08
 
   -0.49923E+08         0.59199E+05         0.00000E+00
    0.59199E+05        -0.49996E+08         0.00000E+00
    0.00000E+00         0.00000E+00        -0.49960E+08
 
   -0.49925E+08         0.61835E+05         0.00000E+00
    0.61835E+05        -0.49996E+08         0.00000E+00
    0.00000E+00         0.00000E+00        -0.49960E+08
 
   -0.49926E+08         0.64421E+05         0.00000E+00
    0.64421E+05        -0.49996E+08         0.00000E+00
    0.00000E+00         0.00000E+00        -0.49961E+08
 
   -0.49927E+08         0.66957E+05         0.00000E+00
    0.66957E+05        -0.49995E+08         0.00000E+00
    0.00000E+00         0.00000E+00        -0.49961E+08
 
   -0.49929E+08         0.69442E+05         0.00000E+00
    0.69442E+05        -0.49995E+08         0.00000E+00
    0.00000E+00         0.00000E+00        -0.49962E+08
 
   -0.49930E+08         0.71875E+05         0.00000E+00
    0.71875E+05        -0.49994E+08         0.00000E+00
    0.00000E+00         0.00000E+00        -0.49962E+08
 
   -0.49932E+08         0.74254E+05         0.00000E+00
    0.74254E+05        -0.49994E+08         0.00000E+00
    0.00000E+00         0.00000E+00        -0.49963E+08
 
   -0.49934E+08         0.76578E+05         0.00000E+00
    0.76578E+05        -0.49993E+08         0.00000E+00
    0.00000E+00         0.00000E+00        -0.49963E+08
 
   -0.49935E+08         0.78847E+05         0.00000E+00
    0.78847E+05        -0.49993E+08         0.00000E+00
    0.00000E+00         0.00000E+00        -0.49964E+08
 
   -0.49937E+08         0.81059E+05         0.00000E+00
    0.81059E+05        -0.49992E+08         0.00000E+00
    0.00000E+00         0.00000E+00        -0.49965E+08
 
   -0.49939E+08         0.83214E+05         0.00000E+00
    0.83214E+05        -0.49992E+08         0.00000E+00
    0.00000E+00         0.00000E+00        -0.49965E+08
 
   -0.49940E+08         0.85310E+05         0.00000E+00
    0.85310E+05        -0.49991E+08         0.00000E+00
    0.00000E+00         0.00000E+00        -0.49966E+08
 
   -0.49942E+08         0.87347E+05         0.00000E+00
    0.87347E+05        -0.49991E+08         0.00000E+00
    0.00000E+00         0.00000E+00        -0.49966E+08
 
   -0.49944E+08         0.89325E+05         0.00000E+00
    0.89325E+05        -0.49990E+08         0.00000E+00
    0.00000E+00         0.00000E+00        -0.49967E+08
 
   -0.49945E+08         0.91241E+05         0.00000E+00
    0.91241E+05        -0.49990E+08         0.00000E+00
    0.00000E+00         0.00000E+00        -0.49967E+08
 
   -0.49947E+08         0.93096E+05         0.00000E+00
    0.93096E+05        -0.49989E+08         0.00000E+00
    0.00000E+00         0.00000E+00        -0.49968E+08
 
   -0.49949E+08         0.94889E+05         0.00000E+00
    0.94889E+05        -0.49988E+08         0.00000E+00
    0.00000E+00         0.00000E+00        -0.49969E+08
 
   -0.49951E+08         0.96620E+05         0.00000E+00
    0.96620E+05        -0.49988E+08         0.00000E+00
    0.00000E+00         0.00000E+00        -0.49969E+08
 
   -0.49953E+08         0.98288E+05         0.00000E+00
    0.98288E+05        -0.49987E+08         0.00000E+00
    0.00000E+00         0.00000E+00        -0.49970E+08
 
   -0.49954E+08         0.99893E+05         0.00000E+00
    0.99893E+05        -0.49987E+08         0.00000E+00
    0.00000E+00         0.00000E+00        -0.49970E+08
 
   -0.49956E+08         0.10143E+06         0.00000E+00
    0.10143E+06        -0.49986E+08         0.00000E+00
    0.00000E+00         0.00000E+00        -0.49971E+08
 
   -0.49958E+08         0.10291E+06         0.00000E+00
    0.10291E+06        -0.49985E+08         0.00000E+00
    0.00000E+00         0.00000E+00        -0.49971E+08
 
   -0.49960E+08         0.10433E+06         0.00000E+00
    0.10433E+06        -0.49985E+08         0.00000E+00
    0.00000E+00         0.00000E+00        -0.49972E+08
 
   -0.49962E+08         0.10568E+06         0.00000E+00
    0.10568E+06        -0.49984E+08         0.00000E+00
    0.00000E+00         0.00000E+00        -0.49972E+08
 
   -0.49964E+08         0.10697E+06         0.00000E+00
    0.10697E+06        -0.49983E+08         0.00000E+00
    0.00000E+00         0.00000E+00        -0.49973E+08
 
   -0.49965E+08         0.10819E+06         0.00000E+00
    0.10819E+06        -0.49983E+08         0.00000E+00
    0.00000E+00         0.00000E+00        -0.49973E+08
 
   -0.49967E+08         0.10935E+06         0.00000E+00
    0.10935E+06        -0.49982E+08         0.00000E+00
    0.00000E+00         0.00000E+00        -0.49973E+08
 
   -0.49969E+08         0.11045E+06         0.00000E+00
    0.11045E+06        -0.49981E+08         0.00000E+00
    0.00000E+00         0.00000E+00        -0.49974E+08
 
   -0.49971E+08         0.11150E+06         0.00000E+00
    0.11150E+06        -0.49981E+08         0.00000E+00
    0.00000E+00         0.00000E+00        -0.49974E+08
 
   -0.49972E+08         0.11248E+06         0.00000E+00
    0.11248E+06        -0.49980E+08         0.00000E+00
    0.00000E+00         0.00000E+00        -0.49974E+08
 
   -0.49974E+08         0.11340E+06         0.00000E+00
    0.11340E+06        -0.49979E+08         0.00000E+00
    0.00000E+00         0.00000E+00        -0.49975E+08
 
   -0.49888E+08         0.17181E+04         0.00000E+00
    0.17181E+04        -0.50000E+08         0.00000E+00
    0.00000E+00         0.00000E+00        -0.49945E+08
 
   -0.49889E+08         0.51173E+04         0.00000E+00
    0.51173E+04        -0.50000E+08         0.00000E+00
    0.00000E+00         0.00000E+00        -0.49945E+08
 
   -0.49889E+08         0.84978E+04         0.00000E+00
    0.84978E+04        -0.50000E+08         0.00000E+00
    0.00000E+00         0.00000E+00        -0.49945E+08
 
   -0.49890E+08         0.11857E+05         0.00000E+00
    0.11857E+05        -0.50000E+08         0.00000E+00
    0.00000E+00         0.00000E+00        -0.49946E+08
 
   -0.49891E+08         0.15193E+05         0.00000E+00
    0.15193E+05        -0.50000E+08         0.00000E+00
    0.00000E+00         0.00000E+00        -0.49946E+08
 
   -0.49892E+08         0.18504E+05         0.00000E+00
    0.18504E+05        -0.50000E+08         0.00000E+00
    0.00000E+00         0.00000E+00        -0.49946E+08
 
   -0.49892E+08         0.21788E+05         0.00000E+00
    0.21788E+05        -0.50000E+08         0.00000E+00
    0.00000E+00         0.00000E+00        -0.49946E+08
 
   -0.49893E+08         0.25042E+05         0.00000E+00
    0.25042E+05        -0.49999E+08         0.00000E+00
    0.00000E+00         0.00000E+00        -0.49947E+08
 
   -0.49895E+08         0.28266E+05         0.00000E+00
    0.28266E+05        -0.49999E+08         0.00000E+00
    0.00000E+00         0.00000E+00        -0.49947E+08
 
   -0.49896E+08         0.31456E+05         0.00000E+00
    0.31456E+05        -0.49999E+08         0.00000E+00
    0.00000E+00         0.00000E+00        -0.49948E+08
 
   -0.49897E+08         0.34612E+05         0.00000E+00
    0.34612E+05        -0.49999E+08         0.00000E+00
    0.00000E+00         0.00000E+00        -0.49948E+08
 
   -0.49898E+08         0.37732E+05         0.00000E+00
    0.37732E+05        -0.49998E+08         0.00000E+00
    0.00000E+00         0.00000E+00        -0.49948E+08
 
   -0.49899E+08         0.40814E+05         0.00000E+00
    0.40814E+05        -0.49998E+08         0.00000E+00
    0.00000E+00         0.00000E+00        -0.49949E+08
 
   -0.49901E+08         0.43856E+05         0.00000E+00
    0.43856E+05        -0.49998E+08         0.00000E+00
    0.00000E+00         0.00000E+00        -0.49949E+08
 
   -0.49902E+08         0.46858E+05         0.00000E+00
    0.46858E+05        -0.49998E+08         0.00000E+00
    0.00000E+00         0.00000E+00        -0.49950E+08
 
   -0.49903E+08         0.49817E+05         0.00000E+00
    0.49817E+05        -0.49997E+08         0.00000E+00
    0.00000E+00         0.00000E+00        -0.49950E+08
 
   -0.49905E+08         0.52732E+05         0.00000E+00
    0.52732E+05        -0.49997E+08         0.00000E+00
    0.00000E+00         0.00000E+00        -0.49951E+08
 
   -0.49906E+08         0.55602E+05         0.00000E+00
    0.55602E+05        -0.49996E+08         0.00000E+00
    0.00000E+00         0.00000E+00        -0.49952E+08
 
   -0.49908E+08         0.58425E+05         0.00000E+00
    0.58425E+05        -0.49996E+08         0.00000E+00
    0.00000E+00         0.00000E+00        -0.49952E+08
 
   -0.49910E+08         0.61200E+05         0.00000E+00
    0.61200E+05        -0.49996E+08         0.00000E+00
    0.00000E+00         0.00000E+00        -0.49953E+08
 
   -0.49911E+08         0.63927E+05         0.00000E+00
    0.63927E+05        -0.49995E+08         0.00000E+00
    0.00000E+00         0.00000E+00        -0.49953E+08
 
   -0.49913E+08         0.66602E+05         0.00000E+00
    0.66602E+05        -0.49995E+08         0.00000E+00
    0.00000E+00         0.00000E+00        -0.49954E+08
 
   -0.49915E+08         0.69226E+05         0.00000E+00
    0.69226E+05        -0.49994E+08         0.00000E+00
    0.00000E+00         0.00000E+00        -0.49954E+08
 
   -0.49916E+08         0.71797E+05         0.00000E+00
    0.71797E+05        -0.49994E+08         0.00000E+00
    0.00000E+00         0.00000E+00        -0.49955E+08
 
   -0.49918E+08         0.74314E+05         0.00000E+00
    0.74314E+05        -0.49993E+08         0.00000E+00
    0.00000E+00         0.00000E+00        -0.49956E+08
 
   -0.49920E+08         0.76776E+05         0.00000E+00
    0.76776E+05        -0.49993E+08         0.00000E+00
    0.00000E+00         0.00000E+00        -0.49956E+08
 
   -0.49922E+08         0.79181E+05         0.00000E+00
    0.79181E+05        -0.49992E+08         0.00000E+00
    0.00000E+00         0.00000E+00        -0.49957E+08
 
   -0.49924E+08         0.81529E+05         0.00000E+00
    0.81529E+05        -0.49992E+08         0.00000E+00
    0.00000E+00         0.00000E+00        -0.49958E+08
 
   -0.49926E+08         0.83818E+05         0.00000E+00
    0.83818E+05        -0.49991E+08         0.00000E+00
    0.00000E+00         0.00000E+00        -0.49958E+08
 
   -0.49928E+08         0.86048E+05         0.00000E+00
    0.86048E+05        -0.49990E+08         0.00000E+00
    0.00000E+00         0.00000E+00        -0.49959E+08
 
   -0.49930E+08         0.88218E+05         0.00000E+00
    0.88218E+05        -0.49990E+08         0.00000E+00
    0.00000E+00         0.00000E+00        -0.49960E+08
 
   -0.49932E+08         0.90327E+05         0.00000E+00
    0.90327E+05        -0.49989E+08         0.00000E+00
    0.00000E+00         0.00000E+00        -0.49960E+08
 
   -0.49934E+08         0.92373E+05         0.00000E+00
    0.92373E+05        -0.49988E+08         0.00000E+00
    0.00000E+00         0.00000E+00        -0.49961E+08
 
   -0.49936E+08         0.94357E+05         0.00000E+00
    0.94357E+05        -0.49988E+08         0.00000E+00
    0.00000E+00         0.00000E+00        -0.49962E+08
 
   -0.49938E+08         0.96278E+05         0.00000E+00
    0.96278E+05        -0.49987E+08         0.00000E+00
    0.00000E+00         0.00000E+00        -0.49962E+08
 
   -0.49940E+08         0.98134E+05         0.00000E+00
    0.98134E+05        -0.49986E+08         0.00000E+00
    0.00000E+00         0.00000E+00        -0.49963E+08
 
   -0.49942E+08         0.99925E+05         0.00000E+00
    0.99925E+05        -0.49986E+08         0.00000E+00
    0.00000E+00         0.00000E+00        -0.49964E+08
 
   -0.49944E+08         0.10165E+06         0.00000E+00
    0.10165E+06        -0.49985E+08         0.00000E+00
    0.00000E+00         0.00000E+00        -0.49964E+08
 
   -0.49946E+08         0.10331E+06         0.00000E+00
    0.10331E+06        -0.49984E+08         0.00000E+00
    0.00000E+00         0.00000E+00        -0.49965E+08
 
   -0.49949E+08         0.10491E+06         0.00000E+00
    0.10491E+06        -0.49984E+08         0.00000E+00
    0.00000E+00         0.00000E+00        -0.49966E+08
 
   -0.49951E+08         0.10644E+06         0.00000E+00
    0.10644E+06        -0.49983E+08         0.00000E+00
    0.00000E+00         0.00000E+00        -0.49966E+08
 
   -0.49953E+08         0.10790E+06         0.00000E+00
    0.10790E+06        -0.49982E+08         0.00000E+00
    0.00000E+00         0.00000E+00        -0.49967E+08
 
   -0.49955E+08         0.10930E+06         0.00000E+00
    0.10930E+06        -0.49981E+08         0.00000E+00
    0.00000E+00         0.00000E+00        -0.49967E+08
 
   -0.49957E+08         0.11063E+06         0.00000E+00
    0.11063E+06        -0.49980E+08         0.00000E+00
    0.00000E+00         0.00000E+00        -0.49968E+08
 
   -0.49959E+08         0.11190E+06         0.00000E+00
    0.11190E+06        -0.49980E+08         0.00000E+00
    0.00000E+00         0.00000E+00        -0.49968E+08
 
   -0.49961E+08         0.11310E+06         0.00000E+00
    0.11310E+06        -0.49979E+08         0.00000E+00
    0.00000E+00         0.00000E+00        -0.49969E+08
 
   -0.49963E+08         0.11424E+06         0.00000E+00
    0.11424E+06        -0.49978E+08         0.00000E+00
    0.00000E+00         0.00000E+00        -0.49969E+08
 
   -0.49965E+08         0.11531E+06         0.00000E+00
    0.11531E+06        -0.49977E+08         0.00000E+00
    0.00000E+00         0.00000E+00        -0.49970E+08
 
   -0.49967E+08         0.11633E+06         0.00000E+00
    0.11633E+06        -0.49976E+08         0.00000E+00
    0.00000E+00         0.00000E+00        -0.49970E+08
 
   -0.49969E+08         0.11728E+06         0.00000E+00
    0.11728E+06        -0.49976E+08         0.00000E+00
    0.00000E+00         0.00000E+00        -0.49970E+08
 
   -0.49871E+08         0.17828E+04         0.00000E+00
    0.17828E+04        -0.50000E+08         0.00000E+00
    0.00000E+00         0.00000E+00        -0.49936E+08
 
   -0.49871E+08         0.53096E+04         0.00000E+00
    0.53096E+04        -0.50000E+08         0.00000E+00
    0.00000E+00         0.00000E+00        -0.49937E+08
 
   -0.49872E+08         0.88169E+04         0.00000E+00
    0.88169E+04        -0.50000E+08         0.00000E+00
    0.00000E+00         0.00000E+00        -0.49937E+08
 
   -0.49873E+08         0.12302E+05         0.00000E+00
    0.12302E+05        -0.50000E+08         0.00000E+00
    0.00000E+00         0.00000E+00        -0.49937E+08
 
   -0.49874E+08         0.15764E+05         0.00000E+00
    0.15764E+05        -0.50000E+08         0.00000E+00
    0.00000E+00         0.00000E+00        -0.49937E+08
 
   -0.49875E+08         0.19199E+05         0.00000E+00
    0.19199E+05        -0.50000E+08         0.00000E+00
    0.00000E+00         0.00000E+00        -0.49938E+08
 
   -0.49876E+08         0.22606E+05         0.00000E+00
    0.22606E+05        -0.49999E+08         0.00000E+00
    0.00000E+00         0.00000E+00        -0.49938E+08
 
   -0.49877E+08         0.25983E+05         0.00000E+00
    0.25983E+05        -0.49999E+08         0.00000E+00
    0.00000E+00         0.00000E+00        -0.49939E+08
 
   -0.49878E+08         0.29328E+05         0.00000E+00
    0.29328E+05        -0.49999E+08         0.00000E+00
    0.00000E+00         0.00000E+00        -0.49939E+08
 
   -0.49879E+08         0.32639E+05         0.00000E+00
    0.32639E+05        -0.49999E+08         0.00000E+00
    0.00000E+00         0.00000E+00        -0.49939E+08
 
   -0.49881E+08         0.35914E+05         0.00000E+00
    0.35914E+05        -0.49999E+08         0.00000E+00
    0.00000E+00         0.00000E+00        -0.49940E+08
 
   -0.49882E+08         0.39152E+05         0.00000E+00
    0.39152E+05        -0.49998E+08         0.00000E+00
    0.00000E+00         0.00000E+00        -0.49940E+08
 
   -0.49884E+08         0.42351E+05         0.00000E+00
    0.42351E+05        -0.49998E+08         0.00000E+00
    0.00000E+00         0.00000E+00        -0.49941E+08
 
   -0.49885E+08         0.45510E+05         0.00000E+00
    0.45510E+05        -0.49998E+08         0.00000E+00
    0.00000E+00         0.00000E+00        -0.49942E+08
 
   -0.49887E+08         0.48626E+05         0.00000E+00
    0.48626E+05        -0.49997E+08         0.00000E+00
    0.00000E+00         0.00000E+00        -0.49942E+08
 
   -0.49888E+08         0.51698E+05         0.00000E+00
    0.51698E+05        -0.49997E+08         0.00000E+00
    0.00000E+00         0.00000E+00        -0.49943E+08
 
   -0.49890E+08         0.54725E+05         0.00000E+00
    0.54725E+05        -0.49996E+08         0.00000E+00
    0.00000E+00         0.00000E+00        -0.49943E+08
 
   -0.49892E+08         0.57705E+05         0.00000E+00
    0.57705E+05        -0.49996E+08         0.00000E+00
    0.00000E+00         0.00000E+00        -0.49944E+08
 
   -0.49894E+08         0.60637E+05         0.00000E+00
    0.60637E+05        -0.49996E+08         0.00000E+00
    0.00000E+00         0.00000E+00        -0.49945E+08
 
   -0.49896E+08         0.63520E+05         0.00000E+00
    0.63520E+05        -0.49995E+08         0.00000E+00
    0.00000E+00         0.00000E+00        -0.49945E+08
 
   -0.49897E+08         0.66352E+05         0.00000E+00
    0.66352E+05        -0.49995E+08         0.00000E+00
    0.00000E+00         0.00000E+00        -0.49946E+08
 
   -0.49899E+08         0.69132E+05         0.00000E+00
    0.69132E+05        -0.49994E+08         0.00000E+00
    0.00000E+00         0.00000E+00        -0.49947E+08
 
   -0.49901E+08         0.71858E+05         0.00000E+00
    0.71858E+05        -0.49993E+08         0.00000E+00
    0.00000E+00         0.00000E+00        -0.49947E+08
 
   -0.49903E+08         0.74529E+05         0.00000E+00
    0.74529E+05        -0.49993E+08         0.00000E+00
    0.00000E+00         0.00000E+00        -0.49948E+08
 
   -0.49906E+08         0.77145E+05         0.00000E+00
    0.77145E+05        -0.49992E+08         0.00000E+00
    0.00000E+00         0.00000E+00        -0.49949E+08
 
   -0.49908E+08         0.79703E+05         0.00000E+00
    0.79703E+05        -0.49992E+08         0.00000E+00
    0.00000E+00         0.00000E+00        -0.49950E+08
 
   -0.49910E+08         0.82203E+05         0.00000E+00
    0.82203E+05        -0.49991E+08         0.00000E+00
    0.00000E+00         0.00000E+00        -0.49950E+08
 
   -0.49912E+08         0.84644E+05         0.00000E+00
    0.84644E+05        -0.49990E+08         0.00000E+00
    0.00000E+00         0.00000E+00        -0.49951E+08
 
   -0.49914E+08         0.87024E+05         0.00000E+00
    0.87024E+05        -0.49990E+08         0.00000E+00
    0.00000E+00         0.00000E+00        -0.49952E+08
 
   -0.49917E+08         0.89343E+05         0.00000E+00
    0.89343E+05        -0.49989E+08         0.00000E+00
    0.00000E+00         0.00000E+00        -0.49953E+08
 
   -0.49919E+08         0.91599E+05         0.00000E+00
    0.91599E+05        -0.49988E+08         0.00000E+00
    0.00000E+00         0.00000E+00        -0.49953E+08
 
   -0.49921E+08         0.93791E+05         0.00000E+00
    0.93791E+05        -0.49988E+08         0.00000E+00
    0.00000E+00         0.00000E+00        -0.49954E+08
 
   -0.49924E+08         0.95920E+05         0.00000E+00
    0.95920E+05        -0.49987E+08         0.00000E+00
    0.00000E+00         0.00000E+00        -0.49955E+08
 
   -0.49926E+08         0.97983E+05         0.00000E+00
    0.97983E+05        -0.49986E+08         0.00000E+00
    0.00000E+00         0.00000E+00        -0.49956E+08
 
   -0.49928E+08         0.99980E+05         0.00000E+00
    0.99980E+05        -0.49985E+08         0.00000E+00
    0.00000E+00         0.00000E+00        -0.49957E+08
 
   -0.49931E+08         0.10191E+06         0.00000E+00
    0.10191E+06        -0.49984E+08         0.00000E+00
    0.00000E+00         0.00000E+00        -0.49957E+08
 
   -0.49933E+08         0.10377E+06         0.00000E+00
    0.10377E+06        -0.49984E+08         0.00000E+00
    0.00000E+00         0.00000E+00        -0.49958E+08
 
   -0.49936E+08         0.10557E+06         0.00000E+00
    0.10557E+06        -0.49983E+08         0.00000E+00
    0.00000E+00         0.00000E+00        -0.49959E+08
 
   -0.49938E+08         0.10730E+06         0.00000E+00
    0.10730E+06        -0.49982E+08         0.00000E+00
    0.00000E+00         0.00000E+00        -0.49960E+08
 
   -0.49941E+08         0.10896E+06         0.00000E+00
    0.10896E+06        -0.49981E+08         0.00000E+00
    0.00000E+00         0.00000E+00        -0.49960E+08
 
   -0.49943E+08         0.11055E+06         0.00000E+00
    0.11055E+06        -0.49980E+08         0.00000E+00
    0.00000E+00         0.00000E+00        -0.49961E+08
 
   -0.49946E+08         0.11207E+06         0.00000E+00
    0.11207E+06        -0.49979E+08         0.00000E+00
    0.00000E+00         0.00000E+00        -0.49962E+08
 
   -0.49948E+08         0.11352E+06         0.00000E+00
    0.11352E+06        -0.49978E+08         0.00000E+00
    0.00000E+00         0.00000E+00        -0.49962E+08
 
   -0.49951E+08         0.11490E+06         0.00000E+00
    0.11490E+06        -0.49977E+08         0.00000E+00
    0.00000E+00         0.00000E+00        -0.49963E+08
 
   -0.49953E+08         0.11622E+06         0.00000E+00
    0.11622E+06        -0.49977E+08         0.00000E+00
    0.00000E+00         0.00000E+00        -0.49964E+08
 
   -0.49955E+08         0.11747E+06         0.00000E+00
    0.11747E+06        -0.49976E+08         0.00000E+00
    0.00000E+00         0.00000E+00        -0.49964E+08
 
   -0.49958E+08         0.11865E+06         0.00000E+00
    0.11865E+06        -0.49975E+08         0.00000E+00
    0.00000E+00         0.00000E+00        -0.49965E+08
 
   -0.49960E+08         0.11977E+06         0.00000E+00
    0.11977E+06        -0.49974E+08         0.00000E+00
    0.00000E+00         0.00000E+00        -0.49965E+08
 
   -0.49962E+08         0.12082E+06         0.00000E+00
    0.12082E+06        -0.49973E+08         0.00000E+00
    0.00000E+00         0.00000E+00        -0.49965E+08
 
   -0.49965E+08         0.12181E+06         0.00000E+00
    0.12181E+06        -0.49972E+08         0.00000E+00
    0.00000E+00         0.00000E+00        -0.49966E+08
 
   -0.49853E+08         0.18560E+04         0.00000E+00
    0.18560E+04        -0.50000E+08         0.00000E+00
    0.00000E+00         0.00000E+00        -0.49928E+08
 
   -0.49853E+08         0.55277E+04         0.00000E+00
    0.55277E+04        -0.50000E+08         0.00000E+00
    0.00000E+00         0.00000E+00        -0.49928E+08
 
   -0.49854E+08         0.91790E+04         0.00000E+00
    0.91790E+04        -0.50000E+08         0.00000E+00
    0.00000E+00         0.00000E+00        -0.49928E+08
 
   -0.49855E+08         0.12808E+05         0.00000E+00
    0.12808E+05        -0.50000E+08         0.00000E+00
    0.00000E+00         0.00000E+00        -0.49928E+08
 
   -0.49856E+08         0.16411E+05         0.00000E+00
    0.16411E+05        -0.50000E+08         0.00000E+00
    0.00000E+00         0.00000E+00        -0.49929E+08
 
   -0.49857E+08         0.19988E+05         0.00000E+00
    0.19988E+05        -0.50000E+08         0.00000E+00
    0.00000E+00         0.00000E+00        -0.49929E+08
 
   -0.49859E+08         0.23536E+05         0.00000E+00
    0.23536E+05        -0.49999E+08         0.00000E+00
    0.00000E+00         0.00000E+00        -0.49930E+08
 
   -0.49860E+08         0.27052E+05         0.00000E+00
    0.27052E+05        -0.49999E+08         0.00000E+00
    0.00000E+00         0.00000E+00        -0.49930E+08
 
   -0.49861E+08         0.30535E+05         0.00000E+00
    0.30535E+05        -0.49999E+08         0.00000E+00
    0.00000E+00         0.00000E+00        -0.49930E+08
 
   -0.49863E+08         0.33984E+05         0.00000E+00
    0.33984E+05        -0.49999E+08         0.00000E+00
    0.00000E+00         0.00000E+00        -0.49931E+08
 
   -0.49864E+08         0.37395E+05         0.00000E+00
    0.37395E+05        -0.49998E+08         0.00000E+00
    0.00000E+00         0.00000E+00        -0.49932E+08
 
   -0.49866E+08         0.40768E+05         0.00000E+00
    0.40768E+05        -0.49998E+08         0.00000E+00
    0.00000E+00         0.00000E+00        -0.49932E+08
 
   -0.49867E+08         0.44101E+05         0.00000E+00
    0.44101E+05        -0.49998E+08         0.00000E+00
    0.00000E+00         0.00000E+00        -0.49933E+08
 
   -0.49869E+08         0.47391E+05         0.00000E+00
    0.47391E+05        -0.49997E+08         0.00000E+00
    0.00000E+00         0.00000E+00        -0.49933E+08
 
   -0.49871E+08         0.50638E+05         0.00000E+00
    0.50638E+05        -0.49997E+08         0.00000E+00
    0.00000E+00         0.00000E+00        -0.49934E+08
 
   -0.49873E+08         0.53840E+05         0.00000E+00
    0.53840E+05        -0.49996E+08         0.00000E+00
    0.00000E+00         0.00000E+00        -0.49935E+08
 
   -0.49875E+08         0.56995E+05         0.00000E+00
    0.56995E+05        -0.49996E+08         0.00000E+00
    0.00000E+00         0.00000E+00        -0.49935E+08
 
   -0.49877E+08         0.60102E+05         0.00000E+00
    0.60102E+05        -0.49995E+08         0.00000E+00
    0.00000E+00         0.00000E+00        -0.49936E+08
 
   -0.49879E+08         0.63159E+05         0.00000E+00
    0.63159E+05        -0.49995E+08         0.00000E+00
    0.00000E+00         0.00000E+00        -0.49937E+08
 
   -0.49881E+08         0.66165E+05         0.00000E+00
    0.66165E+05        -0.49994E+08         0.00000E+00
    0.00000E+00         0.00000E+00        -0.49938E+08
 
   -0.49883E+08         0.69119E+05         0.00000E+00
    0.69119E+05        -0.49994E+08         0.00000E+00
    0.00000E+00         0.00000E+00        -0.49938E+08
 
   -0.49885E+08         0.72018E+05         0.00000E+00
    0.72018E+05        -0.49993E+08         0.00000E+00
    0.00000E+00         0.00000E+00        -0.49939E+08
 
   -0.49888E+08         0.74862E+05         0.00000E+00
    0.74862E+05        -0.49993E+08         0.00000E+00
    0.00000E+00         0.00000E+00        -0.49940E+08
 
   -0.49890E+08         0.77649E+05         0.00000E+00
    0.77649E+05        -0.49992E+08         0.00000E+00
    0.00000E+00         0.00000E+00        -0.49941E+08
 
   -0.49892E+08         0.80379E+05         0.00000E+00
    0.80379E+05        -0.49991E+08         0.00000E+00
    0.00000E+00         0.00000E+00        -0.49942E+08
 
   -0.49895E+08         0.83049E+05         0.00000E+00
    0.83049E+05        -0.49991E+08         0.00000E+00
    0.00000E+00         0.00000E+00        -0.49943E+08
 
   -0.49897E+08         0.85658E+05         0.00000E+00
    0.85658E+05        -0.49990E+08         0.00000E+00
    0.00000E+00         0.00000E+00        -0.49943E+08
 
   -0.49900E+08         0.88206E+05         0.00000E+00
    0.88206E+05        -0.49989E+08         0.00000E+00
    0.00000E+00         0.00000E+00        -0.49944E+08
 
   -0.49902E+08         0.90691E+05         0.00000E+00
    0.90691E+05        -0.49988E+08         0.00000E+00
    0.00000E+00         0.00000E+00        -0.49945E+08
 
   -0.49905E+08         0.93112E+05         0.00000E+00
    0.93112E+05        -0.49988E+08         0.00000E+00
    0.00000E+00         0.00000E+00        -0.49946E+08
 
   -0.49907E+08         0.95468E+05         0.00000E+00
    0.95468E+05        -0.49987E+08         0.00000E+00
    0.00000E+00         0.00000E+00        -0.49947E+08
 
   -0.49910E+08         0.97758E+05         0.00000E+00
    0.97758E+05        -0.49986E+08         0.00000E+00
    0.00000E+00         0.00000E+00        -0.49948E+08
 
   -0.49913E+08         0.99981E+05         0.00000E+00
    0.99981E+05        -0.49985E+08         0.00000E+00
    0.00000E+00         0.00000E+00        -0.49949E+08
 
   -0.49916E+08         0.10214E+06         0.00000E+00
    0.10214E+06        -0.49984E+08         0.00000E+00
    0.00000E+00         0.00000E+00        -0.49950E+08
 
   -0.49918E+08         0.10422E+06         0.00000E+00
    0.10422E+06        -0.49983E+08         0.00000E+00
    0.00000E+00         0.00000E+00        -0.49950E+08
 
   -0.49921E+08         0.10624E+06         0.00000E+00
    0.10624E+06        -0.49982E+08         0.00000E+00
    0.00000E+00         0.00000E+00        -0.49951E+08
 
   -0.49924E+08         0.10819E+06         0.00000E+00
    0.10819E+06        -0.49981E+08         0.00000E+00
    0.00000E+00         0.00000E+00        -0.49952E+08
 
   -0.49927E+08         0.11006E+06         0.00000E+00
    0.11006E+06        -0.49980E+08         0.00000E+00
    0.00000E+00         0.00000E+00        -0.49953E+08
 
   -0.49930E+08         0.11187E+06         0.00000E+00
    0.11187E+06        -0.49979E+08         0.00000E+00
    0.00000E+00         0.00000E+00        -0.49954E+08
 
   -0.49932E+08         0.11360E+06         0.00000E+00
    0.11360E+06        -0.49978E+08         0.00000E+00
    0.00000E+00         0.00000E+00        -0.49955E+08
 
   -0.49935E+08         0.11526E+06         0.00000E+00
    0.11526E+06        -0.49978E+08         0.00000E+00
    0.00000E+00         0.00000E+00        -0.49956E+08
 
   -0.49938E+08         0.11685E+06         0.00000E+00
    0.11685E+06        -0.49976E+08         0.00000E+00
    0.00000E+00         0.00000E+00        -0.49956E+08
 
   -0.49941E+08         0.11837E+06         0.00000E+00
    0.11837E+06        -0.49975E+08         0.00000E+00
    0.00000E+00         0.00000E+00        -0.49957E+08
 
   -0.49944E+08         0.11981E+06         0.00000E+00
    0.11981E+06        -0.49974E+08         0.00000E+00
    0.00000E+00         0.00000E+00        -0.49958E+08
 
   -0.49946E+08         0.12119E+06         0.00000E+00
    0.12119E+06        -0.49973E+08         0.00000E+00
    0.00000E+00         0.00000E+00        -0.49958E+08
 
   -0.49949E+08         0.12249E+06         0.00000E+00
    0.12249E+06        -0.49972E+08         0.00000E+00
    0.00000E+00         0.00000E+00        -0.49959E+08
 
   -0.49952E+08         0.12372E+06         0.00000E+00
    0.12372E+06        -0.49971E+08         0.00000E+00
    0.00000E+00         0.00000E+00        -0.49960E+08
 
   -0.49955E+08         0.12489E+06         0.00000E+00
    0.12489E+06        -0.49970E+08         0.00000E+00
    0.00000E+00         0.00000E+00        -0.49960E+08
 
   -0.49957E+08         0.12598E+06         0.00000E+00
    0.12598E+06        -0.49969E+08         0.00000E+00
    0.00000E+00         0.00000E+00        -0.49961E+08
 
   -0.49960E+08         0.12701E+06         0.00000E+00
    0.12701E+06        -0.49968E+08         0.00000E+00
    0.00000E+00         0.00000E+00        -0.49961E+08
 
   -0.49834E+08         0.19379E+04         0.00000E+00
    0.19379E+04        -0.50000E+08         0.00000E+00
    0.00000E+00         0.00000E+00        -0.49918E+08
 
   -0.49835E+08         0.57715E+04         0.00000E+00
    0.57715E+04        -0.50000E+08         0.00000E+00
    0.00000E+00         0.00000E+00        -0.49919E+08
 
   -0.49836E+08         0.95841E+04         0.00000E+00
    0.95841E+04        -0.50000E+08         0.00000E+00
    0.00000E+00         0.00000E+00        -0.49919E+08
 
   -0.49837E+08         0.13373E+05         0.00000E+00
    0.13373E+05        -0.50000E+08         0.00000E+00
    0.00000E+00         0.00000E+00        -0.49919E+08
 
   -0.49838E+08         0.17136E+05         0.00000E+00
    0.17136E+05        -0.50000E+08         0.00000E+00
    0.00000E+00         0.00000E+00        -0.49920E+08
 
   -0.49839E+08         0.20872E+05         0.00000E+00
    0.20872E+05        -0.49999E+08         0.00000E+00
    0.00000E+00         0.00000E+00        -0.49920E+08
 
   -0.49840E+08         0.24577E+05         0.00000E+00
    0.24577E+05        -0.49999E+08         0.00000E+00
    0.00000E+00         0.00000E+00        -0.49921E+08
 
   -0.49842E+08         0.28250E+05         0.00000E+00
    0.28250E+05        -0.49999E+08         0.00000E+00
    0.00000E+00         0.00000E+00        -0.49921E+08
 
   -0.49844E+08         0.31889E+05         0.00000E+00
    0.31889E+05        -0.49999E+08         0.00000E+00
    0.00000E+00         0.00000E+00        -0.49922E+08
 
   -0.49845E+08         0.35492E+05         0.00000E+00
    0.35492E+05        -0.49998E+08         0.00000E+00
    0.00000E+00         0.00000E+00        -0.49922E+08
 
   -0.49847E+08         0.39056E+05         0.00000E+00
    0.39056E+05        -0.49998E+08         0.00000E+00
    0.00000E+00         0.00000E+00        -0.49923E+08
 
   -0.49849E+08         0.42581E+05         0.00000E+00
    0.42581E+05        -0.49998E+08         0.00000E+00
    0.00000E+00         0.00000E+00        -0.49924E+08
 
   -0.49851E+08         0.46065E+05         0.00000E+00
    0.46065E+05        -0.49997E+08         0.00000E+00
    0.00000E+00         0.00000E+00        -0.49924E+08
 
   -0.49853E+08         0.49505E+05         0.00000E+00
    0.49505E+05        -0.49997E+08         0.00000E+00
    0.00000E+00         0.00000E+00        -0.49925E+08
 
   -0.49855E+08         0.52900E+05         0.00000E+00
    0.52900E+05        -0.49996E+08         0.00000E+00
    0.00000E+00         0.00000E+00        -0.49926E+08
 
   -0.49857E+08         0.56249E+05         0.00000E+00
    0.56249E+05        -0.49996E+08         0.00000E+00
    0.00000E+00         0.00000E+00        -0.49926E+08
 
   -0.49859E+08         0.59549E+05         0.00000E+00
    0.59549E+05        -0.49995E+08         0.00000E+00
    0.00000E+00         0.00000E+00        -0.49927E+08
 
   -0.49861E+08         0.62799E+05         0.00000E+00
    0.62799E+05        -0.49995E+08         0.00000E+00
    0.00000E+00         0.00000E+00        -0.49928E+08
 
   -0.49863E+08         0.65998E+05         0.00000E+00
    0.65998E+05        -0.49994E+08         0.00000E+00
    0.00000E+00         0.00000E+00        -0.49929E+08
 
   -0.49866E+08         0.69144E+05         0.00000E+00
    0.69144E+05        -0.49994E+08         0.00000E+00
    0.00000E+00         0.00000E+00        -0.49930E+08
 
   -0.49868E+08         0.72235E+05         0.00000E+00
    0.72235E+05        -0.49993E+08         0.00000E+00
    0.00000E+00         0.00000E+00        -0.49931E+08
 
   -0.49871E+08         0.75271E+05         0.00000E+00
    0.75271E+05        -0.49992E+08         0.00000E+00
    0.00000E+00         0.00000E+00        -0.49932E+08
 
   -0.49873E+08         0.78249E+05         0.00000E+00
    0.78249E+05        -0.49992E+08         0.00000E+00
    0.00000E+00         0.00000E+00        -0.49932E+08
 
   -0.49876E+08         0.81168E+05         0.00000E+00
    0.81168E+05        -0.49991E+08         0.00000E+00
    0.00000E+00         0.00000E+00        -0.49933E+08
 
   -0.49878E+08         0.84028E+05         0.00000E+00
    0.84028E+05        -0.49990E+08         0.00000E+00
    0.00000E+00         0.00000E+00        -0.49934E+08
 
   -0.49881E+08         0.86825E+05         0.00000E+00
    0.86825E+05        -0.49989E+08         0.00000E+00
    0.00000E+00         0.00000E+00        -0.49935E+08
 
   -0.49884E+08         0.89560E+05         0.00000E+00
    0.89560E+05        -0.49989E+08         0.00000E+00
    0.00000E+00         0.00000E+00        -0.49936E+08
 
   -0.49887E+08         0.92230E+05         0.00000E+00
    0.92230E+05        -0.49988E+08         0.00000E+00
    0.00000E+00         0.00000E+00        -0.49937E+08
 
   -0.49890E+08         0.94835E+05         0.00000E+00
    0.94835E+05        -0.49987E+08         0.00000E+00
    0.00000E+00         0.00000E+00        -0.49938E+08
 
   -0.49893E+08         0.97374E+05         0.00000E+00
    0.97374E+05        -0.49986E+08         0.00000E+00
    0.00000E+00         0.00000E+00        -0.49939E+08
 
   -0.49896E+08         0.99844E+05         0.00000E+00
    0.99844E+05        -0.49985E+08         0.00000E+00
    0.00000E+00         0.00000E+00        -0.49940E+08
 
   -0.49899E+08         0.10225E+06         0.00000E+00
    0.10225E+06        -0.49984E+08         0.00000E+00
    0.00000E+00         0.00000E+00        -0.49941E+08
 
   -0.49902E+08         0.10458E+06         0.00000E+00
    0.10458E+06        -0.49983E+08         0.00000E+00
    0.00000E+00         0.00000E+00        -0.49942E+08
 
   -0.49905E+08         0.10684E+06         0.00000E+00
    0.10684E+06        -0.49982E+08         0.00000E+00
    0.00000E+00         0.00000E+00        -0.49943E+08
 
   -0.49908E+08         0.10903E+06         0.00000E+00
    0.10903E+06        -0.49981E+08         0.00000E+00
    0.00000E+00         0.00000E+00        -0.49944E+08
 
   -0.49911E+08         0.11114E+06         0.00000E+00
    0.11114E+06        -0.49980E+08         0.00000E+00
    0.00000E+00         0.00000E+00        -0.49945E+08
 
   -0.49914E+08         0.11319E+06         0.00000E+00
    0.11319E+06        -0.49979E+08         0.00000E+00
    0.00000E+00         0.00000E+00        -0.49946E+08
 
   -0.49917E+08         0.11515E+06         0.00000E+00
    0.11515E+06        -0.49978E+08         0.00000E+00
    0.00000E+00         0.00000E+00        -0.49947E+08
 
   -0.49920E+08         0.11705E+06         0.00000E+00
    0.11705E+06        -0.49977E+08         0.00000E+00
    0.00000E+00         0.00000E+00        -0.49948E+08
 
   -0.49924E+08         0.11887E+06         0.00000E+00
    0.11887E+06        -0.49976E+08         0.00000E+00
    0.00000E+00         0.00000E+00        -0.49949E+08
 
   -0.49927E+08         0.12061E+06         0.00000E+00
    0.12061E+06        -0.49975E+08         0.00000E+00
    0.00000E+00         0.00000E+00        -0.49950E+08
 
   -0.49930E+08         0.12228E+06         0.00000E+00
    0.12228E+06        -0.49974E+08         0.00000E+00
    0.00000E+00         0.00000E+00        -0.49951E+08
 
   -0.49933E+08         0.12387E+06         0.00000E+00
    0.12387E+06        -0.49972E+08         0.00000E+00
    0.00000E+00         0.00000E+00        -0.49952E+08
 
   -0.49936E+08         0.12538E+06         0.00000E+00
    0.12538E+06        -0.49971E+08         0.00000E+00
    0.00000E+00         0.00000E+00        -0.49952E+08
 
   -0.49940E+08         0.12682E+06         0.00000E+00
    0.12682E+06        -0.49970E+08         0.00000E+00
    0.00000E+00         0.00000E+00        -0.49953E+08
 
   -0.49943E+08         0.12819E+06         0.00000E+00
    0.12819E+06        -0.49969E+08         0.00000E+00
    0.00000E+00         0.00000E+00        -0.49954E+08
 
   -0.49946E+08         0.12948E+06         0.00000E+00
    0.12948E+06        -0.49968E+08         0.00000E+00
    0.00000E+00         0.00000E+00        -0.49955E+08
 
   -0.49949E+08         0.13070E+06         0.00000E+00
    0.13070E+06        -0.49966E+08         0.00000E+00
    0.00000E+00         0.00000E+00        -0.49955E+08
 
   -0.49952E+08         0.13185E+06         0.00000E+00
    0.13185E+06        -0.49965E+08         0.00000E+00
    0.00000E+00         0.00000E+00        -0.49956E+08
 
   -0.49955E+08         0.13292E+06         0.00000E+00
    0.13292E+06        -0.49964E+08         0.00000E+00
    0.00000E+00         0.00000E+00        -0.49956E+08
 
   -0.49814E+08         0.20283E+04         0.00000E+00
    0.20283E+04        -0.50000E+08         0.00000E+00
    0.00000E+00         0.00000E+00        -0.49909E+08
 
   -0.49815E+08         0.60412E+04         0.00000E+00
    0.60412E+04        -0.50000E+08         0.00000E+00
    0.00000E+00         0.00000E+00        -0.49909E+08
 
   -0.49816E+08         0.10032E+05         0.00000E+00
    0.10032E+05        -0.50000E+08         0.00000E+00
    0.00000E+00         0.00000E+00        -0.49909E+08
 
   -0.49817E+08         0.13999E+05         0.00000E+00
    0.13999E+05        -0.50000E+08         0.00000E+00
    0.00000E+00         0.00000E+00        -0.49910E+08
 
   -0.49819E+08         0.17939E+05         0.00000E+00
    0.17939E+05        -0.50000E+08         0.00000E+00
    0.00000E+00         0.00000E+00        -0.49910E+08
 
   -0.49820E+08         0.21851E+05         0.00000E+00
    0.21851E+05        -0.49999E+08         0.00000E+00
    0.00000E+00         0.00000E+00        -0.49911E+08
 
   -0.49822E+08         0.25731E+05         0.00000E+00
    0.25731E+05        -0.49999E+08         0.00000E+00
    0.00000E+00         0.00000E+00        -0.49911E+08
 
   -0.49823E+08         0.29578E+05         0.00000E+00
    0.29578E+05        -0.49999E+08         0.00000E+00
    0.00000E+00         0.00000E+00        -0.49912E+08
 
   -0.49825E+08         0.33390E+05         0.00000E+00
    0.33390E+05        -0.49999E+08         0.00000E+00
    0.00000E+00         0.00000E+00        -0.49912E+08
 
   -0.49827E+08         0.37165E+05         0.00000E+00
    0.37165E+05        -0.49998E+08         0.00000E+00
    0.00000E+00         0.00000E+00        -0.49913E+08
 
   -0.49829E+08         0.40901E+05         0.00000E+00
    0.40901E+05        -0.49998E+08         0.00000E+00
    0.00000E+00         0.00000E+00        -0.49914E+08
 
   -0.49831E+08         0.44596E+05         0.00000E+00
    0.44596E+05        -0.49998E+08         0.00000E+00
    0.00000E+00         0.00000E+00        -0.49914E+08
 
   -0.49833E+08         0.48248E+05         0.00000E+00
    0.48248E+05        -0.49997E+08         0.00000E+00
    0.00000E+00         0.00000E+00        -0.49915E+08
 
   -0.49835E+08         0.51856E+05         0.00000E+00
    0.51856E+05        -0.49997E+08         0.00000E+00
    0.00000E+00         0.00000E+00        -0.49916E+08
 
   -0.49837E+08         0.55417E+05         0.00000E+00
    0.55417E+05        -0.49996E+08         0.00000E+00
    0.00000E+00         0.00000E+00        -0.49917E+08
 
   -0.49840E+08         0.58930E+05         0.00000E+00
    0.58930E+05        -0.49996E+08         0.00000E+00
    0.00000E+00         0.00000E+00        -0.49918E+08
 
   -0.49842E+08         0.62393E+05         0.00000E+00
    0.62393E+05        -0.49995E+08         0.00000E+00
    0.00000E+00         0.00000E+00        -0.49919E+08
 
   -0.49845E+08         0.65804E+05         0.00000E+00
    0.65804E+05        -0.49994E+08         0.00000E+00
    0.00000E+00         0.00000E+00        -0.49920E+08
 
   -0.49847E+08         0.69162E+05         0.00000E+00
    0.69162E+05        -0.49994E+08         0.00000E+00
    0.00000E+00         0.00000E+00        -0.49920E+08
 
   -0.49850E+08         0.72466E+05         0.00000E+00
    0.72466E+05        -0.49993E+08         0.00000E+00
    0.00000E+00         0.00000E+00        -0.49921E+08
 
   -0.49852E+08         0.75713E+05         0.00000E+00
    0.75713E+05        -0.49992E+08         0.00000E+00
    0.00000E+00         0.00000E+00        -0.49922E+08
 
   -0.49855E+08         0.78902E+05         0.00000E+00
    0.78902E+05        -0.49992E+08         0.00000E+00
    0.00000E+00         0.00000E+00        -0.49923E+08
 
   -0.49858E+08         0.82032E+05         0.00000E+00
    0.82032E+05        -0.49991E+08         0.00000E+00
    0.00000E+00         0.00000E+00        -0.49924E+08
 
   -0.49861E+08         0.85100E+05         0.00000E+00
    0.85100E+05        -0.49990E+08         0.00000E+00
    0.00000E+00         0.00000E+00        -0.49925E+08
 
   -0.49864E+08         0.88106E+05         0.00000E+00
    0.88106E+05        -0.49989E+08         0.00000E+00
    0.00000E+00         0.00000E+00        -0.49927E+08
 
   -0.49867E+08         0.91048E+05         0.00000E+00
    0.91048E+05        -0.49988E+08         0.00000E+00
    0.00000E+00         0.00000E+00        -0.49928E+08
 
   -0.49870E+08         0.93925E+05         0.00000E+00
    0.93925E+05        -0.49987E+08         0.00000E+00
    0.00000E+00         0.00000E+00        -0.49929E+08
 
   -0.49873E+08         0.96734E+05         0.00000E+00
    0.96734E+05        -0.49986E+08         0.00000E+00
    0.00000E+00         0.00000E+00        -0.49930E+08
 
   -0.49876E+08         0.99476E+05         0.00000E+00
    0.99476E+05        -0.49985E+08         0.00000E+00
    0.00000E+00         0.00000E+00        -0.49931E+08
 
   -0.49880E+08         0.10215E+06         0.00000E+00
    0.10215E+06        -0.49984E+08         0.00000E+00
    0.00000E+00         0.00000E+00        -0.49932E+08
 
   -0.49883E+08         0.10475E+06         0.00000E+00
    0.10475E+06        -0.49983E+08         0.00000E+00
    0.00000E+00         0.00000E+00        -0.49933E+08
 
   -0.49886E+08         0.10728E+06         0.00000E+00
    0.10728E+06        -0.49982E+08         0.00000E+00
    0.00000E+00         0.00000E+00        -0.49934E+08
 
   -0.49890E+08         0.10973E+06         0.00000E+00
    0.10973E+06        -0.49981E+08         0.00000E+00
    0.00000E+00         0.00000E+00        -0.49935E+08
 
   -0.49893E+08         0.11211E+06         0.00000E+00
    0.11211E+06        -0.49980E+08         0.00000E+00
    0.00000E+00         0.00000E+00        -0.49936E+08
 
   -0.49897E+08         0.11442E+06         0.00000E+00
    0.11442E+06        -0.49979E+08         0.00000E+00
    0.00000E+00         0.00000E+00        -0.49938E+08
 
   -0.49900E+08         0.11665E+06         0.00000E+00
    0.11665E+06        -0.49978E+08         0.00000E+00
    0.00000E+00         0.00000E+00        -0.49939E+08
 
   -0.49904E+08         0.11880E+06         0.00000E+00
    0.11880E+06        -0.49977E+08         0.00000E+00
    0.00000E+00         0.00000E+00        -0.49940E+08
 
   -0.49907E+08         0.12088E+06         0.00000E+00
    0.12088E+06        -0.49976E+08         0.00000E+00
    0.00000E+00         0.00000E+00        -0.49941E+08
 
   -0.49911E+08         0.12287E+06         0.00000E+00
    0.12287E+06        -0.49974E+08         0.00000E+00
    0.00000E+00         0.00000E+00        -0.49942E+08
 
   -0.49915E+08         0.12479E+06         0.00000E+00
    0.12479E+06        -0.49973E+08         0.00000E+00
    0.00000E+00         0.00000E+00        -0.49943E+08
 
   -0.49918E+08         0.12663E+06         0.00000E+00
    0.12663E+06        -0.49972E+08         0.00000E+00
    0.00000E+00         0.00000E+00        -0.49944E+08
 
   -0.49922E+08         0.12838E+06         0.00000E+00
    0.12838E+06        -0.49971E+08         0.00000E+00
    0.00000E+00         0.00000E+00        -0.49945E+08
 
   -0.49925E+08         0.13006E+06         0.00000E+00
    0.13006E+06        -0.49969E+08         0.00000E+00
    0.00000E+00         0.00000E+00        -0.49946E+08
 
   -0.49929E+08         0.13166E+06         0.00000E+00
    0.13166E+06        -0.49968E+08         0.00000E+00
    0.00000E+00         0.00000E+00        -0.49947E+08
 
   -0.49932E+08         0.13317E+06         0.00000E+00
    0.13317E+06        -0.49967E+08         0.00000E+00
    0.00000E+00         0.00000E+00        -0.49948E+08
 
   -0.49936E+08         0.13461E+06         0.00000E+00
    0.13461E+06        -0.49965E+08         0.00000E+00
    0.00000E+00         0.00000E+00        -0.49948E+08
 
   -0.49939E+08         0.13597E+06         0.00000E+00
    0.13597E+06        -0.49964E+08         0.00000E+00
    0.00000E+00         0.00000E+00        -0.49949E+08
 
   -0.49943E+08         0.13726E+06         0.00000E+00
    0.13726E+06        -0.49963E+08         0.00000E+00
    0.00000E+00         0.00000E+00        -0.49950E+08
 
   -0.49946E+08         0.13846E+06         0.00000E+00
    0.13846E+06        -0.49961E+08         0.00000E+00
    0.00000E+00         0.00000E+00        -0.49950E+08
 
   -0.49949E+08         0.13959E+06         0.00000E+00
    0.13959E+06        -0.49960E+08         0.00000E+00
    0.00000E+00         0.00000E+00        -0.49951E+08
 
   -0.49794E+08         0.21272E+04         0.00000E+00
    0.21272E+04        -0.50000E+08         0.00000E+00
    0.00000E+00         0.00000E+00        -0.49899E+08
 
   -0.49795E+08         0.63366E+04         0.00000E+00
    0.63366E+04        -0.50000E+08         0.00000E+00
    0.00000E+00         0.00000E+00        -0.49899E+08
 
   -0.49796E+08         0.10523E+05         0.00000E+00
    0.10523E+05        -0.50000E+08         0.00000E+00
    0.00000E+00         0.00000E+00        -0.49899E+08
 
   -0.49797E+08         0.14686E+05         0.00000E+00
    0.14686E+05        -0.50000E+08         0.00000E+00
    0.00000E+00         0.00000E+00        -0.49900E+08
 
   -0.49799E+08         0.18820E+05         0.00000E+00
    0.18820E+05        -0.50000E+08         0.00000E+00
    0.00000E+00         0.00000E+00        -0.49900E+08
 
   -0.49800E+08         0.22926E+05         0.00000E+00
    0.22926E+05        -0.49999E+08         0.00000E+00
    0.00000E+00         0.00000E+00        -0.49901E+08
 
   -0.49802E+08         0.26999E+05         0.00000E+00
    0.26999E+05        -0.49999E+08         0.00000E+00
    0.00000E+00         0.00000E+00        -0.49901E+08
 
   -0.49804E+08         0.31039E+05         0.00000E+00
    0.31039E+05        -0.49999E+08         0.00000E+00
    0.00000E+00         0.00000E+00        -0.49902E+08
 
   -0.49806E+08         0.35042E+05         0.00000E+00
    0.35042E+05        -0.49999E+08         0.00000E+00
    0.00000E+00         0.00000E+00        -0.49903E+08
 
   -0.49808E+08         0.39008E+05         0.00000E+00
    0.39008E+05        -0.49998E+08         0.00000E+00
    0.00000E+00         0.00000E+00        -0.49903E+08
 
   -0.49810E+08         0.42933E+05         0.00000E+00
    0.42933E+05        -0.49998E+08         0.00000E+00
    0.00000E+00         0.00000E+00        -0.49904E+08
 
   -0.49812E+08         0.46816E+05         0.00000E+00
    0.46816E+05        -0.49997E+08         0.00000E+00
    0.00000E+00         0.00000E+00        -0.49905E+08
 
   -0.49814E+08         0.50655E+05         0.00000E+00
    0.50655E+05        -0.49997E+08         0.00000E+00
    0.00000E+00         0.00000E+00        -0.49906E+08
 
   -0.49817E+08         0.54449E+05         0.00000E+00
    0.54449E+05        -0.49996E+08         0.00000E+00
    0.00000E+00         0.00000E+00        -0.49907E+08
 
   -0.49819E+08         0.58194E+05         0.00000E+00
    0.58194E+05        -0.49996E+08         0.00000E+00
    0.00000E+00         0.00000E+00        -0.49908E+08
 
   -0.49822E+08         0.61890E+05         0.00000E+00
    0.61890E+05        -0.49995E+08         0.00000E+00
    0.00000E+00         0.00000E+00        -0.49909E+08
 
   -0.49824E+08         0.65534E+05         0.00000E+00
    0.65534E+05        -0.49995E+08         0.00000E+00
    0.00000E+00         0.00000E+00        -0.49910E+08
 
   -0.49827E+08         0.69126E+05         0.00000E+00
    0.69126E+05        -0.49994E+08         0.00000E+00
    0.00000E+00         0.00000E+00        -0.49911E+08
 
   -0.49830E+08         0.72662E+05         0.00000E+00
    0.72662E+05        -0.49993E+08         0.00000E+00
    0.00000E+00         0.00000E+00        -0.49912E+08
 
   -0.49833E+08         0.76142E+05         0.00000E+00
    0.76142E+05        -0.49992E+08         0.00000E+00
    0.00000E+00         0.00000E+00        -0.49913E+08
 
   -0.49836E+08         0.79563E+05         0.00000E+00
    0.79563E+05        -0.49992E+08         0.00000E+00
    0.00000E+00         0.00000E+00        -0.49914E+08
 
   -0.49839E+08         0.82924E+05         0.00000E+00
    0.82924E+05        -0.49991E+08         0.00000E+00
    0.00000E+00         0.00000E+00        -0.49915E+08
 
   -0.49842E+08         0.86224E+05         0.00000E+00
    0.86224E+05        -0.49990E+08         0.00000E+00
    0.00000E+00         0.00000E+00        -0.49916E+08
 
   -0.49845E+08         0.89460E+05         0.00000E+00
    0.89460E+05        -0.49989E+08         0.00000E+00
    0.00000E+00         0.00000E+00        -0.49917E+08
 
   -0.49849E+08         0.92631E+05         0.00000E+00
    0.92631E+05        -0.49988E+08         0.00000E+00
    0.00000E+00         0.00000E+00        -0.49918E+08
 
   -0.49852E+08         0.95735E+05         0.00000E+00
    0.95735E+05        -0.49987E+08         0.00000E+00
    0.00000E+00         0.00000E+00        -0.49920E+08
 
   -0.49856E+08         0.98772E+05         0.00000E+00
    0.98772E+05        -0.49986E+08         0.00000E+00
    0.00000E+00         0.00000E+00        -0.49921E+08
 
   -0.49859E+08         0.10174E+06         0.00000E+00
    0.10174E+06        -0.49985E+08         0.00000E+00
    0.00000E+00         0.00000E+00        -0.49922E+08
 
   -0.49863E+08         0.10463E+06         0.00000E+00
    0.10463E+06        -0.49984E+08         0.00000E+00
    0.00000E+00         0.00000E+00        -0.49923E+08
 
   -0.49866E+08         0.10746E+06         0.00000E+00
    0.10746E+06        -0.49983E+08         0.00000E+00
    0.00000E+00         0.00000E+00        -0.49924E+08
 
   -0.49870E+08         0.11020E+06         0.00000E+00
    0.11020E+06        -0.49982E+08         0.00000E+00
    0.00000E+00         0.00000E+00        -0.49926E+08
 
   -0.49874E+08         0.11288E+06         0.00000E+00
    0.11288E+06        -0.49981E+08         0.00000E+00
    0.00000E+00         0.00000E+00        -0.49927E+08
 
   -0.49877E+08         0.11547E+06         0.00000E+00
    0.11547E+06        -0.49979E+08         0.00000E+00
    0.00000E+00         0.00000E+00        -0.49928E+08
 
   -0.49881E+08         0.11799E+06         0.00000E+00
    0.11799E+06        -0.49978E+08         0.00000E+00
    0.00000E+00         0.00000E+00        -0.49929E+08
 
   -0.49885E+08         0.12043E+06         0.00000E+00
    0.12043E+06        -0.49977E+08         0.00000E+00
    0.00000E+00         0.00000E+00        -0.49931E+08
 
   -0.49889E+08         0.12279E+06         0.00000E+00
    0.12279E+06        -0.49976E+08         0.00000E+00
    0.00000E+00         0.00000E+00        -0.49932E+08
 
   -0.49893E+08         0.12507E+06         0.00000E+00
    0.12507E+06        -0.49974E+08         0.00000E+00
    0.00000E+00         0.00000E+00        -0.49933E+08
 
   -0.49897E+08         0.12726E+06         0.00000E+00
    0.12726E+06        -0.49973E+08         0.00000E+00
    0.00000E+00         0.00000E+00        -0.49934E+08
 
   -0.49901E+08         0.12937E+06         0.00000E+00
    0.12937E+06        -0.49972E+08         0.00000E+00
    0.00000E+00         0.00000E+00        -0.49935E+08
 
   -0.49905E+08         0.13140E+06         0.00000E+00
    0.13140E+06        -0.49970E+08         0.00000E+00
    0.00000E+00         0.00000E+00        -0.49937E+08
 
   -0.49909E+08         0.13335E+06         0.00000E+00
    0.13335E+06        -0.49969E+08         0.00000E+00
    0.00000E+00         0.00000E+00        -0.49938E+08
 
   -0.49913E+08         0.13521E+06         0.00000E+00
    0.13521E+06        -0.49967E+08         0.00000E+00
    0.00000E+00         0.00000E+00        -0.49939E+08
 
   -0.49917E+08         0.13698E+06         0.00000E+00
    0.13698E+06        -0.49966E+08         0.00000E+00
    0.00000E+00         0.00000E+00        -0.49940E+08
 
   -0.49921E+08         0.13867E+06         0.00000E+00
    0.13867E+06        -0.49964E+08         0.00000E+00
    0.00000E+00         0.00000E+00        -0.49941E+08
 
   -0.49925E+08         0.14028E+06         0.00000E+00
    0.14028E+06        -0.49963E+08         0.00000E+00
    0.00000E+00         0.00000E+00        -0.49942E+08
 
   -0.49929E+08         0.14180E+06         0.00000E+00
    0.14180E+06        -0.49961E+08         0.00000E+00
    0.00000E+00         0.00000E+00        -0.49943E+08
 
   -0.49933E+08         0.14324E+06         0.00000E+00
    0.14324E+06        -0.49960E+08         0.00000E+00
    0.00000E+00         0.00000E+00        -0.49944E+08
 
   -0.49936E+08         0.14460E+06         0.00000E+00
    0.14460E+06        -0.49958E+08         0.00000E+00
    0.00000E+00         0.00000E+00        -0.49944E+08
 
   -0.49940E+08         0.14587E+06         0.00000E+00
    0.14587E+06        -0.49957E+08         0.00000E+00
    0.00000E+00         0.00000E+00        -0.49945E+08
 
   -0.49944E+08         0.14706E+06         0.00000E+00
    0.14706E+06        -0.49955E+08         0.00000E+00
    0.00000E+00         0.00000E+00        -0.49945E+08
 
   -0.49772E+08         0.22345E+04         0.00000E+00
    0.22345E+04        -0.50000E+08         0.00000E+00
    0.00000E+00         0.00000E+00        -0.49888E+08
 
   -0.49773E+08         0.66578E+04         0.00000E+00
    0.66578E+04        -0.50000E+08         0.00000E+00
    0.00000E+00         0.00000E+00        -0.49888E+08
 
   -0.49774E+08         0.11058E+05         0.00000E+00
    0.11058E+05        -0.50000E+08         0.00000E+00
    0.00000E+00         0.00000E+00        -0.49889E+08
 
   -0.49776E+08         0.15433E+05         0.00000E+00
    0.15433E+05        -0.50000E+08         0.00000E+00
    0.00000E+00         0.00000E+00        -0.49889E+08
 
   -0.49777E+08         0.19781E+05         0.00000E+00
    0.19781E+05        -0.50000E+08         0.00000E+00
    0.00000E+00         0.00000E+00        -0.49890E+08
 
   -0.49779E+08         0.24098E+05         0.00000E+00
    0.24098E+05        -0.49999E+08         0.00000E+00
    0.00000E+00         0.00000E+00        -0.49890E+08
 
   -0.49781E+08         0.28383E+05         0.00000E+00
    0.28383E+05        -0.49999E+08         0.00000E+00
    0.00000E+00         0.00000E+00        -0.49891E+08
 
   -0.49783E+08         0.32634E+05         0.00000E+00
    0.32634E+05        -0.49999E+08         0.00000E+00
    0.00000E+00         0.00000E+00        -0.49892E+08
 
   -0.49785E+08         0.36847E+05         0.00000E+00
    0.36847E+05        -0.49998E+08         0.00000E+00
    0.00000E+00         0.00000E+00        -0.49892E+08
 
   -0.49787E+08         0.41022E+05         0.00000E+00
    0.41022E+05        -0.49998E+08         0.00000E+00
    0.00000E+00         0.00000E+00        -0.49893E+08
 
   -0.49790E+08         0.45156E+05         0.00000E+00
    0.45156E+05        -0.49998E+08         0.00000E+00
    0.00000E+00         0.00000E+00        -0.49894E+08
 
   -0.49792E+08         0.49247E+05         0.00000E+00
    0.49247E+05        -0.49997E+08         0.00000E+00
    0.00000E+00         0.00000E+00        -0.49895E+08
 
   -0.49795E+08         0.53292E+05         0.00000E+00
    0.53292E+05        -0.49997E+08         0.00000E+00
    0.00000E+00         0.00000E+00        -0.49896E+08
 
   -0.49797E+08         0.57291E+05         0.00000E+00
    0.57291E+05        -0.49996E+08         0.00000E+00
    0.00000E+00         0.00000E+00        -0.49897E+08
 
   -0.49800E+08         0.61241E+05         0.00000E+00
    0.61241E+05        -0.49995E+08         0.00000E+00
    0.00000E+00         0.00000E+00        -0.49898E+08
 
   -0.49803E+08         0.65139E+05         0.00000E+00
    0.65139E+05        -0.49995E+08         0.00000E+00
    0.00000E+00         0.00000E+00        -0.49899E+08
 
   -0.49806E+08         0.68985E+05         0.00000E+00
    0.68985E+05        -0.49994E+08         0.00000E+00
    0.00000E+00         0.00000E+00        -0.49900E+08
 
   -0.49809E+08         0.72776E+05         0.00000E+00
    0.72776E+05        -0.49993E+08         0.00000E+00
    0.00000E+00         0.00000E+00        -0.49901E+08
 
   -0.49812E+08         0.76510E+05         0.00000E+00
    0.76510E+05        -0.49992E+08         0.00000E+00
    0.00000E+00         0.00000E+00        -0.49902E+08
 
   -0.49815E+08         0.80186E+05         0.00000E+00
    0.80186E+05        -0.49992E+08         0.00000E+00
    0.00000E+00         0.00000E+00        -0.49903E+08
 
   -0.49819E+08         0.83801E+05         0.00000E+00
    0.83801E+05        -0.49991E+08         0.00000E+00
    0.00000E+00         0.00000E+00        -0.49905E+08
 
   -0.49822E+08         0.87354E+05         0.00000E+00
    0.87354E+05        -0.49990E+08         0.00000E+00
    0.00000E+00         0.00000E+00        -0.49906E+08
 
   -0.49825E+08         0.90843E+05         0.00000E+00
    0.90843E+05        -0.49989E+08         0.00000E+00
    0.00000E+00         0.00000E+00        -0.49907E+08
 
   -0.49829E+08         0.94266E+05         0.00000E+00
    0.94266E+05        -0.49988E+08         0.00000E+00
    0.00000E+00         0.00000E+00        -0.49908E+08
 
   -0.49833E+08         0.97622E+05         0.00000E+00
    0.97622E+05        -0.49987E+08         0.00000E+00
    0.00000E+00         0.00000E+00        -0.49910E+08
 
   -0.49836E+08         0.10091E+06         0.00000E+00
    0.10091E+06        -0.49986E+08         0.00000E+00
    0.00000E+00         0.00000E+00        -0.49911E+08
 
   -0.49840E+08         0.10412E+06         0.00000E+00
    0.10412E+06        -0.49985E+08         0.00000E+00
    0.00000E+00         0.00000E+00        -0.49912E+08
 
   -0.49844E+08         0.10727E+06         0.00000E+00
    0.10727E+06        -0.49984E+08         0.00000E+00
    0.00000E+00         0.00000E+00        -0.49914E+08
 
   -0.49848E+08         0.11033E+06         0.00000E+00
    0.11033E+06        -0.49982E+08         0.00000E+00
    0.00000E+00         0.00000E+00        -0.49915E+08
 
   -0.49852E+08         0.11333E+06         0.00000E+00
    0.11333E+06        -0.49981E+08         0.00000E+00
    0.00000E+00         0.00000E+00        -0.49916E+08
 
   -0.49856E+08         0.11624E+06         0.00000E+00
    0.11624E+06        -0.49980E+08         0.00000E+00
    0.00000E+00         0.00000E+00        -0.49918E+08
 
   -0.49860E+08         0.11907E+06         0.00000E+00
    0.11907E+06        -0.49979E+08         0.00000E+00
    0.00000E+00         0.00000E+00        -0.49919E+08
 
   -0.49864E+08         0.12183E+06         0.00000E+00
    0.12183E+06        -0.49977E+08         0.00000E+00
    0.00000E+00         0.00000E+00        -0.49920E+08
 
   -0.49868E+08         0.12450E+06         0.00000E+00
    0.12450E+06        -0.49976E+08         0.00000E+00
    0.00000E+00         0.00000E+00        -0.49922E+08
 
   -0.49873E+08         0.12709E+06         0.00000E+00
    0.12709E+06        -0.49975E+08         0.00000E+00
    0.00000E+00         0.00000E+00        -0.49923E+08
 
   -0.49877E+08         0.12960E+06         0.00000E+00
    0.12960E+06        -0.49973E+08         0.00000E+00
    0.00000E+00         0.00000E+00        -0.49925E+08
 
   -0.49881E+08         0.13201E+06         0.00000E+00
    0.13201E+06        -0.49972E+08         0.00000E+00
    0.00000E+00         0.00000E+00        -0.49926E+08
 
   -0.49886E+08         0.13435E+06         0.00000E+00
    0.13435E+06        -0.49970E+08         0.00000E+00
    0.00000E+00         0.00000E+00        -0.49927E+08
 
   -0.49890E+08         0.13659E+06         0.00000E+00
    0.13659E+06        -0.49969E+08         0.00000E+00
    0.00000E+00         0.00000E+00        -0.49929E+08
 
   -0.49895E+08         0.13875E+06         0.00000E+00
    0.13875E+06        -0.49967E+08         0.00000E+00
    0.00000E+00         0.00000E+00        -0.49930E+08
 
   -0.49899E+08         0.14081E+06         0.00000E+00
    0.14081E+06        -0.49966E+08         0.00000E+00
    0.00000E+00         0.00000E+00        -0.49931E+08
 
   -0.49904E+08         0.14279E+06         0.00000E+00
    0.14279E+06        -0.49964E+08         0.00000E+00
    0.00000E+00         0.00000E+00        -0.49932E+08
 
   -0.49908E+08         0.14468E+06         0.00000E+00
    0.14468E+06        -0.49962E+08         0.00000E+00
    0.00000E+00         0.00000E+00        -0.49934E+08
 
   -0.49912E+08         0.14648E+06         0.00000E+00
    0.14648E+06        -0.49961E+08         0.00000E+00
    0.00000E+00         0.00000E+00        -0.49935E+08
 
   -0.49917E+08         0.14818E+06         0.00000E+00
    0.14818E+06        -0.49959E+08         0.00000E+00
    0.00000E+00         0.00000E+00        -0.49936E+08
 
   -0.49921E+08         0.14980E+06         0.00000E+00
    0.14980E+06        -0.49958E+08         0.00000E+00
    0.00000E+00         0.00000E+00        -0.49937E+08
 
   -0.49925E+08         0.15133E+06         0.00000E+00
    0.15133E+06        -0.49956E+08         0.00000E+00
    0.00000E+00         0.00000E+00        -0.49938E+08
 
   -0.49930E+08         0.15277E+06         0.00000E+00
    0.15277E+06        -0.49954E+08         0.00000E+00
    0.00000E+00         0.00000E+00        -0.49938E+08
 
   -0.49934E+08         0.15413E+06         0.00000E+00
    0.15413E+06        -0.49952E+08         0.00000E+00
    0.00000E+00         0.00000E+00        -0.49939E+08
 
   -0.49938E+08         0.15539E+06         0.00000E+00
    0.15539E+06        -0.49951E+08         0.00000E+00
    0.00000E+00         0.00000E+00        -0.49940E+08
 
   -0.49749E+08         0.23503E+04         0.00000E+00
    0.23503E+04        -0.50000E+08         0.00000E+00
    0.00000E+00         0.00000E+00        -0.49877E+08
 
   -0.49750E+08         0.70050E+04         0.00000E+00
    0.70050E+04        -0.50000E+08         0.00000E+00
    0.00000E+00         0.00000E+00        -0.49877E+08
 
   -0.49752E+08         0.11637E+05         0.00000E+00
    0.11637E+05        -0.50000E+08         0.00000E+00
    0.00000E+00         0.00000E+00        -0.49878E+08
 
   -0.49753E+08         0.16243E+05         0.00000E+00
    0.16243E+05        -0.50000E+08         0.00000E+00
    0.00000E+00         0.00000E+00        -0.49878E+08
 
   -0.49755E+08         0.20822E+05         0.00000E+00
    0.20822E+05        -0.50000E+08         0.00000E+00
    0.00000E+00         0.00000E+00        -0.49879E+08
 
   -0.49757E+08         0.25370E+05         0.00000E+00
    0.25370E+05        -0.49999E+08         0.00000E+00
    0.00000E+00         0.00000E+00        -0.49879E+08
 
   -0.49759E+08         0.29886E+05         0.00000E+00
    0.29886E+05        -0.49999E+08         0.00000E+00
    0.00000E+00         0.00000E+00        -0.49880E+08
 
   -0.49761E+08         0.34367E+05         0.00000E+00
    0.34367E+05        -0.49999E+08         0.00000E+00
    0.00000E+00         0.00000E+00        -0.49881E+08
 
   -0.49764E+08         0.38810E+05         0.00000E+00
    0.38810E+05        -0.49998E+08         0.00000E+00
    0.00000E+00         0.00000E+00        -0.49882E+08
 
   -0.49766E+08         0.43214E+05         0.00000E+00
    0.43214E+05        -0.49998E+08         0.00000E+00
    0.00000E+00         0.00000E+00        -0.49882E+08
 
   -0.49769E+08         0.47577E+05         0.00000E+00
    0.47577E+05        -0.49997E+08         0.00000E+00
    0.00000E+00         0.00000E+00        -0.49883E+08
 
   -0.49771E+08         0.51896E+05         0.00000E+00
    0.51896E+05        -0.49997E+08         0.00000E+00
    0.00000E+00         0.00000E+00        -0.49884E+08
 
   -0.49774E+08         0.56168E+05         0.00000E+00
    0.56168E+05        -0.49996E+08         0.00000E+00
    0.00000E+00         0.00000E+00        -0.49885E+08
 
   -0.49777E+08         0.60393E+05         0.00000E+00
    0.60393E+05        -0.49996E+08         0.00000E+00
    0.00000E+00         0.00000E+00        -0.49887E+08
 
   -0.49780E+08         0.64567E+05         0.00000E+00
    0.64567E+05        -0.49995E+08         0.00000E+00
    0.00000E+00         0.00000E+00        -0.49888E+08
 
   -0.49783E+08         0.68690E+05         0.00000E+00
    0.68690E+05        -0.49994E+08         0.00000E+00
    0.00000E+00         0.00000E+00        -0.49889E+08
 
   -0.49786E+08         0.72757E+05         0.00000E+00
    0.72757E+05        -0.49993E+08         0.00000E+00
    0.00000E+00         0.00000E+00        -0.49890E+08
 
   -0.49790E+08         0.76769E+05         0.00000E+00
    0.76769E+05        -0.49993E+08         0.00000E+00
    0.00000E+00         0.00000E+00        -0.49891E+08
 
   -0.49793E+08         0.80722E+05         0.00000E+00
    0.80722E+05        -0.49992E+08         0.00000E+00
    0.00000E+00         0.00000E+00        -0.49892E+08
 
   -0.49796E+08         0.84615E+05         0.00000E+00
    0.84615E+05        -0.49991E+08         0.00000E+00
    0.00000E+00         0.00000E+00        -0.49894E+08
 
   -0.49800E+08         0.88445E+05         0.00000E+00
    0.88445E+05        -0.49990E+08         0.00000E+00
    0.00000E+00         0.00000E+00        -0.49895E+08
 
   -0.49804E+08         0.92211E+05         0.00000E+00
    0.92211E+05        -0.49989E+08         0.00000E+00
    0.00000E+00         0.00000E+00        -0.49896E+08
 
   -0.49808E+08         0.95910E+05         0.00000E+00
    0.95910E+05        -0.49988E+08         0.00000E+00
    0.00000E+00         0.00000E+00        -0.49898E+08
 
   -0.49811E+08         0.99541E+05         0.00000E+00
    0.99541E+05        -0.49987E+08         0.00000E+00
    0.00000E+00         0.00000E+00        -0.49899E+08
 
   -0.49815E+08         0.10310E+06         0.00000E+00
    0.10310E+06        -0.49986E+08         0.00000E+00
    0.00000E+00         0.00000E+00        -0.49901E+08
 
   -0.49820E+08         0.10659E+06         0.00000E+00
    0.10659E+06        -0.49985E+08         0.00000E+00
    0.00000E+00         0.00000E+00        -0.49902E+08
 
   -0.49824E+08         0.11001E+06         0.00000E+00
    0.11001E+06        -0.49983E+08         0.00000E+00
    0.00000E+00         0.00000E+00        -0.49903E+08
 
   -0.49828E+08         0.11334E+06         0.00000E+00
    0.11334E+06        -0.49982E+08         0.00000E+00
    0.00000E+00         0.00000E+00        -0.49905E+08
 
   -0.49832E+08         0.11660E+06         0.00000E+00
    0.11660E+06        -0.49981E+08         0.00000E+00
    0.00000E+00         0.00000E+00        -0.49906E+08
 
   -0.49837E+08         0.11979E+06         0.00000E+00
    0.11979E+06        -0.49979E+08         0.00000E+00
    0.00000E+00         0.00000E+00        -0.49908E+08
 
   -0.49841E+08         0.12289E+06         0.00000E+00
    0.12289E+06        -0.49978E+08         0.00000E+00
    0.00000E+00         0.00000E+00        -0.49909E+08
 
   -0.49846E+08         0.12590E+06         0.00000E+00
    0.12590E+06        -0.49977E+08         0.00000E+00
    0.00000E+00         0.00000E+00        -0.49911E+08
 
   -0.49850E+08         0.12884E+06         0.00000E+00
    0.12884E+06        -0.49975E+08         0.00000E+00
    0.00000E+00         0.00000E+00        -0.49912E+08
 
   -0.49855E+08         0.13168E+06         0.00000E+00
    0.13168E+06        -0.49974E+08         0.00000E+00
    0.00000E+00         0.00000E+00        -0.49914E+08
 
   -0.49860E+08         0.13444E+06         0.00000E+00
    0.13444E+06        -0.49972E+08         0.00000E+00
    0.00000E+00         0.00000E+00        -0.49915E+08
 
   -0.49864E+08         0.13711E+06         0.00000E+00
    0.13711E+06        -0.49971E+08         0.00000E+00
    0.00000E+00         0.00000E+00        -0.49917E+08
 
   -0.49869E+08         0.13969E+06         0.00000E+00
    0.13969E+06        -0.49969E+08         0.00000E+00
    0.00000E+00         0.00000E+00        -0.49918E+08
 
   -0.49874E+08         0.14218E+06         0.00000E+00
    0.14218E+06        -0.49967E+08         0.00000E+00
    0.00000E+00         0.00000E+00        -0.49920E+08
 
   -0.49879E+08         0.14457E+06         0.00000E+00
    0.14457E+06        -0.49966E+08         0.00000E+00
    0.00000E+00         0.00000E+00        -0.49921E+08
 
   -0.49884E+08         0.14687E+06         0.00000E+00
    0.14687E+06        -0.49964E+08         0.00000E+00
    0.00000E+00         0.00000E+00        -0.49923E+08
 
   -0.49889E+08         0.14908E+06         0.00000E+00
    0.14908E+06        -0.49962E+08         0.00000E+00
    0.00000E+00         0.00000E+00        -0.49924E+08
 
   -0.49894E+08         0.15119E+06         0.00000E+00
    0.15119E+06        -0.49961E+08         0.00000E+00
    0.00000E+00         0.00000E+00        -0.49925E+08
 
   -0.49898E+08         0.15320E+06         0.00000E+00
    0.15320E+06        -0.49959E+08         0.00000E+00
    0.00000E+00         0.00000E+00        -0.49927E+08
 
   -0.49903E+08         0.15512E+06         0.00000E+00
    0.15512E+06        -0.49957E+08         0.00000E+00
    0.00000E+00         0.00000E+00        -0.49928E+08
 
   -0.49908E+08         0.15695E+06         0.00000E+00
    0.15695E+06        -0.49955E+08         0.00000E+00
    0.00000E+00         0.00000E+00        -0.49929E+08
 
   -0.49913E+08         0.15868E+06         0.00000E+00
    0.15868E+06        -0.49953E+08         0.00000E+00
    0.00000E+00         0.00000E+00        -0.49930E+08
 
   -0.49918E+08         0.16031E+06         0.00000E+00
    0.16031E+06        -0.49951E+08         0.00000E+00
    0.00000E+00         0.00000E+00        -0.49931E+08
 
   -0.49922E+08         0.16185E+06         0.00000E+00
    0.16185E+06        -0.49950E+08         0.00000E+00
    0.00000E+00         0.00000E+00        -0.49932E+08
 
   -0.49927E+08         0.16329E+06         0.00000E+00
    0.16329E+06        -0.49948E+08         0.00000E+00
    0.00000E+00         0.00000E+00        -0.49933E+08
 
   -0.49932E+08         0.16464E+06         0.00000E+00
    0.16464E+06        -0.49946E+08         0.00000E+00
    0.00000E+00         0.00000E+00        -0.49933E+08
 
   -0.49725E+08         0.24746E+04         0.00000E+00
    0.24746E+04        -0.50000E+08         0.00000E+00
    0.00000E+00         0.00000E+00        -0.49865E+08
 
   -0.49727E+08         0.73790E+04         0.00000E+00
    0.73790E+04        -0.50000E+08         0.00000E+00
    0.00000E+00         0.00000E+00        -0.49865E+08
 
   -0.49728E+08         0.12261E+05         0.00000E+00
    0.12261E+05        -0.50000E+08         0.00000E+00
    0.00000E+00         0.00000E+00        -0.49866E+08
 
   -0.49730E+08         0.17118E+05         0.00000E+00
    0.17118E+05        -0.50000E+08         0.00000E+00
    0.00000E+00         0.00000E+00        -0.49866E+08
 
   -0.49732E+08         0.21947E+05         0.00000E+00
    0.21947E+05        -0.49999E+08         0.00000E+00
    0.00000E+00         0.00000E+00        -0.49867E+08
 
   -0.49734E+08         0.26746E+05         0.00000E+00
    0.26746E+05        -0.49999E+08         0.00000E+00
    0.00000E+00         0.00000E+00        -0.49868E+08
 
   -0.49736E+08         0.31513E+05         0.00000E+00
    0.31513E+05        -0.49999E+08         0.00000E+00
    0.00000E+00         0.00000E+00        -0.49868E+08
 
   -0.49738E+08         0.36244E+05         0.00000E+00
    0.36244E+05        -0.49999E+08         0.00000E+00
    0.00000E+00         0.00000E+00        -0.49869E+08
 
   -0.49741E+08         0.40939E+05         0.00000E+00
    0.40939E+05        -0.49998E+08         0.00000E+00
    0.00000E+00         0.00000E+00        -0.49870E+08
 
   -0.49743E+08         0.45593E+05         0.00000E+00
    0.45593E+05        -0.49998E+08         0.00000E+00
    0.00000E+00         0.00000E+00        -0.49871E+08
 
   -0.49746E+08         0.50206E+05         0.00000E+00
    0.50206E+05        -0.49997E+08         0.00000E+00
    0.00000E+00         0.00000E+00        -0.49872E+08
 
   -0.49749E+08         0.54774E+05         0.00000E+00
    0.54774E+05        -0.49997E+08         0.00000E+00
    0.00000E+00         0.00000E+00        -0.49873E+08
 
   -0.49752E+08         0.59296E+05         0.00000E+00
    0.59296E+05        -0.49996E+08         0.00000E+00
    0.00000E+00         0.00000E+00        -0.49874E+08
 
   -0.49755E+08         0.63768E+05         0.00000E+00
    0.63768E+05        -0.49995E+08         0.00000E+00
    0.00000E+00         0.00000E+00        -0.49876E+08
 
   -0.49759E+08         0.68190E+05         0.00000E+00
    0.68190E+05        -0.49995E+08         0.00000E+00
    0.00000E+00         0.00000E+00        -0.49877E+08
 
   -0.49762E+08         0.72558E+05         0.00000E+00
    0.72558E+05        -0.49994E+08         0.00000E+00
    0.00000E+00         0.00000E+00        -0.49878E+08
 
   -0.49765E+08         0.76870E+05         0.00000E+00
    0.76870E+05        -0.49993E+08         0.00000E+00
    0.00000E+00         0.00000E+00        -0.49879E+08
 
   -0.49769E+08         0.81125E+05         0.00000E+00
    0.81125E+05        -0.49992E+08         0.00000E+00
    0.00000E+00         0.00000E+00        -0.49881E+08
 
   -0.49773E+08         0.85319E+05         0.00000E+00
    0.85319E+05        -0.49991E+08         0.00000E+00
    0.00000E+00         0.00000E+00        -0.49882E+08
 
   -0.49777E+08         0.89451E+05         0.00000E+00
    0.89451E+05        -0.49990E+08         0.00000E+00
    0.00000E+00         0.00000E+00        -0.49883E+08
 
   -0.49780E+08         0.93519E+05         0.00000E+00
    0.93519E+05        -0.49989E+08         0.00000E+00
    0.00000E+00         0.00000E+00        -0.49885E+08
 
   -0.49785E+08         0.97520E+05         0.00000E+00
    0.97520E+05        -0.49988E+08         0.00000E+00
    0.00000E+00         0.00000E+00        -0.49886E+08
 
   -0.49789E+08         0.10145E+06         0.00000E+00
    0.10145E+06        -0.49987E+08         0.00000E+00
    0.00000E+00         0.00000E+00        -0.49888E+08
 
   -0.49793E+08         0.10531E+06         0.00000E+00
    0.10531E+06        -0.49986E+08         0.00000E+00
    0.00000E+00         0.00000E+00        -0.49889E+08
 
   -0.49797E+08         0.10910E+06         0.00000E+00
    0.10910E+06        -0.49984E+08         0.00000E+00
    0.00000E+00         0.00000E+00        -0.49891E+08
 
   -0.49802E+08         0.11282E+06         0.00000E+00
    0.11282E+06        -0.49983E+08         0.00000E+00
    0.00000E+00         0.00000E+00        -0.49892E+08
 
   -0.49806E+08         0.11645E+06         0.00000E+00
    0.11645E+06        -0.49982E+08         0.00000E+00
    0.00000E+00         0.00000E+00        -0.49894E+08
 
   -0.49811E+08         0.12001E+06         0.00000E+00
    0.12001E+06        -0.49980E+08         0.00000E+00
    0.00000E+00         0.00000E+00        -0.49896E+08
 
   -0.49816E+08         0.12348E+06         0.00000E+00
    0.12348E+06        -0.49979E+08         0.00000E+00
    0.00000E+00         0.00000E+00        -0.49897E+08
 
   -0.49820E+08         0.12688E+06         0.00000E+00
    0.12688E+06        -0.49978E+08         0.00000E+00
    0.00000E+00         0.00000E+00        -0.49899E+08
 
   -0.49825E+08         0.13018E+06         0.00000E+00
    0.13018E+06        -0.49976E+08         0.00000E+00
    0.00000E+00         0.00000E+00        -0.49900E+08
 
   -0.49830E+08         0.13340E+06         0.00000E+00
    0.13340E+06        -0.49975E+08         0.00000E+00
    0.00000E+00         0.00000E+00        -0.49902E+08
 
   -0.49835E+08         0.13653E+06         0.00000E+00
    0.13653E+06        -0.49973E+08         0.00000E+00
    0.00000E+00         0.00000E+00        -0.49904E+08
 
   -0.49840E+08         0.13957E+06         0.00000E+00
    0.13957E+06        -0.49971E+08         0.00000E+00
    0.00000E+00         0.00000E+00        -0.49905E+08
 
   -0.49846E+08         0.14252E+06         0.00000E+00
    0.14252E+06        -0.49970E+08         0.00000E+00
    0.00000E+00         0.00000E+00        -0.49907E+08
 
   -0.49851E+08         0.14537E+06         0.00000E+00
    0.14537E+06        -0.49968E+08         0.00000E+00
    0.00000E+00         0.00000E+00        -0.49909E+08
 
   -0.49856E+08         0.14813E+06         0.00000E+00
    0.14813E+06        -0.49966E+08         0.00000E+00
    0.00000E+00         0.00000E+00        -0.49910E+08
 
   -0.49861E+08         0.15079E+06         0.00000E+00
    0.15079E+06        -0.49964E+08         0.00000E+00
    0.00000E+00         0.00000E+00        -0.49912E+08
 
   -0.49867E+08         0.15336E+06         0.00000E+00
    0.15336E+06        -0.49963E+08         0.00000E+00
    0.00000E+00         0.00000E+00        -0.49914E+08
 
   -0.49872E+08         0.15582E+06         0.00000E+00
    0.15582E+06        -0.49961E+08         0.00000E+00
    0.00000E+00         0.00000E+00        -0.49915E+08
 
   -0.49877E+08         0.15819E+06         0.00000E+00
    0.15819E+06        -0.49959E+08         0.00000E+00
    0.00000E+00         0.00000E+00        -0.49917E+08
 
   -0.49883E+08         0.16045E+06         0.00000E+00
    0.16045E+06        -0.49957E+08         0.00000E+00
    0.00000E+00         0.00000E+00        -0.49918E+08
 
   -0.49888E+08         0.16261E+06         0.00000E+00
    0.16261E+06        -0.49955E+08         0.00000E+00
    0.00000E+00         0.00000E+00        -0.49920E+08
 
   -0.49894E+08         0.16467E+06         0.00000E+00
    0.16467E+06        -0.49953E+08         0.00000E+00
    0.00000E+00         0.00000E+00        -0.49921E+08
 
   -0.49899E+08         0.16663E+06         0.00000E+00
    0.16663E+06        -0.49951E+08         0.00000E+00
    0.00000E+00         0.00000E+00        -0.49922E+08
 
   -0.49904E+08         0.16848E+06         0.00000E+00
    0.16848E+06        -0.49949E+08         0.00000E+00
    0.00000E+00         0.00000E+00        -0.49923E+08
 
   -0.49910E+08         0.17023E+06         0.00000E+00
    0.17023E+06        -0.49947E+08         0.00000E+00
    0.00000E+00         0.00000E+00        -0.49924E+08
 
   -0.49915E+08         0.17189E+06         0.00000E+00
    0.17189E+06        -0.49945E+08         0.00000E+00
    0.00000E+00         0.00000E+00        -0.49925E+08
 
   -0.49920E+08         0.17344E+06         0.00000E+00
    0.17344E+06        -0.49943E+08         0.00000E+00
    0.00000E+00         0.00000E+00        -0.49926E+08
 
   -0.49925E+08         0.17489E+06         0.00000E+00
    0.17489E+06        -0.49940E+08         0.00000E+00
    0.00000E+00         0.00000E+00        -0.49927E+08
 
   -0.49700E+08         0.26079E+04         0.00000E+00
    0.26079E+04        -0.50000E+08         0.00000E+00
    0.00000E+00         0.00000E+00        -0.49853E+08
 
   -0.49701E+08         0.77812E+04         0.00000E+00
    0.77812E+04        -0.50000E+08         0.00000E+00
    0.00000E+00         0.00000E+00        -0.49853E+08
 
   -0.49703E+08         0.12933E+05         0.00000E+00
    0.12933E+05        -0.50000E+08         0.00000E+00
    0.00000E+00         0.00000E+00        -0.49853E+08
 
   -0.49705E+08         0.18061E+05         0.00000E+00
    0.18061E+05        -0.50000E+08         0.00000E+00
    0.00000E+00         0.00000E+00        -0.49854E+08
 
   -0.49707E+08         0.23161E+05         0.00000E+00
    0.23161E+05        -0.49999E+08         0.00000E+00
    0.00000E+00         0.00000E+00        -0.49855E+08
 
   -0.49709E+08         0.28233E+05         0.00000E+00
    0.28233E+05        -0.49999E+08         0.00000E+00
    0.00000E+00         0.00000E+00        -0.49855E+08
 
   -0.49712E+08         0.33272E+05         0.00000E+00
    0.33272E+05        -0.49999E+08         0.00000E+00
    0.00000E+00         0.00000E+00        -0.49856E+08
 
   -0.49714E+08         0.38277E+05         0.00000E+00
    0.38277E+05        -0.49998E+08         0.00000E+00
    0.00000E+00         0.00000E+00        -0.49857E+08
 
   -0.49717E+08         0.43245E+05         0.00000E+00
    0.43245E+05        -0.49998E+08         0.00000E+00
    0.00000E+00         0.00000E+00        -0.49858E+08
 
   -0.49720E+08         0.48173E+05         0.00000E+00
    0.48173E+05        -0.49997E+08         0.00000E+00
    0.00000E+00         0.00000E+00        -0.49859E+08
 
   -0.49723E+08         0.53058E+05         0.00000E+00
    0.53058E+05        -0.49997E+08         0.00000E+00
    0.00000E+00         0.00000E+00        -0.49860E+08
 
   -0.49726E+08         0.57900E+05         0.00000E+00
    0.57900E+05        -0.49996E+08         0.00000E+00
    0.00000E+00         0.00000E+00        -0.49861E+08
 
   -0.49729E+08         0.62694E+05         0.00000E+00
    0.62694E+05        -0.49996E+08         0.00000E+00
    0.00000E+00         0.00000E+00        -0.49863E+08
 
   -0.49732E+08         0.67438E+05         0.00000E+00
    0.67438E+05        -0.49995E+08         0.00000E+00
    0.00000E+00         0.00000E+00        -0.49864E+08
 
   -0.49736E+08         0.72131E+05         0.00000E+00
    0.72131E+05        -0.49994E+08         0.00000E+00
    0.00000E+00         0.00000E+00        -0.49865E+08
 
   -0.49740E+08         0.76769E+05         0.00000E+00
    0.76769E+05        -0.49993E+08         0.00000E+00
    0.00000E+00         0.00000E+00        -0.49867E+08
 
   -0.49743E+08         0.81350E+05         0.00000E+00
    0.81350E+05        -0.49992E+08         0.00000E+00
    0.00000E+00         0.00000E+00        -0.49868E+08
 
   -0.49747E+08         0.85871E+05         0.00000E+00
    0.85871E+05        -0.49991E+08         0.00000E+00
    0.00000E+00         0.00000E+00        -0.49869E+08
 
   -0.49751E+08         0.90331E+05         0.00000E+00
    0.90331E+05        -0.49990E+08         0.00000E+00
    0.00000E+00         0.00000E+00        -0.49871E+08
 
   -0.49755E+08         0.94727E+05         0.00000E+00
    0.94727E+05        -0.49989E+08         0.00000E+00
    0.00000E+00         0.00000E+00        -0.49872E+08
 
   -0.49760E+08         0.99056E+05         0.00000E+00
    0.99056E+05        -0.49988E+08         0.00000E+00
    0.00000E+00         0.00000E+00        -0.49874E+08
 
   -0.49764E+08         0.10332E+06         0.00000E+00
    0.10332E+06        -0.49987E+08         0.00000E+00
    0.00000E+00         0.00000E+00        -0.49876E+08
 
   -0.49769E+08         0.10750E+06         0.00000E+00
    0.10750E+06        -0.49986E+08         0.00000E+00
    0.00000E+00         0.00000E+00        -0.49877E+08
 
   -0.49773E+08         0.11162E+06         0.00000E+00
    0.11162E+06        -0.49984E+08         0.00000E+00
    0.00000E+00         0.00000E+00        -0.49879E+08
 
   -0.49778E+08         0.11566E+06         0.00000E+00
    0.11566E+06        -0.49983E+08         0.00000E+00
    0.00000E+00         0.00000E+00        -0.49880E+08
 
   -0.49783E+08         0.11962E+06         0.00000E+00
    0.11962E+06        -0.49982E+08         0.00000E+00
    0.00000E+00         0.00000E+00        -0.49882E+08
 
   -0.49788E+08         0.12350E+06         0.00000E+00
    0.12350E+06        -0.49980E+08         0.00000E+00
    0.00000E+00         0.00000E+00        -0.49884E+08
 
   -0.49793E+08         0.12730E+06         0.00000E+00
    0.12730E+06        -0.49979E+08         0.00000E+00
    0.00000E+00         0.00000E+00        -0.49886E+08
 
   -0.49798E+08         0.13101E+06         0.00000E+00
    0.13101E+06        -0.49977E+08         0.00000E+00
    0.00000E+00         0.00000E+00        -0.49887E+08
 
   -0.49803E+08         0.13464E+06         0.00000E+00
    0.13464E+06        -0.49976E+08         0.00000E+00
    0.00000E+00         0.00000E+00        -0.49889E+08
 
   -0.49808E+08         0.13817E+06         0.00000E+00
    0.13817E+06        -0.49974E+08         0.00000E+00
    0.00000E+00         0.00000E+00        -0.49891E+08
 
   -0.49814E+08         0.14162E+06         0.00000E+00
    0.14162E+06        -0.49972E+08         0.00000E+00
    0.00000E+00         0.00000E+00        -0.49893E+08
 
   -0.49819E+08         0.14497E+06         0.00000E+00
    0.14497E+06        -0.49971E+08         0.00000E+00
    0.00000E+00         0.00000E+00        -0.49894E+08
 
   -0.49825E+08         0.14822E+06         0.00000E+00
    0.14822E+06        -0.49969E+08         0.00000E+00
    0.00000E+00         0.00000E+00        -0.49896E+08
 
   -0.49831E+08         0.15138E+06         0.00000E+00
    0.15138E+06        -0.49967E+08         0.00000E+00
    0.00000E+00         0.00000E+00        -0.49898E+08
 
   -0.49836E+08         0.15444E+06         0.00000E+00
    0.15444E+06        -0.49965E+08         0.00000E+00
    0.00000E+00         0.00000E+00        -0.49900E+08
 
   -0.49842E+08         0.15740E+06         0.00000E+00
    0.15740E+06        -0.49963E+08         0.00000E+00
    0.00000E+00         0.00000E+00        -0.49902E+08
 
   -0.49848E+08         0.16026E+06         0.00000E+00
    0.16026E+06        -0.49961E+08         0.00000E+00
    0.00000E+00         0.00000E+00        -0.49903E+08
 
   -0.49854E+08         0.16301E+06         0.00000E+00
    0.16301E+06        -0.49959E+08         0.00000E+00
    0.00000E+00         0.00000E+00        -0.49905E+08
 
   -0.49860E+08         0.16566E+06         0.00000E+00
    0.16566E+06        -0.49957E+08         0.00000E+00
    0.00000E+00         0.00000E+00        -0.49907E+08
 
   -0.49865E+08         0.16820E+06         0.00000E+00
    0.16820E+06        -0.49955E+08         0.00000E+00
    0.00000E+00         0.00000E+00        -0.49909E+08
 
   -0.49871E+08         0.17064E+06         0.00000E+00
    0.17064E+06        -0.49953E+08         0.00000E+00
    0.00000E+00         0.00000E+00        -0.49910E+08
 
   -0.49877E+08         0.17296E+06         0.00000E+00
    0.17296E+06        -0.49951E+08         0.00000E+00
    0.00000E+00         0.00000E+00        -0.49912E+08
 
   -0.49883E+08         0.17518E+06         0.00000E+00
    0.17518E+06        -0.49949E+08         0.00000E+00
    0.00000E+00         0.00000E+00        -0.49913E+08
 
   -0.49889E+08         0.17729E+06         0.00000E+00
    0.17729E+06        -0.49946E+08         0.00000E+00
    0.00000E+00         0.00000E+00        -0.49915E+08
 
   -0.49895E+08         0.17929E+06         0.00000E+00
    0.17929E+06        -0.49944E+08         0.00000E+00
    0.00000E+00         0.00000E+00        -0.49916E+08
 
   -0.49901E+08         0.18118E+06         0.00000E+00
    0.18118E+06        -0.49942E+08         0.00000E+00
    0.00000E+00         0.00000E+00        -0.49917E+08
 
   -0.49906E+08         0.18296E+06         0.00000E+00
    0.18296E+06        -0.49939E+08         0.00000E+00
    0.00000E+00         0.00000E+00        -0.49918E+08
 
   -0.49912E+08         0.18464E+06         0.00000E+00
    0.18464E+06        -0.49937E+08         0.00000E+00
    0.00000E+00         0.00000E+00        -0.49919E+08
 
   -0.49917E+08         0.18620E+06         0.00000E+00
    0.18620E+06        -0.49935E+08         0.00000E+00
    0.00000E+00         0.00000E+00        -0.49920E+08
 
   -0.49673E+08         0.27509E+04         0.00000E+00
    0.27509E+04        -0.50000E+08         0.00000E+00
    0.00000E+00         0.00000E+00        -0.49840E+08
 
   -0.49675E+08         0.82143E+04         0.00000E+00
    0.82143E+04        -0.50000E+08         0.00000E+00
    0.00000E+00         0.00000E+00        -0.49840E+08
 
   -0.49677E+08         0.13658E+05         0.00000E+00
    0.13658E+05        -0.50000E+08         0.00000E+00
    0.00000E+00         0.00000E+00        -0.49840E+08
 
   -0.49679E+08         0.19079E+05         0.00000E+00
    0.19079E+05        -0.50000E+08         0.00000E+00
    0.00000E+00         0.00000E+00        -0.49841E+08
 
   -0.49681E+08         0.24474E+05         0.00000E+00
    0.24474E+05        -0.49999E+08         0.00000E+00
    0.00000E+00         0.00000E+00        -0.49842E+08
 
   -0.49683E+08         0.29842E+05         0.00000E+00
    0.29842E+05        -0.49999E+08         0.00000E+00
    0.00000E+00         0.00000E+00        -0.49843E+08
 
   -0.49686E+08         0.35178E+05         0.00000E+00
    0.35178E+05        -0.49999E+08         0.00000E+00
    0.00000E+00         0.00000E+00        -0.49843E+08
 
   -0.49688E+08         0.40481E+05         0.00000E+00
    0.40481E+05        -0.49998E+08         0.00000E+00
    0.00000E+00         0.00000E+00        -0.49844E+08
 
   -0.49691E+08         0.45747E+05         0.00000E+00
    0.45747E+05        -0.49998E+08         0.00000E+00
    0.00000E+00         0.00000E+00        -0.49845E+08
 
   -0.49694E+08         0.50973E+05         0.00000E+00
    0.50973E+05        -0.49997E+08         0.00000E+00
    0.00000E+00         0.00000E+00        -0.49847E+08
 
   -0.49698E+08         0.56158E+05         0.00000E+00
    0.56158E+05        -0.49997E+08         0.00000E+00
    0.00000E+00         0.00000E+00        -0.49848E+08
 
   -0.49701E+08         0.61298E+05         0.00000E+00
    0.61298E+05        -0.49996E+08         0.00000E+00
    0.00000E+00         0.00000E+00        -0.49849E+08
 
   -0.49704E+08         0.66391E+05         0.00000E+00
    0.66391E+05        -0.49995E+08         0.00000E+00
    0.00000E+00         0.00000E+00        -0.49850E+08
 
   -0.49708E+08         0.71433E+05         0.00000E+00
    0.71433E+05        -0.49994E+08         0.00000E+00
    0.00000E+00         0.00000E+00        -0.49852E+08
 
   -0.49712E+08         0.76422E+05         0.00000E+00
    0.76422E+05        -0.49994E+08         0.00000E+00
    0.00000E+00         0.00000E+00        -0.49853E+08
 
   -0.49716E+08         0.81356E+05         0.00000E+00
    0.81356E+05        -0.49993E+08         0.00000E+00
    0.00000E+00         0.00000E+00        -0.49854E+08
 
   -0.49720E+08         0.86232E+05         0.00000E+00
    0.86232E+05        -0.49992E+08         0.00000E+00
    0.00000E+00         0.00000E+00        -0.49856E+08
 
   -0.49724E+08         0.91046E+05         0.00000E+00
    0.91046E+05        -0.49991E+08         0.00000E+00
    0.00000E+00         0.00000E+00        -0.49857E+08
 
   -0.49728E+08         0.95797E+05         0.00000E+00
    0.95797E+05        -0.49989E+08         0.00000E+00
    0.00000E+00         0.00000E+00        -0.49859E+08
 
   -0.49733E+08         0.10048E+06         0.00000E+00
    0.10048E+06        -0.49988E+08         0.00000E+00
    0.00000E+00         0.00000E+00        -0.49861E+08
 
   -0.49737E+08         0.10510E+06         0.00000E+00
    0.10510E+06        -0.49987E+08         0.00000E+00
    0.00000E+00         0.00000E+00        -0.49862E+08
 
   -0.49742E+08         0.10964E+06         0.00000E+00
    0.10964E+06        -0.49986E+08         0.00000E+00
    0.00000E+00         0.00000E+00        -0.49864E+08
 
   -0.49747E+08         0.11411E+06         0.00000E+00
    0.11411E+06        -0.49984E+08         0.00000E+00
    0.00000E+00         0.00000E+00        -0.49866E+08
 
   -0.49752E+08         0.11851E+06         0.00000E+00
    0.11851E+06        -0.49983E+08         0.00000E+00
    0.00000E+00         0.00000E+00        -0.49868E+08
 
   -0.49757E+08         0.12282E+06         0.00000E+00
    0.12282E+06        -0.49982E+08         0.00000E+00
    0.00000E+00         0.00000E+00        -0.49869E+08
 
   -0.49762E+08         0.12705E+06         0.00000E+00
    0.12705E+06        -0.49980E+08         0.00000E+00
    0.00000E+00         0.00000E+00        -0.49871E+08
 
   -0.49768E+08         0.13120E+06         0.00000E+00
    0.13120E+06        -0.49978E+08         0.00000E+00
    0.00000E+00         0.00000E+00        -0.49873E+08
 
   -0.49773E+08         0.13527E+06         0.00000E+00
    0.13527E+06        -0.49977E+08         0.00000E+00
    0.00000E+00         0.00000E+00        -0.49875E+08
 
   -0.49779E+08         0.13924E+06         0.00000E+00
    0.13924E+06        -0.49975E+08         0.00000E+00
    0.00000E+00         0.00000E+00        -0.49877E+08
 
   -0.49785E+08         0.14312E+06         0.00000E+00
    0.14312E+06        -0.49973E+08         0.00000E+00
    0.00000E+00         0.00000E+00        -0.49879E+08
 
   -0.49790E+08         0.14691E+06         0.00000E+00
    0.14691E+06        -0.49972E+08         0.00000E+00
    0.00000E+00         0.00000E+00        -0.49881E+08
 
   -0.49796E+08         0.15060E+06         0.00000E+00
    0.15060E+06        -0.49970E+08         0.00000E+00
    0.00000E+00         0.00000E+00        -0.49883E+08
 
   -0.49802E+08         0.15420E+06         0.00000E+00
    0.15420E+06        -0.49968E+08         0.00000E+00
    0.00000E+00         0.00000E+00        -0.49885E+08
 
   -0.49808E+08         0.15769E+06         0.00000E+00
    0.15769E+06        -0.49966E+08         0.00000E+00
    0.00000E+00         0.00000E+00        -0.49886E+08
 
   -0.49814E+08         0.16108E+06         0.00000E+00
    0.16108E+06        -0.49964E+08         0.00000E+00
    0.00000E+00         0.00000E+00        -0.49888E+08
 
   -0.49821E+08         0.16437E+06         0.00000E+00
    0.16437E+06        -0.49962E+08         0.00000E+00
    0.00000E+00         0.00000E+00        -0.49890E+08
 
   -0.49827E+08         0.16755E+06         0.00000E+00
    0.16755E+06        -0.49960E+08         0.00000E+00
    0.00000E+00         0.00000E+00        -0.49892E+08
 
   -0.49833E+08         0.17063E+06         0.00000E+00
    0.17063E+06        -0.49958E+08         0.00000E+00
    0.00000E+00         0.00000E+00        -0.49894E+08
 
   -0.49840E+08         0.17359E+06         0.00000E+00
    0.17359E+06        -0.49955E+08         0.00000E+00
    0.00000E+00         0.00000E+00        -0.49896E+08
 
   -0.49846E+08         0.17644E+06         0.00000E+00
    0.17644E+06        -0.49953E+08         0.00000E+00
    0.00000E+00         0.00000E+00        -0.49898E+08
 
   -0.49853E+08         0.17919E+06         0.00000E+00
    0.17919E+06        -0.49951E+08         0.00000E+00
    0.00000E+00         0.00000E+00        -0.49900E+08
 
   -0.49859E+08         0.18181E+06         0.00000E+00
    0.18181E+06        -0.49949E+08         0.00000E+00
    0.00000E+00         0.00000E+00        -0.49902E+08
 
   -0.49865E+08         0.18433E+06         0.00000E+00
    0.18433E+06        -0.49946E+08         0.00000E+00
    0.00000E+00         0.00000E+00        -0.49903E+08
 
   -0.49872E+08         0.18672E+06         0.00000E+00
    0.18672E+06        -0.49944E+08         0.00000E+00
    0.00000E+00         0.00000E+00        -0.49905E+08
 
   -0.49878E+08         0.18900E+06         0.00000E+00
    0.18900E+06        -0.49941E+08         0.00000E+00
    0.00000E+00         0.00000E+00        -0.49906E+08
 
   -0.49885E+08         0.19117E+06         0.00000E+00
    0.19117E+06        -0.49939E+08         0.00000E+00
    0.00000E+00         0.00000E+00        -0.49908E+08
 
   -0.49891E+08         0.19322E+06         0.00000E+00
    0.19322E+06        -0.49936E+08         0.00000E+00
    0.00000E+00         0.00000E+00        -0.49909E+08
 
   -0.49897E+08         0.19515E+06         0.00000E+00
    0.19515E+06        -0.49934E+08         0.00000E+00
    0.00000E+00         0.00000E+00        -0.49910E+08
 
   -0.49904E+08         0.19697E+06         0.00000E+00
    0.19697E+06        -0.49931E+08         0.00000E+00
    0.00000E+00         0.00000E+00        -0.49911E+08
 
   -0.49910E+08         0.19867E+06         0.00000E+00
    0.19867E+06        -0.49929E+08         0.00000E+00
    0.00000E+00         0.00000E+00        -0.49912E+08
 
   -0.49645E+08         0.29049E+04         0.00000E+00
    0.29049E+04        -0.50000E+08         0.00000E+00
    0.00000E+00         0.00000E+00        -0.49826E+08
 
   -0.49647E+08         0.86829E+04         0.00000E+00
    0.86829E+04        -0.50000E+08         0.00000E+00
    0.00000E+00         0.00000E+00        -0.49826E+08
 
   -0.49649E+08         0.14444E+05         0.00000E+00
    0.14444E+05        -0.50000E+08         0.00000E+00
    0.00000E+00         0.00000E+00        -0.49827E+08
 
   -0.49651E+08         0.20184E+05         0.00000E+00
    0.20184E+05        -0.50000E+08         0.00000E+00
    0.00000E+00         0.00000E+00        -0.49827E+08
 
   -0.49653E+08         0.25901E+05         0.00000E+00
    0.25901E+05        -0.49999E+08         0.00000E+00
    0.00000E+00         0.00000E+00        -0.49828E+08
 
   -0.49656E+08         0.31591E+05         0.00000E+00
    0.31591E+05        -0.49999E+08         0.00000E+00
    0.00000E+00         0.00000E+00        -0.49829E+08
 
   -0.49658E+08         0.37252E+05         0.00000E+00
    0.37252E+05        -0.49999E+08         0.00000E+00
    0.00000E+00         0.00000E+00        -0.49830E+08
 
   -0.49661E+08         0.42881E+05         0.00000E+00
    0.42881E+05        -0.49998E+08         0.00000E+00
    0.00000E+00         0.00000E+00        -0.49831E+08
 
   -0.49664E+08         0.48473E+05         0.00000E+00
    0.48473E+05        -0.49998E+08         0.00000E+00
    0.00000E+00         0.00000E+00        -0.49832E+08
 
   -0.49667E+08         0.54028E+05         0.00000E+00
    0.54028E+05        -0.49997E+08         0.00000E+00
    0.00000E+00         0.00000E+00        -0.49833E+08
 
   -0.49671E+08         0.59540E+05         0.00000E+00
    0.59540E+05        -0.49996E+08         0.00000E+00
    0.00000E+00         0.00000E+00        -0.49834E+08
 
   -0.49674E+08         0.65008E+05         0.00000E+00
    0.65008E+05        -0.49996E+08         0.00000E+00
    0.00000E+00         0.00000E+00        -0.49836E+08
 
   -0.49678E+08         0.70428E+05         0.00000E+00
    0.70428E+05        -0.49995E+08         0.00000E+00
    0.00000E+00         0.00000E+00        -0.49837E+08
 
   -0.49682E+08         0.75796E+05         0.00000E+00
    0.75796E+05        -0.49994E+08         0.00000E+00
    0.00000E+00         0.00000E+00        -0.49838E+08
 
   -0.49686E+08         0.81112E+05         0.00000E+00
    0.81112E+05        -0.49993E+08         0.00000E+00
    0.00000E+00         0.00000E+00        -0.49840E+08
 
   -0.49690E+08         0.86370E+05         0.00000E+00
    0.86370E+05        -0.49992E+08         0.00000E+00
    0.00000E+00         0.00000E+00        -0.49841E+08
 
   -0.49695E+08         0.91568E+05         0.00000E+00
    0.91568E+05        -0.49991E+08         0.00000E+00
    0.00000E+00         0.00000E+00        -0.49843E+08
 
   -0.49699E+08         0.96704E+05         0.00000E+00
    0.96704E+05        -0.49990E+08         0.00000E+00
    0.00000E+00         0.00000E+00        -0.49845E+08
 
   -0.49704E+08         0.10177E+06         0.00000E+00
    0.10177E+06        -0.49988E+08         0.00000E+00
    0.00000E+00         0.00000E+00        -0.49846E+08
 
   -0.49709E+08         0.10677E+06         0.00000E+00
    0.10677E+06        -0.49987E+08         0.00000E+00
    0.00000E+00         0.00000E+00        -0.49848E+08
 
   -0.49714E+08         0.11170E+06         0.00000E+00
    0.11170E+06        -0.49986E+08         0.00000E+00
    0.00000E+00         0.00000E+00        -0.49850E+08
 
   -0.49719E+08         0.11656E+06         0.00000E+00
    0.11656E+06        -0.49984E+08         0.00000E+00
    0.00000E+00         0.00000E+00        -0.49852E+08
 
   -0.49724E+08         0.12134E+06         0.00000E+00
    0.12134E+06        -0.49983E+08         0.00000E+00
    0.00000E+00         0.00000E+00        -0.49854E+08
 
   -0.49730E+08         0.12604E+06         0.00000E+00
    0.12604E+06        -0.49981E+08         0.00000E+00
    0.00000E+00         0.00000E+00        -0.49855E+08
 
   -0.49735E+08         0.13065E+06         0.00000E+00
    0.13065E+06        -0.49980E+08         0.00000E+00
    0.00000E+00         0.00000E+00        -0.49857E+08
 
   -0.49741E+08         0.13518E+06         0.00000E+00
    0.13518E+06        -0.49978E+08         0.00000E+00
    0.00000E+00         0.00000E+00        -0.49859E+08
 
   -0.49747E+08         0.13962E+06         0.00000E+00
    0.13962E+06        -0.49976E+08         0.00000E+00
    0.00000E+00         0.00000E+00        -0.49861E+08
 
   -0.49753E+08         0.14398E+06         0.00000E+00
    0.14398E+06        -0.49975E+08         0.00000E+00
    0.00000E+00         0.00000E+00        -0.49863E+08
 
   -0.49759E+08         0.14823E+06         0.00000E+00
    0.14823E+06        -0.49973E+08         0.00000E+00
    0.00000E+00         0.00000E+00        -0.49865E+08
 
   -0.49765E+08         0.15240E+06         0.00000E+00
    0.15240E+06        -0.49971E+08         0.00000E+00
    0.00000E+00         0.00000E+00        -0.49867E+08
 
   -0.49771E+08         0.15646E+06         0.00000E+00
    0.15646E+06        -0.49969E+08         0.00000E+00
    0.00000E+00         0.00000E+00        -0.49870E+08
 
   -0.49777E+08         0.16043E+06         0.00000E+00
    0.16043E+06        -0.49967E+08         0.00000E+00
    0.00000E+00         0.00000E+00        -0.49872E+08
 
   -0.49784E+08         0.16429E+06         0.00000E+00
    0.16429E+06        -0.49965E+08         0.00000E+00
    0.00000E+00         0.00000E+00        -0.49874E+08
 
   -0.49790E+08         0.16804E+06         0.00000E+00
    0.16804E+06        -0.49963E+08         0.00000E+00
    0.00000E+00         0.00000E+00        -0.49876E+08
 
   -0.49797E+08         0.17169E+06         0.00000E+00
    0.17169E+06        -0.49960E+08         0.00000E+00
    0.00000E+00         0.00000E+00        -0.49878E+08
 
   -0.49804E+08         0.17523E+06         0.00000E+00
    0.17523E+06        -0.49958E+08         0.00000E+00
    0.00000E+00         0.00000E+00        -0.49880E+08
 
   -0.49811E+08         0.17865E+06         0.00000E+00
    0.17865E+06        -0.49956E+08         0.00000E+00
    0.00000E+00         0.00000E+00        -0.49882E+08
 
   -0.49818E+08         0.18197E+06         0.00000E+00
    0.18197E+06        -0.49954E+08         0.00000E+00
    0.00000E+00         0.00000E+00        -0.49884E+08
 
   -0.49825E+08         0.18517E+06         0.00000E+00
    0.18517E+06        -0.49951E+08         0.00000E+00
    0.00000E+00         0.00000E+00        -0.49886E+08
 
   -0.49832E+08         0.18825E+06         0.00000E+00
    0.18825E+06        -0.49949E+08         0.00000E+00
    0.00000E+00         0.00000E+00        -0.49888E+08
 
   -0.49839E+08         0.19121E+06         0.00000E+00
    0.19121E+06        -0.49946E+08         0.00000E+00
    0.00000E+00         0.00000E+00        -0.49890E+08
 
   -0.49846E+08         0.19405E+06         0.00000E+00
    0.19405E+06        -0.49944E+08         0.00000E+00
    0.00000E+00         0.00000E+00        -0.49892E+08
 
   -0.49853E+08         0.19677E+06         0.00000E+00
    0.19677E+06        -0.49941E+08         0.00000E+00
    0.00000E+00         0.00000E+00        -0.49894E+08
 
   -0.49860E+08         0.19937E+06         0.00000E+00
    0.19937E+06        -0.49938E+08         0.00000E+00
    0.00000E+00         0.00000E+00        -0.49896E+08
 
   -0.49867E+08         0.20185E+06         0.00000E+00
    0.20185E+06        -0.49936E+08         0.00000E+00
    0.00000E+00         0.00000E+00        -0.49898E+08
 
   -0.49874E+08         0.20420E+06         0.00000E+00
    0.20420E+06        -0.49933E+08         0.00000E+00
    0.00000E+00         0.00000E+00        -0.49899E+08
 
   -0.49881E+08         0.20643E+06         0.00000E+00
    0.20643E+06        -0.49930E+08         0.00000E+00
    0.00000E+00         0.00000E+00        -0.49901E+08
 
   -0.49888E+08         0.20854E+06         0.00000E+00
    0.20854E+06        -0.49928E+08         0.00000E+00
    0.00000E+00         0.00000E+00        -0.49902E+08
 
   -0.49894E+08         0.21052E+06         0.00000E+00
    0.21052E+06        -0.49925E+08         0.00000E+00
    0.00000E+00         0.00000E+00        -0.49903E+08
 
   -0.49901E+08         0.21238E+06         0.00000E+00
    0.21238E+06        -0.49922E+08         0.00000E+00
    0.00000E+00         0.00000E+00        -0.49904E+08
 
   -0.49615E+08         0.30723E+04         0.00000E+00
    0.30723E+04        -0.50000E+08         0.00000E+00
    0.00000E+00         0.00000E+00        -0.49811E+08
 
   -0.49617E+08         0.91942E+04         0.00000E+00
    0.91942E+04        -0.50000E+08         0.00000E+00
    0.00000E+00         0.00000E+00        -0.49811E+08
 
   -0.49619E+08         0.15302E+05         0.00000E+00
    0.15302E+05        -0.50000E+08         0.00000E+00
    0.00000E+00         0.00000E+00        -0.49812E+08
 
   -0.49621E+08         0.21393E+05         0.00000E+00
    0.21393E+05        -0.50000E+08         0.00000E+00
    0.00000E+00         0.00000E+00        -0.49812E+08
 
   -0.49624E+08         0.27463E+05         0.00000E+00
    0.27463E+05        -0.49999E+08         0.00000E+00
    0.00000E+00         0.00000E+00        -0.49813E+08
 
   -0.49626E+08         0.33509E+05         0.00000E+00
    0.33509E+05        -0.49999E+08         0.00000E+00
    0.00000E+00         0.00000E+00        -0.49814E+08
 
   -0.49629E+08         0.39527E+05         0.00000E+00
    0.39527E+05        -0.49998E+08         0.00000E+00
    0.00000E+00         0.00000E+00        -0.49815E+08
 
   -0.49632E+08         0.45515E+05         0.00000E+00
    0.45515E+05        -0.49998E+08         0.00000E+00
    0.00000E+00         0.00000E+00        -0.49816E+08
 
   -0.49635E+08         0.51467E+05         0.00000E+00
    0.51467E+05        -0.49997E+08         0.00000E+00
    0.00000E+00         0.00000E+00        -0.49817E+08
 
   -0.49639E+08         0.57382E+05         0.00000E+00
    0.57382E+05        -0.49997E+08         0.00000E+00
    0.00000E+00         0.00000E+00        -0.49819E+08
 
   -0.49643E+08         0.63255E+05         0.00000E+00
    0.63255E+05        -0.49996E+08         0.00000E+00
    0.00000E+00         0.00000E+00        -0.49820E+08
 
   -0.49646E+08         0.69084E+05         0.00000E+00
    0.69084E+05        -0.49995E+08         0.00000E+00
    0.00000E+00         0.00000E+00        -0.49821E+08
 
   -0.49650E+08         0.74863E+05         0.00000E+00
    0.74863E+05        -0.49994E+08         0.00000E+00
    0.00000E+00         0.00000E+00        -0.49823E+08
 
   -0.49655E+08         0.80591E+05         0.00000E+00
    0.80591E+05        -0.49993E+08         0.00000E+00
    0.00000E+00         0.00000E+00        -0.49824E+08
 
   -0.49659E+08         0.86264E+05         0.00000E+00
    0.86264E+05        -0.49992E+08         0.00000E+00
    0.00000E+00         0.00000E+00        -0.49826E+08
 
   -0.49663E+08         0.91878E+05         0.00000E+00
    0.91878E+05        -0.49991E+08         0.00000E+00
    0.00000E+00         0.00000E+00        -0.49827E+08
 
   -0.49668E+08         0.97430E+05         0.00000E+00
    0.97430E+05        -0.49990E+08         0.00000E+00
    0.00000E+00         0.00000E+00        -0.49829E+08
 
   -0.49673E+08         0.10292E+06         0.00000E+00
    0.10292E+06        -0.49989E+08         0.00000E+00
    0.00000E+00         0.00000E+00        -0.49831E+08
 
   -0.49678E+08         0.10834E+06         0.00000E+00
    0.10834E+06        -0.49987E+08         0.00000E+00
    0.00000E+00         0.00000E+00        -0.49833E+08
 
   -0.49683E+08         0.11368E+06         0.00000E+00
    0.11368E+06        -0.49986E+08         0.00000E+00
    0.00000E+00         0.00000E+00        -0.49835E+08
 
   -0.49689E+08         0.11895E+06         0.00000E+00
    0.11895E+06        -0.49984E+08         0.00000E+00
    0.00000E+00         0.00000E+00        -0.49836E+08
 
   -0.49694E+08         0.12415E+06         0.00000E+00
    0.12415E+06        -0.49983E+08         0.00000E+00
    0.00000E+00         0.00000E+00        -0.49838E+08
 
   -0.49700E+08         0.12926E+06         0.00000E+00
    0.12926E+06        -0.49981E+08         0.00000E+00
    0.00000E+00         0.00000E+00        -0.49840E+08
 
   -0.49706E+08         0.13429E+06         0.00000E+00
    0.13429E+06        -0.49980E+08         0.00000E+00
    0.00000E+00         0.00000E+00        -0.49842E+08
 
   -0.49711E+08         0.13923E+06         0.00000E+00
    0.13923E+06        -0.49978E+08         0.00000E+00
    0.00000E+00         0.00000E+00        -0.49845E+08
 
   -0.49718E+08         0.14409E+06         0.00000E+00
    0.14409E+06        -0.49976E+08         0.00000E+00
    0.00000E+00         0.00000E+00        -0.49847E+08
 
   -0.49724E+08         0.14885E+06         0.00000E+00
    0.14885E+06        -0.49974E+08         0.00000E+00
    0.00000E+00         0.00000E+00        -0.49849E+08
 
   -0.49730E+08         0.15351E+06         0.00000E+00
    0.15351E+06        -0.49972E+08         0.00000E+00
    0.00000E+00         0.00000E+00        -0.49851E+08
 
   -0.49737E+08         0.15808E+06         0.00000E+00
    0.15808E+06        -0.49970E+08         0.00000E+00
    0.00000E+00         0.00000E+00        -0.49853E+08
 
   -0.49743E+08         0.16254E+06         0.00000E+00
    0.16254E+06        -0.49968E+08         0.00000E+00
    0.00000E+00         0.00000E+00        -0.49855E+08
 
   -0.49750E+08         0.16691E+06         0.00000E+00
    0.16691E+06        -0.49966E+08         0.00000E+00
    0.00000E+00         0.00000E+00        -0.49858E+08
 
   -0.49757E+08         0.17116E+06         0.00000E+00
    0.17116E+06        -0.49964E+08         0.00000E+00
    0.00000E+00         0.00000E+00        -0.49860E+08
 
   -0.49764E+08         0.17531E+06         0.00000E+00
    0.17531E+06        -0.49961E+08         0.00000E+00
    0.00000E+00         0.00000E+00        -0.49862E+08
 
   -0.49771E+08         0.17935E+06         0.00000E+00
    0.17935E+06        -0.49959E+08         0.00000E+00
    0.00000E+00         0.00000E+00        -0.49864E+08
 
   -0.49778E+08         0.18328E+06         0.00000E+00
    0.18328E+06        -0.49957E+08         0.00000E+00
    0.00000E+00         0.00000E+00        -0.49867E+08
 
   -0.49786E+08         0.18709E+06         0.00000E+00
    0.18709E+06        -0.49954E+08         0.00000E+00
    0.00000E+00         0.00000E+00        -0.49869E+08
 
   -0.49793E+08         0.19078E+06         0.00000E+00
    0.19078E+06        -0.49952E+08         0.00000E+00
    0.00000E+00         0.00000E+00        -0.49871E+08
 
   -0.49801E+08         0.19435E+06         0.00000E+00
    0.19435E+06        -0.49949E+08         0.00000E+00
    0.00000E+00         0.00000E+00        -0.49873E+08
 
   -0.49808E+08         0.19781E+06         0.00000E+00
    0.19781E+06        -0.49946E+08         0.00000E+00
    0.00000E+00         0.00000E+00        -0.49876E+08
 
   -0.49816E+08         0.20114E+06         0.00000E+00
    0.20114E+06        -0.49944E+08         0.00000E+00
    0.00000E+00         0.00000E+00        -0.49878E+08
 
   -0.49823E+08         0.20434E+06         0.00000E+00
    0.20434E+06        -0.49941E+08         0.00000E+00
    0.00000E+00         0.00000E+00        -0.49880E+08
 
   -0.49831E+08         0.20742E+06         0.00000E+00
    0.20742E+06        -0.49938E+08         0.00000E+00
    0.00000E+00         0.00000E+00        -0.49882E+08
 
   -0.49839E+08         0.21038E+06         0.00000E+00
    0.21038E+06        -0.49935E+08         0.00000E+00
    0.00000E+00         0.00000E+00        -0.49884E+08
 
   -0.49847E+08         0.21320E+06         0.00000E+00
    0.21320E+06        -0.49933E+08         0.00000E+00
    0.00000E+00         0.00000E+00        -0.49886E+08
 
   -0.49854E+08         0.21590E+06         0.00000E+00
    0.21590E+06        -0.49930E+08         0.00000E+00
    0.00000E+00         0.00000E+00        -0.49888E+08
 
   -0.49862E+08         0.21846E+06         0.00000E+00
    0.21846E+06        -0.49927E+08         0.00000E+00
    0.00000E+00         0.00000E+00        -0.49890E+08
 
   -0.49869E+08         0.22090E+06         0.00000E+00
    0.22090E+06        -0.49924E+08         0.00000E+00
    0.00000E+00         0.00000E+00        -0.49891E+08
 
   -0.49877E+08         0.22321E+06         0.00000E+00
    0.22321E+06        -0.49921E+08         0.00000E+00
    0.00000E+00         0.00000E+00        -0.49892E+08
 
   -0.49884E+08         0.22538E+06         0.00000E+00
    0.22538E+06        -0.49918E+08         0.00000E+00
    0.00000E+00         0.00000E+00        -0.49894E+08
 
   -0.49892E+08         0.22743E+06         0.00000E+00
    0.22743E+06        -0.49914E+08         0.00000E+00
    0.00000E+00         0.00000E+00        -0.49895E+08
 
   -0.49584E+08         0.32568E+04         0.00000E+00
    0.32568E+04        -0.50000E+08         0.00000E+00
    0.00000E+00         0.00000E+00        -0.49795E+08
 
   -0.49586E+08         0.97595E+04         0.00000E+00
    0.97595E+04        -0.50000E+08         0.00000E+00
    0.00000E+00         0.00000E+00        -0.49796E+08
 
   -0.49588E+08         0.16253E+05         0.00000E+00
    0.16253E+05        -0.50000E+08         0.00000E+00
    0.00000E+00         0.00000E+00        -0.49796E+08
 
   -0.49590E+08         0.22733E+05         0.00000E+00
    0.22733E+05        -0.50000E+08         0.00000E+00
    0.00000E+00         0.00000E+00        -0.49797E+08
 
   -0.49592E+08         0.29195E+05         0.00000E+00
    0.29195E+05        -0.49999E+08         0.00000E+00
    0.00000E+00         0.00000E+00        -0.49798E+08
 
   -0.49595E+08         0.35636E+05         0.00000E+00
    0.35636E+05        -0.49999E+08         0.00000E+00
    0.00000E+00         0.00000E+00        -0.49799E+08
 
   -0.49598E+08         0.42051E+05         0.00000E+00
    0.42051E+05        -0.49998E+08         0.00000E+00
    0.00000E+00         0.00000E+00        -0.49800E+08
 
   -0.49601E+08         0.48437E+05         0.00000E+00
    0.48437E+05        -0.49998E+08         0.00000E+00
    0.00000E+00         0.00000E+00        -0.49801E+08
 
   -0.49605E+08         0.54790E+05         0.00000E+00
    0.54790E+05        -0.49997E+08         0.00000E+00
    0.00000E+00         0.00000E+00        -0.49802E+08
 
   -0.49608E+08         0.61104E+05         0.00000E+00
    0.61104E+05        -0.49996E+08         0.00000E+00
    0.00000E+00         0.00000E+00        -0.49803E+08
 
   -0.49612E+08         0.67377E+05         0.00000E+00
    0.67377E+05        -0.49995E+08         0.00000E+00
    0.00000E+00         0.00000E+00        -0.49805E+08
 
   -0.49616E+08         0.73604E+05         0.00000E+00
    0.73604E+05        -0.49995E+08         0.00000E+00
    0.00000E+00         0.00000E+00        -0.49806E+08
 
   -0.49621E+08         0.79782E+05         0.00000E+00
    0.79782E+05        -0.49994E+08         0.00000E+00
    0.00000E+00         0.00000E+00        -0.49808E+08
 
   -0.49625E+08         0.85905E+05         0.00000E+00
    0.85905E+05        -0.49993E+08         0.00000E+00
    0.00000E+00         0.00000E+00        -0.49809E+08
 
   -0.49630E+08         0.91972E+05         0.00000E+00
    0.91972E+05        -0.49991E+08         0.00000E+00
    0.00000E+00         0.00000E+00        -0.49811E+08
 
   -0.49635E+08         0.97977E+05         0.00000E+00
    0.97977E+05        -0.49990E+08         0.00000E+00
    0.00000E+00         0.00000E+00        -0.49813E+08
 
   -0.49640E+08         0.10392E+06         0.00000E+00
    0.10392E+06        -0.49989E+08         0.00000E+00
    0.00000E+00         0.00000E+00        -0.49814E+08
 
   -0.49645E+08         0.10979E+06         0.00000E+00
    0.10979E+06        -0.49987E+08         0.00000E+00
    0.00000E+00         0.00000E+00        -0.49816E+08
 
   -0.49650E+08         0.11559E+06         0.00000E+00
    0.11559E+06        -0.49986E+08         0.00000E+00
    0.00000E+00         0.00000E+00        -0.49818E+08
 
   -0.49656E+08         0.12131E+06         0.00000E+00
    0.12131E+06        -0.49984E+08         0.00000E+00
    0.00000E+00         0.00000E+00        -0.49820E+08
 
   -0.49661E+08         0.12695E+06         0.00000E+00
    0.12695E+06        -0.49983E+08         0.00000E+00
    0.00000E+00         0.00000E+00        -0.49822E+08
 
   -0.49667E+08         0.13251E+06         0.00000E+00
    0.13251E+06        -0.49981E+08         0.00000E+00
    0.00000E+00         0.00000E+00        -0.49824E+08
 
   -0.49673E+08         0.13799E+06         0.00000E+00
    0.13799E+06        -0.49979E+08         0.00000E+00
    0.00000E+00         0.00000E+00        -0.49826E+08
 
   -0.49680E+08         0.14338E+06         0.00000E+00
    0.14338E+06        -0.49977E+08         0.00000E+00
    0.00000E+00         0.00000E+00        -0.49828E+08
 
   -0.49686E+08         0.14867E+06         0.00000E+00
    0.14867E+06        -0.49975E+08         0.00000E+00
    0.00000E+00         0.00000E+00        -0.49831E+08
 
   -0.49693E+08         0.15387E+06         0.00000E+00
    0.15387E+06        -0.49973E+08         0.00000E+00
    0.00000E+00         0.00000E+00        -0.49833E+08
 
   -0.49699E+08         0.15897E+06         0.00000E+00
    0.15897E+06        -0.49971E+08         0.00000E+00
    0.00000E+00         0.00000E+00        -0.49835E+08
 
   -0.49706E+08         0.16397E+06         0.00000E+00
    0.16397E+06        -0.49969E+08         0.00000E+00
    0.00000E+00         0.00000E+00        -0.49837E+08
 
   -0.49713E+08         0.16887E+06         0.00000E+00
    0.16887E+06        -0.49967E+08         0.00000E+00
    0.00000E+00         0.00000E+00        -0.49840E+08
 
   -0.49721E+08         0.17366E+06         0.00000E+00
    0.17366E+06        -0.49965E+08         0.00000E+00
    0.00000E+00         0.00000E+00        -0.49842E+08
 
   -0.49728E+08         0.17834E+06         0.00000E+00
    0.17834E+06        -0.49962E+08         0.00000E+00
    0.00000E+00         0.00000E+00        -0.49845E+08
 
   -0.49735E+08         0.18291E+06         0.00000E+00
    0.18291E+06        -0.49960E+08         0.00000E+00
    0.00000E+00         0.00000E+00        -0.49847E+08
 
   -0.49743E+08         0.18737E+06         0.00000E+00
    0.18737E+06        -0.49957E+08         0.00000E+00
    0.00000E+00         0.00000E+00        -0.49849E+08
 
   -0.49751E+08         0.19171E+06         0.00000E+00
    0.19171E+06        -0.49955E+08         0.00000E+00
    0.00000E+00         0.00000E+00        -0.49852E+08
 
   -0.49758E+08         0.19593E+06         0.00000E+00
    0.19593E+06        -0.49952E+08         0.00000E+00
    0.00000E+00         0.00000E+00        -0.49854E+08
 
   -0.49766E+08         0.20003E+06         0.00000E+00
    0.20003E+06        -0.49949E+08         0.00000E+00
    0.00000E+00         0.00000E+00        -0.49857E+08
 
   -0.49774E+08         0.20401E+06         0.00000E+00
    0.20401E+06        -0.49947E+08         0.00000E+00
    0.00000E+00         0.00000E+00        -0.49859E+08
 
   -0.49782E+08         0.20786E+06         0.00000E+00
    0.20786E+06        -0.49944E+08         0.00000E+00
    0.00000E+00         0.00000E+00        -0.49862E+08
 
   -0.49791E+08         0.21159E+06         0.00000E+00
    0.21159E+06        -0.49941E+08         0.00000E+00
    0.00000E+00         0.00000E+00        -0.49864E+08
 
   -0.49799E+08         0.21519E+06         0.00000E+00
    0.21519E+06        -0.49938E+08         0.00000E+00
    0.00000E+00         0.00000E+00        -0.49866E+08
 
   -0.49807E+08         0.21866E+06         0.00000E+00
    0.21866E+06        -0.49935E+08         0.00000E+00
    0.00000E+00         0.00000E+00        -0.49869E+08
 
   -0.49815E+08         0.22200E+06         0.00000E+00
    0.22200E+06        -0.49932E+08         0.00000E+00
    0.00000E+00         0.00000E+00        -0.49871E+08
 
   -0.49824E+08         0.22521E+06         0.00000E+00
    0.22521E+06        -0.49929E+08         0.00000E+00
    0.00000E+00         0.00000E+00        -0.49873E+08
 
   -0.49832E+08         0.22829E+06         0.00000E+00
    0.22829E+06        -0.49926E+08         0.00000E+00
    0.00000E+00         0.00000E+00        -0.49875E+08
 
   -0.49840E+08         0.23123E+06         0.00000E+00
    0.23123E+06        -0.49923E+08         0.00000E+00
    0.00000E+00         0.00000E+00        -0.49877E+08
 
   -0.49849E+08         0.23403E+06         0.00000E+00
    0.23403E+06        -0.49920E+08         0.00000E+00
    0.00000E+00         0.00000E+00        -0.49879E+08
 
   -0.49857E+08         0.23670E+06         0.00000E+00
    0.23670E+06        -0.49916E+08         0.00000E+00
    0.00000E+00         0.00000E+00        -0.49881E+08
 
   -0.49865E+08         0.23923E+06         0.00000E+00
    0.23923E+06        -0.49913E+08         0.00000E+00
    0.00000E+00         0.00000E+00        -0.49882E+08
 
   -0.49873E+08         0.24163E+06         0.00000E+00
    0.24163E+06        -0.49910E+08         0.00000E+00
    0.00000E+00         0.00000E+00        -0.49883E+08
 
   -0.49881E+08         0.24389E+06         0.00000E+00
    0.24389E+06        -0.49906E+08         0.00000E+00
    0.00000E+00         0.00000E+00        -0.49885E+08
 
   -0.49550E+08         0.34637E+04         0.00000E+00
    0.34637E+04        -0.50000E+08         0.00000E+00
    0.00000E+00         0.00000E+00        -0.49778E+08
 
   -0.49552E+08         0.10395E+05         0.00000E+00
    0.10395E+05        -0.50000E+08         0.00000E+00
    0.00000E+00         0.00000E+00        -0.49779E+08
 
   -0.49554E+08         0.17322E+05         0.00000E+00
    0.17322E+05        -0.50000E+08         0.00000E+00
    0.00000E+00         0.00000E+00        -0.49779E+08
 
   -0.49557E+08         0.24240E+05         0.00000E+00
    0.24240E+05        -0.49999E+08         0.00000E+00
    0.00000E+00         0.00000E+00        -0.49780E+08
 
   -0.49559E+08         0.31144E+05         0.00000E+00
    0.31144E+05        -0.49999E+08         0.00000E+00
    0.00000E+00         0.00000E+00        -0.49781E+08
 
   -0.49562E+08         0.38030E+05         0.00000E+00
    0.38030E+05        -0.49999E+08         0.00000E+00
    0.00000E+00         0.00000E+00        -0.49782E+08
 
   -0.49565E+08         0.44892E+05         0.00000E+00
    0.44892E+05        -0.49998E+08         0.00000E+00
    0.00000E+00         0.00000E+00        -0.49783E+08
 
   -0.49568E+08         0.51725E+05         0.00000E+00
    0.51725E+05        -0.49997E+08         0.00000E+00
    0.00000E+00         0.00000E+00        -0.49784E+08
 
   -0.49572E+08         0.58525E+05         0.00000E+00
    0.58525E+05        -0.49997E+08         0.00000E+00
    0.00000E+00         0.00000E+00        -0.49785E+08
 
   -0.49576E+08         0.65287E+05         0.00000E+00
    0.65287E+05        -0.49996E+08         0.00000E+00
    0.00000E+00         0.00000E+00        -0.49787E+08
 
   -0.49580E+08         0.72006E+05         0.00000E+00
    0.72006E+05        -0.49995E+08         0.00000E+00
    0.00000E+00         0.00000E+00        -0.49788E+08
 
   -0.49584E+08         0.78678E+05         0.00000E+00
    0.78678E+05        -0.49994E+08         0.00000E+00
    0.00000E+00         0.00000E+00        -0.49790E+08
 
   -0.49589E+08         0.85297E+05         0.00000E+00
    0.85297E+05        -0.49993E+08         0.00000E+00
    0.00000E+00         0.00000E+00        -0.49791E+08
 
   -0.49593E+08         0.91859E+05         0.00000E+00
    0.91859E+05        -0.49992E+08         0.00000E+00
    0.00000E+00         0.00000E+00        -0.49793E+08
 
   -0.49598E+08         0.98360E+05         0.00000E+00
    0.98360E+05        -0.49990E+08         0.00000E+00
    0.00000E+00         0.00000E+00        -0.49795E+08
 
   -0.49604E+08         0.10479E+06         0.00000E+00
    0.10479E+06        -0.49989E+08         0.00000E+00
    0.00000E+00         0.00000E+00        -0.49796E+08
 
   -0.49609E+08         0.11116E+06         0.00000E+00
    0.11116E+06        -0.49987E+08         0.00000E+00
    0.00000E+00         0.00000E+00        -0.49798E+08
 
   -0.49615E+08         0.11745E+06         0.00000E+00
    0.11745E+06        -0.49986E+08         0.00000E+00
    0.00000E+00         0.00000E+00        -0.49800E+08
 
   -0.49620E+08         0.12366E+06         0.00000E+00
    0.12366E+06        -0.49984E+08         0.00000E+00
    0.00000E+00         0.00000E+00        -0.49802E+08
 
   -0.49626E+08         0.12980E+06         0.00000E+00
    0.12980E+06        -0.49982E+08         0.00000E+00
    0.00000E+00         0.00000E+00        -0.49804E+08
 
   -0.49632E+08         0.13584E+06         0.00000E+00
    0.13584E+06        -0.49980E+08         0.00000E+00
    0.00000E+00         0.00000E+00        -0.49806E+08
 
   -0.49639E+08         0.14180E+06         0.00000E+00
    0.14180E+06        -0.49979E+08         0.00000E+00
    0.00000E+00         0.00000E+00        -0.49809E+08
 
   -0.49645E+08         0.14766E+06         0.00000E+00
    0.14766E+06        -0.49977E+08         0.00000E+00
    0.00000E+00         0.00000E+00        -0.49811E+08
 
   -0.49652E+08         0.15343E+06         0.00000E+00
    0.15343E+06        -0.49974E+08         0.00000E+00
    0.00000E+00         0.00000E+00        -0.49813E+08
 
   -0.49659E+08         0.15910E+06         0.00000E+00
    0.15910E+06        -0.49972E+08         0.00000E+00
    0.00000E+00         0.00000E+00        -0.49815E+08
 
   -0.49666E+08         0.16467E+06         0.00000E+00
    0.16467E+06        -0.49970E+08         0.00000E+00
    0.00000E+00         0.00000E+00        -0.49818E+08
 
   -0.49673E+08         0.17013E+06         0.00000E+00
    0.17013E+06        -0.49968E+08         0.00000E+00
    0.00000E+00         0.00000E+00        -0.49820E+08
 
   -0.49681E+08         0.17549E+06         0.00000E+00
    0.17549E+06        -0.49965E+08         0.00000E+00
    0.00000E+00         0.00000E+00        -0.49823E+08
 
   -0.49688E+08         0.18073E+06         0.00000E+00
    0.18073E+06        -0.49963E+08         0.00000E+00
    0.00000E+00         0.00000E+00        -0.49825E+08
 
   -0.49696E+08         0.18587E+06         0.00000E+00
    0.18587E+06        -0.49960E+08         0.00000E+00
    0.00000E+00         0.00000E+00        -0.49828E+08
 
   -0.49704E+08         0.19088E+06         0.00000E+00
    0.19088E+06        -0.49958E+08         0.00000E+00
    0.00000E+00         0.00000E+00        -0.49830E+08
 
   -0.49712E+08         0.19578E+06         0.00000E+00
    0.19578E+06        -0.49955E+08         0.00000E+00
    0.00000E+00         0.00000E+00        -0.49833E+08
 
   -0.49720E+08         0.20056E+06         0.00000E+00
    0.20056E+06        -0.49952E+08         0.00000E+00
    0.00000E+00         0.00000E+00        -0.49836E+08
 
   -0.49728E+08         0.20522E+06         0.00000E+00
    0.20522E+06        -0.49950E+08         0.00000E+00
    0.00000E+00         0.00000E+00        -0.49838E+08
 
   -0.49737E+08         0.20975E+06         0.00000E+00
    0.20975E+06        -0.49947E+08         0.00000E+00
    0.00000E+00         0.00000E+00        -0.49841E+08
 
   -0.49745E+08         0.21416E+06         0.00000E+00
    0.21416E+06        -0.49944E+08         0.00000E+00
    0.00000E+00         0.00000E+00        -0.49843E+08
 
   -0.49754E+08         0.21844E+06         0.00000E+00
    0.21844E+06        -0.49941E+08         0.00000E+00
    0.00000E+00         0.00000E+00        -0.49846E+08
 
   -0.49763E+08         0.22259E+06         0.00000E+00
    0.22259E+06        -0.49938E+08         0.00000E+00
    0.00000E+00         0.00000E+00        -0.49849E+08
 
   -0.49772E+08         0.22661E+06         0.00000E+00
    0.22661E+06        -0.49935E+08         0.00000E+00
    0.00000E+00         0.00000E+00        -0.49851E+08
 
   -0.49780E+08         0.23050E+06         0.00000E+00
    0.23050E+06        -0.49932E+08         0.00000E+00
    0.00000E+00         0.00000E+00        -0.49854E+08
 
   -0.49789E+08         0.23425E+06         0.00000E+00
    0.23425E+06        -0.49928E+08         0.00000E+00
    0.00000E+00         0.00000E+00        -0.49856E+08
 
   -0.49798E+08         0.23787E+06         0.00000E+00
    0.23787E+06        -0.49925E+08         0.00000E+00
    0.00000E+00         0.00000E+00        -0.49859E+08
 
   -0.49807E+08         0.24135E+06         0.00000E+00
    0.24135E+06        -0.49922E+08         0.00000E+00
    0.00000E+00         0.00000E+00        -0.49861E+08
 
   -0.49816E+08         0.24469E+06         0.00000E+00
    0.24469E+06        -0.49918E+08         0.00000E+00
    0.00000E+00         0.00000E+00        -0.49863E+08
 
   -0.49825E+08         0.24790E+06         0.00000E+00
    0.24790E+06        -0.49915E+08         0.00000E+00
    0.00000E+00         0.00000E+00        -0.49865E+08
 
   -0.49834E+08         0.25097E+06         0.00000E+00
    0.25097E+06        -0.49911E+08         0.00000E+00
    0.00000E+00         0.00000E+00        -0.49867E+08
 
   -0.49843E+08         0.25389E+06         0.00000E+00
    0.25389E+06        -0.49908E+08         0.00000E+00
    0.00000E+00         0.00000E+00        -0.49869E+08
 
   -0.49852E+08         0.25668E+06         0.00000E+00
    0.25668E+06        -0.49904E+08         0.00000E+00
    0.00000E+00         0.00000E+00        -0.49871E+08
 
   -0.49861E+08         0.25932E+06         0.00000E+00
    0.25932E+06        -0.49901E+08         0.00000E+00
    0.00000E+00         0.00000E+00        -0.49872E+08
 
   -0.49870E+08         0.26183E+06         0.00000E+00
    0.26183E+06        -0.49897E+08         0.00000E+00
    0.00000E+00         0.00000E+00        -0.49873E+08
 
   -0.49514E+08         0.37008E+04         0.00000E+00
    0.37008E+04        -0.50000E+08         0.00000E+00
    0.00000E+00         0.00000E+00        -0.49760E+08
 
   -0.49516E+08         0.11124E+05         0.00000E+00
    0.11124E+05        -0.50000E+08         0.00000E+00
    0.00000E+00         0.00000E+00        -0.49761E+08
 
   -0.49518E+08         0.18548E+05         0.00000E+00
    0.18548E+05        -0.50000E+08         0.00000E+00
    0.00000E+00         0.00000E+00        -0.49761E+08
 
   -0.49521E+08         0.25968E+05         0.00000E+00
    0.25968E+05        -0.49999E+08         0.00000E+00
    0.00000E+00         0.00000E+00        -0.49762E+08
 
   -0.49523E+08         0.33377E+05         0.00000E+00
    0.33377E+05        -0.49999E+08         0.00000E+00
    0.00000E+00         0.00000E+00        -0.49763E+08
 
   -0.49526E+08         0.40771E+05         0.00000E+00
    0.40771E+05        -0.49998E+08         0.00000E+00
    0.00000E+00         0.00000E+00        -0.49764E+08
 
   -0.49530E+08         0.48141E+05         0.00000E+00
    0.48141E+05        -0.49998E+08         0.00000E+00
    0.00000E+00         0.00000E+00        -0.49765E+08
 
   -0.49533E+08         0.55483E+05         0.00000E+00
    0.55483E+05        -0.49997E+08         0.00000E+00
    0.00000E+00         0.00000E+00        -0.49766E+08
 
   -0.49537E+08         0.62791E+05         0.00000E+00
    0.62791E+05        -0.49996E+08         0.00000E+00
    0.00000E+00         0.00000E+00        -0.49767E+08
 
   -0.49541E+08         0.70059E+05         0.00000E+00
    0.70059E+05        -0.49995E+08         0.00000E+00
    0.00000E+00         0.00000E+00        -0.49769E+08
 
   -0.49545E+08         0.77280E+05         0.00000E+00
    0.77280E+05        -0.49994E+08         0.00000E+00
    0.00000E+00         0.00000E+00        -0.49770E+08
 
   -0.49550E+08         0.84450E+05         0.00000E+00
    0.84450E+05        -0.49993E+08         0.00000E+00
    0.00000E+00         0.00000E+00        -0.49772E+08
 
   -0.49555E+08         0.91562E+05         0.00000E+00
    0.91562E+05        -0.49992E+08         0.00000E+00
    0.00000E+00         0.00000E+00        -0.49774E+08
 
   -0.49560E+08         0.98613E+05         0.00000E+00
    0.98613E+05        -0.49990E+08         0.00000E+00
    0.00000E+00         0.00000E+00        -0.49775E+08
 
   -0.49565E+08         0.10559E+06         0.00000E+00
    0.10559E+06        -0.49989E+08         0.00000E+00
    0.00000E+00         0.00000E+00        -0.49777E+08
 
   -0.49570E+08         0.11250E+06         0.00000E+00
    0.11250E+06        -0.49987E+08         0.00000E+00
    0.00000E+00         0.00000E+00        -0.49779E+08
 
   -0.49576E+08         0.11934E+06         0.00000E+00
    0.11934E+06        -0.49985E+08         0.00000E+00
    0.00000E+00         0.00000E+00        -0.49781E+08
 
   -0.49582E+08         0.12609E+06         0.00000E+00
    0.12609E+06        -0.49984E+08         0.00000E+00
    0.00000E+00         0.00000E+00        -0.49783E+08
 
   -0.49588E+08         0.13275E+06         0.00000E+00
    0.13275E+06        -0.49982E+08         0.00000E+00
    0.00000E+00         0.00000E+00        -0.49785E+08
 
   -0.49595E+08         0.13933E+06         0.00000E+00
    0.13933E+06        -0.49980E+08         0.00000E+00
    0.00000E+00         0.00000E+00        -0.49787E+08
 
   -0.49601E+08         0.14580E+06         0.00000E+00
    0.14580E+06        -0.49978E+08         0.00000E+00
    0.00000E+00         0.00000E+00        -0.49790E+08
 
   -0.49608E+08         0.15219E+06         0.00000E+00
    0.15219E+06        -0.49976E+08         0.00000E+00
    0.00000E+00         0.00000E+00        -0.49792E+08
 
   -0.49615E+08         0.15846E+06         0.00000E+00
    0.15846E+06        -0.49973E+08         0.00000E+00
    0.00000E+00         0.00000E+00        -0.49794E+08
 
   -0.49622E+08         0.16464E+06         0.00000E+00
    0.16464E+06        -0.49971E+08         0.00000E+00
    0.00000E+00         0.00000E+00        -0.49797E+08
 
   -0.49630E+08         0.17070E+06         0.00000E+00
    0.17070E+06        -0.49969E+08         0.00000E+00
    0.00000E+00         0.00000E+00        -0.49799E+08
 
   -0.49638E+08         0.17666E+06         0.00000E+00
    0.17666E+06        -0.49966E+08         0.00000E+00
    0.00000E+00         0.00000E+00        -0.49802E+08
 
   -0.49645E+08         0.18250E+06         0.00000E+00
    0.18250E+06        -0.49964E+08         0.00000E+00
    0.00000E+00         0.00000E+00        -0.49804E+08
 
   -0.49653E+08         0.18823E+06         0.00000E+00
    0.18823E+06        -0.49961E+08         0.00000E+00
    0.00000E+00         0.00000E+00        -0.49807E+08
 
   -0.49661E+08         0.19383E+06         0.00000E+00
    0.19383E+06        -0.49958E+08         0.00000E+00
    0.00000E+00         0.00000E+00        -0.49809E+08
 
   -0.49670E+08         0.19932E+06         0.00000E+00
    0.19932E+06        -0.49955E+08         0.00000E+00
    0.00000E+00         0.00000E+00        -0.49812E+08
 
   -0.49678E+08         0.20468E+06         0.00000E+00
    0.20468E+06        -0.49952E+08         0.00000E+00
    0.00000E+00         0.00000E+00        -0.49815E+08
 
   -0.49687E+08         0.20992E+06         0.00000E+00
    0.20992E+06        -0.49950E+08         0.00000E+00
    0.00000E+00         0.00000E+00        -0.49818E+08
 
   -0.49696E+08         0.21503E+06         0.00000E+00
    0.21503E+06        -0.49947E+08         0.00000E+00
    0.00000E+00         0.00000E+00        -0.49820E+08
 
   -0.49705E+08         0.22001E+06         0.00000E+00
    0.22001E+06        -0.49944E+08         0.00000E+00
    0.00000E+00         0.00000E+00        -0.49823E+08
 
   -0.49714E+08         0.22486E+06         0.00000E+00
    0.22486E+06        -0.49940E+08         0.00000E+00
    0.00000E+00         0.00000E+00        -0.49826E+08
 
   -0.49723E+08         0.22958E+06         0.00000E+00
    0.22958E+06        -0.49937E+08         0.00000E+00
    0.00000E+00         0.00000E+00        -0.49829E+08
 
   -0.49732E+08         0.23417E+06         0.00000E+00
    0.23417E+06        -0.49934E+08         0.00000E+00
    0.00000E+00         0.00000E+00        -0.49832E+08
 
   -0.49742E+08         0.23862E+06         0.00000E+00
    0.23862E+06        -0.49931E+08         0.00000E+00
    0.00000E+00         0.00000E+00        -0.49834E+08
 
   -0.49751E+08         0.24294E+06         0.00000E+00
    0.24294E+06        -0.49927E+08         0.00000E+00
    0.00000E+00         0.00000E+00        -0.49837E+08
 
   -0.49761E+08         0.24713E+06         0.00000E+00
    0.24713E+06        -0.49924E+08         0.00000E+00
    0.00000E+00         0.00000E+00        -0.49840E+08
 
   -0.49770E+08         0.25117E+06         0.00000E+00
    0.25117E+06        -0.49920E+08         0.00000E+00
    0.00000E+00         0.00000E+00        -0.49842E+08
 
   -0.49780E+08         0.25508E+06         0.00000E+00
    0.25508E+06        -0.49917E+08         0.00000E+00
    0.00000E+00         0.00000E+00        -0.49845E+08
 
   -0.49790E+08         0.25885E+06         0.00000E+00
    0.25885E+06        -0.49913E+08         0.00000E+00
    0.00000E+00         0.00000E+00        -0.49847E+08
 
   -0.49799E+08         0.26248E+06         0.00000E+00
    0.26248E+06        -0.49909E+08         0.00000E+00
    0.00000E+00         0.00000E+00        -0.49850E+08
 
   -0.49809E+08         0.26597E+06         0.00000E+00
    0.26597E+06        -0.49906E+08         0.00000E+00
    0.00000E+00         0.00000E+00        -0.49852E+08
 
   -0.49819E+08         0.26932E+06         0.00000E+00
    0.26932E+06        -0.49902E+08         0.00000E+00
    0.00000E+00         0.00000E+00        -0.49854E+08
 
   -0.49828E+08         0.27253E+06         0.00000E+00
    0.27253E+06        -0.49898E+08         0.00000E+00
    0.00000E+00         0.00000E+00        -0.49856E+08
 
   -0.49838E+08         0.27560E+06         0.00000E+00
    0.27560E+06        -0.49894E+08         0.00000E+00
    0.00000E+00         0.00000E+00        -0.49858E+08
 
   -0.49847E+08         0.27853E+06         0.00000E+00
    0.27853E+06        -0.49890E+08         0.00000E+00
    0.00000E+00         0.00000E+00        -0.49859E+08
 
   -0.49857E+08         0.28131E+06         0.00000E+00
    0.28131E+06        -0.49886E+08         0.00000E+00
    0.00000E+00         0.00000E+00        -0.49861E+08
 
   -0.49476E+08         0.39788E+04         0.00000E+00
    0.39788E+04        -0.50000E+08         0.00000E+00
    0.00000E+00         0.00000E+00        -0.49741E+08
 
   -0.49478E+08         0.11977E+05         0.00000E+00
    0.11977E+05        -0.50000E+08         0.00000E+00
    0.00000E+00         0.00000E+00        -0.49741E+08
 
   -0.49480E+08         0.19982E+05         0.00000E+00
    0.19982E+05        -0.50000E+08         0.00000E+00
    0.00000E+00         0.00000E+00        -0.49742E+08
 
   -0.49482E+08         0.27988E+05         0.00000E+00
    0.27988E+05        -0.49999E+08         0.00000E+00
    0.00000E+00         0.00000E+00        -0.49743E+08
 
   -0.49485E+08         0.35985E+05         0.00000E+00
    0.35985E+05        -0.49999E+08         0.00000E+00
    0.00000E+00         0.00000E+00        -0.49743E+08
 
   -0.49488E+08         0.43967E+05         0.00000E+00
    0.43967E+05        -0.49998E+08         0.00000E+00
    0.00000E+00         0.00000E+00        -0.49744E+08
 
   -0.49491E+08         0.51926E+05         0.00000E+00
    0.51926E+05        -0.49997E+08         0.00000E+00
    0.00000E+00         0.00000E+00        -0.49746E+08
 
   -0.49495E+08         0.59854E+05         0.00000E+00
    0.59854E+05        -0.49996E+08         0.00000E+00
    0.00000E+00         0.00000E+00        -0.49747E+08
 
   -0.49499E+08         0.67743E+05         0.00000E+00
    0.67743E+05        -0.49995E+08         0.00000E+00
    0.00000E+00         0.00000E+00        -0.49748E+08
 
   -0.49503E+08         0.75588E+05         0.00000E+00
    0.75588E+05        -0.49994E+08         0.00000E+00
    0.00000E+00         0.00000E+00        -0.49750E+08
 
   -0.49508E+08         0.83381E+05         0.00000E+00
    0.83381E+05        -0.49993E+08         0.00000E+00
    0.00000E+00         0.00000E+00        -0.49751E+08
 
   -0.49513E+08         0.91114E+05         0.00000E+00
    0.91114E+05        -0.49992E+08         0.00000E+00
    0.00000E+00         0.00000E+00        -0.49753E+08
 
   -0.49518E+08         0.98782E+05         0.00000E+00
    0.98782E+05        -0.49990E+08         0.00000E+00
    0.00000E+00         0.00000E+00        -0.49754E+08
 
   -0.49523E+08         0.10638E+06         0.00000E+00
    0.10638E+06        -0.49989E+08         0.00000E+00
    0.00000E+00         0.00000E+00        -0.49756E+08
 
   -0.49529E+08         0.11390E+06         0.00000E+00
    0.11390E+06        -0.49987E+08         0.00000E+00
    0.00000E+00         0.00000E+00        -0.49758E+08
 
   -0.49535E+08         0.12133E+06         0.00000E+00
    0.12133E+06        -0.49985E+08         0.00000E+00
    0.00000E+00         0.00000E+00        -0.49760E+08
 
   -0.49541E+08         0.12868E+06         0.00000E+00
    0.12868E+06        -0.49983E+08         0.00000E+00
    0.00000E+00         0.00000E+00        -0.49762E+08
 
   -0.49547E+08         0.13593E+06         0.00000E+00
    0.13593E+06        -0.49981E+08         0.00000E+00
    0.00000E+00         0.00000E+00        -0.49764E+08
 
   -0.49554E+08         0.14308E+06         0.00000E+00
    0.14308E+06        -0.49979E+08         0.00000E+00
    0.00000E+00         0.00000E+00        -0.49767E+08
 
   -0.49561E+08         0.15013E+06         0.00000E+00
    0.15013E+06        -0.49977E+08         0.00000E+00
    0.00000E+00         0.00000E+00        -0.49769E+08
 
   -0.49568E+08         0.15707E+06         0.00000E+00
    0.15707E+06        -0.49974E+08         0.00000E+00
    0.00000E+00         0.00000E+00        -0.49771E+08
 
   -0.49575E+08         0.16391E+06         0.00000E+00
    0.16391E+06        -0.49972E+08         0.00000E+00
    0.00000E+00         0.00000E+00        -0.49774E+08
 
   -0.49583E+08         0.17062E+06         0.00000E+00
    0.17062E+06        -0.49969E+08         0.00000E+00
    0.00000E+00         0.00000E+00        -0.49776E+08
 
   -0.49591E+08         0.17722E+06         0.00000E+00
    0.17722E+06        -0.49967E+08         0.00000E+00
    0.00000E+00         0.00000E+00        -0.49779E+08
 
   -0.49599E+08         0.18370E+06         0.00000E+00
    0.18370E+06        -0.49964E+08         0.00000E+00
    0.00000E+00         0.00000E+00        -0.49781E+08
 
   -0.49607E+08         0.19005E+06         0.00000E+00
    0.19005E+06        -0.49961E+08         0.00000E+00
    0.00000E+00         0.00000E+00        -0.49784E+08
 
   -0.49615E+08         0.19628E+06         0.00000E+00
    0.19628E+06        -0.49958E+08         0.00000E+00
    0.00000E+00         0.00000E+00        -0.49787E+08
 
   -0.49624E+08         0.20238E+06         0.00000E+00
    0.20238E+06        -0.49955E+08         0.00000E+00
    0.00000E+00         0.00000E+00        -0.49789E+08
 
   -0.49633E+08         0.20835E+06         0.00000E+00
    0.20835E+06        -0.49952E+08         0.00000E+00
    0.00000E+00         0.00000E+00        -0.49792E+08
 
   -0.49642E+08         0.21419E+06         0.00000E+00
    0.21419E+06        -0.49949E+08         0.00000E+00
    0.00000E+00         0.00000E+00        -0.49795E+08
 
   -0.49651E+08         0.21990E+06         0.00000E+00
    0.21990E+06        -0.49946E+08         0.00000E+00
    0.00000E+00         0.00000E+00        -0.49798E+08
 
   -0.49660E+08         0.22548E+06         0.00000E+00
    0.22548E+06        -0.49943E+08         0.00000E+00
    0.00000E+00         0.00000E+00        -0.49801E+08
 
   -0.49670E+08         0.23092E+06         0.00000E+00
    0.23092E+06        -0.49939E+08         0.00000E+00
    0.00000E+00         0.00000E+00        -0.49804E+08
 
   -0.49679E+08         0.23622E+06         0.00000E+00
    0.23622E+06        -0.49936E+08         0.00000E+00
    0.00000E+00         0.00000E+00        -0.49807E+08
 
   -0.49689E+08         0.24139E+06         0.00000E+00
    0.24139E+06        -0.49933E+08         0.00000E+00
    0.00000E+00         0.00000E+00        -0.49810E+08
 
   -0.49699E+08         0.24642E+06         0.00000E+00
    0.24642E+06        -0.49929E+08         0.00000E+00
    0.00000E+00         0.00000E+00        -0.49813E+08
 
   -0.49709E+08         0.25131E+06         0.00000E+00
    0.25131E+06        -0.49926E+08         0.00000E+00
    0.00000E+00         0.00000E+00        -0.49816E+08
 
   -0.49719E+08         0.25606E+06         0.00000E+00
    0.25606E+06        -0.49922E+08         0.00000E+00
    0.00000E+00         0.00000E+00        -0.49819E+08
 
   -0.49729E+08         0.26068E+06         0.00000E+00
    0.26068E+06        -0.49918E+08         0.00000E+00
    0.00000E+00         0.00000E+00        -0.49821E+08
 
   -0.49739E+08         0.26516E+06         0.00000E+00
    0.26516E+06        -0.49915E+08         0.00000E+00
    0.00000E+00         0.00000E+00        -0.49824E+08
 
   -0.49750E+08         0.26950E+06         0.00000E+00
    0.26950E+06        -0.49911E+08         0.00000E+00
    0.00000E+00         0.00000E+00        -0.49827E+08
 
   -0.49760E+08         0.27371E+06         0.00000E+00
    0.27371E+06        -0.49907E+08         0.00000E+00
    0.00000E+00         0.00000E+00        -0.49830E+08
 
   -0.49770E+08         0.27777E+06         0.00000E+00
    0.27777E+06        -0.49903E+08         0.00000E+00
    0.00000E+00         0.00000E+00        -0.49833E+08
 
   -0.49781E+08         0.28170E+06         0.00000E+00
    0.28170E+06        -0.49899E+08         0.00000E+00
    0.00000E+00         0.00000E+00        -0.49835E+08
 
   -0.49791E+08         0.28548E+06         0.00000E+00
    0.28548E+06        -0.49895E+08         0.00000E+00
    0.00000E+00         0.00000E+00        -0.49838E+08
 
   -0.49802E+08         0.28913E+06         0.00000E+00
    0.28913E+06        -0.49891E+08         0.00000E+00
    0.00000E+00         0.00000E+00        -0.49840E+08
 
   -0.49812E+08         0.29264E+06         0.00000E+00
    0.29264E+06        -0.49887E+08         0.00000E+00
    0.00000E+00         0.00000E+00        -0.49842E+08
 
   -0.49822E+08         0.29601E+06         0.00000E+00
    0.29601E+06        -0.49883E+08         0.00000E+00
    0.00000E+00         0.00000E+00        -0.49844E+08
 
   -0.49832E+08         0.29925E+06         0.00000E+00
    0.29925E+06        -0.49878E+08         0.00000E+00
    0.00000E+00         0.00000E+00        -0.49845E+08
 
   -0.49842E+08         0.30234E+06         0.00000E+00
    0.30234E+06        -0.49874E+08         0.00000E+00
    0.00000E+00         0.00000E+00        -0.49847E+08
 
   -0.49434E+08         0.43125E+04         0.00000E+00
    0.43125E+04        -0.50000E+08         0.00000E+00
    0.00000E+00         0.00000E+00        -0.49720E+08
 
   -0.49436E+08         0.12997E+05         0.00000E+00
    0.12997E+05        -0.50000E+08         0.00000E+00
    0.00000E+00         0.00000E+00        -0.49720E+08
 
   -0.49438E+08         0.21694E+05         0.00000E+00
    0.21694E+05        -0.50000E+08         0.00000E+00
    0.00000E+00         0.00000E+00        -0.49721E+08
 
   -0.49441E+08         0.30394E+05         0.00000E+00
    0.30394E+05        -0.49999E+08         0.00000E+00
    0.00000E+00         0.00000E+00        -0.49721E+08
 
   -0.49443E+08         0.39086E+05         0.00000E+00
    0.39086E+05        -0.49999E+08         0.00000E+00
    0.00000E+00         0.00000E+00        -0.49722E+08
 
   -0.49446E+08         0.47760E+05         0.00000E+00
    0.47760E+05        -0.49998E+08         0.00000E+00
    0.00000E+00         0.00000E+00        -0.49723E+08
 
   -0.49450E+08         0.56408E+05         0.00000E+00
    0.56408E+05        -0.49997E+08         0.00000E+00
    0.00000E+00         0.00000E+00        -0.49724E+08
 
   -0.49454E+08         0.65019E+05         0.00000E+00
    0.65019E+05        -0.49996E+08         0.00000E+00
    0.00000E+00         0.00000E+00        -0.49726E+08
 
   -0.49458E+08         0.73585E+05         0.00000E+00
    0.73585E+05        -0.49995E+08         0.00000E+00
    0.00000E+00         0.00000E+00        -0.49727E+08
 
   -0.49463E+08         0.82096E+05         0.00000E+00
    0.82096E+05        -0.49993E+08         0.00000E+00
    0.00000E+00         0.00000E+00        -0.49729E+08
 
   -0.49467E+08         0.90543E+05         0.00000E+00
    0.90543E+05        -0.49992E+08         0.00000E+00
    0.00000E+00         0.00000E+00        -0.49730E+08
 
   -0.49473E+08         0.98920E+05         0.00000E+00
    0.98920E+05        -0.49990E+08         0.00000E+00
    0.00000E+00         0.00000E+00        -0.49732E+08
 
   -0.49478E+08         0.10722E+06         0.00000E+00
    0.10722E+06        -0.49988E+08         0.00000E+00
    0.00000E+00         0.00000E+00        -0.49734E+08
 
   -0.49484E+08         0.11543E+06         0.00000E+00
    0.11543E+06        -0.49986E+08         0.00000E+00
    0.00000E+00         0.00000E+00        -0.49735E+08
 
   -0.49490E+08         0.12354E+06         0.00000E+00
    0.12354E+06        -0.49984E+08         0.00000E+00
    0.00000E+00         0.00000E+00        -0.49737E+08
 
   -0.49496E+08         0.13156E+06         0.00000E+00
    0.13156E+06        -0.49982E+08         0.00000E+00
    0.00000E+00         0.00000E+00        -0.49740E+08
 
   -0.49503E+08         0.13947E+06         0.00000E+00
    0.13947E+06        -0.49980E+08         0.00000E+00
    0.00000E+00         0.00000E+00        -0.49742E+08
 
   -0.49510E+08         0.14727E+06         0.00000E+00
    0.14727E+06        -0.49978E+08         0.00000E+00
    0.00000E+00         0.00000E+00        -0.49744E+08
 
   -0.49517E+08         0.15495E+06         0.00000E+00
    0.15495E+06        -0.49975E+08         0.00000E+00
    0.00000E+00         0.00000E+00        -0.49746E+08
 
   -0.49525E+08         0.16251E+06         0.00000E+00
    0.16251E+06        -0.49973E+08         0.00000E+00
    0.00000E+00         0.00000E+00        -0.49749E+08
 
   -0.49532E+08         0.16995E+06         0.00000E+00
    0.16995E+06        -0.49970E+08         0.00000E+00
    0.00000E+00         0.00000E+00        -0.49751E+08
 
   -0.49540E+08         0.17725E+06         0.00000E+00
    0.17725E+06        -0.49967E+08         0.00000E+00
    0.00000E+00         0.00000E+00        -0.49754E+08
 
   -0.49549E+08         0.18443E+06         0.00000E+00
    0.18443E+06        -0.49964E+08         0.00000E+00
    0.00000E+00         0.00000E+00        -0.49756E+08
 
   -0.49557E+08         0.19146E+06         0.00000E+00
    0.19146E+06        -0.49961E+08         0.00000E+00
    0.00000E+00         0.00000E+00        -0.49759E+08
 
   -0.49566E+08         0.19836E+06         0.00000E+00
    0.19836E+06        -0.49958E+08         0.00000E+00
    0.00000E+00         0.00000E+00        -0.49762E+08
 
   -0.49575E+08         0.20512E+06         0.00000E+00
    0.20512E+06        -0.49955E+08         0.00000E+00
    0.00000E+00         0.00000E+00        -0.49765E+08
 
   -0.49584E+08         0.21174E+06         0.00000E+00
    0.21174E+06        -0.49952E+08         0.00000E+00
    0.00000E+00         0.00000E+00        -0.49767E+08
 
   -0.49593E+08         0.21821E+06         0.00000E+00
    0.21821E+06        -0.49948E+08         0.00000E+00
    0.00000E+00         0.00000E+00        -0.49770E+08
 
   -0.49602E+08         0.22454E+06         0.00000E+00
    0.22454E+06        -0.49945E+08         0.00000E+00
    0.00000E+00         0.00000E+00        -0.49773E+08
 
   -0.49612E+08         0.23072E+06         0.00000E+00
    0.23072E+06        -0.49941E+08         0.00000E+00
    0.00000E+00         0.00000E+00        -0.49776E+08
 
   -0.49622E+08         0.23676E+06         0.00000E+00
    0.23676E+06        -0.49938E+08         0.00000E+00
    0.00000E+00         0.00000E+00        -0.49779E+08
 
   -0.49632E+08         0.24266E+06         0.00000E+00
    0.24266E+06        -0.49934E+08         0.00000E+00
    0.00000E+00         0.00000E+00        -0.49782E+08
 
   -0.49642E+08         0.24841E+06         0.00000E+00
    0.24841E+06        -0.49931E+08         0.00000E+00
    0.00000E+00         0.00000E+00        -0.49786E+08
 
   -0.49652E+08         0.25401E+06         0.00000E+00
    0.25401E+06        -0.49927E+08         0.00000E+00
    0.00000E+00         0.00000E+00        -0.49789E+08
 
   -0.49663E+08         0.25948E+06         0.00000E+00
    0.25948E+06        -0.49923E+08         0.00000E+00
    0.00000E+00         0.00000E+00        -0.49792E+08
 
   -0.49673E+08         0.26480E+06         0.00000E+00
    0.26480E+06        -0.49919E+08         0.00000E+00
    0.00000E+00         0.00000E+00        -0.49795E+08
 
   -0.49684E+08         0.26998E+06         0.00000E+00
    0.26998E+06        -0.49916E+08         0.00000E+00
    0.00000E+00         0.00000E+00        -0.49798E+08
 
   -0.49695E+08         0.27501E+06         0.00000E+00
    0.27501E+06        -0.49912E+08         0.00000E+00
    0.00000E+00         0.00000E+00        -0.49801E+08
 
   -0.49706E+08         0.27991E+06         0.00000E+00
    0.27991E+06        -0.49908E+08         0.00000E+00
    0.00000E+00         0.00000E+00        -0.49804E+08
 
   -0.49717E+08         0.28467E+06         0.00000E+00
    0.28467E+06        -0.49904E+08         0.00000E+00
    0.00000E+00         0.00000E+00        -0.49807E+08
 
   -0.49728E+08         0.28929E+06         0.00000E+00
    0.28929E+06        -0.49900E+08         0.00000E+00
    0.00000E+00         0.00000E+00        -0.49810E+08
 
   -0.49739E+08         0.29378E+06         0.00000E+00
    0.29378E+06        -0.49895E+08         0.00000E+00
    0.00000E+00         0.00000E+00        -0.49813E+08
 
   -0.49750E+08         0.29813E+06         0.00000E+00
    0.29813E+06        -0.49891E+08         0.00000E+00
    0.00000E+00         0.00000E+00        -0.49816E+08
 
   -0.49761E+08         0.30234E+06         0.00000E+00
    0.30234E+06        -0.49887E+08         0.00000E+00
    0.00000E+00         0.00000E+00        -0.49819E+08
 
   -0.49772E+08         0.30643E+06         0.00000E+00
    0.30643E+06        -0.49883E+08         0.00000E+00
    0.00000E+00         0.00000E+00        -0.49821E+08
 
   -0.49783E+08         0.31038E+06         0.00000E+00
    0.31038E+06        -0.49878E+08         0.00000E+00
    0.00000E+00         0.00000E+00        -0.49824E+08
 
   -0.49794E+08         0.31420E+06         0.00000E+00
    0.31420E+06        -0.49874E+08         0.00000E+00
    0.00000E+00         0.00000E+00        -0.49826E+08
 
   -0.49805E+08         0.31789E+06         0.00000E+00
    0.31789E+06        -0.49869E+08         0.00000E+00
    0.00000E+00         0.00000E+00        -0.49828E+08
 
   -0.49816E+08         0.32145E+06         0.00000E+00
    0.32145E+06        -0.49865E+08         0.00000E+00
    0.00000E+00         0.00000E+00        -0.49830E+08
 
   -0.49826E+08         0.32489E+06         0.00000E+00
    0.32489E+06        -0.49860E+08         0.00000E+00
    0.00000E+00         0.00000E+00        -0.49831E+08
 
   -0.49389E+08         0.47209E+04         0.00000E+00
    0.47209E+04        -0.50000E+08         0.00000E+00
    0.00000E+00         0.00000E+00        -0.49697E+08
 
   -0.49391E+08         0.14239E+05         0.00000E+00
    0.14239E+05        -0.50000E+08         0.00000E+00
    0.00000E+00         0.00000E+00        -0.49697E+08
 
   -0.49393E+08         0.23772E+05         0.00000E+00
    0.23772E+05        -0.49999E+08         0.00000E+00
    0.00000E+00         0.00000E+00        -0.49698E+08
 
   -0.49395E+08         0.33308E+05         0.00000E+00
    0.33308E+05        -0.49999E+08         0.00000E+00
    0.00000E+00         0.00000E+00        -0.49698E+08
 
   -0.49398E+08         0.42832E+05         0.00000E+00
    0.42832E+05        -0.49998E+08         0.00000E+00
    0.00000E+00         0.00000E+00        -0.49699E+08
 
   -0.49401E+08         0.52333E+05         0.00000E+00
    0.52333E+05        -0.49997E+08         0.00000E+00
    0.00000E+00         0.00000E+00        -0.49700E+08
 
   -0.49405E+08         0.61798E+05         0.00000E+00
    0.61798E+05        -0.49996E+08         0.00000E+00
    0.00000E+00         0.00000E+00        -0.49701E+08
 
   -0.49409E+08         0.71214E+05         0.00000E+00
    0.71214E+05        -0.49995E+08         0.00000E+00
    0.00000E+00         0.00000E+00        -0.49703E+08
 
   -0.49413E+08         0.80572E+05         0.00000E+00
    0.80572E+05        -0.49993E+08         0.00000E+00
    0.00000E+00         0.00000E+00        -0.49704E+08
 
   -0.49418E+08         0.89859E+05         0.00000E+00
    0.89859E+05        -0.49992E+08         0.00000E+00
    0.00000E+00         0.00000E+00        -0.49706E+08
 
   -0.49424E+08         0.99065E+05         0.00000E+00
    0.99065E+05        -0.49990E+08         0.00000E+00
    0.00000E+00         0.00000E+00        -0.49707E+08
 
   -0.49429E+08         0.10818E+06         0.00000E+00
    0.10818E+06        -0.49988E+08         0.00000E+00
    0.00000E+00         0.00000E+00        -0.49709E+08
 
   -0.49435E+08         0.11719E+06         0.00000E+00
    0.11719E+06        -0.49986E+08         0.00000E+00
    0.00000E+00         0.00000E+00        -0.49711E+08
 
   -0.49441E+08         0.12610E+06         0.00000E+00
    0.12610E+06        -0.49984E+08         0.00000E+00
    0.00000E+00         0.00000E+00        -0.49713E+08
 
   -0.49448E+08         0.13489E+06         0.00000E+00
    0.13489E+06        -0.49981E+08         0.00000E+00
    0.00000E+00         0.00000E+00        -0.49715E+08
 
   -0.49455E+08         0.14355E+06         0.00000E+00
    0.14355E+06        -0.49979E+08         0.00000E+00
    0.00000E+00         0.00000E+00        -0.49717E+08
 
   -0.49462E+08         0.15209E+06         0.00000E+00
    0.15209E+06        -0.49976E+08         0.00000E+00
    0.00000E+00         0.00000E+00        -0.49719E+08
 
   -0.49470E+08         0.16048E+06         0.00000E+00
    0.16048E+06        -0.49973E+08         0.00000E+00
    0.00000E+00         0.00000E+00        -0.49722E+08
 
   -0.49478E+08         0.16873E+06         0.00000E+00
    0.16873E+06        -0.49970E+08         0.00000E+00
    0.00000E+00         0.00000E+00        -0.49724E+08
 
   -0.49486E+08         0.17684E+06         0.00000E+00
    0.17684E+06        -0.49967E+08         0.00000E+00
    0.00000E+00         0.00000E+00        -0.49727E+08
 
   -0.49494E+08         0.18479E+06         0.00000E+00
    0.18479E+06        -0.49964E+08         0.00000E+00
    0.00000E+00         0.00000E+00        -0.49729E+08
 
   -0.49503E+08         0.19259E+06         0.00000E+00
    0.19259E+06        -0.49961E+08         0.00000E+00
    0.00000E+00         0.00000E+00        -0.49732E+08
 
   -0.49512E+08         0.20023E+06         0.00000E+00
    0.20023E+06        -0.49958E+08         0.00000E+00
    0.00000E+00         0.00000E+00        -0.49735E+08
 
   -0.49521E+08         0.20771E+06         0.00000E+00
    0.20771E+06        -0.49954E+08         0.00000E+00
    0.00000E+00         0.00000E+00        -0.49738E+08
 
   -0.49531E+08         0.21503E+06         0.00000E+00
    0.21503E+06        -0.49951E+08         0.00000E+00
    0.00000E+00         0.00000E+00        -0.49740E+08
 
   -0.49540E+08         0.22218E+06         0.00000E+00
    0.22218E+06        -0.49947E+08         0.00000E+00
    0.00000E+00         0.00000E+00        -0.49743E+08
 
   -0.49550E+08         0.22917E+06         0.00000E+00
    0.22917E+06        -0.49943E+08         0.00000E+00
    0.00000E+00         0.00000E+00        -0.49746E+08
 
   -0.49560E+08         0.23600E+06         0.00000E+00
    0.23600E+06        -0.49940E+08         0.00000E+00
    0.00000E+00         0.00000E+00        -0.49750E+08
 
   -0.49570E+08         0.24266E+06         0.00000E+00
    0.24266E+06        -0.49936E+08         0.00000E+00
    0.00000E+00         0.00000E+00        -0.49753E+08
 
   -0.49581E+08         0.24916E+06         0.00000E+00
    0.24916E+06        -0.49932E+08         0.00000E+00
    0.00000E+00         0.00000E+00        -0.49756E+08
 
   -0.49591E+08         0.25550E+06         0.00000E+00
    0.25550E+06        -0.49928E+08         0.00000E+00
    0.00000E+00         0.00000E+00        -0.49759E+08
 
   -0.49602E+08         0.26169E+06         0.00000E+00
    0.26169E+06        -0.49924E+08         0.00000E+00
    0.00000E+00         0.00000E+00        -0.49762E+08
 
   -0.49613E+08         0.26771E+06         0.00000E+00
    0.26771E+06        -0.49920E+08         0.00000E+00
    0.00000E+00         0.00000E+00        -0.49766E+08
 
   -0.49624E+08         0.27358E+06         0.00000E+00
    0.27358E+06        -0.49916E+08         0.00000E+00
    0.00000E+00         0.00000E+00        -0.49769E+08
 
   -0.49635E+08         0.27930E+06         0.00000E+00
    0.27930E+06        -0.49912E+08         0.00000E+00
    0.00000E+00         0.00000E+00        -0.49772E+08
 
   -0.49646E+08         0.28487E+06         0.00000E+00
    0.28487E+06        -0.49908E+08         0.00000E+00
    0.00000E+00         0.00000E+00        -0.49776E+08
 
   -0.49658E+08         0.29029E+06         0.00000E+00
    0.29029E+06        -0.49903E+08         0.00000E+00
    0.00000E+00         0.00000E+00        -0.49779E+08
 
   -0.49669E+08         0.29557E+06         0.00000E+00
    0.29557E+06        -0.49899E+08         0.00000E+00
    0.00000E+00         0.00000E+00        -0.49782E+08
 
   -0.49681E+08         0.30070E+06         0.00000E+00
    0.30070E+06        -0.49895E+08         0.00000E+00
    0.00000E+00         0.00000E+00        -0.49785E+08
 
   -0.49692E+08         0.30571E+06         0.00000E+00
    0.30571E+06        -0.49891E+08         0.00000E+00
    0.00000E+00         0.00000E+00        -0.49789E+08
 
   -0.49704E+08         0.31057E+06         0.00000E+00
    0.31057E+06        -0.49886E+08         0.00000E+00
    0.00000E+00         0.00000E+00        -0.49792E+08
 
   -0.49716E+08         0.31531E+06         0.00000E+00
    0.31531E+06        -0.49882E+08         0.00000E+00
    0.00000E+00         0.00000E+00        -0.49795E+08
 
   -0.49728E+08         0.31992E+06         0.00000E+00
    0.31992E+06        -0.49877E+08         0.00000E+00
    0.00000E+00         0.00000E+00        -0.49798E+08
 
   -0.49739E+08         0.32440E+06         0.00000E+00
    0.32440E+06        -0.49873E+08         0.00000E+00
    0.00000E+00         0.00000E+00        -0.49801E+08
 
   -0.49751E+08         0.32877E+06         0.00000E+00
    0.32877E+06        -0.49868E+08         0.00000E+00
    0.00000E+00         0.00000E+00        -0.49803E+08
 
   -0.49763E+08         0.33301E+06         0.00000E+00
    0.33301E+06        -0.49864E+08         0.00000E+00
    0.00000E+00         0.00000E+00        -0.49806E+08
 
   -0.49774E+08         0.33714E+06         0.00000E+00
    0.33714E+06        -0.49859E+08         0.00000E+00
    0.00000E+00         0.00000E+00        -0.49808E+08
 
   -0.49786E+08         0.34115E+06         0.00000E+00
    0.34115E+06        -0.49854E+08         0.00000E+00
    0.00000E+00         0.00000E+00        -0.49810E+08
 
   -0.49797E+08         0.34505E+06         0.00000E+00
    0.34505E+06        -0.49849E+08         0.00000E+00
    0.00000E+00         0.00000E+00        -0.49812E+08
 
   -0.49809E+08         0.34884E+06         0.00000E+00
    0.34884E+06        -0.49844E+08         0.00000E+00
    0.00000E+00         0.00000E+00        -0.49814E+08
 
   -0.49339E+08         0.52284E+04         0.00000E+00
    0.52284E+04        -0.50000E+08         0.00000E+00
    0.00000E+00         0.00000E+00        -0.49671E+08
 
   -0.49340E+08         0.15771E+05         0.00000E+00
    0.15771E+05        -0.50000E+08         0.00000E+00
    0.00000E+00         0.00000E+00        -0.49672E+08
 
   -0.49342E+08         0.26328E+05         0.00000E+00
    0.26328E+05        -0.49999E+08         0.00000E+00
    0.00000E+00         0.00000E+00        -0.49672E+08
 
   -0.49345E+08         0.36881E+05         0.00000E+00
    0.36881E+05        -0.49999E+08         0.00000E+00
    0.00000E+00         0.00000E+00        -0.49673E+08
 
   -0.49348E+08         0.47414E+05         0.00000E+00
    0.47414E+05        -0.49998E+08         0.00000E+00
    0.00000E+00         0.00000E+00        -0.49674E+08
 
   -0.49351E+08         0.57910E+05         0.00000E+00
    0.57910E+05        -0.49997E+08         0.00000E+00
    0.00000E+00         0.00000E+00        -0.49675E+08
 
   -0.49355E+08         0.68353E+05         0.00000E+00
    0.68353E+05        -0.49995E+08         0.00000E+00
    0.00000E+00         0.00000E+00        -0.49676E+08
 
   -0.49360E+08         0.78728E+05         0.00000E+00
    0.78728E+05        -0.49994E+08         0.00000E+00
    0.00000E+00         0.00000E+00        -0.49677E+08
 
   -0.49365E+08         0.89022E+05         0.00000E+00
    0.89022E+05        -0.49992E+08         0.00000E+00
    0.00000E+00         0.00000E+00        -0.49679E+08
 
   -0.49370E+08         0.99220E+05         0.00000E+00
    0.99220E+05        -0.49990E+08         0.00000E+00
    0.00000E+00         0.00000E+00        -0.49680E+08
 
   -0.49376E+08         0.10931E+06         0.00000E+00
    0.10931E+06        -0.49988E+08         0.00000E+00
    0.00000E+00         0.00000E+00        -0.49682E+08
 
   -0.49382E+08         0.11928E+06         0.00000E+00
    0.11928E+06        -0.49986E+08         0.00000E+00
    0.00000E+00         0.00000E+00        -0.49684E+08
 
   -0.49388E+08         0.12912E+06         0.00000E+00
    0.12912E+06        -0.49983E+08         0.00000E+00
    0.00000E+00         0.00000E+00        -0.49686E+08
 
   -0.49395E+08         0.13881E+06         0.00000E+00
    0.13881E+06        -0.49980E+08         0.00000E+00
    0.00000E+00         0.00000E+00        -0.49688E+08
 
   -0.49403E+08         0.14835E+06         0.00000E+00
    0.14835E+06        -0.49977E+08         0.00000E+00
    0.00000E+00         0.00000E+00        -0.49690E+08
 
   -0.49410E+08         0.15774E+06         0.00000E+00
    0.15774E+06        -0.49974E+08         0.00000E+00
    0.00000E+00         0.00000E+00        -0.49692E+08
 
   -0.49418E+08         0.16696E+06         0.00000E+00
    0.16696E+06        -0.49971E+08         0.00000E+00
    0.00000E+00         0.00000E+00        -0.49695E+08
 
   -0.49427E+08         0.17600E+06         0.00000E+00
    0.17600E+06        -0.49968E+08         0.00000E+00
    0.00000E+00         0.00000E+00        -0.49697E+08
 
   -0.49435E+08         0.18487E+06         0.00000E+00
    0.18487E+06        -0.49964E+08         0.00000E+00
    0.00000E+00         0.00000E+00        -0.49700E+08
 
   -0.49444E+08         0.19355E+06         0.00000E+00
    0.19355E+06        -0.49961E+08         0.00000E+00
    0.00000E+00         0.00000E+00        -0.49703E+08
 
   -0.49454E+08         0.20204E+06         0.00000E+00
    0.20204E+06        -0.49957E+08         0.00000E+00
    0.00000E+00         0.00000E+00        -0.49705E+08
 
   -0.49463E+08         0.21034E+06         0.00000E+00
    0.21034E+06        -0.49953E+08         0.00000E+00
    0.00000E+00         0.00000E+00        -0.49708E+08
 
   -0.49473E+08         0.21845E+06         0.00000E+00
    0.21845E+06        -0.49950E+08         0.00000E+00
    0.00000E+00         0.00000E+00        -0.49711E+08
 
   -0.49483E+08         0.22637E+06         0.00000E+00
    0.22637E+06        -0.49946E+08         0.00000E+00
    0.00000E+00         0.00000E+00        -0.49714E+08
 
   -0.49493E+08         0.23409E+06         0.00000E+00
    0.23409E+06        -0.49942E+08         0.00000E+00
    0.00000E+00         0.00000E+00        -0.49717E+08
 
   -0.49504E+08         0.24162E+06         0.00000E+00
    0.24162E+06        -0.49937E+08         0.00000E+00
    0.00000E+00         0.00000E+00        -0.49720E+08
 
   -0.49515E+08         0.24895E+06         0.00000E+00
    0.24895E+06        -0.49933E+08         0.00000E+00
    0.00000E+00         0.00000E+00        -0.49724E+08
 
   -0.49526E+08         0.25610E+06         0.00000E+00
    0.25610E+06        -0.49929E+08         0.00000E+00
    0.00000E+00         0.00000E+00        -0.49727E+08
 
   -0.49537E+08         0.26305E+06         0.00000E+00
    0.26305E+06        -0.49925E+08         0.00000E+00
    0.00000E+00         0.00000E+00        -0.49730E+08
 
   -0.49548E+08         0.26982E+06         0.00000E+00
    0.26982E+06        -0.49920E+08         0.00000E+00
    0.00000E+00         0.00000E+00        -0.49734E+08
 
   -0.49559E+08         0.27641E+06         0.00000E+00
    0.27641E+06        -0.49916E+08         0.00000E+00
    0.00000E+00         0.00000E+00        -0.49737E+08
 
   -0.49571E+08         0.28282E+06         0.00000E+00
    0.28282E+06        -0.49912E+08         0.00000E+00
    0.00000E+00         0.00000E+00        -0.49740E+08
 
   -0.49583E+08         0.28906E+06         0.00000E+00
    0.28906E+06        -0.49907E+08         0.00000E+00
    0.00000E+00         0.00000E+00        -0.49744E+08
 
   -0.49595E+08         0.29512E+06         0.00000E+00
    0.29512E+06        -0.49903E+08         0.00000E+00
    0.00000E+00         0.00000E+00        -0.49747E+08
 
   -0.49606E+08         0.30103E+06         0.00000E+00
    0.30103E+06        -0.49898E+08         0.00000E+00
    0.00000E+00         0.00000E+00        -0.49751E+08
 
   -0.49618E+08         0.30678E+06         0.00000E+00
    0.30678E+06        -0.49893E+08         0.00000E+00
    0.00000E+00         0.00000E+00        -0.49754E+08
 
   -0.49631E+08         0.31237E+06         0.00000E+00
    0.31237E+06        -0.49889E+08         0.00000E+00
    0.00000E+00         0.00000E+00        -0.49758E+08
 
   -0.49643E+08         0.31782E+06         0.00000E+00
    0.31782E+06        -0.49884E+08         0.00000E+00
    0.00000E+00         0.00000E+00        -0.49761E+08
 
   -0.49655E+08         0.32313E+06         0.00000E+00
    0.32313E+06        -0.49880E+08         0.00000E+00
    0.00000E+00         0.00000E+00        -0.49765E+08
 
   -0.49667E+08         0.32831E+06         0.00000E+00
    0.32831E+06        -0.49875E+08         0.00000E+00
    0.00000E+00         0.00000E+00        -0.49768E+08
 
   -0.49680E+08         0.33336E+06         0.00000E+00
    0.33336E+06        -0.49870E+08         0.00000E+00
    0.00000E+00         0.00000E+00        -0.49771E+08
 
   -0.49692E+08         0.33828E+06         0.00000E+00
    0.33828E+06        -0.49866E+08         0.00000E+00
    0.00000E+00         0.00000E+00        -0.49775E+08
 
   -0.49704E+08         0.34310E+06         0.00000E+00
    0.34310E+06        -0.49861E+08         0.00000E+00
    0.00000E+00         0.00000E+00        -0.49778E+08
 
   -0.49717E+08         0.34780E+06         0.00000E+00
    0.34780E+06        -0.49856E+08         0.00000E+00
    0.00000E+00         0.00000E+00        -0.49781E+08
 
   -0.49729E+08         0.35240E+06         0.00000E+00
    0.35240E+06        -0.49851E+08         0.00000E+00
    0.00000E+00         0.00000E+00        -0.49783E+08
 
   -0.49741E+08         0.35690E+06         0.00000E+00
    0.35690E+06        -0.49846E+08         0.00000E+00
    0.00000E+00         0.00000E+00        -0.49786E+08
 
   -0.49753E+08         0.36130E+06         0.00000E+00
    0.36130E+06        -0.49841E+08         0.00000E+00
    0.00000E+00         0.00000E+00        -0.49789E+08
 
   -0.49765E+08         0.36562E+06         0.00000E+00
    0.36562E+06        -0.49836E+08         0.00000E+00
    0.00000E+00         0.00000E+00        -0.49791E+08
 
   -0.49777E+08         0.36984E+06         0.00000E+00
    0.36984E+06        -0.49831E+08         0.00000E+00
    0.00000E+00         0.00000E+00        -0.49793E+08
 
   -0.49789E+08         0.37398E+06         0.00000E+00
    0.37398E+06        -0.49826E+08         0.00000E+00
    0.00000E+00         0.00000E+00        -0.49794E+08
 
   -0.49283E+08         0.58653E+04         0.00000E+00
    0.58653E+04        -0.50000E+08         0.00000E+00
    0.00000E+00         0.00000E+00        -0.49643E+08
 
   -0.49285E+08         0.17679E+05         0.00000E+00
    0.17679E+05        -0.50000E+08         0.00000E+00
    0.00000E+00         0.00000E+00        -0.49643E+08
 
   -0.49287E+08         0.29498E+05         0.00000E+00
    0.29498E+05        -0.49999E+08         0.00000E+00
    0.00000E+00         0.00000E+00        -0.49644E+08
 
   -0.49289E+08         0.41300E+05         0.00000E+00
    0.41300E+05        -0.49998E+08         0.00000E+00
    0.00000E+00         0.00000E+00        -0.49645E+08
 
   -0.49292E+08         0.53062E+05         0.00000E+00
    0.53062E+05        -0.49997E+08         0.00000E+00
    0.00000E+00         0.00000E+00        -0.49646E+08
 
   -0.49296E+08         0.64764E+05         0.00000E+00
    0.64764E+05        -0.49996E+08         0.00000E+00
    0.00000E+00         0.00000E+00        -0.49647E+08
 
   -0.49300E+08         0.76386E+05         0.00000E+00
    0.76386E+05        -0.49994E+08         0.00000E+00
    0.00000E+00         0.00000E+00        -0.49648E+08
 
   -0.49305E+08         0.87909E+05         0.00000E+00
    0.87909E+05        -0.49992E+08         0.00000E+00
    0.00000E+00         0.00000E+00        -0.49649E+08
 
   -0.49311E+08         0.99315E+05         0.00000E+00
    0.99315E+05        -0.49990E+08         0.00000E+00
    0.00000E+00         0.00000E+00        -0.49651E+08
 
   -0.49317E+08         0.11059E+06         0.00000E+00
    0.11059E+06        -0.49988E+08         0.00000E+00
    0.00000E+00         0.00000E+00        -0.49652E+08
 
   -0.49323E+08         0.12171E+06         0.00000E+00
    0.12171E+06        -0.49985E+08         0.00000E+00
    0.00000E+00         0.00000E+00        -0.49654E+08
 
   -0.49330E+08         0.13267E+06         0.00000E+00
    0.13267E+06        -0.49982E+08         0.00000E+00
    0.00000E+00         0.00000E+00        -0.49656E+08
 
   -0.49337E+08         0.14345E+06         0.00000E+00
    0.14345E+06        -0.49979E+08         0.00000E+00
    0.00000E+00         0.00000E+00        -0.49658E+08
 
   -0.49345E+08         0.15405E+06         0.00000E+00
    0.15405E+06        -0.49976E+08         0.00000E+00
    0.00000E+00         0.00000E+00        -0.49661E+08
 
   -0.49353E+08         0.16445E+06         0.00000E+00
    0.16445E+06        -0.49973E+08         0.00000E+00
    0.00000E+00         0.00000E+00        -0.49663E+08
 
   -0.49362E+08         0.17463E+06         0.00000E+00
    0.17463E+06        -0.49969E+08         0.00000E+00
    0.00000E+00         0.00000E+00        -0.49665E+08
 
   -0.49371E+08         0.18460E+06         0.00000E+00
    0.18460E+06        -0.49965E+08         0.00000E+00
    0.00000E+00         0.00000E+00        -0.49668E+08
 
   -0.49380E+08         0.19435E+06         0.00000E+00
    0.19435E+06        -0.49961E+08         0.00000E+00
    0.00000E+00         0.00000E+00        -0.49671E+08
 
   -0.49390E+08         0.20387E+06         0.00000E+00
    0.20387E+06        -0.49957E+08         0.00000E+00
    0.00000E+00         0.00000E+00        -0.49674E+08
 
   -0.49400E+08         0.21316E+06         0.00000E+00
    0.21316E+06        -0.49953E+08         0.00000E+00
    0.00000E+00         0.00000E+00        -0.49676E+08
 
   -0.49410E+08         0.22221E+06         0.00000E+00
    0.22221E+06        -0.49949E+08         0.00000E+00
    0.00000E+00         0.00000E+00        -0.49679E+08
 
   -0.49421E+08         0.23102E+06         0.00000E+00
    0.23102E+06        -0.49944E+08         0.00000E+00
    0.00000E+00         0.00000E+00        -0.49683E+08
 
   -0.49432E+08         0.23959E+06         0.00000E+00
    0.23959E+06        -0.49940E+08         0.00000E+00
    0.00000E+00         0.00000E+00        -0.49686E+08
 
   -0.49443E+08         0.24792E+06         0.00000E+00
    0.24792E+06        -0.49935E+08         0.00000E+00
    0.00000E+00         0.00000E+00        -0.49689E+08
 
   -0.49454E+08         0.25602E+06         0.00000E+00
    0.25602E+06        -0.49930E+08         0.00000E+00
    0.00000E+00         0.00000E+00        -0.49692E+08
 
   -0.49466E+08         0.26388E+06         0.00000E+00
    0.26388E+06        -0.49926E+08         0.00000E+00
    0.00000E+00         0.00000E+00        -0.49696E+08
 
   -0.49478E+08         0.27151E+06         0.00000E+00
    0.27151E+06        -0.49921E+08         0.00000E+00
    0.00000E+00         0.00000E+00        -0.49699E+08
 
   -0.49490E+08         0.27891E+06         0.00000E+00
    0.27891E+06        -0.49916E+08         0.00000E+00
    0.00000E+00         0.00000E+00        -0.49703E+08
 
   -0.49502E+08         0.28608E+06         0.00000E+00
    0.28608E+06        -0.49911E+08         0.00000E+00
    0.00000E+00         0.00000E+00        -0.49706E+08
 
   -0.49514E+08         0.29304E+06         0.00000E+00
    0.29304E+06        -0.49906E+08         0.00000E+00
    0.00000E+00         0.00000E+00        -0.49710E+08
 
   -0.49526E+08         0.29980E+06         0.00000E+00
    0.29980E+06        -0.49901E+08         0.00000E+00
    0.00000E+00         0.00000E+00        -0.49713E+08
 
   -0.49539E+08         0.30634E+06         0.00000E+00
    0.30634E+06        -0.49896E+08         0.00000E+00
    0.00000E+00         0.00000E+00        -0.49717E+08
 
   -0.49552E+08         0.31270E+06         0.00000E+00
    0.31270E+06        -0.49891E+08         0.00000E+00
    0.00000E+00         0.00000E+00        -0.49721E+08
 
   -0.49564E+08         0.31886E+06         0.00000E+00
    0.31886E+06        -0.49886E+08         0.00000E+00
    0.00000E+00         0.00000E+00        -0.49724E+08
 
   -0.49577E+08         0.32485E+06         0.00000E+00
    0.32485E+06        -0.49881E+08         0.00000E+00
    0.00000E+00         0.00000E+00        -0.49728E+08
 
   -0.49590E+08         0.33068E+06         0.00000E+00
    0.33068E+06        -0.49876E+08         0.00000E+00
    0.00000E+00         0.00000E+00        -0.49732E+08
 
   -0.49603E+08         0.33634E+06         0.00000E+00
    0.33634E+06        -0.49871E+08         0.00000E+00
    0.00000E+00         0.00000E+00        -0.49735E+08
 
   -0.49616E+08         0.34186E+06         0.00000E+00
    0.34186E+06        -0.49866E+08         0.00000E+00
    0.00000E+00         0.00000E+00        -0.49739E+08
 
   -0.49629E+08         0.34723E+06         0.00000E+00
    0.34723E+06        -0.49861E+08         0.00000E+00
    0.00000E+00         0.00000E+00        -0.49742E+08
 
   -0.49642E+08         0.35248E+06         0.00000E+00
    0.35248E+06        -0.49856E+08         0.00000E+00
    0.00000E+00         0.00000E+00        -0.49746E+08
 
   -0.49654E+08         0.35761E+06         0.00000E+00
    0.35761E+06        -0.49851E+08         0.00000E+00
    0.00000E+00         0.00000E+00        -0.49749E+08
 
   -0.49667E+08         0.36263E+06         0.00000E+00
    0.36263E+06        -0.49846E+08         0.00000E+00
    0.00000E+00         0.00000E+00        -0.49753E+08
 
   -0.49680E+08         0.36756E+06         0.00000E+00
    0.36756E+06        -0.49841E+08         0.00000E+00
    0.00000E+00         0.00000E+00        -0.49756E+08
 
   -0.49693E+08         0.37239E+06         0.00000E+00
    0.37239E+06        -0.49836E+08         0.00000E+00
    0.00000E+00         0.00000E+00        -0.49759E+08
 
   -0.49706E+08         0.37715E+06         0.00000E+00
    0.37715E+06        -0.49831E+08         0.00000E+00
    0.00000E+00         0.00000E+00        -0.49762E+08
 
   -0.49718E+08         0.38183E+06         0.00000E+00
    0.38183E+06        -0.49826E+08         0.00000E+00
    0.00000E+00         0.00000E+00        -0.49765E+08
 
   -0.49731E+08         0.38645E+06         0.00000E+00
    0.38645E+06        -0.49821E+08         0.00000E+00
    0.00000E+00         0.00000E+00        -0.49767E+08
 
   -0.49743E+08         0.39102E+06         0.00000E+00
    0.39102E+06        -0.49816E+08         0.00000E+00
    0.00000E+00         0.00000E+00        -0.49769E+08
 
   -0.49756E+08         0.39553E+06         0.00000E+00
    0.39553E+06        -0.49811E+08         0.00000E+00
    0.00000E+00         0.00000E+00        -0.49771E+08
 
   -0.49768E+08         0.40000E+06         0.00000E+00
    0.40000E+06        -0.49806E+08         0.00000E+00
    0.00000E+00         0.00000E+00        -0.49773E+08
 
   -0.49220E+08         0.66679E+04         0.00000E+00
    0.66679E+04        -0.50000E+08         0.00000E+00
    0.00000E+00         0.00000E+00        -0.49611E+08
 
   -0.49222E+08         0.20063E+05         0.00000E+00
    0.20063E+05        -0.50000E+08         0.00000E+00
    0.00000E+00         0.00000E+00        -0.49612E+08
 
   -0.49224E+08         0.33443E+05         0.00000E+00
    0.33443E+05        -0.49999E+08         0.00000E+00
    0.00000E+00         0.00000E+00        -0.49612E+08
 
   -0.49226E+08         0.46780E+05         0.00000E+00
    0.46780E+05        -0.49998E+08         0.00000E+00
    0.00000E+00         0.00000E+00        -0.49613E+08
 
   -0.49230E+08         0.60046E+05         0.00000E+00
    0.60046E+05        -0.49997E+08         0.00000E+00
    0.00000E+00         0.00000E+00        -0.49614E+08
 
   -0.49234E+08         0.73214E+05         0.00000E+00
    0.73214E+05        -0.49995E+08         0.00000E+00
    0.00000E+00         0.00000E+00        -0.49615E+08
 
   -0.49239E+08         0.86260E+05         0.00000E+00
    0.86260E+05        -0.49993E+08         0.00000E+00
    0.00000E+00         0.00000E+00        -0.49616E+08
 
   -0.49245E+08         0.99159E+05         0.00000E+00
    0.99159E+05        -0.49990E+08         0.00000E+00
    0.00000E+00         0.00000E+00        -0.49618E+08
 
   -0.49251E+08         0.11189E+06         0.00000E+00
    0.11189E+06        -0.49988E+08         0.00000E+00
    0.00000E+00         0.00000E+00        -0.49620E+08
 
   -0.49258E+08         0.12443E+06         0.00000E+00
    0.12443E+06        -0.49985E+08         0.00000E+00
    0.00000E+00         0.00000E+00        -0.49621E+08
 
   -0.49265E+08         0.13677E+06         0.00000E+00
    0.13677E+06        -0.49982E+08         0.00000E+00
    0.00000E+00         0.00000E+00        -0.49623E+08
 
   -0.49273E+08         0.14888E+06         0.00000E+00
    0.14888E+06        -0.49978E+08         0.00000E+00
    0.00000E+00         0.00000E+00        -0.49626E+08
 
   -0.49281E+08         0.16076E+06         0.00000E+00
    0.16076E+06        -0.49975E+08         0.00000E+00
    0.00000E+00         0.00000E+00        -0.49628E+08
 
   -0.49290E+08         0.17238E+06         0.00000E+00
    0.17238E+06        -0.49971E+08         0.00000E+00
    0.00000E+00         0.00000E+00        -0.49630E+08
 
   -0.49300E+08         0.18373E+06         0.00000E+00
    0.18373E+06        -0.49967E+08         0.00000E+00
    0.00000E+00         0.00000E+00        -0.49633E+08
 
   -0.49309E+08         0.19481E+06         0.00000E+00
    0.19481E+06        -0.49962E+08         0.00000E+00
    0.00000E+00         0.00000E+00        -0.49636E+08
 
   -0.49320E+08         0.20561E+06         0.00000E+00
    0.20561E+06        -0.49958E+08         0.00000E+00
    0.00000E+00         0.00000E+00        -0.49639E+08
 
   -0.49330E+08         0.21612E+06         0.00000E+00
    0.21612E+06        -0.49953E+08         0.00000E+00
    0.00000E+00         0.00000E+00        -0.49642E+08
 
   -0.49341E+08         0.22633E+06         0.00000E+00
    0.22633E+06        -0.49948E+08         0.00000E+00
    0.00000E+00         0.00000E+00        -0.49645E+08
 
   -0.49353E+08         0.23625E+06         0.00000E+00
    0.23625E+06        -0.49943E+08         0.00000E+00
    0.00000E+00         0.00000E+00        -0.49648E+08
 
   -0.49364E+08         0.24586E+06         0.00000E+00
    0.24586E+06        -0.49938E+08         0.00000E+00
    0.00000E+00         0.00000E+00        -0.49651E+08
 
   -0.49376E+08         0.25517E+06         0.00000E+00
    0.25517E+06        -0.49933E+08         0.00000E+00
    0.00000E+00         0.00000E+00        -0.49655E+08
 
   -0.49389E+08         0.26419E+06         0.00000E+00
    0.26419E+06        -0.49928E+08         0.00000E+00
    0.00000E+00         0.00000E+00        -0.49658E+08
 
   -0.49401E+08         0.27290E+06         0.00000E+00
    0.27290E+06        -0.49922E+08         0.00000E+00
    0.00000E+00         0.00000E+00        -0.49662E+08
 
   -0.49414E+08         0.28132E+06         0.00000E+00
    0.28132E+06        -0.49917E+08         0.00000E+00
    0.00000E+00         0.00000E+00        -0.49665E+08
 
   -0.49427E+08         0.28945E+06         0.00000E+00
    0.28945E+06        -0.49912E+08         0.00000E+00
    0.00000E+00         0.00000E+00        -0.49669E+08
 
   -0.49440E+08         0.29729E+06         0.00000E+00
    0.29729E+06        -0.49906E+08         0.00000E+00
    0.00000E+00         0.00000E+00        -0.49673E+08
 
   -0.49453E+08         0.30486E+06         0.00000E+00
    0.30486E+06        -0.49901E+08         0.00000E+00
    0.00000E+00         0.00000E+00        -0.49676E+08
 
   -0.49466E+08         0.31216E+06         0.00000E+00
    0.31216E+06        -0.49895E+08         0.00000E+00
    0.00000E+00         0.00000E+00        -0.49680E+08
 
   -0.49480E+08         0.31921E+06         0.00000E+00
    0.31921E+06        -0.49889E+08         0.00000E+00
    0.00000E+00         0.00000E+00        -0.49684E+08
 
   -0.49493E+08         0.32601E+06         0.00000E+00
    0.32601E+06        -0.49884E+08         0.00000E+00
    0.00000E+00         0.00000E+00        -0.49688E+08
 
   -0.49507E+08         0.33257E+06         0.00000E+00
    0.33257E+06        -0.49878E+08         0.00000E+00
    0.00000E+00         0.00000E+00        -0.49692E+08
 
   -0.49520E+08         0.33891E+06         0.00000E+00
    0.33891E+06        -0.49873E+08         0.00000E+00
    0.00000E+00         0.00000E+00        -0.49696E+08
 
   -0.49534E+08         0.34504E+06         0.00000E+00
    0.34504E+06        -0.49867E+08         0.00000E+00
    0.00000E+00         0.00000E+00        -0.49700E+08
 
   -0.49548E+08         0.35097E+06         0.00000E+00
    0.35097E+06        -0.49862E+08         0.00000E+00
    0.00000E+00         0.00000E+00        -0.49703E+08
 
   -0.49561E+08         0.35672E+06         0.00000E+00
    0.35672E+06        -0.49856E+08         0.00000E+00
    0.00000E+00         0.00000E+00        -0.49707E+08
 
   -0.49575E+08         0.36230E+06         0.00000E+00
    0.36230E+06        -0.49851E+08         0.00000E+00
    0.00000E+00         0.00000E+00        -0.49711E+08
 
   -0.49589E+08         0.36773E+06         0.00000E+00
    0.36773E+06        -0.49846E+08         0.00000E+00
    0.00000E+00         0.00000E+00        -0.49715E+08
 
   -0.49602E+08         0.37302E+06         0.00000E+00
    0.37302E+06        -0.49840E+08         0.00000E+00
    0.00000E+00         0.00000E+00        -0.49719E+08
 
   -0.49616E+08         0.37819E+06         0.00000E+00
    0.37819E+06        -0.49835E+08         0.00000E+00
    0.00000E+00         0.00000E+00        -0.49722E+08
 
   -0.49629E+08         0.38326E+06         0.00000E+00
    0.38326E+06        -0.49830E+08         0.00000E+00
    0.00000E+00         0.00000E+00        -0.49726E+08
 
   -0.49643E+08         0.38823E+06         0.00000E+00
    0.38823E+06        -0.49824E+08         0.00000E+00
    0.00000E+00         0.00000E+00        -0.49729E+08
 
   -0.49656E+08         0.39313E+06         0.00000E+00
    0.39313E+06        -0.49819E+08         0.00000E+00
    0.00000E+00         0.00000E+00        -0.49733E+08
 
   -0.49669E+08         0.39796E+06         0.00000E+00
    0.39796E+06        -0.49814E+08         0.00000E+00
    0.00000E+00         0.00000E+00        -0.49736E+08
 
   -0.49682E+08         0.40275E+06         0.00000E+00
    0.40275E+06        -0.49809E+08         0.00000E+00
    0.00000E+00         0.00000E+00        -0.49739E+08
 
   -0.49695E+08         0.40750E+06         0.00000E+00
    0.40750E+06        -0.49804E+08         0.00000E+00
    0.00000E+00         0.00000E+00        -0.49741E+08
 
   -0.49708E+08         0.41223E+06         0.00000E+00
    0.41223E+06        -0.49798E+08         0.00000E+00
    0.00000E+00         0.00000E+00        -0.49744E+08
 
   -0.49720E+08         0.41696E+06         0.00000E+00
    0.41696E+06        -0.49793E+08         0.00000E+00
    0.00000E+00         0.00000E+00        -0.49746E+08
 
   -0.49733E+08         0.42168E+06         0.00000E+00
    0.42168E+06        -0.49788E+08         0.00000E+00
    0.00000E+00         0.00000E+00        -0.49748E+08
 
   -0.49745E+08         0.42642E+06         0.00000E+00
    0.42642E+06        -0.49783E+08         0.00000E+00
    0.00000E+00         0.00000E+00        -0.49750E+08
 
   -0.49149E+08         0.76781E+04         0.00000E+00
    0.76781E+04        -0.50000E+08         0.00000E+00
    0.00000E+00         0.00000E+00        -0.49575E+08
 
   -0.49150E+08         0.23037E+05         0.00000E+00
    0.23037E+05        -0.50000E+08         0.00000E+00
    0.00000E+00         0.00000E+00        -0.49576E+08
 
   -0.49152E+08         0.38347E+05         0.00000E+00
    0.38347E+05        -0.49999E+08         0.00000E+00
    0.00000E+00         0.00000E+00        -0.49576E+08
 
   -0.49155E+08         0.53569E+05         0.00000E+00
    0.53569E+05        -0.49997E+08         0.00000E+00
    0.00000E+00         0.00000E+00        -0.49577E+08
 
   -0.49159E+08         0.68671E+05         0.00000E+00
    0.68671E+05        -0.49996E+08         0.00000E+00
    0.00000E+00         0.00000E+00        -0.49578E+08
 
   -0.49164E+08         0.83617E+05         0.00000E+00
    0.83617E+05        -0.49994E+08         0.00000E+00
    0.00000E+00         0.00000E+00        -0.49579E+08
 
   -0.49170E+08         0.98379E+05         0.00000E+00
    0.98379E+05        -0.49991E+08         0.00000E+00
    0.00000E+00         0.00000E+00        -0.49581E+08
 
   -0.49177E+08         0.11293E+06         0.00000E+00
    0.11293E+06        -0.49988E+08         0.00000E+00
    0.00000E+00         0.00000E+00        -0.49583E+08
 
   -0.49184E+08         0.12723E+06         0.00000E+00
    0.12723E+06        -0.49985E+08         0.00000E+00
    0.00000E+00         0.00000E+00        -0.49585E+08
 
   -0.49192E+08         0.14128E+06         0.00000E+00
    0.14128E+06        -0.49981E+08         0.00000E+00
    0.00000E+00         0.00000E+00        -0.49587E+08
 
   -0.49200E+08         0.15503E+06         0.00000E+00
    0.15503E+06        -0.49978E+08         0.00000E+00
    0.00000E+00         0.00000E+00        -0.49589E+08
 
   -0.49210E+08         0.16849E+06         0.00000E+00
    0.16849E+06        -0.49973E+08         0.00000E+00
    0.00000E+00         0.00000E+00        -0.49592E+08
 
   -0.49219E+08         0.18161E+06         0.00000E+00
    0.18161E+06        -0.49969E+08         0.00000E+00
    0.00000E+00         0.00000E+00        -0.49594E+08
 
   -0.49230E+08         0.19440E+06         0.00000E+00
    0.19440E+06        -0.49964E+08         0.00000E+00
    0.00000E+00         0.00000E+00        -0.49597E+08
 
   -0.49241E+08         0.20684E+06         0.00000E+00
    0.20684E+06        -0.49959E+08         0.00000E+00
    0.00000E+00         0.00000E+00        -0.49600E+08
 
   -0.49252E+08         0.21891E+06         0.00000E+00
    0.21891E+06        -0.49954E+08         0.00000E+00
    0.00000E+00         0.00000E+00        -0.49603E+08
 
   -0.49264E+08         0.23062E+06         0.00000E+00
    0.23062E+06        -0.49949E+08         0.00000E+00
    0.00000E+00         0.00000E+00        -0.49607E+08
 
   -0.49277E+08         0.24195E+06         0.00000E+00
    0.24195E+06        -0.49943E+08         0.00000E+00
    0.00000E+00         0.00000E+00        -0.49610E+08
 
   -0.49289E+08         0.25289E+06         0.00000E+00
    0.25289E+06        -0.49938E+08         0.00000E+00
    0.00000E+00         0.00000E+00        -0.49613E+08
 
   -0.49302E+08         0.26345E+06         0.00000E+00
    0.26345E+06        -0.49932E+08         0.00000E+00
    0.00000E+00         0.00000E+00        -0.49617E+08
 
   -0.49316E+08         0.27363E+06         0.00000E+00
    0.27363E+06        -0.49926E+08         0.00000E+00
    0.00000E+00         0.00000E+00        -0.49621E+08
 
   -0.49329E+08         0.28342E+06         0.00000E+00
    0.28342E+06        -0.49920E+08         0.00000E+00
    0.00000E+00         0.00000E+00        -0.49625E+08
 
   -0.49343E+08         0.29283E+06         0.00000E+00
    0.29283E+06        -0.49914E+08         0.00000E+00
    0.00000E+00         0.00000E+00        -0.49628E+08
 
   -0.49357E+08         0.30187E+06         0.00000E+00
    0.30187E+06        -0.49907E+08         0.00000E+00
    0.00000E+00         0.00000E+00        -0.49632E+08
 
   -0.49372E+08         0.31053E+06         0.00000E+00
    0.31053E+06        -0.49901E+08         0.00000E+00
    0.00000E+00         0.00000E+00        -0.49636E+08
 
   -0.49386E+08         0.31884E+06         0.00000E+00
    0.31884E+06        -0.49895E+08         0.00000E+00
    0.00000E+00         0.00000E+00        -0.49640E+08
 
   -0.49401E+08         0.32680E+06         0.00000E+00
    0.32680E+06        -0.49889E+08         0.00000E+00
    0.00000E+00         0.00000E+00        -0.49644E+08
 
   -0.49416E+08         0.33442E+06         0.00000E+00
    0.33442E+06        -0.49882E+08         0.00000E+00
    0.00000E+00         0.00000E+00        -0.49649E+08
 
   -0.49430E+08         0.34172E+06         0.00000E+00
    0.34172E+06        -0.49876E+08         0.00000E+00
    0.00000E+00         0.00000E+00        -0.49653E+08
 
   -0.49445E+08         0.34870E+06         0.00000E+00
    0.34870E+06        -0.49870E+08         0.00000E+00
    0.00000E+00         0.00000E+00        -0.49657E+08
 
   -0.49460E+08         0.35539E+06         0.00000E+00
    0.35539E+06        -0.49863E+08         0.00000E+00
    0.00000E+00         0.00000E+00        -0.49661E+08
 
   -0.49475E+08         0.36180E+06         0.00000E+00
    0.36180E+06        -0.49857E+08         0.00000E+00
    0.00000E+00         0.00000E+00        -0.49665E+08
 
   -0.49490E+08         0.36795E+06         0.00000E+00
    0.36795E+06        -0.49851E+08         0.00000E+00
    0.00000E+00         0.00000E+00        -0.49670E+08
 
   -0.49504E+08         0.37386E+06         0.00000E+00
    0.37386E+06        -0.49845E+08         0.00000E+00
    0.00000E+00         0.00000E+00        -0.49674E+08
 
   -0.49519E+08         0.37955E+06         0.00000E+00
    0.37955E+06        -0.49839E+08         0.00000E+00
    0.00000E+00         0.00000E+00        -0.49678E+08
 
   -0.49534E+08         0.38503E+06         0.00000E+00
    0.38503E+06        -0.49833E+08         0.00000E+00
    0.00000E+00         0.00000E+00        -0.49682E+08
 
   -0.49548E+08         0.39033E+06         0.00000E+00
    0.39033E+06        -0.49827E+08         0.00000E+00
    0.00000E+00         0.00000E+00        -0.49686E+08
 
   -0.49563E+08         0.39548E+06         0.00000E+00
    0.39548E+06        -0.49821E+08         0.00000E+00
    0.00000E+00         0.00000E+00        -0.49690E+08
 
   -0.49577E+08         0.40048E+06         0.00000E+00
    0.40048E+06        -0.49816E+08         0.00000E+00
    0.00000E+00         0.00000E+00        -0.49694E+08
 
   -0.49591E+08         0.40537E+06         0.00000E+00
    0.40537E+06        -0.49810E+08         0.00000E+00
    0.00000E+00         0.00000E+00        -0.49698E+08
 
   -0.49605E+08         0.41016E+06         0.00000E+00
    0.41016E+06        -0.49805E+08         0.00000E+00
    0.00000E+00         0.00000E+00        -0.49701E+08
 
   -0.49618E+08         0.41488E+06         0.00000E+00
    0.41488E+06        -0.49799E+08         0.00000E+00
    0.00000E+00         0.00000E+00        -0.49705E+08
 
   -0.49632E+08         0.41955E+06         0.00000E+00
    0.41955E+06        -0.49794E+08         0.00000E+00
    0.00000E+00         0.00000E+00        -0.49708E+08
 
   -0.49645E+08         0.42419E+06         0.00000E+00
    0.42419E+06        -0.49788E+08         0.00000E+00
    0.00000E+00         0.00000E+00        -0.49711E+08
 
   -0.49658E+08         0.42883E+06         0.00000E+00
    0.42883E+06        -0.49783E+08         0.00000E+00
    0.00000E+00         0.00000E+00        -0.49714E+08
 
   -0.49671E+08         0.43347E+06         0.00000E+00
    0.43347E+06        -0.49778E+08         0.00000E+00
    0.00000E+00         0.00000E+00        -0.49717E+08
 
   -0.49684E+08         0.43815E+06         0.00000E+00
    0.43815E+06        -0.49773E+08         0.00000E+00
    0.00000E+00         0.00000E+00        -0.49720E+08
 
   -0.49696E+08         0.44288E+06         0.00000E+00
    0.44288E+06        -0.49768E+08         0.00000E+00
    0.00000E+00         0.00000E+00        -0.49722E+08
 
   -0.49709E+08         0.44768E+06         0.00000E+00
    0.44768E+06        -0.49763E+08         0.00000E+00
    0.00000E+00         0.00000E+00        -0.49724E+08
 
   -0.49720E+08         0.45256E+06         0.00000E+00
    0.45256E+06        -0.49757E+08         0.00000E+00
    0.00000E+00         0.00000E+00        -0.49726E+08
 
   -0.49066E+08         0.89426E+04         0.00000E+00
    0.89426E+04        -0.50000E+08         0.00000E+00
    0.00000E+00         0.00000E+00        -0.49534E+08
 
   -0.49067E+08         0.26727E+05         0.00000E+00
    0.26727E+05        -0.50000E+08         0.00000E+00
    0.00000E+00         0.00000E+00        -0.49534E+08
 
   -0.49070E+08         0.44405E+05         0.00000E+00
    0.44405E+05        -0.49998E+08         0.00000E+00
    0.00000E+00         0.00000E+00        -0.49535E+08
 
   -0.49074E+08         0.61930E+05         0.00000E+00
    0.61930E+05        -0.49997E+08         0.00000E+00
    0.00000E+00         0.00000E+00        -0.49536E+08
 
   -0.49079E+08         0.79259E+05         0.00000E+00
    0.79259E+05        -0.49995E+08         0.00000E+00
    0.00000E+00         0.00000E+00        -0.49538E+08
 
   -0.49085E+08         0.96352E+05         0.00000E+00
    0.96352E+05        -0.49992E+08         0.00000E+00
    0.00000E+00         0.00000E+00        -0.49539E+08
 
   -0.49092E+08         0.11317E+06         0.00000E+00
    0.11317E+06        -0.49989E+08         0.00000E+00
    0.00000E+00         0.00000E+00        -0.49541E+08
 
   -0.49100E+08         0.12968E+06         0.00000E+00
    0.12968E+06        -0.49986E+08         0.00000E+00
    0.00000E+00         0.00000E+00        -0.49543E+08
 
   -0.49108E+08         0.14586E+06         0.00000E+00
    0.14586E+06        -0.49982E+08         0.00000E+00
    0.00000E+00         0.00000E+00        -0.49545E+08
 
   -0.49118E+08         0.16166E+06         0.00000E+00
    0.16166E+06        -0.49977E+08         0.00000E+00
    0.00000E+00         0.00000E+00        -0.49548E+08
 
   -0.49128E+08         0.17707E+06         0.00000E+00
    0.17707E+06        -0.49973E+08         0.00000E+00
    0.00000E+00         0.00000E+00        -0.49551E+08
 
   -0.49139E+08         0.19207E+06         0.00000E+00
    0.19207E+06        -0.49968E+08         0.00000E+00
    0.00000E+00         0.00000E+00        -0.49554E+08
 
   -0.49151E+08         0.20664E+06         0.00000E+00
    0.20664E+06        -0.49962E+08         0.00000E+00
    0.00000E+00         0.00000E+00        -0.49557E+08
 
   -0.49164E+08         0.22075E+06         0.00000E+00
    0.22075E+06        -0.49957E+08         0.00000E+00
    0.00000E+00         0.00000E+00        -0.49560E+08
 
   -0.49177E+08         0.23440E+06         0.00000E+00
    0.23440E+06        -0.49951E+08         0.00000E+00
    0.00000E+00         0.00000E+00        -0.49564E+08
 
   -0.49190E+08         0.24757E+06         0.00000E+00
    0.24757E+06        -0.49945E+08         0.00000E+00
    0.00000E+00         0.00000E+00        -0.49568E+08
 
   -0.49204E+08         0.26026E+06         0.00000E+00
    0.26026E+06        -0.49939E+08         0.00000E+00
    0.00000E+00         0.00000E+00        -0.49571E+08
 
   -0.49219E+08         0.27246E+06         0.00000E+00
    0.27246E+06        -0.49932E+08         0.00000E+00
    0.00000E+00         0.00000E+00        -0.49575E+08
 
   -0.49234E+08         0.28417E+06         0.00000E+00
    0.28417E+06        -0.49925E+08         0.00000E+00
    0.00000E+00         0.00000E+00        -0.49580E+08
 
   -0.49249E+08         0.29539E+06         0.00000E+00
    0.29539E+06        -0.49918E+08         0.00000E+00
    0.00000E+00         0.00000E+00        -0.49584E+08
 
   -0.49265E+08         0.30611E+06         0.00000E+00
    0.30611E+06        -0.49911E+08         0.00000E+00
    0.00000E+00         0.00000E+00        -0.49588E+08
 
   -0.49280E+08         0.31635E+06         0.00000E+00
    0.31635E+06        -0.49904E+08         0.00000E+00
    0.00000E+00         0.00000E+00        -0.49592E+08
 
   -0.49296E+08         0.32610E+06         0.00000E+00
    0.32610E+06        -0.49897E+08         0.00000E+00
    0.00000E+00         0.00000E+00        -0.49597E+08
 
   -0.49313E+08         0.33539E+06         0.00000E+00
    0.33539E+06        -0.49890E+08         0.00000E+00
    0.00000E+00         0.00000E+00        -0.49601E+08
 
   -0.49329E+08         0.34421E+06         0.00000E+00
    0.34421E+06        -0.49883E+08         0.00000E+00
    0.00000E+00         0.00000E+00        -0.49606E+08
 
   -0.49346E+08         0.35258E+06         0.00000E+00
    0.35258E+06        -0.49876E+08         0.00000E+00
    0.00000E+00         0.00000E+00        -0.49610E+08
 
   -0.49362E+08         0.36052E+06         0.00000E+00
    0.36052E+06        -0.49868E+08         0.00000E+00
    0.00000E+00         0.00000E+00        -0.49615E+08
 
   -0.49379E+08         0.36805E+06         0.00000E+00
    0.36805E+06        -0.49861E+08         0.00000E+00
    0.00000E+00         0.00000E+00        -0.49620E+08
 
   -0.49395E+08         0.37517E+06         0.00000E+00
    0.37517E+06        -0.49854E+08         0.00000E+00
    0.00000E+00         0.00000E+00        -0.49624E+08
 
   -0.49412E+08         0.38191E+06         0.00000E+00
    0.38191E+06        -0.49847E+08         0.00000E+00
    0.00000E+00         0.00000E+00        -0.49629E+08
 
   -0.49428E+08         0.38830E+06         0.00000E+00
    0.38830E+06        -0.49840E+08         0.00000E+00
    0.00000E+00         0.00000E+00        -0.49634E+08
 
   -0.49444E+08         0.39435E+06         0.00000E+00
    0.39435E+06        -0.49833E+08         0.00000E+00
    0.00000E+00         0.00000E+00        -0.49638E+08
 
   -0.49460E+08         0.40009E+06         0.00000E+00
    0.40009E+06        -0.49826E+08         0.00000E+00
    0.00000E+00         0.00000E+00        -0.49643E+08
 
   -0.49476E+08         0.40555E+06         0.00000E+00
    0.40555E+06        -0.49820E+08         0.00000E+00
    0.00000E+00         0.00000E+00        -0.49647E+08
 
   -0.49492E+08         0.41075E+06         0.00000E+00
    0.41075E+06        -0.49813E+08         0.00000E+00
    0.00000E+00         0.00000E+00        -0.49652E+08
 
   -0.49508E+08         0.41571E+06         0.00000E+00
    0.41571E+06        -0.49807E+08         0.00000E+00
    0.00000E+00         0.00000E+00        -0.49656E+08
 
   -0.49523E+08         0.42048E+06         0.00000E+00
    0.42048E+06        -0.49800E+08         0.00000E+00
    0.00000E+00         0.00000E+00        -0.49660E+08
 
   -0.49538E+08         0.42507E+06         0.00000E+00
    0.42507E+06        -0.49794E+08         0.00000E+00
    0.00000E+00         0.00000E+00        -0.49664E+08
 
   -0.49553E+08         0.42952E+06         0.00000E+00
    0.42952E+06        -0.49788E+08         0.00000E+00
    0.00000E+00         0.00000E+00        -0.49669E+08
 
   -0.49568E+08         0.43385E+06         0.00000E+00
    0.43385E+06        -0.49782E+08         0.00000E+00
    0.00000E+00         0.00000E+00        -0.49672E+08
 
   -0.49582E+08         0.43810E+06         0.00000E+00
    0.43810E+06        -0.49776E+08         0.00000E+00
    0.00000E+00         0.00000E+00        -0.49676E+08
 
   -0.49596E+08         0.44231E+06         0.00000E+00
    0.44231E+06        -0.49771E+08         0.00000E+00
    0.00000E+00         0.00000E+00        -0.49680E+08
 
   -0.49610E+08         0.44648E+06         0.00000E+00
    0.44648E+06        -0.49765E+08         0.00000E+00
    0.00000E+00         0.00000E+00        -0.49683E+08
 
   -0.49623E+08         0.45067E+06         0.00000E+00
    0.45067E+06        -0.49760E+08         0.00000E+00
    0.00000E+00         0.00000E+00        -0.49687E+08
 
   -0.49636E+08         0.45490E+06         0.00000E+00
    0.45490E+06        -0.49755E+08         0.00000E+00
    0.00000E+00         0.00000E+00        -0.49690E+08
 
   -0.49649E+08         0.45919E+06         0.00000E+00
    0.45919E+06        -0.49750E+08         0.00000E+00
    0.00000E+00         0.00000E+00        -0.49692E+08
 
   -0.49661E+08         0.46358E+06         0.00000E+00
    0.46358E+06        -0.49745E+08         0.00000E+00
    0.00000E+00         0.00000E+00        -0.49695E+08
 
   -0.49673E+08         0.46809E+06         0.00000E+00
    0.46809E+06        -0.49740E+08         0.00000E+00
    0.00000E+00         0.00000E+00        -0.49697E+08
 
   -0.49685E+08         0.47275E+06         0.00000E+00
    0.47275E+06        -0.49735E+08         0.00000E+00
    0.00000E+00         0.00000E+00        -0.49699E+08
 
   -0.49696E+08         0.47758E+06         0.00000E+00
    0.47758E+06        -0.49730E+08         0.00000E+00
    0.00000E+00         0.00000E+00        -0.49701E+08
 
   -0.48969E+08         0.10510E+05         0.00000E+00
    0.10510E+05        -0.50000E+08         0.00000E+00
    0.00000E+00         0.00000E+00        -0.49487E+08
 
   -0.48972E+08         0.31261E+05         0.00000E+00
    0.31261E+05        -0.49999E+08         0.00000E+00
    0.00000E+00         0.00000E+00        -0.49487E+08
 
   -0.48975E+08         0.51818E+05         0.00000E+00
    0.51818E+05        -0.49998E+08         0.00000E+00
    0.00000E+00         0.00000E+00        -0.49488E+08
 
   -0.48980E+08         0.72127E+05         0.00000E+00
    0.72127E+05        -0.49996E+08         0.00000E+00
    0.00000E+00         0.00000E+00        -0.49490E+08
 
   -0.48987E+08         0.92133E+05         0.00000E+00
    0.92133E+05        -0.49994E+08         0.00000E+00
    0.00000E+00         0.00000E+00        -0.49491E+08
 
   -0.48994E+08         0.11179E+06         0.00000E+00
    0.11179E+06        -0.49990E+08         0.00000E+00
    0.00000E+00         0.00000E+00        -0.49493E+08
 
   -0.49003E+08         0.13105E+06         0.00000E+00
    0.13105E+06        -0.49987E+08         0.00000E+00
    0.00000E+00         0.00000E+00        -0.49496E+08
 
   -0.49012E+08         0.14988E+06         0.00000E+00
    0.14988E+06        -0.49983E+08         0.00000E+00
    0.00000E+00         0.00000E+00        -0.49498E+08
 
   -0.49023E+08         0.16824E+06         0.00000E+00
    0.16824E+06        -0.49978E+08         0.00000E+00
    0.00000E+00         0.00000E+00        -0.49501E+08
 
   -0.49035E+08         0.18610E+06         0.00000E+00
    0.18610E+06        -0.49973E+08         0.00000E+00
    0.00000E+00         0.00000E+00        -0.49505E+08
 
   -0.49048E+08         0.20343E+06         0.00000E+00
    0.20343E+06        -0.49967E+08         0.00000E+00
    0.00000E+00         0.00000E+00        -0.49508E+08
 
   -0.49061E+08         0.22020E+06         0.00000E+00
    0.22020E+06        -0.49961E+08         0.00000E+00
    0.00000E+00         0.00000E+00        -0.49512E+08
 
   -0.49076E+08         0.23640E+06         0.00000E+00
    0.23640E+06        -0.49955E+08         0.00000E+00
    0.00000E+00         0.00000E+00        -0.49516E+08
 
   -0.49091E+08         0.25200E+06         0.00000E+00
    0.25200E+06        -0.49948E+08         0.00000E+00
    0.00000E+00         0.00000E+00        -0.49520E+08
 
   -0.49106E+08         0.26700E+06         0.00000E+00
    0.26700E+06        -0.49942E+08         0.00000E+00
    0.00000E+00         0.00000E+00        -0.49524E+08
 
   -0.49123E+08         0.28138E+06         0.00000E+00
    0.28138E+06        -0.49934E+08         0.00000E+00
    0.00000E+00         0.00000E+00        -0.49529E+08
 
   -0.49140E+08         0.29514E+06         0.00000E+00
    0.29514E+06        -0.49927E+08         0.00000E+00
    0.00000E+00         0.00000E+00        -0.49533E+08
 
   -0.49157E+08         0.30826E+06         0.00000E+00
    0.30826E+06        -0.49919E+08         0.00000E+00
    0.00000E+00         0.00000E+00        -0.49538E+08
 
   -0.49175E+08         0.32076E+06         0.00000E+00
    0.32076E+06        -0.49911E+08         0.00000E+00
    0.00000E+00         0.00000E+00        -0.49543E+08
 
   -0.49193E+08         0.33263E+06         0.00000E+00
    0.33263E+06        -0.49903E+08         0.00000E+00
    0.00000E+00         0.00000E+00        -0.49548E+08
 
   -0.49211E+08         0.34387E+06         0.00000E+00
    0.34387E+06        -0.49895E+08         0.00000E+00
    0.00000E+00         0.00000E+00        -0.49553E+08
 
   -0.49230E+08         0.35450E+06         0.00000E+00
    0.35450E+06        -0.49887E+08         0.00000E+00
    0.00000E+00         0.00000E+00        -0.49558E+08
 
   -0.49248E+08         0.36453E+06         0.00000E+00
    0.36453E+06        -0.49879E+08         0.00000E+00
    0.00000E+00         0.00000E+00        -0.49564E+08
 
   -0.49267E+08         0.37396E+06         0.00000E+00
    0.37396E+06        -0.49871E+08         0.00000E+00
    0.00000E+00         0.00000E+00        -0.49569E+08
 
   -0.49286E+08         0.38282E+06         0.00000E+00
    0.38282E+06        -0.49863E+08         0.00000E+00
    0.00000E+00         0.00000E+00        -0.49574E+08
 
   -0.49305E+08         0.39111E+06         0.00000E+00
    0.39111E+06        -0.49854E+08         0.00000E+00
    0.00000E+00         0.00000E+00        -0.49580E+08
 
   -0.49324E+08         0.39887E+06         0.00000E+00
    0.39887E+06        -0.49846E+08         0.00000E+00
    0.00000E+00         0.00000E+00        -0.49585E+08
 
   -0.49343E+08         0.40612E+06         0.00000E+00
    0.40612E+06        -0.49838E+08         0.00000E+00
    0.00000E+00         0.00000E+00        -0.49590E+08
 
   -0.49361E+08         0.41287E+06         0.00000E+00
    0.41287E+06        -0.49830E+08         0.00000E+00
    0.00000E+00         0.00000E+00        -0.49595E+08
 
   -0.49380E+08         0.41915E+06         0.00000E+00
    0.41915E+06        -0.49822E+08         0.00000E+00
    0.00000E+00         0.00000E+00        -0.49601E+08
 
   -0.49398E+08         0.42500E+06         0.00000E+00
    0.42500E+06        -0.49814E+08         0.00000E+00
    0.00000E+00         0.00000E+00        -0.49606E+08
 
   -0.49416E+08         0.43045E+06         0.00000E+00
    0.43045E+06        -0.49807E+08         0.00000E+00
    0.00000E+00         0.00000E+00        -0.49611E+08
 
   -0.49434E+08         0.43551E+06         0.00000E+00
    0.43551E+06        -0.49799E+08         0.00000E+00
    0.00000E+00         0.00000E+00        -0.49616E+08
 
   -0.49452E+08         0.44024E+06         0.00000E+00
    0.44024E+06        -0.49792E+08         0.00000E+00
    0.00000E+00         0.00000E+00        -0.49621E+08
 
   -0.49469E+08         0.44465E+06         0.00000E+00
    0.44465E+06        -0.49785E+08         0.00000E+00
    0.00000E+00         0.00000E+00        -0.49626E+08
 
   -0.49486E+08         0.44880E+06         0.00000E+00
    0.44880E+06        -0.49778E+08         0.00000E+00
    0.00000E+00         0.00000E+00        -0.49631E+08
 
   -0.49502E+08         0.45271E+06         0.00000E+00
    0.45271E+06        -0.49771E+08         0.00000E+00
    0.00000E+00         0.00000E+00        -0.49635E+08
 
   -0.49518E+08         0.45643E+06         0.00000E+00
    0.45643E+06        -0.49764E+08         0.00000E+00
    0.00000E+00         0.00000E+00        -0.49640E+08
 
   -0.49533E+08         0.45999E+06         0.00000E+00
    0.45999E+06        -0.49758E+08         0.00000E+00
    0.00000E+00         0.00000E+00        -0.49644E+08
 
   -0.49549E+08         0.46344E+06         0.00000E+00
    0.46344E+06        -0.49752E+08         0.00000E+00
    0.00000E+00         0.00000E+00        -0.49648E+08
 
   -0.49563E+08         0.46681E+06         0.00000E+00
    0.46681E+06        -0.49746E+08         0.00000E+00
    0.00000E+00         0.00000E+00        -0.49652E+08
 
   -0.49577E+08         0.47014E+06         0.00000E+00
    0.47014E+06        -0.49740E+08         0.00000E+00
    0.00000E+00         0.00000E+00        -0.49656E+08
 
   -0.49591E+08         0.47348E+06         0.00000E+00
    0.47348E+06        -0.49735E+08         0.00000E+00
    0.00000E+00         0.00000E+00        -0.49659E+08
 
   -0.49604E+08         0.47687E+06         0.00000E+00
    0.47687E+06        -0.49730E+08         0.00000E+00
    0.00000E+00         0.00000E+00        -0.49662E+08
 
   -0.49616E+08         0.48035E+06         0.00000E+00
    0.48035E+06        -0.49724E+08         0.00000E+00
    0.00000E+00         0.00000E+00        -0.49665E+08
 
   -0.49629E+08         0.48395E+06         0.00000E+00
    0.48395E+06        -0.49720E+08         0.00000E+00
    0.00000E+00         0.00000E+00        -0.49668E+08
 
   -0.49640E+08         0.48772E+06         0.00000E+00
    0.48772E+06        -0.49715E+08         0.00000E+00
    0.00000E+00         0.00000E+00        -0.49671E+08
 
   -0.49651E+08         0.49169E+06         0.00000E+00
    0.49169E+06        -0.49710E+08         0.00000E+00
    0.00000E+00         0.00000E+00        -0.49673E+08
 
   -0.49662E+08         0.49591E+06         0.00000E+00
    0.49591E+06        -0.49706E+08         0.00000E+00
    0.00000E+00         0.00000E+00        -0.49675E+08
 
   -0.49672E+08         0.50040E+06         0.00000E+00
    0.50040E+06        -0.49702E+08         0.00000E+00
    0.00000E+00         0.00000E+00        -0.49676E+08
 
   -0.48856E+08         0.12425E+05         0.00000E+00
    0.12425E+05        -0.50000E+08         0.00000E+00
    0.00000E+00         0.00000E+00        -0.49432E+08
 
   -0.48860E+08         0.36754E+05         0.00000E+00
    0.36754E+05        -0.49999E+08         0.00000E+00
    0.00000E+00         0.00000E+00        -0.49433E+08
 
   -0.48865E+08         0.60765E+05         0.00000E+00
    0.60765E+05        -0.49998E+08         0.00000E+00
    0.00000E+00         0.00000E+00        -0.49434E+08
 
   -0.48871E+08         0.84391E+05         0.00000E+00
    0.84391E+05        -0.49995E+08         0.00000E+00
    0.00000E+00         0.00000E+00        -0.49436E+08
 
   -0.48880E+08         0.10757E+06         0.00000E+00
    0.10757E+06        -0.49992E+08         0.00000E+00
    0.00000E+00         0.00000E+00        -0.49438E+08
 
   -0.48889E+08         0.13025E+06         0.00000E+00
    0.13025E+06        -0.49989E+08         0.00000E+00
    0.00000E+00         0.00000E+00        -0.49441E+08
 
   -0.48901E+08         0.15238E+06         0.00000E+00
    0.15238E+06        -0.49984E+08         0.00000E+00
    0.00000E+00         0.00000E+00        -0.49444E+08
 
   -0.48913E+08         0.17391E+06         0.00000E+00
    0.17391E+06        -0.49979E+08         0.00000E+00
    0.00000E+00         0.00000E+00        -0.49448E+08
 
   -0.48927E+08         0.19480E+06         0.00000E+00
    0.19480E+06        -0.49974E+08         0.00000E+00
    0.00000E+00         0.00000E+00        -0.49452E+08
 
   -0.48942E+08         0.21502E+06         0.00000E+00
    0.21502E+06        -0.49968E+08         0.00000E+00
    0.00000E+00         0.00000E+00        -0.49456E+08
 
   -0.48957E+08         0.23453E+06         0.00000E+00
    0.23453E+06        -0.49961E+08         0.00000E+00
    0.00000E+00         0.00000E+00        -0.49460E+08
 
   -0.48974E+08         0.25331E+06         0.00000E+00
    0.25331E+06        -0.49954E+08         0.00000E+00
    0.00000E+00         0.00000E+00        -0.49465E+08
 
   -0.48992E+08         0.27134E+06         0.00000E+00
    0.27134E+06        -0.49947E+08         0.00000E+00
    0.00000E+00         0.00000E+00        -0.49470E+08
 
   -0.49010E+08         0.28860E+06         0.00000E+00
    0.28860E+06        -0.49939E+08         0.00000E+00
    0.00000E+00         0.00000E+00        -0.49475E+08
 
   -0.49030E+08         0.30508E+06         0.00000E+00
    0.30508E+06        -0.49931E+08         0.00000E+00
    0.00000E+00         0.00000E+00        -0.49481E+08
 
   -0.49049E+08         0.32077E+06         0.00000E+00
    0.32077E+06        -0.49923E+08         0.00000E+00
    0.00000E+00         0.00000E+00        -0.49487E+08
 
   -0.49070E+08         0.33566E+06         0.00000E+00
    0.33566E+06        -0.49914E+08         0.00000E+00
    0.00000E+00         0.00000E+00        -0.49492E+08
 
   -0.49091E+08         0.34976E+06         0.00000E+00
    0.34976E+06        -0.49906E+08         0.00000E+00
    0.00000E+00         0.00000E+00        -0.49498E+08
 
   -0.49112E+08         0.36306E+06         0.00000E+00
    0.36306E+06        -0.49897E+08         0.00000E+00
    0.00000E+00         0.00000E+00        -0.49504E+08
 
   -0.49133E+08         0.37557E+06         0.00000E+00
    0.37557E+06        -0.49888E+08         0.00000E+00
    0.00000E+00         0.00000E+00        -0.49511E+08
 
   -0.49155E+08         0.38729E+06         0.00000E+00
    0.38729E+06        -0.49878E+08         0.00000E+00
    0.00000E+00         0.00000E+00        -0.49517E+08
 
   -0.49177E+08         0.39825E+06         0.00000E+00
    0.39825E+06        -0.49869E+08         0.00000E+00
    0.00000E+00         0.00000E+00        -0.49523E+08
 
   -0.49199E+08         0.40845E+06         0.00000E+00
    0.40845E+06        -0.49860E+08         0.00000E+00
    0.00000E+00         0.00000E+00        -0.49530E+08
 
   -0.49221E+08         0.41792E+06         0.00000E+00
    0.41792E+06        -0.49850E+08         0.00000E+00
    0.00000E+00         0.00000E+00        -0.49536E+08
 
   -0.49244E+08         0.42667E+06         0.00000E+00
    0.42667E+06        -0.49841E+08         0.00000E+00
    0.00000E+00         0.00000E+00        -0.49542E+08
 
   -0.49266E+08         0.43473E+06         0.00000E+00
    0.43473E+06        -0.49832E+08         0.00000E+00
    0.00000E+00         0.00000E+00        -0.49549E+08
 
   -0.49287E+08         0.44213E+06         0.00000E+00
    0.44213E+06        -0.49822E+08         0.00000E+00
    0.00000E+00         0.00000E+00        -0.49555E+08
 
   -0.49309E+08         0.44889E+06         0.00000E+00
    0.44889E+06        -0.49813E+08         0.00000E+00
    0.00000E+00         0.00000E+00        -0.49561E+08
 
   -0.49330E+08         0.45504E+06         0.00000E+00
    0.45504E+06        -0.49804E+08         0.00000E+00
    0.00000E+00         0.00000E+00        -0.49567E+08
 
   -0.49351E+08         0.46062E+06         0.00000E+00
    0.46062E+06        -0.49796E+08         0.00000E+00
    0.00000E+00         0.00000E+00        -0.49573E+08
 
   -0.49372E+08         0.46567E+06         0.00000E+00
    0.46567E+06        -0.49787E+08         0.00000E+00
    0.00000E+00         0.00000E+00        -0.49579E+08
 
   -0.49392E+08         0.47022E+06         0.00000E+00
    0.47022E+06        -0.49779E+08         0.00000E+00
    0.00000E+00         0.00000E+00        -0.49585E+08
 
   -0.49412E+08         0.47431E+06         0.00000E+00
    0.47431E+06        -0.49770E+08         0.00000E+00
    0.00000E+00         0.00000E+00        -0.49591E+08
 
   -0.49431E+08         0.47798E+06         0.00000E+00
    0.47798E+06        -0.49762E+08         0.00000E+00
    0.00000E+00         0.00000E+00        -0.49596E+08
 
   -0.49450E+08         0.48128E+06         0.00000E+00
    0.48128E+06        -0.49755E+08         0.00000E+00
    0.00000E+00         0.00000E+00        -0.49602E+08
 
   -0.49468E+08         0.48425E+06         0.00000E+00
    0.48425E+06        -0.49747E+08         0.00000E+00
    0.00000E+00         0.00000E+00        -0.49607E+08
 
   -0.49486E+08         0.48695E+06         0.00000E+00
    0.48695E+06        -0.49740E+08         0.00000E+00
    0.00000E+00         0.00000E+00        -0.49612E+08
 
   -0.49503E+08         0.48941E+06         0.00000E+00
    0.48941E+06        -0.49733E+08         0.00000E+00
    0.00000E+00         0.00000E+00        -0.49617E+08
 
   -0.49519E+08         0.49169E+06         0.00000E+00
    0.49169E+06        -0.49726E+08         0.00000E+00
    0.00000E+00         0.00000E+00        -0.49621E+08
 
   -0.49535E+08         0.49384E+06         0.00000E+00
    0.49384E+06        -0.49720E+08         0.00000E+00
    0.00000E+00         0.00000E+00        -0.49626E+08
 
   -0.49549E+08         0.49590E+06         0.00000E+00
    0.49590E+06        -0.49714E+08         0.00000E+00
    0.00000E+00         0.00000E+00        -0.49630E+08
 
   -0.49564E+08         0.49795E+06         0.00000E+00
    0.49795E+06        -0.49709E+08         0.00000E+00
    0.00000E+00         0.00000E+00        -0.49634E+08
 
   -0.49577E+08         0.50002E+06         0.00000E+00
    0.50002E+06        -0.49703E+08         0.00000E+00
    0.00000E+00         0.00000E+00        -0.49637E+08
 
   -0.49590E+08         0.50217E+06         0.00000E+00
    0.50217E+06        -0.49698E+08         0.00000E+00
    0.00000E+00         0.00000E+00        -0.49641E+08
 
   -0.49602E+08         0.50445E+06         0.00000E+00
    0.50445E+06        -0.49693E+08         0.00000E+00
    0.00000E+00         0.00000E+00        -0.49644E+08
 
   -0.49613E+08         0.50692E+06         0.00000E+00
    0.50692E+06        -0.49689E+08         0.00000E+00
    0.00000E+00         0.00000E+00        -0.49646E+08
 
   -0.49623E+08         0.50963E+06         0.00000E+00
    0.50963E+06        -0.49685E+08         0.00000E+00
    0.00000E+00         0.00000E+00        -0.49649E+08
 
   -0.49633E+08         0.51264E+06         0.00000E+00
    0.51264E+06        -0.49681E+08         0.00000E+00
    0.00000E+00         0.00000E+00        -0.49651E+08
 
   -0.49642E+08         0.51599E+06         0.00000E+00
    0.51599E+06        -0.49677E+08         0.00000E+00
    0.00000E+00         0.00000E+00        -0.49652E+08
 
   -0.49650E+08         0.51973E+06         0.00000E+00
    0.51973E+06        -0.49673E+08         0.00000E+00
    0.00000E+00         0.00000E+00        -0.49653E+08
 
   -0.48723E+08         0.14727E+05         0.00000E+00
    0.14727E+05        -0.50000E+08         0.00000E+00
    0.00000E+00         0.00000E+00        -0.49369E+08
 
   -0.48729E+08         0.43294E+05         0.00000E+00
    0.43294E+05        -0.49999E+08         0.00000E+00
    0.00000E+00         0.00000E+00        -0.49370E+08
 
   -0.48736E+08         0.71372E+05         0.00000E+00
    0.71372E+05        -0.49997E+08         0.00000E+00
    0.00000E+00         0.00000E+00        -0.49372E+08
 
   -0.48745E+08         0.98884E+05         0.00000E+00
    0.98884E+05        -0.49995E+08         0.00000E+00
    0.00000E+00         0.00000E+00        -0.49375E+08
 
   -0.48756E+08         0.12576E+06         0.00000E+00
    0.12576E+06        -0.49991E+08         0.00000E+00
    0.00000E+00         0.00000E+00        -0.49378E+08
 
   -0.48769E+08         0.15194E+06         0.00000E+00
    0.15194E+06        -0.49987E+08         0.00000E+00
    0.00000E+00         0.00000E+00        -0.49382E+08
 
   -0.48784E+08         0.17736E+06         0.00000E+00
    0.17736E+06        -0.49982E+08         0.00000E+00
    0.00000E+00         0.00000E+00        -0.49386E+08
 
   -0.48800E+08         0.20197E+06         0.00000E+00
    0.20197E+06        -0.49976E+08         0.00000E+00
    0.00000E+00         0.00000E+00        -0.49391E+08
 
   -0.48817E+08         0.22574E+06         0.00000E+00
    0.22574E+06        -0.49970E+08         0.00000E+00
    0.00000E+00         0.00000E+00        -0.49396E+08
 
   -0.48836E+08         0.24862E+06         0.00000E+00
    0.24862E+06        -0.49963E+08         0.00000E+00
    0.00000E+00         0.00000E+00        -0.49401E+08
 
   -0.48856E+08         0.27058E+06         0.00000E+00
    0.27058E+06        -0.49955E+08         0.00000E+00
    0.00000E+00         0.00000E+00        -0.49407E+08
 
   -0.48877E+08         0.29160E+06         0.00000E+00
    0.29160E+06        -0.49947E+08         0.00000E+00
    0.00000E+00         0.00000E+00        -0.49414E+08
 
   -0.48899E+08         0.31165E+06         0.00000E+00
    0.31165E+06        -0.49939E+08         0.00000E+00
    0.00000E+00         0.00000E+00        -0.49420E+08
 
   -0.48922E+08         0.33073E+06         0.00000E+00
    0.33073E+06        -0.49930E+08         0.00000E+00
    0.00000E+00         0.00000E+00        -0.49427E+08
 
   -0.48945E+08         0.34881E+06         0.00000E+00
    0.34881E+06        -0.49921E+08         0.00000E+00
    0.00000E+00         0.00000E+00        -0.49434E+08
 
   -0.48970E+08         0.36590E+06         0.00000E+00
    0.36590E+06        -0.49911E+08         0.00000E+00
    0.00000E+00         0.00000E+00        -0.49441E+08
 
   -0.48995E+08         0.38198E+06         0.00000E+00
    0.38198E+06        -0.49902E+08         0.00000E+00
    0.00000E+00         0.00000E+00        -0.49449E+08
 
   -0.49020E+08         0.39708E+06         0.00000E+00
    0.39708E+06        -0.49892E+08         0.00000E+00
    0.00000E+00         0.00000E+00        -0.49456E+08
 
   -0.49046E+08         0.41118E+06         0.00000E+00
    0.41118E+06        -0.49882E+08         0.00000E+00
    0.00000E+00         0.00000E+00        -0.49464E+08
 
   -0.49072E+08         0.42430E+06         0.00000E+00
    0.42430E+06        -0.49871E+08         0.00000E+00
    0.00000E+00         0.00000E+00        -0.49472E+08
 
   -0.49098E+08         0.43645E+06         0.00000E+00
    0.43645E+06        -0.49861E+08         0.00000E+00
    0.00000E+00         0.00000E+00        -0.49480E+08
 
   -0.49124E+08         0.44766E+06         0.00000E+00
    0.44766E+06        -0.49851E+08         0.00000E+00
    0.00000E+00         0.00000E+00        -0.49488E+08
 
   -0.49150E+08         0.45794E+06         0.00000E+00
    0.45794E+06        -0.49840E+08         0.00000E+00
    0.00000E+00         0.00000E+00        -0.49495E+08
 
   -0.49176E+08         0.46732E+06         0.00000E+00
    0.46732E+06        -0.49830E+08         0.00000E+00
    0.00000E+00         0.00000E+00        -0.49503E+08
 
   -0.49202E+08         0.47581E+06         0.00000E+00
    0.47581E+06        -0.49819E+08         0.00000E+00
    0.00000E+00         0.00000E+00        -0.49511E+08
 
   -0.49228E+08         0.48346E+06         0.00000E+00
    0.48346E+06        -0.49809E+08         0.00000E+00
    0.00000E+00         0.00000E+00        -0.49519E+08
 
   -0.49253E+08         0.49030E+06         0.00000E+00
    0.49030E+06        -0.49799E+08         0.00000E+00
    0.00000E+00         0.00000E+00        -0.49526E+08
 
   -0.49279E+08         0.49636E+06         0.00000E+00
    0.49636E+06        -0.49789E+08         0.00000E+00
    0.00000E+00         0.00000E+00        -0.49534E+08
 
   -0.49303E+08         0.50168E+06         0.00000E+00
    0.50168E+06        -0.49779E+08         0.00000E+00
    0.00000E+00         0.00000E+00        -0.49541E+08
 
   -0.49327E+08         0.50629E+06         0.00000E+00
    0.50629E+06        -0.49769E+08         0.00000E+00
    0.00000E+00         0.00000E+00        -0.49548E+08
 
   -0.49351E+08         0.51025E+06         0.00000E+00
    0.51025E+06        -0.49760E+08         0.00000E+00
    0.00000E+00         0.00000E+00        -0.49555E+08
 
   -0.49374E+08         0.51360E+06         0.00000E+00
    0.51360E+06        -0.49751E+08         0.00000E+00
    0.00000E+00         0.00000E+00        -0.49562E+08
 
   -0.49396E+08         0.51639E+06         0.00000E+00
    0.51639E+06        -0.49742E+08         0.00000E+00
    0.00000E+00         0.00000E+00        -0.49569E+08
 
   -0.49417E+08         0.51866E+06         0.00000E+00
    0.51866E+06        -0.49733E+08         0.00000E+00
    0.00000E+00         0.00000E+00        -0.49575E+08
 
   -0.49438E+08         0.52048E+06         0.00000E+00
    0.52048E+06        -0.49725E+08         0.00000E+00
    0.00000E+00         0.00000E+00        -0.49581E+08
 
   -0.49458E+08         0.52189E+06         0.00000E+00
    0.52189E+06        -0.49717E+08         0.00000E+00
    0.00000E+00         0.00000E+00        -0.49587E+08
 
   -0.49477E+08         0.52295E+06         0.00000E+00
    0.52295E+06        -0.49710E+08         0.00000E+00
    0.00000E+00         0.00000E+00        -0.49593E+08
 
   -0.49495E+08         0.52373E+06         0.00000E+00
    0.52373E+06        -0.49702E+08         0.00000E+00
    0.00000E+00         0.00000E+00        -0.49598E+08
 
   -0.49512E+08         0.52428E+06         0.00000E+00
    0.52428E+06        -0.49696E+08         0.00000E+00
    0.00000E+00         0.00000E+00        -0.49603E+08
 
   -0.49528E+08         0.52466E+06         0.00000E+00
    0.52466E+06        -0.49689E+08         0.00000E+00
    0.00000E+00         0.00000E+00        -0.49608E+08
 
   -0.49543E+08         0.52495E+06         0.00000E+00
    0.52495E+06        -0.49683E+08         0.00000E+00
    0.00000E+00         0.00000E+00        -0.49612E+08
 
   -0.49558E+08         0.52520E+06         0.00000E+00
    0.52520E+06        -0.49678E+08         0.00000E+00
    0.00000E+00         0.00000E+00        -0.49616E+08
 
   -0.49571E+08         0.52548E+06         0.00000E+00
    0.52548E+06        -0.49673E+08         0.00000E+00
    0.00000E+00         0.00000E+00        -0.49620E+08
 
   -0.49583E+08         0.52586E+06         0.00000E+00
    0.52586E+06        -0.49668E+08         0.00000E+00
    0.00000E+00         0.00000E+00        -0.49623E+08
 
   -0.49594E+08         0.52641E+06         0.00000E+00
    0.52641E+06        -0.49664E+08         0.00000E+00
    0.00000E+00         0.00000E+00        -0.49626E+08
 
   -0.49604E+08         0.52720E+06         0.00000E+00
    0.52720E+06        -0.49660E+08         0.00000E+00
    0.00000E+00         0.00000E+00        -0.49629E+08
 
   -0.49613E+08         0.52829E+06         0.00000E+00
    0.52829E+06        -0.49656E+08         0.00000E+00
    0.00000E+00         0.00000E+00        -0.49631E+08
 
   -0.49620E+08         0.52977E+06         0.00000E+00
    0.52977E+06        -0.49653E+08         0.00000E+00
    0.00000E+00         0.00000E+00        -0.49633E+08
 
   -0.49627E+08         0.53169E+06         0.00000E+00
    0.53169E+06        -0.49650E+08         0.00000E+00
    0.00000E+00         0.00000E+00        -0.49634E+08
 
   -0.49633E+08         0.53412E+06         0.00000E+00
    0.53412E+06        -0.49648E+08         0.00000E+00
    0.00000E+00         0.00000E+00        -0.49635E+08
 
   -0.48567E+08         0.17433E+05         0.00000E+00
    0.17433E+05        -0.50000E+08         0.00000E+00
    0.00000E+00         0.00000E+00        -0.49296E+08
 
   -0.48575E+08         0.50911E+05         0.00000E+00
    0.50911E+05        -0.49999E+08         0.00000E+00
    0.00000E+00         0.00000E+00        -0.49298E+08
 
   -0.48586E+08         0.83672E+05         0.00000E+00
    0.83672E+05        -0.49997E+08         0.00000E+00
    0.00000E+00         0.00000E+00        -0.49301E+08
 
   -0.48598E+08         0.11563E+06         0.00000E+00
    0.11563E+06        -0.49994E+08         0.00000E+00
    0.00000E+00         0.00000E+00        -0.49304E+08
 
   -0.48614E+08         0.14671E+06         0.00000E+00
    0.14671E+06        -0.49990E+08         0.00000E+00
    0.00000E+00         0.00000E+00        -0.49309E+08
 
   -0.48631E+08         0.17683E+06         0.00000E+00
    0.17683E+06        -0.49985E+08         0.00000E+00
    0.00000E+00         0.00000E+00        -0.49314E+08
 
   -0.48650E+08         0.20595E+06         0.00000E+00
    0.20595E+06        -0.49979E+08         0.00000E+00
    0.00000E+00         0.00000E+00        -0.49320E+08
 
   -0.48670E+08         0.23401E+06         0.00000E+00
    0.23401E+06        -0.49973E+08         0.00000E+00
    0.00000E+00         0.00000E+00        -0.49326E+08
 
   -0.48693E+08         0.26097E+06         0.00000E+00
    0.26097E+06        -0.49966E+08         0.00000E+00
    0.00000E+00         0.00000E+00        -0.49333E+08
 
   -0.48717E+08         0.28678E+06         0.00000E+00
    0.28678E+06        -0.49958E+08         0.00000E+00
    0.00000E+00         0.00000E+00        -0.49341E+08
 
   -0.48742E+08         0.31142E+06         0.00000E+00
    0.31142E+06        -0.49949E+08         0.00000E+00
    0.00000E+00         0.00000E+00        -0.49349E+08
 
   -0.48768E+08         0.33487E+06         0.00000E+00
    0.33487E+06        -0.49941E+08         0.00000E+00
    0.00000E+00         0.00000E+00        -0.49357E+08
 
   -0.48796E+08         0.35710E+06         0.00000E+00
    0.35710E+06        -0.49931E+08         0.00000E+00
    0.00000E+00         0.00000E+00        -0.49366E+08
 
   -0.48824E+08         0.37811E+06         0.00000E+00
    0.37811E+06        -0.49921E+08         0.00000E+00
    0.00000E+00         0.00000E+00        -0.49375E+08
 
   -0.48854E+08         0.39789E+06         0.00000E+00
    0.39789E+06        -0.49911E+08         0.00000E+00
    0.00000E+00         0.00000E+00        -0.49384E+08
 
   -0.48883E+08         0.41643E+06         0.00000E+00
    0.41643E+06        -0.49901E+08         0.00000E+00
    0.00000E+00         0.00000E+00        -0.49393E+08
 
   -0.48914E+08         0.43374E+06         0.00000E+00
    0.43374E+06        -0.49890E+08         0.00000E+00
    0.00000E+00         0.00000E+00        -0.49403E+08
 
   -0.48945E+08         0.44984E+06         0.00000E+00
    0.44984E+06        -0.49879E+08         0.00000E+00
    0.00000E+00         0.00000E+00        -0.49413E+08
 
   -0.48976E+08         0.46472E+06         0.00000E+00
    0.46472E+06        -0.49868E+08         0.00000E+00
    0.00000E+00         0.00000E+00        -0.49423E+08
 
   -0.49007E+08         0.47841E+06         0.00000E+00
    0.47841E+06        -0.49857E+08         0.00000E+00
    0.00000E+00         0.00000E+00        -0.49433E+08
 
   -0.49039E+08         0.49093E+06         0.00000E+00
    0.49093E+06        -0.49845E+08         0.00000E+00
    0.00000E+00         0.00000E+00        -0.49443E+08
 
   -0.49070E+08         0.50230E+06         0.00000E+00
    0.50230E+06        -0.49834E+08         0.00000E+00
    0.00000E+00         0.00000E+00        -0.49452E+08
 
   -0.49101E+08         0.51255E+06         0.00000E+00
    0.51255E+06        -0.49823E+08         0.00000E+00
    0.00000E+00         0.00000E+00        -0.49462E+08
 
   -0.49132E+08         0.52170E+06         0.00000E+00
    0.52170E+06        -0.49811E+08         0.00000E+00
    0.00000E+00         0.00000E+00        -0.49472E+08
 
   -0.49163E+08         0.52980E+06         0.00000E+00
    0.52980E+06        -0.49800E+08         0.00000E+00
    0.00000E+00         0.00000E+00        -0.49482E+08
 
   -0.49193E+08         0.53688E+06         0.00000E+00
    0.53688E+06        -0.49789E+08         0.00000E+00
    0.00000E+00         0.00000E+00        -0.49491E+08
 
   -0.49223E+08         0.54297E+06         0.00000E+00
    0.54297E+06        -0.49778E+08         0.00000E+00
    0.00000E+00         0.00000E+00        -0.49501E+08
 
   -0.49252E+08         0.54812E+06         0.00000E+00
    0.54812E+06        -0.49767E+08         0.00000E+00
    0.00000E+00         0.00000E+00        -0.49510E+08
 
   -0.49281E+08         0.55237E+06         0.00000E+00
    0.55237E+06        -0.49756E+08         0.00000E+00
    0.00000E+00         0.00000E+00        -0.49519E+08
 
   -0.49309E+08         0.55577E+06         0.00000E+00
    0.55577E+06        -0.49746E+08         0.00000E+00
    0.00000E+00         0.00000E+00        -0.49528E+08
 
   -0.49336E+08         0.55837E+06         0.00000E+00
    0.55837E+06        -0.49736E+08         0.00000E+00
    0.00000E+00         0.00000E+00        -0.49536E+08
 
   -0.49362E+08         0.56023E+06         0.00000E+00
    0.56023E+06        -0.49726E+08         0.00000E+00
    0.00000E+00         0.00000E+00        -0.49544E+08
 
   -0.49387E+08         0.56140E+06         0.00000E+00
    0.56140E+06        -0.49717E+08         0.00000E+00
    0.00000E+00         0.00000E+00        -0.49552E+08
 
   -0.49412E+08         0.56193E+06         0.00000E+00
    0.56193E+06        -0.49708E+08         0.00000E+00
    0.00000E+00         0.00000E+00        -0.49560E+08
 
   -0.49435E+08         0.56190E+06         0.00000E+00
    0.56190E+06        -0.49699E+08         0.00000E+00
    0.00000E+00         0.00000E+00        -0.49567E+08
 
   -0.49457E+08         0.56135E+06         0.00000E+00
    0.56135E+06        -0.49691E+08         0.00000E+00
    0.00000E+00         0.00000E+00        -0.49574E+08
 
   -0.49477E+08         0.56037E+06         0.00000E+00
    0.56037E+06        -0.49683E+08         0.00000E+00
    0.00000E+00         0.00000E+00        -0.49580E+08
 
   -0.49497E+08         0.55901E+06         0.00000E+00
    0.55901E+06        -0.49676E+08         0.00000E+00
    0.00000E+00         0.00000E+00        -0.49586E+08
 
   -0.49515E+08         0.55735E+06         0.00000E+00
    0.55735E+06        -0.49669E+08         0.00000E+00
    0.00000E+00         0.00000E+00        -0.49592E+08
 
   -0.49532E+08         0.55546E+06         0.00000E+00
    0.55546E+06        -0.49662E+08         0.00000E+00
    0.00000E+00         0.00000E+00        -0.49597E+08
 
   -0.49548E+08         0.55343E+06         0.00000E+00
    0.55343E+06        -0.49656E+08         0.00000E+00
    0.00000E+00         0.00000E+00        -0.49602E+08
 
   -0.49562E+08         0.55132E+06         0.00000E+00
    0.55132E+06        -0.49651E+08         0.00000E+00
    0.00000E+00         0.00000E+00        -0.49606E+08
 
   -0.49575E+08         0.54923E+06         0.00000E+00
    0.54923E+06        -0.49646E+08         0.00000E+00
    0.00000E+00         0.00000E+00        -0.49610E+08
 
   -0.49586E+08         0.54722E+06         0.00000E+00
    0.54722E+06        -0.49642E+08         0.00000E+00
    0.00000E+00         0.00000E+00        -0.49614E+08
 
   -0.49596E+08         0.54540E+06         0.00000E+00
    0.54540E+06        -0.49638E+08         0.00000E+00
    0.00000E+00         0.00000E+00        -0.49617E+08
 
   -0.49604E+08         0.54384E+06         0.00000E+00
    0.54384E+06        -0.49635E+08         0.00000E+00
    0.00000E+00         0.00000E+00        -0.49619E+08
 
   -0.49611E+08         0.54263E+06         0.00000E+00
    0.54263E+06        -0.49633E+08         0.00000E+00
    0.00000E+00         0.00000E+00        -0.49621E+08
 
   -0.49617E+08         0.54187E+06         0.00000E+00
    0.54187E+06        -0.49630E+08         0.00000E+00
    0.00000E+00         0.00000E+00        -0.49623E+08
 
   -0.49621E+08         0.54164E+06         0.00000E+00
    0.54164E+06        -0.49629E+08         0.00000E+00
    0.00000E+00         0.00000E+00        -0.49624E+08
 
   -0.49624E+08         0.54203E+06         0.00000E+00
    0.54203E+06        -0.49628E+08         0.00000E+00
    0.00000E+00         0.00000E+00        -0.49625E+08
 
   -0.48384E+08         0.20531E+05         0.00000E+00
    0.20531E+05        -0.50000E+08         0.00000E+00
    0.00000E+00         0.00000E+00        -0.49212E+08
 
   -0.48396E+08         0.59543E+05         0.00000E+00
    0.59543E+05        -0.49999E+08         0.00000E+00
    0.00000E+00         0.00000E+00        -0.49215E+08
 
   -0.48411E+08         0.97542E+05         0.00000E+00
    0.97542E+05        -0.49997E+08         0.00000E+00
    0.00000E+00         0.00000E+00        -0.49219E+08
 
   -0.48429E+08         0.13444E+06         0.00000E+00
    0.13444E+06        -0.49993E+08         0.00000E+00
    0.00000E+00         0.00000E+00        -0.49225E+08
 
   -0.48449E+08         0.17015E+06         0.00000E+00
    0.17015E+06        -0.49989E+08         0.00000E+00
    0.00000E+00         0.00000E+00        -0.49231E+08
 
   -0.48472E+08         0.20461E+06         0.00000E+00
    0.20461E+06        -0.49983E+08         0.00000E+00
    0.00000E+00         0.00000E+00        -0.49238E+08
 
   -0.48497E+08         0.23776E+06         0.00000E+00
    0.23776E+06        -0.49977E+08         0.00000E+00
    0.00000E+00         0.00000E+00        -0.49246E+08
 
   -0.48524E+08         0.26954E+06         0.00000E+00
    0.26954E+06        -0.49970E+08         0.00000E+00
    0.00000E+00         0.00000E+00        -0.49255E+08
 
   -0.48553E+08         0.29991E+06         0.00000E+00
    0.29991E+06        -0.49962E+08         0.00000E+00
    0.00000E+00         0.00000E+00        -0.49264E+08
 
   -0.48583E+08         0.32885E+06         0.00000E+00
    0.32885E+06        -0.49954E+08         0.00000E+00
    0.00000E+00         0.00000E+00        -0.49274E+08
 
   -0.48615E+08         0.35632E+06         0.00000E+00
    0.35632E+06        -0.49945E+08         0.00000E+00
    0.00000E+00         0.00000E+00        -0.49285E+08
 
   -0.48648E+08         0.38231E+06         0.00000E+00
    0.38231E+06        -0.49935E+08         0.00000E+00
    0.00000E+00         0.00000E+00        -0.49296E+08
 
   -0.48682E+08         0.40681E+06         0.00000E+00
    0.40681E+06        -0.49925E+08         0.00000E+00
    0.00000E+00         0.00000E+00        -0.49307E+08
 
   -0.48718E+08         0.42981E+06         0.00000E+00
    0.42981E+06        -0.49915E+08         0.00000E+00
    0.00000E+00         0.00000E+00        -0.49319E+08
 
   -0.48754E+08         0.45131E+06         0.00000E+00
    0.45131E+06        -0.49904E+08         0.00000E+00
    0.00000E+00         0.00000E+00        -0.49331E+08
 
   -0.48790E+08         0.47132E+06         0.00000E+00
    0.47132E+06        -0.49893E+08         0.00000E+00
    0.00000E+00         0.00000E+00        -0.49344E+08
 
   -0.48828E+08         0.48984E+06         0.00000E+00
    0.48984E+06        -0.49881E+08         0.00000E+00
    0.00000E+00         0.00000E+00        -0.49356E+08
 
   -0.48865E+08         0.50691E+06         0.00000E+00
    0.50691E+06        -0.49870E+08         0.00000E+00
    0.00000E+00         0.00000E+00        -0.49369E+08
 
   -0.48903E+08         0.52253E+06         0.00000E+00
    0.52253E+06        -0.49858E+08         0.00000E+00
    0.00000E+00         0.00000E+00        -0.49382E+08
 
   -0.48941E+08         0.53673E+06         0.00000E+00
    0.53673E+06        -0.49846E+08         0.00000E+00
    0.00000E+00         0.00000E+00        -0.49394E+08
 
   -0.48978E+08         0.54954E+06         0.00000E+00
    0.54954E+06        -0.49834E+08         0.00000E+00
    0.00000E+00         0.00000E+00        -0.49407E+08
 
   -0.49016E+08         0.56098E+06         0.00000E+00
    0.56098E+06        -0.49822E+08         0.00000E+00
    0.00000E+00         0.00000E+00        -0.49420E+08
 
   -0.49053E+08         0.57110E+06         0.00000E+00
    0.57110E+06        -0.49810E+08         0.00000E+00
    0.00000E+00         0.00000E+00        -0.49432E+08
 
   -0.49090E+08         0.57992E+06         0.00000E+00
    0.57992E+06        -0.49798E+08         0.00000E+00
    0.00000E+00         0.00000E+00        -0.49445E+08
 
   -0.49127E+08         0.58749E+06         0.00000E+00
    0.58749E+06        -0.49786E+08         0.00000E+00
    0.00000E+00         0.00000E+00        -0.49457E+08
 
   -0.49162E+08         0.59385E+06         0.00000E+00
    0.59385E+06        -0.49774E+08         0.00000E+00
    0.00000E+00         0.00000E+00        -0.49469E+08
 
   -0.49197E+08         0.59904E+06         0.00000E+00
    0.59904E+06        -0.49763E+08         0.00000E+00
    0.00000E+00         0.00000E+00        -0.49480E+08
 
   -0.49232E+08         0.60312E+06         0.00000E+00
    0.60312E+06        -0.49751E+08         0.00000E+00
    0.00000E+00         0.00000E+00        -0.49492E+08
 
   -0.49265E+08         0.60612E+06         0.00000E+00
    0.60612E+06        -0.49740E+08         0.00000E+00
    0.00000E+00         0.00000E+00        -0.49503E+08
 
   -0.49298E+08         0.60812E+06         0.00000E+00
    0.60812E+06        -0.49730E+08         0.00000E+00
    0.00000E+00         0.00000E+00        -0.49514E+08
 
   -0.49329E+08         0.60915E+06         0.00000E+00
    0.60915E+06        -0.49719E+08         0.00000E+00
    0.00000E+00         0.00000E+00        -0.49524E+08
 
   -0.49359E+08         0.60927E+06         0.00000E+00
    0.60927E+06        -0.49709E+08         0.00000E+00
    0.00000E+00         0.00000E+00        -0.49534E+08
 
   -0.49388E+08         0.60856E+06         0.00000E+00
    0.60856E+06        -0.49699E+08         0.00000E+00
    0.00000E+00         0.00000E+00        -0.49544E+08
 
   -0.49415E+08         0.60706E+06         0.00000E+00
    0.60706E+06        -0.49690E+08         0.00000E+00
    0.00000E+00         0.00000E+00        -0.49553E+08
 
   -0.49442E+08         0.60485E+06         0.00000E+00
    0.60485E+06        -0.49681E+08         0.00000E+00
    0.00000E+00         0.00000E+00        -0.49562E+08
 
   -0.49466E+08         0.60201E+06         0.00000E+00
    0.60201E+06        -0.49672E+08         0.00000E+00
    0.00000E+00         0.00000E+00        -0.49570E+08
 
   -0.49489E+08         0.59859E+06         0.00000E+00
    0.59859E+06        -0.49664E+08         0.00000E+00
    0.00000E+00         0.00000E+00        -0.49577E+08
 
   -0.49511E+08         0.59468E+06         0.00000E+00
    0.59468E+06        -0.49657E+08         0.00000E+00
    0.00000E+00         0.00000E+00        -0.49585E+08
 
   -0.49531E+08         0.59035E+06         0.00000E+00
    0.59035E+06        -0.49650E+08         0.00000E+00
    0.00000E+00         0.00000E+00        -0.49591E+08
 
   -0.49549E+08         0.58570E+06         0.00000E+00
    0.58570E+06        -0.49644E+08         0.00000E+00
    0.00000E+00         0.00000E+00        -0.49597E+08
 
   -0.49565E+08         0.58080E+06         0.00000E+00
    0.58080E+06        -0.49638E+08         0.00000E+00
    0.00000E+00         0.00000E+00        -0.49603E+08
 
   -0.49580E+08         0.57576E+06         0.00000E+00
    0.57576E+06        -0.49633E+08         0.00000E+00
    0.00000E+00         0.00000E+00        -0.49608E+08
 
   -0.49592E+08         0.57065E+06         0.00000E+00
    0.57065E+06        -0.49629E+08         0.00000E+00
    0.00000E+00         0.00000E+00        -0.49612E+08
 
   -0.49603E+08         0.56559E+06         0.00000E+00
    0.56559E+06        -0.49625E+08         0.00000E+00
    0.00000E+00         0.00000E+00        -0.49616E+08
 
   -0.49612E+08         0.56067E+06         0.00000E+00
    0.56067E+06        -0.49622E+08         0.00000E+00
    0.00000E+00         0.00000E+00        -0.49619E+08
 
   -0.49619E+08         0.55599E+06         0.00000E+00
    0.55599E+06        -0.49620E+08         0.00000E+00
    0.00000E+00         0.00000E+00        -0.49622E+08
 
   -0.49624E+08         0.55168E+06         0.00000E+00
    0.55168E+06        -0.49618E+08         0.00000E+00
    0.00000E+00         0.00000E+00        -0.49624E+08
 
   -0.49627E+08         0.54783E+06         0.00000E+00
    0.54783E+06        -0.49618E+08         0.00000E+00
    0.00000E+00         0.00000E+00        -0.49625E+08
 
   -0.49628E+08         0.54456E+06         0.00000E+00
    0.54456E+06        -0.49617E+08         0.00000E+00
    0.00000E+00         0.00000E+00        -0.49626E+08
 
   -0.49627E+08         0.54200E+06         0.00000E+00
    0.54200E+06        -0.49618E+08         0.00000E+00
    0.00000E+00         0.00000E+00        -0.49626E+08
 
   -0.48171E+08         0.23964E+05         0.00000E+00
    0.23964E+05        -0.50000E+08         0.00000E+00
    0.00000E+00         0.00000E+00        -0.49117E+08
 
   -0.48189E+08         0.68992E+05         0.00000E+00
    0.68992E+05        -0.49999E+08         0.00000E+00
    0.00000E+00         0.00000E+00        -0.49122E+08
 
   -0.48210E+08         0.11264E+06         0.00000E+00
    0.11264E+06        -0.49996E+08         0.00000E+00
    0.00000E+00         0.00000E+00        -0.49128E+08
 
   -0.48235E+08         0.15482E+06         0.00000E+00
    0.15482E+06        -0.49993E+08         0.00000E+00
    0.00000E+00         0.00000E+00        -0.49135E+08
 
   -0.48262E+08         0.19545E+06         0.00000E+00
    0.19545E+06        -0.49988E+08         0.00000E+00
    0.00000E+00         0.00000E+00        -0.49143E+08
 
   -0.48292E+08         0.23447E+06         0.00000E+00
    0.23447E+06        -0.49982E+08         0.00000E+00
    0.00000E+00         0.00000E+00        -0.49153E+08
 
   -0.48325E+08         0.27181E+06         0.00000E+00
    0.27181E+06        -0.49976E+08         0.00000E+00
    0.00000E+00         0.00000E+00        -0.49164E+08
 
   -0.48359E+08         0.30744E+06         0.00000E+00
    0.30744E+06        -0.49968E+08         0.00000E+00
    0.00000E+00         0.00000E+00        -0.49176E+08
 
   -0.48396E+08         0.34132E+06         0.00000E+00
    0.34132E+06        -0.49960E+08         0.00000E+00
    0.00000E+00         0.00000E+00        -0.49189E+08
 
   -0.48435E+08         0.37343E+06         0.00000E+00
    0.37343E+06        -0.49952E+08         0.00000E+00
    0.00000E+00         0.00000E+00        -0.49202E+08
 
   -0.48475E+08         0.40374E+06         0.00000E+00
    0.40374E+06        -0.49942E+08         0.00000E+00
    0.00000E+00         0.00000E+00        -0.49216E+08
 
   -0.48516E+08         0.43227E+06         0.00000E+00
    0.43227E+06        -0.49932E+08         0.00000E+00
    0.00000E+00         0.00000E+00        -0.49231E+08
 
   -0.48558E+08         0.45899E+06         0.00000E+00
    0.45899E+06        -0.49922E+08         0.00000E+00
    0.00000E+00         0.00000E+00        -0.49246E+08
 
   -0.48602E+08         0.48393E+06         0.00000E+00
    0.48393E+06        -0.49911E+08         0.00000E+00
    0.00000E+00         0.00000E+00        -0.49261E+08
 
   -0.48646E+08         0.50708E+06         0.00000E+00
    0.50708E+06        -0.49900E+08         0.00000E+00
    0.00000E+00         0.00000E+00        -0.49277E+08
 
   -0.48691E+08         0.52848E+06         0.00000E+00
    0.52848E+06        -0.49889E+08         0.00000E+00
    0.00000E+00         0.00000E+00        -0.49293E+08
 
   -0.48736E+08         0.54814E+06         0.00000E+00
    0.54814E+06        -0.49877E+08         0.00000E+00
    0.00000E+00         0.00000E+00        -0.49310E+08
 
   -0.48781E+08         0.56609E+06         0.00000E+00
    0.56609E+06        -0.49866E+08         0.00000E+00
    0.00000E+00         0.00000E+00        -0.49326E+08
 
   -0.48827E+08         0.58235E+06         0.00000E+00
    0.58235E+06        -0.49854E+08         0.00000E+00
    0.00000E+00         0.00000E+00        -0.49342E+08
 
   -0.48872E+08         0.59697E+06         0.00000E+00
    0.59697E+06        -0.49842E+08         0.00000E+00
    0.00000E+00         0.00000E+00        -0.49359E+08
 
   -0.48917E+08         0.60998E+06         0.00000E+00
    0.60998E+06        -0.49830E+08         0.00000E+00
    0.00000E+00         0.00000E+00        -0.49375E+08
 
   -0.48962E+08         0.62141E+06         0.00000E+00
    0.62141E+06        -0.49818E+08         0.00000E+00
    0.00000E+00         0.00000E+00        -0.49391E+08
 
   -0.49007E+08         0.63131E+06         0.00000E+00
    0.63131E+06        -0.49806E+08         0.00000E+00
    0.00000E+00         0.00000E+00        -0.49407E+08
 
   -0.49050E+08         0.63972E+06         0.00000E+00
    0.63972E+06        -0.49794E+08         0.00000E+00
    0.00000E+00         0.00000E+00        -0.49423E+08
 
   -0.49093E+08         0.64669E+06         0.00000E+00
    0.64669E+06        -0.49782E+08         0.00000E+00
    0.00000E+00         0.00000E+00        -0.49438E+08
 
   -0.49136E+08         0.65226E+06         0.00000E+00
    0.65226E+06        -0.49770E+08         0.00000E+00
    0.00000E+00         0.00000E+00        -0.49453E+08
 
   -0.49177E+08         0.65648E+06         0.00000E+00
    0.65648E+06        -0.49759E+08         0.00000E+00
    0.00000E+00         0.00000E+00        -0.49468E+08
 
   -0.49217E+08         0.65941E+06         0.00000E+00
    0.65941E+06        -0.49747E+08         0.00000E+00
    0.00000E+00         0.00000E+00        -0.49483E+08
 
   -0.49256E+08         0.66109E+06         0.00000E+00
    0.66109E+06        -0.49736E+08         0.00000E+00
    0.00000E+00         0.00000E+00        -0.49497E+08
 
   -0.49294E+08         0.66158E+06         0.00000E+00
    0.66158E+06        -0.49725E+08         0.00000E+00
    0.00000E+00         0.00000E+00        -0.49510E+08
 
   -0.49330E+08         0.66093E+06         0.00000E+00
    0.66093E+06        -0.49715E+08         0.00000E+00
    0.00000E+00         0.00000E+00        -0.49523E+08
 
   -0.49365E+08         0.65921E+06         0.00000E+00
    0.65921E+06        -0.49705E+08         0.00000E+00
    0.00000E+00         0.00000E+00        -0.49535E+08
 
   -0.49398E+08         0.65648E+06         0.00000E+00
    0.65648E+06        -0.49695E+08         0.00000E+00
    0.00000E+00         0.00000E+00        -0.49547E+08
 
   -0.49430E+08         0.65279E+06         0.00000E+00
    0.65279E+06        -0.49686E+08         0.00000E+00
    0.00000E+00         0.00000E+00        -0.49559E+08
 
   -0.49460E+08         0.64822E+06         0.00000E+00
    0.64822E+06        -0.49677E+08         0.00000E+00
    0.00000E+00         0.00000E+00        -0.49569E+08
 
   -0.49488E+08         0.64284E+06         0.00000E+00
    0.64284E+06        -0.49669E+08         0.00000E+00
    0.00000E+00         0.00000E+00        -0.49579E+08
 
   -0.49514E+08         0.63673E+06         0.00000E+00
    0.63673E+06        -0.49661E+08         0.00000E+00
    0.00000E+00         0.00000E+00        -0.49589E+08
 
   -0.49539E+08         0.62995E+06         0.00000E+00
    0.62995E+06        -0.49654E+08         0.00000E+00
    0.00000E+00         0.00000E+00        -0.49597E+08
 
   -0.49561E+08         0.62260E+06         0.00000E+00
    0.62260E+06        -0.49647E+08         0.00000E+00
    0.00000E+00         0.00000E+00        -0.49605E+08
 
   -0.49581E+08         0.61477E+06         0.00000E+00
    0.61477E+06        -0.49641E+08         0.00000E+00
    0.00000E+00         0.00000E+00        -0.49613E+08
 
   -0.49598E+08         0.60653E+06         0.00000E+00
    0.60653E+06        -0.49636E+08         0.00000E+00
    0.00000E+00         0.00000E+00        -0.49619E+08
 
   -0.49614E+08         0.59801E+06         0.00000E+00
    0.59801E+06        -0.49631E+08         0.00000E+00
    0.00000E+00         0.00000E+00        -0.49625E+08
 
   -0.49627E+08         0.58929E+06         0.00000E+00
    0.58929E+06        -0.49627E+08         0.00000E+00
    0.00000E+00         0.00000E+00        -0.49630E+08
 
   -0.49637E+08         0.58049E+06         0.00000E+00
    0.58049E+06        -0.49624E+08         0.00000E+00
    0.00000E+00         0.00000E+00        -0.49634E+08
 
   -0.49645E+08         0.57172E+06         0.00000E+00
    0.57172E+06        -0.49622E+08         0.00000E+00
    0.00000E+00         0.00000E+00        -0.49638E+08
 
   -0.49651E+08         0.56311E+06         0.00000E+00
    0.56311E+06        -0.49621E+08         0.00000E+00
    0.00000E+00         0.00000E+00        -0.49641E+08
 
   -0.49654E+08         0.55478E+06         0.00000E+00
    0.55478E+06        -0.49620E+08         0.00000E+00
    0.00000E+00         0.00000E+00        -0.49643E+08
 
   -0.49654E+08         0.54687E+06         0.00000E+00
    0.54687E+06        -0.49621E+08         0.00000E+00
    0.00000E+00         0.00000E+00        -0.49644E+08
 
   -0.49652E+08         0.53952E+06         0.00000E+00
    0.53952E+06        -0.49622E+08         0.00000E+00
    0.00000E+00         0.00000E+00        -0.49645E+08
 
   -0.49648E+08         0.53288E+06         0.00000E+00
    0.53288E+06        -0.49624E+08         0.00000E+00
    0.00000E+00         0.00000E+00        -0.49645E+08
 
   -0.47927E+08         0.27610E+05         0.00000E+00
    0.27610E+05        -0.50000E+08         0.00000E+00
    0.00000E+00         0.00000E+00        -0.49011E+08
 
   -0.47952E+08         0.78880E+05         0.00000E+00
    0.78880E+05        -0.49999E+08         0.00000E+00
    0.00000E+00         0.00000E+00        -0.49017E+08
 
   -0.47982E+08         0.12833E+06         0.00000E+00
    0.12833E+06        -0.49996E+08         0.00000E+00
    0.00000E+00         0.00000E+00        -0.49025E+08
 
   -0.48015E+08         0.17587E+06         0.00000E+00
    0.17587E+06        -0.49993E+08         0.00000E+00
    0.00000E+00         0.00000E+00        -0.49035E+08
 
   -0.48051E+08         0.22144E+06         0.00000E+00
    0.22144E+06        -0.49988E+08         0.00000E+00
    0.00000E+00         0.00000E+00        -0.49047E+08
 
   -0.48090E+08         0.26497E+06         0.00000E+00
    0.26497E+06        -0.49982E+08         0.00000E+00
    0.00000E+00         0.00000E+00        -0.49060E+08
 
   -0.48132E+08         0.30643E+06         0.00000E+00
    0.30643E+06        -0.49976E+08         0.00000E+00
    0.00000E+00         0.00000E+00        -0.49075E+08
 
   -0.48177E+08         0.34578E+06         0.00000E+00
    0.34578E+06        -0.49969E+08         0.00000E+00
    0.00000E+00         0.00000E+00        -0.49091E+08
 
   -0.48223E+08         0.38301E+06         0.00000E+00
    0.38301E+06        -0.49961E+08         0.00000E+00
    0.00000E+00         0.00000E+00        -0.49107E+08
 
   -0.48271E+08         0.41811E+06         0.00000E+00
    0.41811E+06        -0.49952E+08         0.00000E+00
    0.00000E+00         0.00000E+00        -0.49125E+08
 
   -0.48321E+08         0.45107E+06         0.00000E+00
    0.45107E+06        -0.49943E+08         0.00000E+00
    0.00000E+00         0.00000E+00        -0.49144E+08
 
   -0.48372E+08         0.48191E+06         0.00000E+00
    0.48191E+06        -0.49934E+08         0.00000E+00
    0.00000E+00         0.00000E+00        -0.49163E+08
 
   -0.48425E+08         0.51064E+06         0.00000E+00
    0.51064E+06        -0.49924E+08         0.00000E+00
    0.00000E+00         0.00000E+00        -0.49183E+08
 
   -0.48478E+08         0.53729E+06         0.00000E+00
    0.53729E+06        -0.49914E+08         0.00000E+00
    0.00000E+00         0.00000E+00        -0.49203E+08
 
   -0.48531E+08         0.56188E+06         0.00000E+00
    0.56188E+06        -0.49903E+08         0.00000E+00
    0.00000E+00         0.00000E+00        -0.49223E+08
 
   -0.48585E+08         0.58445E+06         0.00000E+00
    0.58445E+06        -0.49893E+08         0.00000E+00
    0.00000E+00         0.00000E+00        -0.49244E+08
 
   -0.48640E+08         0.60504E+06         0.00000E+00
    0.60504E+06        -0.49882E+08         0.00000E+00
    0.00000E+00         0.00000E+00        -0.49265E+08
 
   -0.48694E+08         0.62369E+06         0.00000E+00
    0.62369E+06        -0.49871E+08         0.00000E+00
    0.00000E+00         0.00000E+00        -0.49286E+08
 
   -0.48748E+08         0.64044E+06         0.00000E+00
    0.64044E+06        -0.49860E+08         0.00000E+00
    0.00000E+00         0.00000E+00        -0.49307E+08
 
   -0.48803E+08         0.65535E+06         0.00000E+00
    0.65535E+06        -0.49849E+08         0.00000E+00
    0.00000E+00         0.00000E+00        -0.49328E+08
 
   -0.48856E+08         0.66844E+06         0.00000E+00
    0.66844E+06        -0.49838E+08         0.00000E+00
    0.00000E+00         0.00000E+00        -0.49349E+08
 
   -0.48909E+08         0.67978E+06         0.00000E+00
    0.67978E+06        -0.49826E+08         0.00000E+00
    0.00000E+00         0.00000E+00        -0.49369E+08
 
   -0.48962E+08         0.68942E+06         0.00000E+00
    0.68942E+06        -0.49815E+08         0.00000E+00
    0.00000E+00         0.00000E+00        -0.49390E+08
 
   -0.49013E+08         0.69739E+06         0.00000E+00
    0.69739E+06        -0.49804E+08         0.00000E+00
    0.00000E+00         0.00000E+00        -0.49410E+08
 
   -0.49064E+08         0.70376E+06         0.00000E+00
    0.70376E+06        -0.49793E+08         0.00000E+00
    0.00000E+00         0.00000E+00        -0.49429E+08
 
   -0.49113E+08         0.70858E+06         0.00000E+00
    0.70858E+06        -0.49783E+08         0.00000E+00
    0.00000E+00         0.00000E+00        -0.49449E+08
 
   -0.49161E+08         0.71188E+06         0.00000E+00
    0.71188E+06        -0.49772E+08         0.00000E+00
    0.00000E+00         0.00000E+00        -0.49467E+08
 
   -0.49208E+08         0.71373E+06         0.00000E+00
    0.71373E+06        -0.49762E+08         0.00000E+00
    0.00000E+00         0.00000E+00        -0.49485E+08
 
   -0.49254E+08         0.71417E+06         0.00000E+00
    0.71417E+06        -0.49751E+08         0.00000E+00
    0.00000E+00         0.00000E+00        -0.49503E+08
 
   -0.49298E+08         0.71325E+06         0.00000E+00
    0.71325E+06        -0.49741E+08         0.00000E+00
    0.00000E+00         0.00000E+00        -0.49520E+08
 
   -0.49340E+08         0.71103E+06         0.00000E+00
    0.71103E+06        -0.49732E+08         0.00000E+00
    0.00000E+00         0.00000E+00        -0.49536E+08
 
   -0.49381E+08         0.70757E+06         0.00000E+00
    0.70757E+06        -0.49722E+08         0.00000E+00
    0.00000E+00         0.00000E+00        -0.49552E+08
 
   -0.49419E+08         0.70290E+06         0.00000E+00
    0.70290E+06        -0.49713E+08         0.00000E+00
    0.00000E+00         0.00000E+00        -0.49567E+08
 
   -0.49456E+08         0.69710E+06         0.00000E+00
    0.69710E+06        -0.49704E+08         0.00000E+00
    0.00000E+00         0.00000E+00        -0.49581E+08
 
   -0.49491E+08         0.69022E+06         0.00000E+00
    0.69022E+06        -0.49696E+08         0.00000E+00
    0.00000E+00         0.00000E+00        -0.49594E+08
 
   -0.49523E+08         0.68232E+06         0.00000E+00
    0.68232E+06        -0.49688E+08         0.00000E+00
    0.00000E+00         0.00000E+00        -0.49607E+08
 
   -0.49554E+08         0.67348E+06         0.00000E+00
    0.67348E+06        -0.49681E+08         0.00000E+00
    0.00000E+00         0.00000E+00        -0.49619E+08
 
   -0.49581E+08         0.66376E+06         0.00000E+00
    0.66376E+06        -0.49674E+08         0.00000E+00
    0.00000E+00         0.00000E+00        -0.49629E+08
 
   -0.49607E+08         0.65324E+06         0.00000E+00
    0.65324E+06        -0.49668E+08         0.00000E+00
    0.00000E+00         0.00000E+00        -0.49639E+08
 
   -0.49629E+08         0.64200E+06         0.00000E+00
    0.64200E+06        -0.49662E+08         0.00000E+00
    0.00000E+00         0.00000E+00        -0.49648E+08
 
   -0.49649E+08         0.63014E+06         0.00000E+00
    0.63014E+06        -0.49657E+08         0.00000E+00
    0.00000E+00         0.00000E+00        -0.49657E+08
 
   -0.49666E+08         0.61775E+06         0.00000E+00
    0.61775E+06        -0.49653E+08         0.00000E+00
    0.00000E+00         0.00000E+00        -0.49664E+08
 
   -0.49681E+08         0.60494E+06         0.00000E+00
    0.60494E+06        -0.49650E+08         0.00000E+00
    0.00000E+00         0.00000E+00        -0.49670E+08
 
   -0.49692E+08         0.59182E+06         0.00000E+00
    0.59182E+06        -0.49647E+08         0.00000E+00
    0.00000E+00         0.00000E+00        -0.49675E+08
 
   -0.49700E+08         0.57851E+06         0.00000E+00
    0.57851E+06        -0.49646E+08         0.00000E+00
    0.00000E+00         0.00000E+00        -0.49680E+08
 
   -0.49705E+08         0.56515E+06         0.00000E+00
    0.56515E+06        -0.49645E+08         0.00000E+00
    0.00000E+00         0.00000E+00        -0.49683E+08
 
   -0.49707E+08         0.55189E+06         0.00000E+00
    0.55189E+06        -0.49646E+08         0.00000E+00
    0.00000E+00         0.00000E+00        -0.49685E+08
 
   -0.49705E+08         0.53888E+06         0.00000E+00
    0.53888E+06        -0.49648E+08         0.00000E+00
    0.00000E+00         0.00000E+00        -0.49687E+08
 
   -0.49700E+08         0.52628E+06         0.00000E+00
    0.52628E+06        -0.49650E+08         0.00000E+00
    0.00000E+00         0.00000E+00        -0.49687E+08
 
   -0.49692E+08         0.51427E+06         0.00000E+00
    0.51427E+06        -0.49654E+08         0.00000E+00
    0.00000E+00         0.00000E+00        -0.49687E+08
 
   -0.47650E+08         0.31267E+05         0.00000E+00
    0.31267E+05        -0.50000E+08         0.00000E+00
    0.00000E+00         0.00000E+00        -0.48893E+08
 
   -0.47686E+08         0.88597E+05         0.00000E+00
    0.88597E+05        -0.49999E+08         0.00000E+00
    0.00000E+00         0.00000E+00        -0.48902E+08
 
   -0.47726E+08         0.14359E+06         0.00000E+00
    0.14359E+06        -0.49996E+08         0.00000E+00
    0.00000E+00         0.00000E+00        -0.48913E+08
 
   -0.47770E+08         0.19618E+06         0.00000E+00
    0.19618E+06        -0.49993E+08         0.00000E+00
    0.00000E+00         0.00000E+00        -0.48927E+08
 
   -0.47817E+08         0.24630E+06         0.00000E+00
    0.24630E+06        -0.49989E+08         0.00000E+00
    0.00000E+00         0.00000E+00        -0.48943E+08
 
   -0.47868E+08         0.29393E+06         0.00000E+00
    0.29393E+06        -0.49984E+08         0.00000E+00
    0.00000E+00         0.00000E+00        -0.48960E+08
 
   -0.47921E+08         0.33904E+06         0.00000E+00
    0.33904E+06        -0.49978E+08         0.00000E+00
    0.00000E+00         0.00000E+00        -0.48979E+08
 
   -0.47977E+08         0.38162E+06         0.00000E+00
    0.38162E+06        -0.49971E+08         0.00000E+00
    0.00000E+00         0.00000E+00        -0.49000E+08
 
   -0.48035E+08         0.42168E+06         0.00000E+00
    0.42168E+06        -0.49964E+08         0.00000E+00
    0.00000E+00         0.00000E+00        -0.49022E+08
 
   -0.48095E+08         0.45924E+06         0.00000E+00
    0.45924E+06        -0.49957E+08         0.00000E+00
    0.00000E+00         0.00000E+00        -0.49045E+08
 
   -0.48157E+08         0.49431E+06         0.00000E+00
    0.49431E+06        -0.49949E+08         0.00000E+00
    0.00000E+00         0.00000E+00        -0.49069E+08
 
   -0.48219E+08         0.52694E+06         0.00000E+00
    0.52694E+06        -0.49941E+08         0.00000E+00
    0.00000E+00         0.00000E+00        -0.49094E+08
 
   -0.48282E+08         0.55717E+06         0.00000E+00
    0.55717E+06        -0.49933E+08         0.00000E+00
    0.00000E+00         0.00000E+00        -0.49120E+08
 
   -0.48347E+08         0.58504E+06         0.00000E+00
    0.58504E+06        -0.49925E+08         0.00000E+00
    0.00000E+00         0.00000E+00        -0.49146E+08
 
   -0.48411E+08         0.61061E+06         0.00000E+00
    0.61061E+06        -0.49916E+08         0.00000E+00
    0.00000E+00         0.00000E+00        -0.49172E+08
 
   -0.48476E+08         0.63394E+06         0.00000E+00
    0.63394E+06        -0.49907E+08         0.00000E+00
    0.00000E+00         0.00000E+00        -0.49199E+08
 
   -0.48540E+08         0.65508E+06         0.00000E+00
    0.65508E+06        -0.49898E+08         0.00000E+00
    0.00000E+00         0.00000E+00        -0.49225E+08
 
   -0.48605E+08         0.67411E+06         0.00000E+00
    0.67411E+06        -0.49890E+08         0.00000E+00
    0.00000E+00         0.00000E+00        -0.49252E+08
 
   -0.48669E+08         0.69107E+06         0.00000E+00
    0.69107E+06        -0.49881E+08         0.00000E+00
    0.00000E+00         0.00000E+00        -0.49279E+08
 
   -0.48732E+08         0.70605E+06         0.00000E+00
    0.70605E+06        -0.49872E+08         0.00000E+00
    0.00000E+00         0.00000E+00        -0.49306E+08
 
   -0.48795E+08         0.71908E+06         0.00000E+00
    0.71908E+06        -0.49863E+08         0.00000E+00
    0.00000E+00         0.00000E+00        -0.49332E+08
 
   -0.48857E+08         0.73025E+06         0.00000E+00
    0.73025E+06        -0.49854E+08         0.00000E+00
    0.00000E+00         0.00000E+00        -0.49358E+08
 
   -0.48918E+08         0.73960E+06         0.00000E+00
    0.73960E+06        -0.49845E+08         0.00000E+00
    0.00000E+00         0.00000E+00        -0.49384E+08
 
   -0.48978E+08         0.74719E+06         0.00000E+00
    0.74719E+06        -0.49837E+08         0.00000E+00
    0.00000E+00         0.00000E+00        -0.49409E+08
 
   -0.49037E+08         0.75308E+06         0.00000E+00
    0.75308E+06        -0.49828E+08         0.00000E+00
    0.00000E+00         0.00000E+00        -0.49434E+08
 
   -0.49094E+08         0.75731E+06         0.00000E+00
    0.75731E+06        -0.49820E+08         0.00000E+00
    0.00000E+00         0.00000E+00        -0.49458E+08
 
   -0.49150E+08         0.75994E+06         0.00000E+00
    0.75994E+06        -0.49811E+08         0.00000E+00
    0.00000E+00         0.00000E+00        -0.49481E+08
 
   -0.49205E+08         0.76101E+06         0.00000E+00
    0.76101E+06        -0.49803E+08         0.00000E+00
    0.00000E+00         0.00000E+00        -0.49504E+08
 
   -0.49257E+08         0.76055E+06         0.00000E+00
    0.76055E+06        -0.49795E+08         0.00000E+00
    0.00000E+00         0.00000E+00        -0.49527E+08
 
   -0.49308E+08         0.75862E+06         0.00000E+00
    0.75862E+06        -0.49787E+08         0.00000E+00
    0.00000E+00         0.00000E+00        -0.49548E+08
 
   -0.49357E+08         0.75525E+06         0.00000E+00
    0.75525E+06        -0.49779E+08         0.00000E+00
    0.00000E+00         0.00000E+00        -0.49568E+08
 
   -0.49405E+08         0.75048E+06         0.00000E+00
    0.75048E+06        -0.49771E+08         0.00000E+00
    0.00000E+00         0.00000E+00        -0.49588E+08
 
   -0.49450E+08         0.74434E+06         0.00000E+00
    0.74434E+06        -0.49763E+08         0.00000E+00
    0.00000E+00         0.00000E+00        -0.49607E+08
 
   -0.49492E+08         0.73688E+06         0.00000E+00
    0.73688E+06        -0.49756E+08         0.00000E+00
    0.00000E+00         0.00000E+00        -0.49625E+08
 
   -0.49533E+08         0.72813E+06         0.00000E+00
    0.72813E+06        -0.49749E+08         0.00000E+00
    0.00000E+00         0.00000E+00        -0.49642E+08
 
   -0.49571E+08         0.71813E+06         0.00000E+00
    0.71813E+06        -0.49742E+08         0.00000E+00
    0.00000E+00         0.00000E+00        -0.49658E+08
 
   -0.49606E+08         0.70694E+06         0.00000E+00
    0.70694E+06        -0.49736E+08         0.00000E+00
    0.00000E+00         0.00000E+00        -0.49672E+08
 
   -0.49639E+08         0.69460E+06         0.00000E+00
    0.69460E+06        -0.49730E+08         0.00000E+00
    0.00000E+00         0.00000E+00        -0.49686E+08
 
   -0.49669E+08         0.68116E+06         0.00000E+00
    0.68116E+06        -0.49724E+08         0.00000E+00
    0.00000E+00         0.00000E+00        -0.49699E+08
 
   -0.49695E+08         0.66670E+06         0.00000E+00
    0.66670E+06        -0.49719E+08         0.00000E+00
    0.00000E+00         0.00000E+00        -0.49710E+08
 
   -0.49719E+08         0.65128E+06         0.00000E+00
    0.65128E+06        -0.49715E+08         0.00000E+00
    0.00000E+00         0.00000E+00        -0.49721E+08
 
   -0.49739E+08         0.63498E+06         0.00000E+00
    0.63498E+06        -0.49711E+08         0.00000E+00
    0.00000E+00         0.00000E+00        -0.49730E+08
 
   -0.49756E+08         0.61790E+06         0.00000E+00
    0.61790E+06        -0.49708E+08         0.00000E+00
    0.00000E+00         0.00000E+00        -0.49738E+08
 
   -0.49770E+08         0.60014E+06         0.00000E+00
    0.60014E+06        -0.49706E+08         0.00000E+00
    0.00000E+00         0.00000E+00        -0.49745E+08
 
   -0.49779E+08         0.58182E+06         0.00000E+00
    0.58182E+06        -0.49705E+08         0.00000E+00
    0.00000E+00         0.00000E+00        -0.49750E+08
 
   -0.49785E+08         0.56307E+06         0.00000E+00
    0.56307E+06        -0.49706E+08         0.00000E+00
    0.00000E+00         0.00000E+00        -0.49755E+08
 
   -0.49787E+08         0.54405E+06         0.00000E+00
    0.54405E+06        -0.49707E+08         0.00000E+00
    0.00000E+00         0.00000E+00        -0.49758E+08
 
   -0.49784E+08         0.52492E+06         0.00000E+00
    0.52492E+06        -0.49709E+08         0.00000E+00
    0.00000E+00         0.00000E+00        -0.49760E+08
 
   -0.49777E+08         0.50587E+06         0.00000E+00
    0.50587E+06        -0.49713E+08         0.00000E+00
    0.00000E+00         0.00000E+00        -0.49761E+08
 
   -0.49766E+08         0.48710E+06         0.00000E+00
    0.48710E+06        -0.49719E+08         0.00000E+00
    0.00000E+00         0.00000E+00        -0.49760E+08
 
   -0.47344E+08         0.34641E+05         0.00000E+00
    0.34641E+05        -0.50000E+08         0.00000E+00
    0.00000E+00         0.00000E+00        -0.48767E+08
 
   -0.47392E+08         0.97276E+05         0.00000E+00
    0.97276E+05        -0.49999E+08         0.00000E+00
    0.00000E+00         0.00000E+00        -0.48779E+08
 
   -0.47445E+08         0.15699E+06         0.00000E+00
    0.15699E+06        -0.49997E+08         0.00000E+00
    0.00000E+00         0.00000E+00        -0.48794E+08
 
   -0.47503E+08         0.21373E+06         0.00000E+00
    0.21373E+06        -0.49994E+08         0.00000E+00
    0.00000E+00         0.00000E+00        -0.48812E+08
 
   -0.47564E+08         0.26749E+06         0.00000E+00
    0.26749E+06        -0.49991E+08         0.00000E+00
    0.00000E+00         0.00000E+00        -0.48833E+08
 
   -0.47629E+08         0.31824E+06         0.00000E+00
    0.31824E+06        -0.49987E+08         0.00000E+00
    0.00000E+00         0.00000E+00        -0.48856E+08
 
   -0.47696E+08         0.36600E+06         0.00000E+00
    0.36600E+06        -0.49983E+08         0.00000E+00
    0.00000E+00         0.00000E+00        -0.48881E+08
 
   -0.47765E+08         0.41079E+06         0.00000E+00
    0.41079E+06        -0.49978E+08         0.00000E+00
    0.00000E+00         0.00000E+00        -0.48908E+08
 
   -0.47837E+08         0.45266E+06         0.00000E+00
    0.45266E+06        -0.49973E+08         0.00000E+00
    0.00000E+00         0.00000E+00        -0.48936E+08
 
   -0.47910E+08         0.49166E+06         0.00000E+00
    0.49166E+06        -0.49968E+08         0.00000E+00
    0.00000E+00         0.00000E+00        -0.48966E+08
 
   -0.47985E+08         0.52785E+06         0.00000E+00
    0.52785E+06        -0.49963E+08         0.00000E+00
    0.00000E+00         0.00000E+00        -0.48996E+08
 
   -0.48060E+08         0.56129E+06         0.00000E+00
    0.56129E+06        -0.49957E+08         0.00000E+00
    0.00000E+00         0.00000E+00        -0.49028E+08
 
   -0.48136E+08         0.59208E+06         0.00000E+00
    0.59208E+06        -0.49952E+08         0.00000E+00
    0.00000E+00         0.00000E+00        -0.49060E+08
 
   -0.48212E+08         0.62030E+06         0.00000E+00
    0.62030E+06        -0.49947E+08         0.00000E+00
    0.00000E+00         0.00000E+00        -0.49093E+08
 
   -0.48288E+08         0.64604E+06         0.00000E+00
    0.64604E+06        -0.49942E+08         0.00000E+00
    0.00000E+00         0.00000E+00        -0.49127E+08
 
   -0.48364E+08         0.66938E+06         0.00000E+00
    0.66938E+06        -0.49937E+08         0.00000E+00
    0.00000E+00         0.00000E+00        -0.49160E+08
 
   -0.48440E+08         0.69043E+06         0.00000E+00
    0.69043E+06        -0.49932E+08         0.00000E+00
    0.00000E+00         0.00000E+00        -0.49194E+08
 
   -0.48515E+08         0.70927E+06         0.00000E+00
    0.70927E+06        -0.49927E+08         0.00000E+00
    0.00000E+00         0.00000E+00        -0.49228E+08
 
   -0.48589E+08         0.72599E+06         0.00000E+00
    0.72599E+06        -0.49922E+08         0.00000E+00
    0.00000E+00         0.00000E+00        -0.49261E+08
 
   -0.48663E+08         0.74069E+06         0.00000E+00
    0.74069E+06        -0.49917E+08         0.00000E+00
    0.00000E+00         0.00000E+00        -0.49295E+08
 
   -0.48735E+08         0.75343E+06         0.00000E+00
    0.75343E+06        -0.49913E+08         0.00000E+00
    0.00000E+00         0.00000E+00        -0.49328E+08
 
   -0.48806E+08         0.76431E+06         0.00000E+00
    0.76431E+06        -0.49908E+08         0.00000E+00
    0.00000E+00         0.00000E+00        -0.49361E+08
 
   -0.48876E+08         0.77339E+06         0.00000E+00
    0.77339E+06        -0.49904E+08         0.00000E+00
    0.00000E+00         0.00000E+00        -0.49393E+08
 
   -0.48945E+08         0.78074E+06         0.00000E+00
    0.78074E+06        -0.49900E+08         0.00000E+00
    0.00000E+00         0.00000E+00        -0.49424E+08
 
   -0.49012E+08         0.78640E+06         0.00000E+00
    0.78640E+06        -0.49895E+08         0.00000E+00
    0.00000E+00         0.00000E+00        -0.49455E+08
 
   -0.49078E+08         0.79043E+06         0.00000E+00
    0.79043E+06        -0.49891E+08         0.00000E+00
    0.00000E+00         0.00000E+00        -0.49485E+08
 
   -0.49141E+08         0.79288E+06         0.00000E+00
    0.79288E+06        -0.49887E+08         0.00000E+00
    0.00000E+00         0.00000E+00        -0.49515E+08
 
   -0.49204E+08         0.79377E+06         0.00000E+00
    0.79377E+06        -0.49882E+08         0.00000E+00
    0.00000E+00         0.00000E+00        -0.49543E+08
 
   -0.49264E+08         0.79313E+06         0.00000E+00
    0.79313E+06        -0.49878E+08         0.00000E+00
    0.00000E+00         0.00000E+00        -0.49571E+08
 
   -0.49322E+08         0.79098E+06         0.00000E+00
    0.79098E+06        -0.49873E+08         0.00000E+00
    0.00000E+00         0.00000E+00        -0.49598E+08
 
   -0.49379E+08         0.78734E+06         0.00000E+00
    0.78734E+06        -0.49869E+08         0.00000E+00
    0.00000E+00         0.00000E+00        -0.49624E+08
 
   -0.49433E+08         0.78221E+06         0.00000E+00
    0.78221E+06        -0.49864E+08         0.00000E+00
    0.00000E+00         0.00000E+00        -0.49649E+08
 
   -0.49485E+08         0.77560E+06         0.00000E+00
    0.77560E+06        -0.49859E+08         0.00000E+00
    0.00000E+00         0.00000E+00        -0.49672E+08
 
   -0.49535E+08         0.76752E+06         0.00000E+00
    0.76752E+06        -0.49855E+08         0.00000E+00
    0.00000E+00         0.00000E+00        -0.49695E+08
 
   -0.49582E+08         0.75795E+06         0.00000E+00
    0.75795E+06        -0.49850E+08         0.00000E+00
    0.00000E+00         0.00000E+00        -0.49716E+08
 
   -0.49627E+08         0.74691E+06         0.00000E+00
    0.74691E+06        -0.49845E+08         0.00000E+00
    0.00000E+00         0.00000E+00        -0.49737E+08
 
   -0.49669E+08         0.73440E+06         0.00000E+00
    0.73440E+06        -0.49840E+08         0.00000E+00
    0.00000E+00         0.00000E+00        -0.49756E+08
 
   -0.49708E+08         0.72042E+06         0.00000E+00
    0.72042E+06        -0.49836E+08         0.00000E+00
    0.00000E+00         0.00000E+00        -0.49773E+08
 
   -0.49744E+08         0.70498E+06         0.00000E+00
    0.70498E+06        -0.49831E+08         0.00000E+00
    0.00000E+00         0.00000E+00        -0.49790E+08
 
   -0.49777E+08         0.68810E+06         0.00000E+00
    0.68810E+06        -0.49827E+08         0.00000E+00
    0.00000E+00         0.00000E+00        -0.49805E+08
 
   -0.49806E+08         0.66982E+06         0.00000E+00
    0.66982E+06        -0.49823E+08         0.00000E+00
    0.00000E+00         0.00000E+00        -0.49818E+08
 
   -0.49832E+08         0.65016E+06         0.00000E+00
    0.65016E+06        -0.49820E+08         0.00000E+00
    0.00000E+00         0.00000E+00        -0.49830E+08
 
   -0.49854E+08         0.62920E+06         0.00000E+00
    0.62920E+06        -0.49818E+08         0.00000E+00
    0.00000E+00         0.00000E+00        -0.49841E+08
 
   -0.49872E+08         0.60700E+06         0.00000E+00
    0.60700E+06        -0.49816E+08         0.00000E+00
    0.00000E+00         0.00000E+00        -0.49850E+08
 
   -0.49885E+08         0.58365E+06         0.00000E+00
    0.58365E+06        -0.49815E+08         0.00000E+00
    0.00000E+00         0.00000E+00        -0.49858E+08
 
   -0.49894E+08         0.55927E+06         0.00000E+00
    0.55927E+06        -0.49815E+08         0.00000E+00
    0.00000E+00         0.00000E+00        -0.49864E+08
 
   -0.49898E+08         0.53398E+06         0.00000E+00
    0.53398E+06        -0.49816E+08         0.00000E+00
    0.00000E+00         0.00000E+00        -0.49869E+08
 
   -0.49897E+08         0.50796E+06         0.00000E+00
    0.50796E+06        -0.49819E+08         0.00000E+00
    0.00000E+00         0.00000E+00        -0.49872E+08
 
   -0.49891E+08         0.48139E+06         0.00000E+00
    0.48139E+06        -0.49823E+08         0.00000E+00
    0.00000E+00         0.00000E+00        -0.49873E+08
 
   -0.49879E+08         0.45450E+06         0.00000E+00
    0.45450E+06        -0.49828E+08         0.00000E+00
    0.00000E+00         0.00000E+00        -0.49873E+08
 
   -0.47012E+08         0.37348E+05         0.00000E+00
    0.37348E+05        -0.50000E+08         0.00000E+00
    0.00000E+00         0.00000E+00        -0.48636E+08
 
   -0.47077E+08         0.10379E+06         0.00000E+00
    0.10379E+06        -0.49999E+08         0.00000E+00
    0.00000E+00         0.00000E+00        -0.48652E+08
 
   -0.47147E+08         0.16666E+06         0.00000E+00
    0.16666E+06        -0.49998E+08         0.00000E+00
    0.00000E+00         0.00000E+00        -0.48671E+08
 
   -0.47220E+08         0.22594E+06         0.00000E+00
    0.22594E+06        -0.49997E+08         0.00000E+00
    0.00000E+00         0.00000E+00        -0.48695E+08
 
   -0.47298E+08         0.28166E+06         0.00000E+00
    0.28166E+06        -0.49995E+08         0.00000E+00
    0.00000E+00         0.00000E+00        -0.48721E+08
 
   -0.47379E+08         0.33383E+06         0.00000E+00
    0.33383E+06        -0.49993E+08         0.00000E+00
    0.00000E+00         0.00000E+00        -0.48751E+08
 
   -0.47462E+08         0.38253E+06         0.00000E+00
    0.38253E+06        -0.49991E+08         0.00000E+00
    0.00000E+00         0.00000E+00        -0.48783E+08
 
   -0.47547E+08         0.42781E+06         0.00000E+00
    0.42781E+06        -0.49989E+08         0.00000E+00
    0.00000E+00         0.00000E+00        -0.48817E+08
 
   -0.47634E+08         0.46976E+06         0.00000E+00
    0.46976E+06        -0.49987E+08         0.00000E+00
    0.00000E+00         0.00000E+00        -0.48853E+08
 
   -0.47723E+08         0.50850E+06         0.00000E+00
    0.50850E+06        -0.49986E+08         0.00000E+00
    0.00000E+00         0.00000E+00        -0.48890E+08
 
   -0.47812E+08         0.54414E+06         0.00000E+00
    0.54414E+06        -0.49985E+08         0.00000E+00
    0.00000E+00         0.00000E+00        -0.48929E+08
 
   -0.47901E+08         0.57680E+06         0.00000E+00
    0.57680E+06        -0.49984E+08         0.00000E+00
    0.00000E+00         0.00000E+00        -0.48969E+08
 
   -0.47990E+08         0.60662E+06         0.00000E+00
    0.60662E+06        -0.49984E+08         0.00000E+00
    0.00000E+00         0.00000E+00        -0.49009E+08
 
   -0.48079E+08         0.63374E+06         0.00000E+00
    0.63374E+06        -0.49984E+08         0.00000E+00
    0.00000E+00         0.00000E+00        -0.49051E+08
 
   -0.48168E+08         0.65830E+06         0.00000E+00
    0.65830E+06        -0.49984E+08         0.00000E+00
    0.00000E+00         0.00000E+00        -0.49092E+08
 
   -0.48256E+08         0.68045E+06         0.00000E+00
    0.68045E+06        -0.49985E+08         0.00000E+00
    0.00000E+00         0.00000E+00        -0.49134E+08
 
   -0.48343E+08         0.70033E+06         0.00000E+00
    0.70033E+06        -0.49987E+08         0.00000E+00
    0.00000E+00         0.00000E+00        -0.49176E+08
 
   -0.48428E+08         0.71807E+06         0.00000E+00
    0.71807E+06        -0.49988E+08         0.00000E+00
    0.00000E+00         0.00000E+00        -0.49218E+08
 
   -0.48513E+08         0.73381E+06         0.00000E+00
    0.73381E+06        -0.49990E+08         0.00000E+00
    0.00000E+00         0.00000E+00        -0.49259E+08
 
   -0.48596E+08         0.74766E+06         0.00000E+00
    0.74766E+06        -0.49992E+08         0.00000E+00
    0.00000E+00         0.00000E+00        -0.49300E+08
 
   -0.48677E+08         0.75974E+06         0.00000E+00
    0.75974E+06        -0.49995E+08         0.00000E+00
    0.00000E+00         0.00000E+00        -0.49341E+08
 
   -0.48757E+08         0.77015E+06         0.00000E+00
    0.77015E+06        -0.49998E+08         0.00000E+00
    0.00000E+00         0.00000E+00        -0.49381E+08
 
   -0.48836E+08         0.77897E+06         0.00000E+00
    0.77897E+06        -0.50000E+08         0.00000E+00
    0.00000E+00         0.00000E+00        -0.49421E+08
 
   -0.48912E+08         0.78628E+06         0.00000E+00
    0.78628E+06        -0.50003E+08         0.00000E+00
    0.00000E+00         0.00000E+00        -0.49460E+08
 
   -0.48987E+08         0.79215E+06         0.00000E+00
    0.79215E+06        -0.50006E+08         0.00000E+00
    0.00000E+00         0.00000E+00        -0.49498E+08
 
   -0.49060E+08         0.79661E+06         0.00000E+00
    0.79661E+06        -0.50008E+08         0.00000E+00
    0.00000E+00         0.00000E+00        -0.49535E+08
 
   -0.49131E+08         0.79970E+06         0.00000E+00
    0.79970E+06        -0.50011E+08         0.00000E+00
    0.00000E+00         0.00000E+00        -0.49572E+08
 
   -0.49201E+08         0.80142E+06         0.00000E+00
    0.80142E+06        -0.50013E+08         0.00000E+00
    0.00000E+00         0.00000E+00        -0.49607E+08
 
   -0.49268E+08         0.80180E+06         0.00000E+00
    0.80180E+06        -0.50015E+08         0.00000E+00
    0.00000E+00         0.00000E+00        -0.49641E+08
 
   -0.49334E+08         0.80080E+06         0.00000E+00
    0.80080E+06        -0.50016E+08         0.00000E+00
    0.00000E+00         0.00000E+00        -0.49675E+08
 
   -0.49398E+08         0.79841E+06         0.00000E+00
    0.79841E+06        -0.50017E+08         0.00000E+00
    0.00000E+00         0.00000E+00        -0.49707E+08
 
   -0.49459E+08         0.79458E+06         0.00000E+00
    0.79458E+06        -0.50017E+08         0.00000E+00
    0.00000E+00         0.00000E+00        -0.49737E+08
 
   -0.49519E+08         0.78927E+06         0.00000E+00
    0.78927E+06        -0.50017E+08         0.00000E+00
    0.00000E+00         0.00000E+00        -0.49767E+08
 
   -0.49576E+08         0.78243E+06         0.00000E+00
    0.78243E+06        -0.50017E+08         0.00000E+00
    0.00000E+00         0.00000E+00        -0.49796E+08
 
   -0.49631E+08         0.77399E+06         0.00000E+00
    0.77399E+06        -0.50016E+08         0.00000E+00
    0.00000E+00         0.00000E+00        -0.49823E+08
 
   -0.49684E+08         0.76387E+06         0.00000E+00
    0.76387E+06        -0.50014E+08         0.00000E+00
    0.00000E+00         0.00000E+00        -0.49848E+08
 
   -0.49734E+08         0.75202E+06         0.00000E+00
    0.75202E+06        -0.50012E+08         0.00000E+00
    0.00000E+00         0.00000E+00        -0.49872E+08
 
   -0.49781E+08         0.73837E+06         0.00000E+00
    0.73837E+06        -0.50010E+08         0.00000E+00
    0.00000E+00         0.00000E+00        -0.49895E+08
 
   -0.49826E+08         0.72283E+06         0.00000E+00
    0.72283E+06        -0.50007E+08         0.00000E+00
    0.00000E+00         0.00000E+00        -0.49916E+08
 
   -0.49867E+08         0.70537E+06         0.00000E+00
    0.70537E+06        -0.50004E+08         0.00000E+00
    0.00000E+00         0.00000E+00        -0.49936E+08
 
   -0.49905E+08         0.68592E+06         0.00000E+00
    0.68592E+06        -0.50001E+08         0.00000E+00
    0.00000E+00         0.00000E+00        -0.49954E+08
 
   -0.49939E+08         0.66445E+06         0.00000E+00
    0.66445E+06        -0.49998E+08         0.00000E+00
    0.00000E+00         0.00000E+00        -0.49970E+08
 
   -0.49969E+08         0.64095E+06         0.00000E+00
    0.64095E+06        -0.49995E+08         0.00000E+00
    0.00000E+00         0.00000E+00        -0.49985E+08
 
   -0.49995E+08         0.61540E+06         0.00000E+00
    0.61540E+06        -0.49993E+08         0.00000E+00
    0.00000E+00         0.00000E+00        -0.49998E+08
 
   -0.50016E+08         0.58785E+06         0.00000E+00
    0.58785E+06        -0.49991E+08         0.00000E+00
    0.00000E+00         0.00000E+00        -0.50008E+08
 
   -0.50032E+08         0.55834E+06         0.00000E+00
    0.55834E+06        -0.49990E+08         0.00000E+00
    0.00000E+00         0.00000E+00        -0.50017E+08
 
   -0.50043E+08         0.52696E+06         0.00000E+00
    0.52696E+06        -0.49989E+08         0.00000E+00
    0.00000E+00         0.00000E+00        -0.50024E+08
 
   -0.50047E+08         0.49384E+06         0.00000E+00
    0.49384E+06        -0.49991E+08         0.00000E+00
    0.00000E+00         0.00000E+00        -0.50029E+08
 
   -0.50046E+08         0.45913E+06         0.00000E+00
    0.45913E+06        -0.49993E+08         0.00000E+00
    0.00000E+00         0.00000E+00        -0.50032E+08
 
   -0.50038E+08         0.42304E+06         0.00000E+00
    0.42304E+06        -0.49998E+08         0.00000E+00
    0.00000E+00         0.00000E+00        -0.50032E+08
 
   -0.46666E+08         0.38942E+05         0.00000E+00
    0.38942E+05        -0.50000E+08         0.00000E+00
    0.00000E+00         0.00000E+00        -0.48504E+08
 
   -0.46750E+08         0.10680E+06         0.00000E+00
    0.10680E+06        -0.50000E+08         0.00000E+00
    0.00000E+00         0.00000E+00        -0.48525E+08
 
   -0.46839E+08         0.17036E+06         0.00000E+00
    0.17036E+06        -0.50000E+08         0.00000E+00
    0.00000E+00         0.00000E+00        -0.48551E+08
 
   -0.46933E+08         0.22967E+06         0.00000E+00
    0.22967E+06        -0.50000E+08         0.00000E+00
    0.00000E+00         0.00000E+00        -0.48581E+08
 
   -0.47030E+08         0.28476E+06         0.00000E+00
    0.28476E+06        -0.50000E+08         0.00000E+00
    0.00000E+00         0.00000E+00        -0.48614E+08
 
   -0.47129E+08         0.33574E+06         0.00000E+00
    0.33574E+06        -0.50001E+08         0.00000E+00
    0.00000E+00         0.00000E+00        -0.48652E+08
 
   -0.47231E+08         0.38270E+06         0.00000E+00
    0.38270E+06        -0.50003E+08         0.00000E+00
    0.00000E+00         0.00000E+00        -0.48692E+08
 
   -0.47334E+08         0.42579E+06         0.00000E+00
    0.42579E+06        -0.50006E+08         0.00000E+00
    0.00000E+00         0.00000E+00        -0.48734E+08
 
   -0.47439E+08         0.46517E+06         0.00000E+00
    0.46517E+06        -0.50009E+08         0.00000E+00
    0.00000E+00         0.00000E+00        -0.48779E+08
 
   -0.47543E+08         0.50102E+06         0.00000E+00
    0.50102E+06        -0.50013E+08         0.00000E+00
    0.00000E+00         0.00000E+00        -0.48826E+08
 
   -0.47648E+08         0.53353E+06         0.00000E+00
    0.53353E+06        -0.50018E+08         0.00000E+00
    0.00000E+00         0.00000E+00        -0.48874E+08
 
   -0.47752E+08         0.56291E+06         0.00000E+00
    0.56291E+06        -0.50024E+08         0.00000E+00
    0.00000E+00         0.00000E+00        -0.48923E+08
 
   -0.47855E+08         0.58939E+06         0.00000E+00
    0.58939E+06        -0.50031E+08         0.00000E+00
    0.00000E+00         0.00000E+00        -0.48973E+08
 
   -0.47958E+08         0.61318E+06         0.00000E+00
    0.61318E+06        -0.50039E+08         0.00000E+00
    0.00000E+00         0.00000E+00        -0.49023E+08
 
   -0.48058E+08         0.63450E+06         0.00000E+00
    0.63450E+06        -0.50048E+08         0.00000E+00
    0.00000E+00         0.00000E+00        -0.49074E+08
 
   -0.48157E+08         0.65358E+06         0.00000E+00
    0.65358E+06        -0.50058E+08         0.00000E+00
    0.00000E+00         0.00000E+00        -0.49125E+08
 
   -0.48255E+08         0.67062E+06         0.00000E+00
    0.67062E+06        -0.50069E+08         0.00000E+00
    0.00000E+00         0.00000E+00        -0.49176E+08
 
   -0.48350E+08         0.68584E+06         0.00000E+00
    0.68584E+06        -0.50080E+08         0.00000E+00
    0.00000E+00         0.00000E+00        -0.49227E+08
 
   -0.48443E+08         0.69941E+06         0.00000E+00
    0.69941E+06        -0.50093E+08         0.00000E+00
    0.00000E+00         0.00000E+00        -0.49278E+08
 
   -0.48534E+08         0.71152E+06         0.00000E+00
    0.71152E+06        -0.50105E+08         0.00000E+00
    0.00000E+00         0.00000E+00        -0.49328E+08
 
   -0.48623E+08         0.72232E+06         0.00000E+00
    0.72232E+06        -0.50118E+08         0.00000E+00
    0.00000E+00         0.00000E+00        -0.49377E+08
 
   -0.48710E+08         0.73194E+06         0.00000E+00
    0.73194E+06        -0.50132E+08         0.00000E+00
    0.00000E+00         0.00000E+00        -0.49426E+08
 
   -0.48795E+08         0.74050E+06         0.00000E+00
    0.74050E+06        -0.50145E+08         0.00000E+00
    0.00000E+00         0.00000E+00        -0.49474E+08
 
   -0.48878E+08         0.74809E+06         0.00000E+00
    0.74809E+06        -0.50158E+08         0.00000E+00
    0.00000E+00         0.00000E+00        -0.49521E+08
 
   -0.48959E+08         0.75477E+06         0.00000E+00
    0.75477E+06        -0.50172E+08         0.00000E+00
    0.00000E+00         0.00000E+00        -0.49567E+08
 
   -0.49037E+08         0.76058E+06         0.00000E+00
    0.76058E+06        -0.50185E+08         0.00000E+00
    0.00000E+00         0.00000E+00        -0.49612E+08
 
   -0.49114E+08         0.76554E+06         0.00000E+00
    0.76554E+06        -0.50197E+08         0.00000E+00
    0.00000E+00         0.00000E+00        -0.49656E+08
 
   -0.49189E+08         0.76964E+06         0.00000E+00
    0.76964E+06        -0.50209E+08         0.00000E+00
    0.00000E+00         0.00000E+00        -0.49699E+08
 
   -0.49263E+08         0.77284E+06         0.00000E+00
    0.77284E+06        -0.50220E+08         0.00000E+00
    0.00000E+00         0.00000E+00        -0.49740E+08
 
   -0.49334E+08         0.77509E+06         0.00000E+00
    0.77509E+06        -0.50231E+08         0.00000E+00
    0.00000E+00         0.00000E+00        -0.49781E+08
 
   -0.49404E+08         0.77629E+06         0.00000E+00
    0.77629E+06        -0.50240E+08         0.00000E+00
    0.00000E+00         0.00000E+00        -0.49820E+08
 
   -0.49473E+08         0.77635E+06         0.00000E+00
    0.77635E+06        -0.50248E+08         0.00000E+00
    0.00000E+00         0.00000E+00        -0.49858E+08
 
   -0.49539E+08         0.77514E+06         0.00000E+00
    0.77514E+06        -0.50255E+08         0.00000E+00
    0.00000E+00         0.00000E+00        -0.49894E+08
 
   -0.49605E+08         0.77252E+06         0.00000E+00
    0.77252E+06        -0.50261E+08         0.00000E+00
    0.00000E+00         0.00000E+00        -0.49930E+08
 
   -0.49668E+08         0.76833E+06         0.00000E+00
    0.76833E+06        -0.50266E+08         0.00000E+00
    0.00000E+00         0.00000E+00        -0.49963E+08
 
   -0.49729E+08         0.76239E+06         0.00000E+00
    0.76239E+06        -0.50269E+08         0.00000E+00
    0.00000E+00         0.00000E+00        -0.49996E+08
 
   -0.49789E+08         0.75453E+06         0.00000E+00
    0.75453E+06        -0.50271E+08         0.00000E+00
    0.00000E+00         0.00000E+00        -0.50026E+08
 
   -0.49846E+08         0.74457E+06         0.00000E+00
    0.74457E+06        -0.50272E+08         0.00000E+00
    0.00000E+00         0.00000E+00        -0.50055E+08
 
   -0.49902E+08         0.73230E+06         0.00000E+00
    0.73230E+06        -0.50272E+08         0.00000E+00
    0.00000E+00         0.00000E+00        -0.50083E+08
 
   -0.49954E+08         0.71755E+06         0.00000E+00
    0.71755E+06        -0.50270E+08         0.00000E+00
    0.00000E+00         0.00000E+00        -0.50108E+08
 
   -0.50004E+08         0.70014E+06         0.00000E+00
    0.70014E+06        -0.50268E+08         0.00000E+00
    0.00000E+00         0.00000E+00        -0.50132E+08
 
   -0.50050E+08         0.67989E+06         0.00000E+00
    0.67989E+06        -0.50265E+08         0.00000E+00
    0.00000E+00         0.00000E+00        -0.50154E+08
 
   -0.50093E+08         0.65667E+06         0.00000E+00
    0.65667E+06        -0.50261E+08         0.00000E+00
    0.00000E+00         0.00000E+00        -0.50173E+08
 
   -0.50132E+08         0.63033E+06         0.00000E+00
    0.63033E+06        -0.50257E+08         0.00000E+00
    0.00000E+00         0.00000E+00        -0.50191E+08
 
   -0.50166E+08         0.60079E+06         0.00000E+00
    0.60079E+06        -0.50253E+08         0.00000E+00
    0.00000E+00         0.00000E+00        -0.50206E+08
 
   -0.50195E+08         0.56799E+06         0.00000E+00
    0.56799E+06        -0.50249E+08         0.00000E+00
    0.00000E+00         0.00000E+00        -0.50219E+08
 
   -0.50218E+08         0.53190E+06         0.00000E+00
    0.53190E+06        -0.50245E+08         0.00000E+00
    0.00000E+00         0.00000E+00        -0.50230E+08
 
   -0.50235E+08         0.49254E+06         0.00000E+00
    0.49254E+06        -0.50242E+08         0.00000E+00
    0.00000E+00         0.00000E+00        -0.50238E+08
 
   -0.50244E+08         0.45001E+06         0.00000E+00
    0.45001E+06        -0.50241E+08         0.00000E+00
    0.00000E+00         0.00000E+00        -0.50243E+08
 
   -0.50246E+08         0.40444E+06         0.00000E+00
    0.40444E+06        -0.50241E+08         0.00000E+00
    0.00000E+00         0.00000E+00        -0.50245E+08
 
   -0.46319E+08         0.38979E+05         0.00000E+00
    0.38979E+05        -0.50000E+08         0.00000E+00
    0.00000E+00         0.00000E+00        -0.48381E+08
 
   -0.46426E+08         0.10489E+06         0.00000E+00
    0.10489E+06        -0.50001E+08         0.00000E+00
    0.00000E+00         0.00000E+00        -0.48408E+08
 
   -0.46539E+08         0.16568E+06         0.00000E+00
    0.16568E+06        -0.50002E+08         0.00000E+00
    0.00000E+00         0.00000E+00        -0.48440E+08
 
   -0.46655E+08         0.22139E+06         0.00000E+00
    0.22139E+06        -0.50004E+08         0.00000E+00
    0.00000E+00         0.00000E+00        -0.48478E+08
 
   -0.46775E+08         0.27215E+06         0.00000E+00
    0.27215E+06        -0.50008E+08         0.00000E+00
    0.00000E+00         0.00000E+00        -0.48520E+08
 
   -0.46896E+08         0.31809E+06         0.00000E+00
    0.31809E+06        -0.50013E+08         0.00000E+00
    0.00000E+00         0.00000E+00        -0.48566E+08
 
   -0.47019E+08         0.35943E+06         0.00000E+00
    0.35943E+06        -0.50020E+08         0.00000E+00
    0.00000E+00         0.00000E+00        -0.48616E+08
 
   -0.47143E+08         0.39640E+06         0.00000E+00
    0.39640E+06        -0.50028E+08         0.00000E+00
    0.00000E+00         0.00000E+00        -0.48669E+08
 
   -0.47266E+08         0.42926E+06         0.00000E+00
    0.42926E+06        -0.50038E+08         0.00000E+00
    0.00000E+00         0.00000E+00        -0.48724E+08
 
   -0.47388E+08         0.45832E+06         0.00000E+00
    0.45832E+06        -0.50050E+08         0.00000E+00
    0.00000E+00         0.00000E+00        -0.48781E+08
 
   -0.47509E+08         0.48389E+06         0.00000E+00
    0.48389E+06        -0.50064E+08         0.00000E+00
    0.00000E+00         0.00000E+00        -0.48839E+08
 
   -0.47629E+08         0.50631E+06         0.00000E+00
    0.50631E+06        -0.50080E+08         0.00000E+00
    0.00000E+00         0.00000E+00        -0.48899E+08
 
   -0.47746E+08         0.52592E+06         0.00000E+00
    0.52592E+06        -0.50098E+08         0.00000E+00
    0.00000E+00         0.00000E+00        -0.48959E+08
 
   -0.47860E+08         0.54307E+06         0.00000E+00
    0.54307E+06        -0.50117E+08         0.00000E+00
    0.00000E+00         0.00000E+00        -0.49020E+08
 
   -0.47971E+08         0.55810E+06         0.00000E+00
    0.55810E+06        -0.50138E+08         0.00000E+00
    0.00000E+00         0.00000E+00        -0.49082E+08
 
   -0.48080E+08         0.57134E+06         0.00000E+00
    0.57134E+06        -0.50161E+08         0.00000E+00
    0.00000E+00         0.00000E+00        -0.49143E+08
 
   -0.48186E+08         0.58312E+06         0.00000E+00
    0.58312E+06        -0.50185E+08         0.00000E+00
    0.00000E+00         0.00000E+00        -0.49204E+08
 
   -0.48288E+08         0.59372E+06         0.00000E+00
    0.59372E+06        -0.50211E+08         0.00000E+00
    0.00000E+00         0.00000E+00        -0.49264E+08
 
   -0.48387E+08         0.60343E+06         0.00000E+00
    0.60343E+06        -0.50237E+08         0.00000E+00
    0.00000E+00         0.00000E+00        -0.49324E+08
 
   -0.48483E+08         0.61249E+06         0.00000E+00
    0.61249E+06        -0.50264E+08         0.00000E+00
    0.00000E+00         0.00000E+00        -0.49383E+08
 
   -0.48576E+08         0.62111E+06         0.00000E+00
    0.62111E+06        -0.50293E+08         0.00000E+00
    0.00000E+00         0.00000E+00        -0.49442E+08
 
   -0.48666E+08         0.62949E+06         0.00000E+00
    0.62949E+06        -0.50321E+08         0.00000E+00
    0.00000E+00         0.00000E+00        -0.49499E+08
 
   -0.48754E+08         0.63776E+06         0.00000E+00
    0.63776E+06        -0.50350E+08         0.00000E+00
    0.00000E+00         0.00000E+00        -0.49556E+08
 
   -0.48839E+08         0.64603E+06         0.00000E+00
    0.64603E+06        -0.50378E+08         0.00000E+00
    0.00000E+00         0.00000E+00        -0.49611E+08
 
   -0.48922E+08         0.65439E+06         0.00000E+00
    0.65439E+06        -0.50407E+08         0.00000E+00
    0.00000E+00         0.00000E+00        -0.49665E+08
 
   -0.49003E+08         0.66286E+06         0.00000E+00
    0.66286E+06        -0.50434E+08         0.00000E+00
    0.00000E+00         0.00000E+00        -0.49718E+08
 
   -0.49082E+08         0.67144E+06         0.00000E+00
    0.67144E+06        -0.50461E+08         0.00000E+00
    0.00000E+00         0.00000E+00        -0.49770E+08
 
   -0.49159E+08         0.68008E+06         0.00000E+00
    0.68008E+06        -0.50487E+08         0.00000E+00
    0.00000E+00         0.00000E+00        -0.49821E+08
 
   -0.49235E+08         0.68869E+06         0.00000E+00
    0.68869E+06        -0.50512E+08         0.00000E+00
    0.00000E+00         0.00000E+00        -0.49870E+08
 
   -0.49310E+08         0.69717E+06         0.00000E+00
    0.69717E+06        -0.50535E+08         0.00000E+00
    0.00000E+00         0.00000E+00        -0.49918E+08
 
   -0.49384E+08         0.70534E+06         0.00000E+00
    0.70534E+06        -0.50556E+08         0.00000E+00
    0.00000E+00         0.00000E+00        -0.49965E+08
 
   -0.49457E+08         0.71302E+06         0.00000E+00
    0.71302E+06        -0.50575E+08         0.00000E+00
    0.00000E+00         0.00000E+00        -0.50010E+08
 
   -0.49529E+08         0.71997E+06         0.00000E+00
    0.71997E+06        -0.50593E+08         0.00000E+00
    0.00000E+00         0.00000E+00        -0.50054E+08
 
   -0.49601E+08         0.72594E+06         0.00000E+00
    0.72594E+06        -0.50608E+08         0.00000E+00
    0.00000E+00         0.00000E+00        -0.50097E+08
 
   -0.49672E+08         0.73064E+06         0.00000E+00
    0.73064E+06        -0.50621E+08         0.00000E+00
    0.00000E+00         0.00000E+00        -0.50138E+08
 
   -0.49742E+08         0.73377E+06         0.00000E+00
    0.73377E+06        -0.50631E+08         0.00000E+00
    0.00000E+00         0.00000E+00        -0.50178E+08
 
   -0.49812E+08         0.73497E+06         0.00000E+00
    0.73497E+06        -0.50639E+08         0.00000E+00
    0.00000E+00         0.00000E+00        -0.50216E+08
 
   -0.49881E+08         0.73391E+06         0.00000E+00
    0.73391E+06        -0.50644E+08         0.00000E+00
    0.00000E+00         0.00000E+00        -0.50252E+08
 
   -0.49950E+08         0.73021E+06         0.00000E+00
    0.73021E+06        -0.50647E+08         0.00000E+00
    0.00000E+00         0.00000E+00        -0.50287E+08
 
   -0.50017E+08         0.72351E+06         0.00000E+00
    0.72351E+06        -0.50648E+08         0.00000E+00
    0.00000E+00         0.00000E+00        -0.50320E+08
 
   -0.50082E+08         0.71343E+06         0.00000E+00
    0.71343E+06        -0.50646E+08         0.00000E+00
    0.00000E+00         0.00000E+00        -0.50351E+08
 
   -0.50145E+08         0.69960E+06         0.00000E+00
    0.69960E+06        -0.50642E+08         0.00000E+00
    0.00000E+00         0.00000E+00        -0.50379E+08
 
   -0.50206E+08         0.68166E+06         0.00000E+00
    0.68166E+06        -0.50637E+08         0.00000E+00
    0.00000E+00         0.00000E+00        -0.50406E+08
 
   -0.50264E+08         0.65929E+06         0.00000E+00
    0.65929E+06        -0.50630E+08         0.00000E+00
    0.00000E+00         0.00000E+00        -0.50430E+08
 
   -0.50319E+08         0.63216E+06         0.00000E+00
    0.63216E+06        -0.50621E+08         0.00000E+00
    0.00000E+00         0.00000E+00        -0.50451E+08
 
   -0.50369E+08         0.60001E+06         0.00000E+00
    0.60001E+06        -0.50611E+08         0.00000E+00
    0.00000E+00         0.00000E+00        -0.50470E+08
 
   -0.50413E+08         0.56262E+06         0.00000E+00
    0.56262E+06        -0.50601E+08         0.00000E+00
    0.00000E+00         0.00000E+00        -0.50486E+08
 
   -0.50451E+08         0.51983E+06         0.00000E+00
    0.51983E+06        -0.50591E+08         0.00000E+00
    0.00000E+00         0.00000E+00        -0.50498E+08
 
   -0.50482E+08         0.47154E+06         0.00000E+00
    0.47154E+06        -0.50581E+08         0.00000E+00
    0.00000E+00         0.00000E+00        -0.50507E+08
 
   -0.50505E+08         0.41773E+06         0.00000E+00
    0.41773E+06        -0.50573E+08         0.00000E+00
    0.00000E+00         0.00000E+00        -0.50513E+08
 
   -0.45989E+08         0.37150E+05         0.00000E+00
    0.37150E+05        -0.50000E+08         0.00000E+00
    0.00000E+00         0.00000E+00        -0.48278E+08
 
   -0.46125E+08         0.96772E+05         0.00000E+00
    0.96772E+05        -0.50001E+08         0.00000E+00
    0.00000E+00         0.00000E+00        -0.48312E+08
 
   -0.46266E+08         0.15012E+06         0.00000E+00
    0.15012E+06        -0.50005E+08         0.00000E+00
    0.00000E+00         0.00000E+00        -0.48352E+08
 
   -0.46410E+08         0.19731E+06         0.00000E+00
    0.19731E+06        -0.50010E+08         0.00000E+00
    0.00000E+00         0.00000E+00        -0.48399E+08
 
   -0.46556E+08         0.23851E+06         0.00000E+00
    0.23851E+06        -0.50018E+08         0.00000E+00
    0.00000E+00         0.00000E+00        -0.48451E+08
 
   -0.46704E+08         0.27401E+06         0.00000E+00
    0.27401E+06        -0.50028E+08         0.00000E+00
    0.00000E+00         0.00000E+00        -0.48508E+08
 
   -0.46850E+08         0.30415E+06         0.00000E+00
    0.30415E+06        -0.50042E+08         0.00000E+00
    0.00000E+00         0.00000E+00        -0.48569E+08
 
   -0.46996E+08         0.32932E+06         0.00000E+00
    0.32932E+06        -0.50058E+08         0.00000E+00
    0.00000E+00         0.00000E+00        -0.48632E+08
 
   -0.47140E+08         0.34999E+06         0.00000E+00
    0.34999E+06        -0.50078E+08         0.00000E+00
    0.00000E+00         0.00000E+00        -0.48699E+08
 
   -0.47281E+08         0.36664E+06         0.00000E+00
    0.36664E+06        -0.50101E+08         0.00000E+00
    0.00000E+00         0.00000E+00        -0.48768E+08
 
   -0.47418E+08         0.37981E+06         0.00000E+00
    0.37981E+06        -0.50127E+08         0.00000E+00
    0.00000E+00         0.00000E+00        -0.48838E+08
 
   -0.47552E+08         0.39002E+06         0.00000E+00
    0.39002E+06        -0.50156E+08         0.00000E+00
    0.00000E+00         0.00000E+00        -0.48909E+08
 
   -0.47681E+08         0.39781E+06         0.00000E+00
    0.39781E+06        -0.50188E+08         0.00000E+00
    0.00000E+00         0.00000E+00        -0.48981E+08
 
   -0.47805E+08         0.40371E+06         0.00000E+00
    0.40371E+06        -0.50223E+08         0.00000E+00
    0.00000E+00         0.00000E+00        -0.49053E+08
 
   -0.47924E+08         0.40825E+06         0.00000E+00
    0.40825E+06        -0.50261E+08         0.00000E+00
    0.00000E+00         0.00000E+00        -0.49125E+08
 
   -0.48039E+08         0.41192E+06         0.00000E+00
    0.41192E+06        -0.50301E+08         0.00000E+00
    0.00000E+00         0.00000E+00        -0.49196E+08
 
   -0.48148E+08         0.41517E+06         0.00000E+00
    0.41517E+06        -0.50344E+08         0.00000E+00
    0.00000E+00         0.00000E+00        -0.49267E+08
 
   -0.48253E+08         0.41844E+06         0.00000E+00
    0.41844E+06        -0.50388E+08         0.00000E+00
    0.00000E+00         0.00000E+00        -0.49337E+08
 
   -0.48353E+08         0.42210E+06         0.00000E+00
    0.42210E+06        -0.50434E+08         0.00000E+00
    0.00000E+00         0.00000E+00        -0.49407E+08
 
   -0.48448E+08         0.42650E+06         0.00000E+00
    0.42650E+06        -0.50481E+08         0.00000E+00
    0.00000E+00         0.00000E+00        -0.49475E+08
 
   -0.48539E+08         0.43191E+06         0.00000E+00
    0.43191E+06        -0.50530E+08         0.00000E+00
    0.00000E+00         0.00000E+00        -0.49541E+08
 
   -0.48627E+08         0.43857E+06         0.00000E+00
    0.43857E+06        -0.50579E+08         0.00000E+00
    0.00000E+00         0.00000E+00        -0.49607E+08
 
   -0.48711E+08         0.44667E+06         0.00000E+00
    0.44667E+06        -0.50628E+08         0.00000E+00
    0.00000E+00         0.00000E+00        -0.49671E+08
 
   -0.48792E+08         0.45634E+06         0.00000E+00
    0.45634E+06        -0.50676E+08         0.00000E+00
    0.00000E+00         0.00000E+00        -0.49734E+08
 
   -0.48871E+08         0.46764E+06         0.00000E+00
    0.46764E+06        -0.50725E+08         0.00000E+00
    0.00000E+00         0.00000E+00        -0.49796E+08
 
   -0.48947E+08         0.48060E+06         0.00000E+00
    0.48060E+06        -0.50772E+08         0.00000E+00
    0.00000E+00         0.00000E+00        -0.49856E+08
 
   -0.49022E+08         0.49518E+06         0.00000E+00
    0.49518E+06        -0.50818E+08         0.00000E+00
    0.00000E+00         0.00000E+00        -0.49915E+08
 
   -0.49096E+08         0.51130E+06         0.00000E+00
    0.51130E+06        -0.50862E+08         0.00000E+00
    0.00000E+00         0.00000E+00        -0.49973E+08
 
   -0.49169E+08         0.52880E+06         0.00000E+00
    0.52880E+06        -0.50904E+08         0.00000E+00
    0.00000E+00         0.00000E+00        -0.50029E+08
 
   -0.49242E+08         0.54750E+06         0.00000E+00
    0.54750E+06        -0.50944E+08         0.00000E+00
    0.00000E+00         0.00000E+00        -0.50084E+08
 
   -0.49315E+08         0.56715E+06         0.00000E+00
    0.56715E+06        -0.50981E+08         0.00000E+00
    0.00000E+00         0.00000E+00        -0.50138E+08
 
   -0.49389E+08         0.58744E+06         0.00000E+00
    0.58744E+06        -0.51016E+08         0.00000E+00
    0.00000E+00         0.00000E+00        -0.50190E+08
 
   -0.49463E+08         0.60803E+06         0.00000E+00
    0.60803E+06        -0.51047E+08         0.00000E+00
    0.00000E+00         0.00000E+00        -0.50241E+08
 
   -0.49538E+08         0.62853E+06         0.00000E+00
    0.62853E+06        -0.51074E+08         0.00000E+00
    0.00000E+00         0.00000E+00        -0.50291E+08
 
   -0.49615E+08         0.64848E+06         0.00000E+00
    0.64848E+06        -0.51098E+08         0.00000E+00
    0.00000E+00         0.00000E+00        -0.50340E+08
 
   -0.49693E+08         0.66742E+06         0.00000E+00
    0.66742E+06        -0.51118E+08         0.00000E+00
    0.00000E+00         0.00000E+00        -0.50387E+08
 
   -0.49773E+08         0.68480E+06         0.00000E+00
    0.68480E+06        -0.51133E+08         0.00000E+00
    0.00000E+00         0.00000E+00        -0.50433E+08
 
   -0.49855E+08         0.70007E+06         0.00000E+00
    0.70007E+06        -0.51145E+08         0.00000E+00
    0.00000E+00         0.00000E+00        -0.50477E+08
 
   -0.49937E+08         0.71264E+06         0.00000E+00
    0.71264E+06        -0.51153E+08         0.00000E+00
    0.00000E+00         0.00000E+00        -0.50520E+08
 
   -0.50022E+08         0.72189E+06         0.00000E+00
    0.72189E+06        -0.51156E+08         0.00000E+00
    0.00000E+00         0.00000E+00        -0.50561E+08
 
   -0.50107E+08         0.72716E+06         0.00000E+00
    0.72716E+06        -0.51155E+08         0.00000E+00
    0.00000E+00         0.00000E+00        -0.50600E+08
 
   -0.50192E+08         0.72782E+06         0.00000E+00
    0.72782E+06        -0.51150E+08         0.00000E+00
    0.00000E+00         0.00000E+00        -0.50637E+08
 
   -0.50278E+08         0.72320E+06         0.00000E+00
    0.72320E+06        -0.51141E+08         0.00000E+00
    0.00000E+00         0.00000E+00        -0.50672E+08
 
   -0.50363E+08         0.71264E+06         0.00000E+00
    0.71264E+06        -0.51129E+08         0.00000E+00
    0.00000E+00         0.00000E+00        -0.50704E+08
 
   -0.50447E+08         0.69552E+06         0.00000E+00
    0.69552E+06        -0.51113E+08         0.00000E+00
    0.00000E+00         0.00000E+00        -0.50734E+08
 
   -0.50528E+08         0.67123E+06         0.00000E+00
    0.67123E+06        -0.51094E+08         0.00000E+00
    0.00000E+00         0.00000E+00        -0.50760E+08
 
   -0.50606E+08         0.63920E+06         0.00000E+00
    0.63920E+06        -0.51073E+08         0.00000E+00
    0.00000E+00         0.00000E+00        -0.50783E+08
 
   -0.50678E+08         0.59893E+06         0.00000E+00
    0.59893E+06        -0.51051E+08         0.00000E+00
    0.00000E+00         0.00000E+00        -0.50802E+08
 
   -0.50745E+08         0.54998E+06         0.00000E+00
    0.54998E+06        -0.51027E+08         0.00000E+00
    0.00000E+00         0.00000E+00        -0.50817E+08
 
   -0.50804E+08         0.49203E+06         0.00000E+00
    0.49203E+06        -0.51003E+08         0.00000E+00
    0.00000E+00         0.00000E+00        -0.50828E+08
 
   -0.45701E+08         0.33435E+05         0.00000E+00
    0.33435E+05        -0.50000E+08         0.00000E+00
    0.00000E+00         0.00000E+00        -0.48209E+08
 
   -0.45873E+08         0.81295E+05         0.00000E+00
    0.81295E+05        -0.50002E+08         0.00000E+00
    0.00000E+00         0.00000E+00        -0.48251E+08
 
   -0.46049E+08         0.12102E+06         0.00000E+00
    0.12102E+06        -0.50007E+08         0.00000E+00
    0.00000E+00         0.00000E+00        -0.48302E+08
 
   -0.46227E+08         0.15283E+06         0.00000E+00
    0.15283E+06        -0.50017E+08         0.00000E+00
    0.00000E+00         0.00000E+00        -0.48360E+08
 
   -0.46406E+08         0.17711E+06         0.00000E+00
    0.17711E+06        -0.50030E+08         0.00000E+00
    0.00000E+00         0.00000E+00        -0.48424E+08
 
   -0.46584E+08         0.19438E+06         0.00000E+00
    0.19438E+06        -0.50048E+08         0.00000E+00
    0.00000E+00         0.00000E+00        -0.48493E+08
 
   -0.46758E+08         0.20528E+06         0.00000E+00
    0.20528E+06        -0.50071E+08         0.00000E+00
    0.00000E+00         0.00000E+00        -0.48567E+08
 
   -0.46929E+08         0.21055E+06         0.00000E+00
    0.21055E+06        -0.50098E+08         0.00000E+00
    0.00000E+00         0.00000E+00        -0.48644E+08
 
   -0.47095E+08         0.21098E+06         0.00000E+00
    0.21098E+06        -0.50131E+08         0.00000E+00
    0.00000E+00         0.00000E+00        -0.48723E+08
 
   -0.47254E+08         0.20741E+06         0.00000E+00
    0.20741E+06        -0.50169E+08         0.00000E+00
    0.00000E+00         0.00000E+00        -0.48805E+08
 
   -0.47406E+08         0.20069E+06         0.00000E+00
    0.20069E+06        -0.50212E+08         0.00000E+00
    0.00000E+00         0.00000E+00        -0.48887E+08
 
   -0.47551E+08         0.19167E+06         0.00000E+00
    0.19167E+06        -0.50259E+08         0.00000E+00
    0.00000E+00         0.00000E+00        -0.48970E+08
 
   -0.47688E+08         0.18120E+06         0.00000E+00
    0.18120E+06        -0.50311E+08         0.00000E+00
    0.00000E+00         0.00000E+00        -0.49053E+08
 
   -0.47818E+08         0.17005E+06         0.00000E+00
    0.17005E+06        -0.50368E+08         0.00000E+00
    0.00000E+00         0.00000E+00        -0.49136E+08
 
   -0.47939E+08         0.15899E+06         0.00000E+00
    0.15899E+06        -0.50428E+08         0.00000E+00
    0.00000E+00         0.00000E+00        -0.49218E+08
 
   -0.48053E+08         0.14870E+06         0.00000E+00
    0.14870E+06        -0.50491E+08         0.00000E+00
    0.00000E+00         0.00000E+00        -0.49299E+08
 
   -0.48159E+08         0.13982E+06         0.00000E+00
    0.13982E+06        -0.50558E+08         0.00000E+00
    0.00000E+00         0.00000E+00        -0.49379E+08
 
   -0.48257E+08         0.13289E+06         0.00000E+00
    0.13289E+06        -0.50627E+08         0.00000E+00
    0.00000E+00         0.00000E+00        -0.49457E+08
 
   -0.48349E+08         0.12841E+06         0.00000E+00
    0.12841E+06        -0.50698E+08         0.00000E+00
    0.00000E+00         0.00000E+00        -0.49534E+08
 
   -0.48435E+08         0.12679E+06         0.00000E+00
    0.12679E+06        -0.50771E+08         0.00000E+00
    0.00000E+00         0.00000E+00        -0.49609E+08
 
   -0.48516E+08         0.12837E+06         0.00000E+00
    0.12837E+06        -0.50845E+08         0.00000E+00
    0.00000E+00         0.00000E+00        -0.49682E+08
 
   -0.48591E+08         0.13340E+06         0.00000E+00
    0.13340E+06        -0.50919E+08         0.00000E+00
    0.00000E+00         0.00000E+00        -0.49754E+08
 
   -0.48662E+08         0.14209E+06         0.00000E+00
    0.14209E+06        -0.50993E+08         0.00000E+00
    0.00000E+00         0.00000E+00        -0.49823E+08
 
   -0.48730E+08         0.15455E+06         0.00000E+00
    0.15455E+06        -0.51067E+08         0.00000E+00
    0.00000E+00         0.00000E+00        -0.49891E+08
 
   -0.48795E+08         0.17084E+06         0.00000E+00
    0.17084E+06        -0.51139E+08         0.00000E+00
    0.00000E+00         0.00000E+00        -0.49958E+08
 
   -0.48859E+08         0.19095E+06         0.00000E+00
    0.19095E+06        -0.51210E+08         0.00000E+00
    0.00000E+00         0.00000E+00        -0.50023E+08
 
   -0.48921E+08         0.21478E+06         0.00000E+00
    0.21478E+06        -0.51279E+08         0.00000E+00
    0.00000E+00         0.00000E+00        -0.50086E+08
 
   -0.48982E+08         0.24220E+06         0.00000E+00
    0.24220E+06        -0.51346E+08         0.00000E+00
    0.00000E+00         0.00000E+00        -0.50148E+08
 
   -0.49044E+08         0.27300E+06         0.00000E+00
    0.27300E+06        -0.51410E+08         0.00000E+00
    0.00000E+00         0.00000E+00        -0.50209E+08
 
   -0.49107E+08         0.30690E+06         0.00000E+00
    0.30690E+06        -0.51470E+08         0.00000E+00
    0.00000E+00         0.00000E+00        -0.50269E+08
 
   -0.49172E+08         0.34356E+06         0.00000E+00
    0.34356E+06        -0.51526E+08         0.00000E+00
    0.00000E+00         0.00000E+00        -0.50327E+08
 
   -0.49239E+08         0.38260E+06         0.00000E+00
    0.38260E+06        -0.51578E+08         0.00000E+00
    0.00000E+00         0.00000E+00        -0.50385E+08
 
   -0.49309E+08         0.42354E+06         0.00000E+00
    0.42354E+06        -0.51626E+08         0.00000E+00
    0.00000E+00         0.00000E+00        -0.50441E+08
 
   -0.49383E+08         0.46586E+06         0.00000E+00
    0.46586E+06        -0.51668E+08         0.00000E+00
    0.00000E+00         0.00000E+00        -0.50497E+08
 
   -0.49461E+08         0.50897E+06         0.00000E+00
    0.50897E+06        -0.51706E+08         0.00000E+00
    0.00000E+00         0.00000E+00        -0.50551E+08
 
   -0.49543E+08         0.55220E+06         0.00000E+00
    0.55220E+06        -0.51737E+08         0.00000E+00
    0.00000E+00         0.00000E+00        -0.50605E+08
 
   -0.49630E+08         0.59484E+06         0.00000E+00
    0.59484E+06        -0.51763E+08         0.00000E+00
    0.00000E+00         0.00000E+00        -0.50657E+08
 
   -0.49722E+08         0.63610E+06         0.00000E+00
    0.63610E+06        -0.51782E+08         0.00000E+00
    0.00000E+00         0.00000E+00        -0.50709E+08
 
   -0.49820E+08         0.67514E+06         0.00000E+00
    0.67514E+06        -0.51795E+08         0.00000E+00
    0.00000E+00         0.00000E+00        -0.50759E+08
 
   -0.49922E+08         0.71104E+06         0.00000E+00
    0.71104E+06        -0.51802E+08         0.00000E+00
    0.00000E+00         0.00000E+00        -0.50808E+08
 
   -0.50030E+08         0.74285E+06         0.00000E+00
    0.74285E+06        -0.51802E+08         0.00000E+00
    0.00000E+00         0.00000E+00        -0.50856E+08
 
   -0.50142E+08         0.76955E+06         0.00000E+00
    0.76955E+06        -0.51795E+08         0.00000E+00
    0.00000E+00         0.00000E+00        -0.50902E+08
 
   -0.50258E+08         0.79008E+06         0.00000E+00
    0.79008E+06        -0.51782E+08         0.00000E+00
    0.00000E+00         0.00000E+00        -0.50946E+08
 
   -0.50379E+08         0.80336E+06         0.00000E+00
    0.80336E+06        -0.51762E+08         0.00000E+00
    0.00000E+00         0.00000E+00        -0.50987E+08
 
   -0.50502E+08         0.80828E+06         0.00000E+00
    0.80828E+06        -0.51736E+08         0.00000E+00
    0.00000E+00         0.00000E+00        -0.51026E+08
 
   -0.50627E+08         0.80372E+06         0.00000E+00
    0.80372E+06        -0.51704E+08         0.00000E+00
    0.00000E+00         0.00000E+00        -0.51062E+08
 
   -0.50752E+08         0.78859E+06         0.00000E+00
    0.78859E+06        -0.51667E+08         0.00000E+00
    0.00000E+00         0.00000E+00        -0.51094E+08
 
   -0.50876E+08         0.76180E+06         0.00000E+00
    0.76180E+06        -0.51625E+08         0.00000E+00
    0.00000E+00         0.00000E+00        -0.51122E+08
 
   -0.50998E+08         0.72236E+06         0.00000E+00
    0.72236E+06        -0.51579E+08         0.00000E+00
    0.00000E+00         0.00000E+00        -0.51146E+08
 
   -0.51114E+08         0.66931E+06         0.00000E+00
    0.66931E+06        -0.51530E+08         0.00000E+00
    0.00000E+00         0.00000E+00        -0.51164E+08
 
   -0.45482E+08         0.28155E+05         0.00000E+00
    0.28155E+05        -0.50000E+08         0.00000E+00
    0.00000E+00         0.00000E+00        -0.48193E+08
 
   -0.45703E+08         0.56839E+05         0.00000E+00
    0.56839E+05        -0.50003E+08         0.00000E+00
    0.00000E+00         0.00000E+00        -0.48247E+08
 
   -0.45927E+08         0.73980E+05         0.00000E+00
    0.73980E+05        -0.50011E+08         0.00000E+00
    0.00000E+00         0.00000E+00        -0.48310E+08
 
   -0.46150E+08         0.80209E+05         0.00000E+00
    0.80209E+05        -0.50026E+08         0.00000E+00
    0.00000E+00         0.00000E+00        -0.48382E+08
 
   -0.46370E+08         0.76493E+05         0.00000E+00
    0.76493E+05        -0.50047E+08         0.00000E+00
    0.00000E+00         0.00000E+00        -0.48461E+08
 
   -0.46585E+08         0.63984E+05         0.00000E+00
    0.63984E+05        -0.50076E+08         0.00000E+00
    0.00000E+00         0.00000E+00        -0.48546E+08
 
   -0.46791E+08         0.43976E+05         0.00000E+00
    0.43976E+05        -0.50113E+08         0.00000E+00
    0.00000E+00         0.00000E+00        -0.48634E+08
 
   -0.46989E+08         0.17859E+05         0.00000E+00
    0.17859E+05        -0.50157E+08         0.00000E+00
    0.00000E+00         0.00000E+00        -0.48725E+08
 
   -0.47175E+08        -0.12934E+05         0.00000E+00
   -0.12934E+05        -0.50209E+08         0.00000E+00
    0.00000E+00         0.00000E+00        -0.48819E+08
 
   -0.47350E+08        -0.46980E+05         0.00000E+00
   -0.46980E+05        -0.50269E+08         0.00000E+00
    0.00000E+00         0.00000E+00        -0.48913E+08
 
   -0.47513E+08        -0.82897E+05         0.00000E+00
   -0.82897E+05        -0.50335E+08         0.00000E+00
    0.00000E+00         0.00000E+00        -0.49007E+08
 
   -0.47663E+08        -0.11938E+06         0.00000E+00
   -0.11938E+06        -0.50408E+08         0.00000E+00
    0.00000E+00         0.00000E+00        -0.49101E+08
 
   -0.47800E+08        -0.15522E+06         0.00000E+00
   -0.15522E+06        -0.50488E+08         0.00000E+00
    0.00000E+00         0.00000E+00        -0.49194E+08
 
   -0.47925E+08        -0.18932E+06         0.00000E+00
   -0.18932E+06        -0.50572E+08         0.00000E+00
    0.00000E+00         0.00000E+00        -0.49286E+08
 
   -0.48038E+08        -0.22069E+06         0.00000E+00
   -0.22069E+06        -0.50662E+08         0.00000E+00
    0.00000E+00         0.00000E+00        -0.49375E+08
 
   -0.48139E+08        -0.24847E+06         0.00000E+00
   -0.24847E+06        -0.50755E+08         0.00000E+00
    0.00000E+00         0.00000E+00        -0.49462E+08
 
   -0.48229E+08        -0.27193E+06         0.00000E+00
   -0.27193E+06        -0.50852E+08         0.00000E+00
    0.00000E+00         0.00000E+00        -0.49547E+08
 
   -0.48310E+08        -0.29046E+06         0.00000E+00
   -0.29046E+06        -0.50951E+08         0.00000E+00
    0.00000E+00         0.00000E+00        -0.49630E+08
 
   -0.48382E+08        -0.30353E+06         0.00000E+00
   -0.30353E+06        -0.51052E+08         0.00000E+00
    0.00000E+00         0.00000E+00        -0.49710E+08
 
   -0.48445E+08        -0.31077E+06         0.00000E+00
   -0.31077E+06        -0.51154E+08         0.00000E+00
    0.00000E+00         0.00000E+00        -0.49787E+08
 
   -0.48502E+08        -0.31187E+06         0.00000E+00
   -0.31187E+06        -0.51257E+08         0.00000E+00
    0.00000E+00         0.00000E+00        -0.49862E+08
 
   -0.48553E+08        -0.30663E+06         0.00000E+00
   -0.30663E+06        -0.51359E+08         0.00000E+00
    0.00000E+00         0.00000E+00        -0.49935E+08
 
   -0.48599E+08        -0.29491E+06         0.00000E+00
   -0.29491E+06        -0.51461E+08         0.00000E+00
    0.00000E+00         0.00000E+00        -0.50005E+08
 
   -0.48641E+08        -0.27668E+06         0.00000E+00
   -0.27668E+06        -0.51561E+08         0.00000E+00
    0.00000E+00         0.00000E+00        -0.50073E+08
 
   -0.48681E+08        -0.25196E+06         0.00000E+00
   -0.25196E+06        -0.51660E+08         0.00000E+00
    0.00000E+00         0.00000E+00        -0.50139E+08
 
   -0.48719E+08        -0.22083E+06         0.00000E+00
   -0.22083E+06        -0.51756E+08         0.00000E+00
    0.00000E+00         0.00000E+00        -0.50203E+08
 
   -0.48756E+08        -0.18344E+06         0.00000E+00
   -0.18344E+06        -0.51849E+08         0.00000E+00
    0.00000E+00         0.00000E+00        -0.50266E+08
 
   -0.48795E+08        -0.14002E+06         0.00000E+00
   -0.14002E+06        -0.51939E+08         0.00000E+00
    0.00000E+00         0.00000E+00        -0.50328E+08
 
   -0.48835E+08        -0.90815E+05         0.00000E+00
   -0.90815E+05        -0.52025E+08         0.00000E+00
    0.00000E+00         0.00000E+00        -0.50388E+08
 
   -0.48878E+08        -0.36166E+05         0.00000E+00
   -0.36166E+05        -0.52106E+08         0.00000E+00
    0.00000E+00         0.00000E+00        -0.50447E+08
 
   -0.48924E+08         0.23542E+05         0.00000E+00
    0.23542E+05        -0.52182E+08         0.00000E+00
    0.00000E+00         0.00000E+00        -0.50505E+08
 
   -0.48975E+08         0.87857E+05         0.00000E+00
    0.87857E+05        -0.52253E+08         0.00000E+00
    0.00000E+00         0.00000E+00        -0.50563E+08
 
   -0.49032E+08         0.15626E+06         0.00000E+00
    0.15626E+06        -0.52318E+08         0.00000E+00
    0.00000E+00         0.00000E+00        -0.50620E+08
 
   -0.49095E+08         0.22816E+06         0.00000E+00
    0.22816E+06        -0.52377E+08         0.00000E+00
    0.00000E+00         0.00000E+00        -0.50677E+08
 
   -0.49166E+08         0.30288E+06         0.00000E+00
    0.30288E+06        -0.52428E+08         0.00000E+00
    0.00000E+00         0.00000E+00        -0.50734E+08
 
   -0.49245E+08         0.37967E+06         0.00000E+00
    0.37967E+06        -0.52473E+08         0.00000E+00
    0.00000E+00         0.00000E+00        -0.50790E+08
 
   -0.49333E+08         0.45768E+06         0.00000E+00
    0.45768E+06        -0.52509E+08         0.00000E+00
    0.00000E+00         0.00000E+00        -0.50846E+08
 
   -0.49431E+08         0.53597E+06         0.00000E+00
    0.53597E+06        -0.52538E+08         0.00000E+00
    0.00000E+00         0.00000E+00        -0.50902E+08
 
   -0.49538E+08         0.61349E+06         0.00000E+00
    0.61349E+06        -0.52557E+08         0.00000E+00
    0.00000E+00         0.00000E+00        -0.50957E+08
 
   -0.49657E+08         0.68908E+06         0.00000E+00
    0.68908E+06        -0.52568E+08         0.00000E+00
    0.00000E+00         0.00000E+00        -0.51012E+08
 
   -0.49786E+08         0.76147E+06         0.00000E+00
    0.76147E+06        -0.52568E+08         0.00000E+00
    0.00000E+00         0.00000E+00        -0.51067E+08
 
   -0.49926E+08         0.82927E+06         0.00000E+00
    0.82927E+06        -0.52560E+08         0.00000E+00
    0.00000E+00         0.00000E+00        -0.51120E+08
 
   -0.50077E+08         0.89100E+06         0.00000E+00
    0.89100E+06        -0.52541E+08         0.00000E+00
    0.00000E+00         0.00000E+00        -0.51173E+08
 
   -0.50238E+08         0.94503E+06         0.00000E+00
    0.94503E+06        -0.52511E+08         0.00000E+00
    0.00000E+00         0.00000E+00        -0.51223E+08
 
   -0.50410E+08         0.98964E+06         0.00000E+00
    0.98964E+06        -0.52472E+08         0.00000E+00
    0.00000E+00         0.00000E+00        -0.51272E+08
 
   -0.50590E+08         0.10230E+07         0.00000E+00
    0.10230E+07        -0.52422E+08         0.00000E+00
    0.00000E+00         0.00000E+00        -0.51318E+08
 
   -0.50779E+08         0.10434E+07         0.00000E+00
    0.10434E+07        -0.52363E+08         0.00000E+00
    0.00000E+00         0.00000E+00        -0.51361E+08
 
   -0.50974E+08         0.10486E+07         0.00000E+00
    0.10486E+07        -0.52294E+08         0.00000E+00
    0.00000E+00         0.00000E+00        -0.51400E+08
 
   -0.51173E+08         0.10369E+07         0.00000E+00
    0.10369E+07        -0.52217E+08         0.00000E+00
    0.00000E+00         0.00000E+00        -0.51434E+08
 
   -0.51374E+08         0.10062E+07         0.00000E+00
    0.10062E+07        -0.52132E+08         0.00000E+00
    0.00000E+00         0.00000E+00        -0.51462E+08
 
   -0.45374E+08         0.21227E+05         0.00000E+00
    0.21227E+05        -0.49998E+08         0.00000E+00
    0.00000E+00         0.00000E+00        -0.48249E+08
 
   -0.45670E+08         0.18261E+05         0.00000E+00
    0.18261E+05        -0.50003E+08         0.00000E+00
    0.00000E+00         0.00000E+00        -0.48320E+08
 
   -0.45962E+08        -0.24290E+04         0.00000E+00
   -0.24290E+04        -0.50017E+08         0.00000E+00
    0.00000E+00         0.00000E+00        -0.48402E+08
 
   -0.46247E+08        -0.38586E+05         0.00000E+00
   -0.38586E+05        -0.50042E+08         0.00000E+00
    0.00000E+00         0.00000E+00        -0.48492E+08
 
   -0.46519E+08        -0.87844E+05         0.00000E+00
   -0.87844E+05        -0.50078E+08         0.00000E+00
    0.00000E+00         0.00000E+00        -0.48589E+08
 
   -0.46777E+08        -0.14758E+06         0.00000E+00
   -0.14758E+06        -0.50126E+08         0.00000E+00
    0.00000E+00         0.00000E+00        -0.48690E+08
 
   -0.47017E+08        -0.21511E+06         0.00000E+00
   -0.21511E+06        -0.50186E+08         0.00000E+00
    0.00000E+00         0.00000E+00        -0.48794E+08
 
   -0.47239E+08        -0.28779E+06         0.00000E+00
   -0.28779E+06        -0.50257E+08         0.00000E+00
    0.00000E+00         0.00000E+00        -0.48899E+08
 
   -0.47440E+08        -0.36314E+06         0.00000E+00
   -0.36314E+06        -0.50339E+08         0.00000E+00
    0.00000E+00         0.00000E+00        -0.49004E+08
 
   -0.47620E+08        -0.43891E+06         0.00000E+00
   -0.43891E+06        -0.50430E+08         0.00000E+00
    0.00000E+00         0.00000E+00        -0.49109E+08
 
   -0.47780E+08        -0.51306E+06         0.00000E+00
   -0.51306E+06        -0.50531E+08         0.00000E+00
    0.00000E+00         0.00000E+00        -0.49212E+08
 
   -0.47920E+08        -0.58381E+06         0.00000E+00
   -0.58381E+06        -0.50639E+08         0.00000E+00
    0.00000E+00         0.00000E+00        -0.49312E+08
 
   -0.48041E+08        -0.64965E+06         0.00000E+00
   -0.64965E+06        -0.50754E+08         0.00000E+00
    0.00000E+00         0.00000E+00        -0.49409E+08
 
   -0.48145E+08        -0.70931E+06         0.00000E+00
   -0.70931E+06        -0.50874E+08         0.00000E+00
    0.00000E+00         0.00000E+00        -0.49503E+08
 
   -0.48231E+08        -0.76179E+06         0.00000E+00
   -0.76179E+06        -0.50998E+08         0.00000E+00
    0.00000E+00         0.00000E+00        -0.49593E+08
 
   -0.48302E+08        -0.80626E+06         0.00000E+00
   -0.80626E+06        -0.51126E+08         0.00000E+00
    0.00000E+00         0.00000E+00        -0.49680E+08
 
   -0.48360E+08        -0.84214E+06         0.00000E+00
   -0.84214E+06        -0.51256E+08         0.00000E+00
    0.00000E+00         0.00000E+00        -0.49762E+08
 
   -0.48405E+08        -0.86900E+06         0.00000E+00
   -0.86900E+06        -0.51387E+08         0.00000E+00
    0.00000E+00         0.00000E+00        -0.49841E+08
 
   -0.48439E+08        -0.88655E+06         0.00000E+00
   -0.88655E+06        -0.51518E+08         0.00000E+00
    0.00000E+00         0.00000E+00        -0.49916E+08
 
   -0.48464E+08        -0.89464E+06         0.00000E+00
   -0.89464E+06        -0.51649E+08         0.00000E+00
    0.00000E+00         0.00000E+00        -0.49987E+08
 
   -0.48482E+08        -0.89320E+06         0.00000E+00
   -0.89320E+06        -0.51778E+08         0.00000E+00
    0.00000E+00         0.00000E+00        -0.50055E+08
 
   -0.48493E+08        -0.88228E+06         0.00000E+00
   -0.88228E+06        -0.51906E+08         0.00000E+00
    0.00000E+00         0.00000E+00        -0.50120E+08
 
   -0.48500E+08        -0.86196E+06         0.00000E+00
   -0.86196E+06        -0.52032E+08         0.00000E+00
    0.00000E+00         0.00000E+00        -0.50181E+08
 
   -0.48503E+08        -0.83237E+06         0.00000E+00
   -0.83237E+06        -0.52154E+08         0.00000E+00
    0.00000E+00         0.00000E+00        -0.50241E+08
 
   -0.48504E+08        -0.79371E+06         0.00000E+00
   -0.79371E+06        -0.52274E+08         0.00000E+00
    0.00000E+00         0.00000E+00        -0.50298E+08
 
   -0.48505E+08        -0.74619E+06         0.00000E+00
   -0.74619E+06        -0.52390E+08         0.00000E+00
    0.00000E+00         0.00000E+00        -0.50353E+08
 
   -0.48506E+08        -0.69004E+06         0.00000E+00
   -0.69004E+06        -0.52501E+08         0.00000E+00
    0.00000E+00         0.00000E+00        -0.50406E+08
 
   -0.48509E+08        -0.62553E+06         0.00000E+00
   -0.62553E+06        -0.52608E+08         0.00000E+00
    0.00000E+00         0.00000E+00        -0.50459E+08
 
   -0.48515E+08        -0.55294E+06         0.00000E+00
   -0.55294E+06        -0.52711E+08         0.00000E+00
    0.00000E+00         0.00000E+00        -0.50510E+08
 
   -0.48526E+08        -0.47259E+06         0.00000E+00
   -0.47259E+06        -0.52808E+08         0.00000E+00
    0.00000E+00         0.00000E+00        -0.50560E+08
 
   -0.48542E+08        -0.38481E+06         0.00000E+00
   -0.38481E+06        -0.52899E+08         0.00000E+00
    0.00000E+00         0.00000E+00        -0.50610E+08
 
   -0.48566E+08        -0.28999E+06         0.00000E+00
   -0.28999E+06        -0.52984E+08         0.00000E+00
    0.00000E+00         0.00000E+00        -0.50660E+08
 
   -0.48597E+08        -0.18857E+06         0.00000E+00
   -0.18857E+06        -0.53063E+08         0.00000E+00
    0.00000E+00         0.00000E+00        -0.50711E+08
 
   -0.48638E+08        -0.81022E+05         0.00000E+00
   -0.81022E+05        -0.53134E+08         0.00000E+00
    0.00000E+00         0.00000E+00        -0.50761E+08
 
   -0.48690E+08         0.32078E+05         0.00000E+00
    0.32078E+05        -0.53198E+08         0.00000E+00
    0.00000E+00         0.00000E+00        -0.50812E+08
 
   -0.48754E+08         0.15008E+06         0.00000E+00
    0.15008E+06        -0.53253E+08         0.00000E+00
    0.00000E+00         0.00000E+00        -0.50864E+08
 
   -0.48832E+08         0.27221E+06         0.00000E+00
    0.27221E+06        -0.53300E+08         0.00000E+00
    0.00000E+00         0.00000E+00        -0.50917E+08
 
   -0.48924E+08         0.39758E+06         0.00000E+00
    0.39758E+06        -0.53336E+08         0.00000E+00
    0.00000E+00         0.00000E+00        -0.50970E+08
 
   -0.49031E+08         0.52516E+06         0.00000E+00
    0.52516E+06        -0.53362E+08         0.00000E+00
    0.00000E+00         0.00000E+00        -0.51025E+08
 
   -0.49156E+08         0.65372E+06         0.00000E+00
    0.65372E+06        -0.53377E+08         0.00000E+00
    0.00000E+00         0.00000E+00        -0.51080E+08
 
   -0.49298E+08         0.78188E+06         0.00000E+00
    0.78188E+06        -0.53380E+08         0.00000E+00
    0.00000E+00         0.00000E+00        -0.51136E+08
 
   -0.49460E+08         0.90802E+06         0.00000E+00
    0.90802E+06        -0.53369E+08         0.00000E+00
    0.00000E+00         0.00000E+00        -0.51193E+08
 
   -0.49641E+08         0.10303E+07         0.00000E+00
    0.10303E+07        -0.53345E+08         0.00000E+00
    0.00000E+00         0.00000E+00        -0.51249E+08
 
   -0.49842E+08         0.11467E+07         0.00000E+00
    0.11467E+07        -0.53307E+08         0.00000E+00
    0.00000E+00         0.00000E+00        -0.51306E+08
 
   -0.50064E+08         0.12548E+07         0.00000E+00
    0.12548E+07        -0.53253E+08         0.00000E+00
    0.00000E+00         0.00000E+00        -0.51362E+08
 
   -0.50307E+08         0.13520E+07         0.00000E+00
    0.13520E+07        -0.53183E+08         0.00000E+00
    0.00000E+00         0.00000E+00        -0.51417E+08
 
   -0.50569E+08         0.14355E+07         0.00000E+00
    0.14355E+07        -0.53097E+08         0.00000E+00
    0.00000E+00         0.00000E+00        -0.51469E+08
 
   -0.50851E+08         0.15021E+07         0.00000E+00
    0.15021E+07        -0.52995E+08         0.00000E+00
    0.00000E+00         0.00000E+00        -0.51520E+08
 
   -0.51151E+08         0.15485E+07         0.00000E+00
    0.15485E+07        -0.52877E+08         0.00000E+00
    0.00000E+00         0.00000E+00        -0.51566E+08
 
   -0.51466E+08         0.15711E+07         0.00000E+00
    0.15711E+07        -0.52743E+08         0.00000E+00
    0.00000E+00         0.00000E+00        -0.51608E+08
 
   -0.45457E+08         0.85251E+04         0.00000E+00
    0.85251E+04        -0.49993E+08         0.00000E+00
    0.00000E+00         0.00000E+00        -0.48380E+08
 
   -0.45870E+08        -0.52506E+05         0.00000E+00
   -0.52506E+05        -0.50004E+08         0.00000E+00
    0.00000E+00         0.00000E+00        -0.48477E+08
 
   -0.46262E+08        -0.13960E+06         0.00000E+00
   -0.13960E+06        -0.50032E+08         0.00000E+00
    0.00000E+00         0.00000E+00        -0.48582E+08
 
   -0.46626E+08        -0.24735E+06         0.00000E+00
   -0.24735E+06        -0.50078E+08         0.00000E+00
    0.00000E+00         0.00000E+00        -0.48694E+08
 
   -0.46959E+08        -0.36964E+06         0.00000E+00
   -0.36964E+06        -0.50143E+08         0.00000E+00
    0.00000E+00         0.00000E+00        -0.48809E+08
 
   -0.47257E+08        -0.50084E+06         0.00000E+00
   -0.50084E+06        -0.50226E+08         0.00000E+00
    0.00000E+00         0.00000E+00        -0.48925E+08
 
   -0.47520E+08        -0.63600E+06         0.00000E+00
   -0.63600E+06        -0.50326E+08         0.00000E+00
    0.00000E+00         0.00000E+00        -0.49040E+08
 
   -0.47747E+08        -0.77082E+06         0.00000E+00
   -0.77082E+06        -0.50440E+08         0.00000E+00
    0.00000E+00         0.00000E+00        -0.49153E+08
 
   -0.47940E+08        -0.90166E+06         0.00000E+00
   -0.90166E+06        -0.50566E+08         0.00000E+00
    0.00000E+00         0.00000E+00        -0.49262E+08
 
   -0.48100E+08        -0.10255E+07         0.00000E+00
   -0.10255E+07        -0.50703E+08         0.00000E+00
    0.00000E+00         0.00000E+00        -0.49367E+08
 
   -0.48230E+08        -0.11400E+07         0.00000E+00
   -0.11400E+07        -0.50848E+08         0.00000E+00
    0.00000E+00         0.00000E+00        -0.49467E+08
 
   -0.48331E+08        -0.12434E+07         0.00000E+00
   -0.12434E+07        -0.50999E+08         0.00000E+00
    0.00000E+00         0.00000E+00        -0.49562E+08
 
   -0.48408E+08        -0.13343E+07         0.00000E+00
   -0.13343E+07        -0.51155E+08         0.00000E+00
    0.00000E+00         0.00000E+00        -0.49650E+08
 
   -0.48461E+08        -0.14120E+07         0.00000E+00
   -0.14120E+07        -0.51313E+08         0.00000E+00
    0.00000E+00         0.00000E+00        -0.49733E+08
 
   -0.48495E+08        -0.14760E+07         0.00000E+00
   -0.14760E+07        -0.51471E+08         0.00000E+00
    0.00000E+00         0.00000E+00        -0.49810E+08
 
   -0.48512E+08        -0.15261E+07         0.00000E+00
   -0.15261E+07        -0.51629E+08         0.00000E+00
    0.00000E+00         0.00000E+00        -0.49882E+08
 
   -0.48513E+08        -0.15625E+07         0.00000E+00
   -0.15625E+07        -0.51786E+08         0.00000E+00
    0.00000E+00         0.00000E+00        -0.49947E+08
 
   -0.48502E+08        -0.15853E+07         0.00000E+00
   -0.15853E+07        -0.51940E+08         0.00000E+00
    0.00000E+00         0.00000E+00        -0.50008E+08
 
   -0.48481E+08        -0.15950E+07         0.00000E+00
   -0.15950E+07        -0.52090E+08         0.00000E+00
    0.00000E+00         0.00000E+00        -0.50064E+08
 
   -0.48451E+08        -0.15919E+07         0.00000E+00
   -0.15919E+07        -0.52237E+08         0.00000E+00
    0.00000E+00         0.00000E+00        -0.50116E+08
 
   -0.48415E+08        -0.15765E+07         0.00000E+00
   -0.15765E+07        -0.52380E+08         0.00000E+00
    0.00000E+00         0.00000E+00        -0.50163E+08
 
   -0.48374E+08        -0.15494E+07         0.00000E+00
   -0.15494E+07        -0.52518E+08         0.00000E+00
    0.00000E+00         0.00000E+00        -0.50207E+08
 
   -0.48329E+08        -0.15109E+07         0.00000E+00
   -0.15109E+07        -0.52651E+08         0.00000E+00
    0.00000E+00         0.00000E+00        -0.50247E+08
 
   -0.48282E+08        -0.14615E+07         0.00000E+00
   -0.14615E+07        -0.52780E+08         0.00000E+00
    0.00000E+00         0.00000E+00        -0.50285E+08
 
   -0.48235E+08        -0.14016E+07         0.00000E+00
   -0.14016E+07        -0.52903E+08         0.00000E+00
    0.00000E+00         0.00000E+00        -0.50321E+08
 
   -0.48189E+08        -0.13316E+07         0.00000E+00
   -0.13316E+07        -0.53022E+08         0.00000E+00
    0.00000E+00         0.00000E+00        -0.50354E+08
 
   -0.48144E+08        -0.12517E+07         0.00000E+00
   -0.12517E+07        -0.53135E+08         0.00000E+00
    0.00000E+00         0.00000E+00        -0.50386E+08
 
   -0.48103E+08        -0.11623E+07         0.00000E+00
   -0.11623E+07        -0.53244E+08         0.00000E+00
    0.00000E+00         0.00000E+00        -0.50418E+08
 
   -0.48066E+08        -0.10634E+07         0.00000E+00
   -0.10634E+07        -0.53347E+08         0.00000E+00
    0.00000E+00         0.00000E+00        -0.50448E+08
 
   -0.48034E+08        -0.95534E+06         0.00000E+00
   -0.95534E+06        -0.53445E+08         0.00000E+00
    0.00000E+00         0.00000E+00        -0.50478E+08
 
   -0.48010E+08        -0.83813E+06         0.00000E+00
   -0.83813E+06        -0.53537E+08         0.00000E+00
    0.00000E+00         0.00000E+00        -0.50509E+08
 
   -0.47994E+08        -0.71192E+06         0.00000E+00
   -0.71192E+06        -0.53624E+08         0.00000E+00
    0.00000E+00         0.00000E+00        -0.50540E+08
 
   -0.47988E+08        -0.57679E+06         0.00000E+00
   -0.57679E+06        -0.53705E+08         0.00000E+00
    0.00000E+00         0.00000E+00        -0.50572E+08
 
   -0.47993E+08        -0.43285E+06         0.00000E+00
   -0.43285E+06        -0.53779E+08         0.00000E+00
    0.00000E+00         0.00000E+00        -0.50605E+08
 
   -0.48010E+08        -0.28024E+06         0.00000E+00
   -0.28024E+06        -0.53846E+08         0.00000E+00
    0.00000E+00         0.00000E+00        -0.50639E+08
 
   -0.48043E+08        -0.11915E+06         0.00000E+00
   -0.11915E+06        -0.53906E+08         0.00000E+00
    0.00000E+00         0.00000E+00        -0.50676E+08
 
   -0.48091E+08         0.50122E+05         0.00000E+00
    0.50122E+05        -0.53957E+08         0.00000E+00
    0.00000E+00         0.00000E+00        -0.50714E+08
 
   -0.48158E+08         0.22716E+06         0.00000E+00
    0.22716E+06        -0.53999E+08         0.00000E+00
    0.00000E+00         0.00000E+00        -0.50754E+08
 
   -0.48246E+08         0.41139E+06         0.00000E+00
    0.41139E+06        -0.54030E+08         0.00000E+00
    0.00000E+00         0.00000E+00        -0.50797E+08
 
   -0.48356E+08         0.60199E+06         0.00000E+00
    0.60199E+06        -0.54049E+08         0.00000E+00
    0.00000E+00         0.00000E+00        -0.50842E+08
 
   -0.48491E+08         0.79792E+06         0.00000E+00
    0.79792E+06        -0.54055E+08         0.00000E+00
    0.00000E+00         0.00000E+00        -0.50890E+08
 
   -0.48654E+08         0.99779E+06         0.00000E+00
    0.99779E+06        -0.54046E+08         0.00000E+00
    0.00000E+00         0.00000E+00        -0.50940E+08
 
   -0.48845E+08         0.11999E+07         0.00000E+00
    0.11999E+07        -0.54020E+08         0.00000E+00
    0.00000E+00         0.00000E+00        -0.50992E+08
 
   -0.49069E+08         0.14020E+07         0.00000E+00
    0.14020E+07        -0.53976E+08         0.00000E+00
    0.00000E+00         0.00000E+00        -0.51046E+08
 
   -0.49327E+08         0.16017E+07         0.00000E+00
    0.16017E+07        -0.53912E+08         0.00000E+00
    0.00000E+00         0.00000E+00        -0.51103E+08
 
   -0.49621E+08         0.17956E+07         0.00000E+00
    0.17956E+07        -0.53826E+08         0.00000E+00
    0.00000E+00         0.00000E+00        -0.51160E+08
 
   -0.49953E+08         0.19802E+07         0.00000E+00
    0.19802E+07        -0.53715E+08         0.00000E+00
    0.00000E+00         0.00000E+00        -0.51218E+08
 
   -0.50323E+08         0.21508E+07         0.00000E+00
    0.21508E+07        -0.53580E+08         0.00000E+00
    0.00000E+00         0.00000E+00        -0.51277E+08
 
   -0.50734E+08         0.23024E+07         0.00000E+00
    0.23024E+07        -0.53417E+08         0.00000E+00
    0.00000E+00         0.00000E+00        -0.51335E+08
 
   -0.51184E+08         0.24297E+07         0.00000E+00
    0.24297E+07        -0.53228E+08         0.00000E+00
    0.00000E+00         0.00000E+00        -0.51391E+08
 
   -0.45917E+08        -0.28994E+05         0.00000E+00
   -0.28994E+05        -0.49980E+08         0.00000E+00
    0.00000E+00         0.00000E+00        -0.48508E+08
 
   -0.46501E+08        -0.20499E+06         0.00000E+00
   -0.20499E+06        -0.50007E+08         0.00000E+00
    0.00000E+00         0.00000E+00        -0.48640E+08
 
   -0.47014E+08        -0.41277E+06         0.00000E+00
   -0.41277E+06        -0.50070E+08         0.00000E+00
    0.00000E+00         0.00000E+00        -0.48772E+08
 
   -0.47455E+08        -0.63667E+06         0.00000E+00
   -0.63667E+06        -0.50162E+08         0.00000E+00
    0.00000E+00         0.00000E+00        -0.48900E+08
 
   -0.47824E+08        -0.86606E+06         0.00000E+00
   -0.86606E+06        -0.50280E+08         0.00000E+00
    0.00000E+00         0.00000E+00        -0.49023E+08
 
   -0.48126E+08        -0.10923E+07         0.00000E+00
   -0.10923E+07        -0.50421E+08         0.00000E+00
    0.00000E+00         0.00000E+00        -0.49139E+08
 
   -0.48365E+08        -0.13085E+07         0.00000E+00
   -0.13085E+07        -0.50580E+08         0.00000E+00
    0.00000E+00         0.00000E+00        -0.49247E+08
 
   -0.48547E+08        -0.15091E+07         0.00000E+00
   -0.15091E+07        -0.50753E+08         0.00000E+00
    0.00000E+00         0.00000E+00        -0.49347E+08
 
   -0.48679E+08        -0.16904E+07         0.00000E+00
   -0.16904E+07        -0.50935E+08         0.00000E+00
    0.00000E+00         0.00000E+00        -0.49438E+08
 
   -0.48765E+08        -0.18499E+07         0.00000E+00
   -0.18499E+07        -0.51123E+08         0.00000E+00
    0.00000E+00         0.00000E+00        -0.49519E+08
 
   -0.48814E+08        -0.19865E+07         0.00000E+00
   -0.19865E+07        -0.51312E+08         0.00000E+00
    0.00000E+00         0.00000E+00        -0.49592E+08
 
   -0.48831E+08        -0.21000E+07         0.00000E+00
   -0.21000E+07        -0.51499E+08         0.00000E+00
    0.00000E+00         0.00000E+00        -0.49656E+08
 
   -0.48821E+08        -0.21907E+07         0.00000E+00
   -0.21907E+07        -0.51683E+08         0.00000E+00
    0.00000E+00         0.00000E+00        -0.49712E+08
 
   -0.48789E+08        -0.22597E+07         0.00000E+00
   -0.22597E+07        -0.51862E+08         0.00000E+00
    0.00000E+00         0.00000E+00        -0.49761E+08
 
   -0.48739E+08        -0.23081E+07         0.00000E+00
   -0.23081E+07        -0.52033E+08         0.00000E+00
    0.00000E+00         0.00000E+00        -0.49802E+08
 
   -0.48675E+08        -0.23373E+07         0.00000E+00
   -0.23373E+07        -0.52197E+08         0.00000E+00
    0.00000E+00         0.00000E+00        -0.49837E+08
 
   -0.48600E+08        -0.23488E+07         0.00000E+00
   -0.23488E+07        -0.52353E+08         0.00000E+00
    0.00000E+00         0.00000E+00        -0.49866E+08
 
   -0.48516E+08        -0.23440E+07         0.00000E+00
   -0.23440E+07        -0.52500E+08         0.00000E+00
    0.00000E+00         0.00000E+00        -0.49889E+08
 
   -0.48427E+08        -0.23244E+07         0.00000E+00
   -0.23244E+07        -0.52639E+08         0.00000E+00
    0.00000E+00         0.00000E+00        -0.49907E+08
 
   -0.48333E+08        -0.22911E+07         0.00000E+00
   -0.22911E+07        -0.52769E+08         0.00000E+00
    0.00000E+00         0.00000E+00        -0.49921E+08
 
   -0.48236E+08        -0.22454E+07         0.00000E+00
   -0.22454E+07        -0.52892E+08         0.00000E+00
    0.00000E+00         0.00000E+00        -0.49931E+08
 
   -0.48137E+08        -0.21881E+07         0.00000E+00
   -0.21881E+07        -0.53007E+08         0.00000E+00
    0.00000E+00         0.00000E+00        -0.49937E+08
 
   -0.48039E+08        -0.21203E+07         0.00000E+00
   -0.21203E+07        -0.53115E+08         0.00000E+00
    0.00000E+00         0.00000E+00        -0.49941E+08
 
   -0.47941E+08        -0.20424E+07         0.00000E+00
   -0.20424E+07        -0.53216E+08         0.00000E+00
    0.00000E+00         0.00000E+00        -0.49943E+08
 
   -0.47844E+08        -0.19552E+07         0.00000E+00
   -0.19552E+07        -0.53312E+08         0.00000E+00
    0.00000E+00         0.00000E+00        -0.49943E+08
 
   -0.47750E+08        -0.18588E+07         0.00000E+00
   -0.18588E+07        -0.53402E+08         0.00000E+00
    0.00000E+00         0.00000E+00        -0.49942E+08
 
   -0.47659E+08        -0.17537E+07         0.00000E+00
   -0.17537E+07        -0.53488E+08         0.00000E+00
    0.00000E+00         0.00000E+00        -0.49939E+08
 
   -0.47571E+08        -0.16399E+07         0.00000E+00
   -0.16399E+07        -0.53568E+08         0.00000E+00
    0.00000E+00         0.00000E+00        -0.49936E+08
 
   -0.47489E+08        -0.15173E+07         0.00000E+00
   -0.15173E+07        -0.53645E+08         0.00000E+00
    0.00000E+00         0.00000E+00        -0.49934E+08
 
   -0.47411E+08        -0.13858E+07         0.00000E+00
   -0.13858E+07        -0.53718E+08         0.00000E+00
    0.00000E+00         0.00000E+00        -0.49931E+08
 
   -0.47341E+08        -0.12451E+07         0.00000E+00
   -0.12451E+07        -0.53788E+08         0.00000E+00
    0.00000E+00         0.00000E+00        -0.49929E+08
 
   -0.47277E+08        -0.10947E+07         0.00000E+00
   -0.10947E+07        -0.53854E+08         0.00000E+00
    0.00000E+00         0.00000E+00        -0.49929E+08
 
   -0.47222E+08        -0.93414E+06         0.00000E+00
   -0.93414E+06        -0.53917E+08         0.00000E+00
    0.00000E+00         0.00000E+00        -0.49930E+08
 
   -0.47178E+08        -0.76285E+06         0.00000E+00
   -0.76285E+06        -0.53976E+08         0.00000E+00
    0.00000E+00         0.00000E+00        -0.49932E+08
 
   -0.47145E+08        -0.58014E+06         0.00000E+00
   -0.58014E+06        -0.54032E+08         0.00000E+00
    0.00000E+00         0.00000E+00        -0.49937E+08
 
   -0.47125E+08        -0.38530E+06         0.00000E+00
   -0.38530E+06        -0.54083E+08         0.00000E+00
    0.00000E+00         0.00000E+00        -0.49945E+08
 
   -0.47121E+08        -0.17762E+06         0.00000E+00
   -0.17762E+06        -0.54129E+08         0.00000E+00
    0.00000E+00         0.00000E+00        -0.49955E+08
 
   -0.47136E+08         0.43594E+05         0.00000E+00
    0.43594E+05        -0.54169E+08         0.00000E+00
    0.00000E+00         0.00000E+00        -0.49968E+08
 
   -0.47171E+08         0.27893E+06         0.00000E+00
    0.27893E+06        -0.54202E+08         0.00000E+00
    0.00000E+00         0.00000E+00        -0.49985E+08
 
   -0.47231E+08         0.52883E+06         0.00000E+00
    0.52883E+06        -0.54225E+08         0.00000E+00
    0.00000E+00         0.00000E+00        -0.50006E+08
 
   -0.47319E+08         0.79346E+06         0.00000E+00
    0.79346E+06        -0.54238E+08         0.00000E+00
    0.00000E+00         0.00000E+00        -0.50030E+08
 
   -0.47440E+08         0.10727E+07         0.00000E+00
    0.10727E+07        -0.54236E+08         0.00000E+00
    0.00000E+00         0.00000E+00        -0.50059E+08
 
   -0.47598E+08         0.13658E+07         0.00000E+00
    0.13658E+07        -0.54219E+08         0.00000E+00
    0.00000E+00         0.00000E+00        -0.50092E+08
 
   -0.47798E+08         0.16716E+07         0.00000E+00
    0.16716E+07        -0.54181E+08         0.00000E+00
    0.00000E+00         0.00000E+00        -0.50130E+08
 
   -0.48045E+08         0.19881E+07         0.00000E+00
    0.19881E+07        -0.54121E+08         0.00000E+00
    0.00000E+00         0.00000E+00        -0.50173E+08
 
   -0.48345E+08         0.23127E+07         0.00000E+00
    0.23127E+07        -0.54033E+08         0.00000E+00
    0.00000E+00         0.00000E+00        -0.50220E+08
 
   -0.48704E+08         0.26417E+07         0.00000E+00
    0.26417E+07        -0.53915E+08         0.00000E+00
    0.00000E+00         0.00000E+00        -0.50273E+08
 
   -0.49127E+08         0.29708E+07         0.00000E+00
    0.29708E+07        -0.53762E+08         0.00000E+00
    0.00000E+00         0.00000E+00        -0.50330E+08
 
   -0.49622E+08         0.32941E+07         0.00000E+00
    0.32941E+07        -0.53570E+08         0.00000E+00
    0.00000E+00         0.00000E+00        -0.50394E+08
 
   -0.50192E+08         0.36018E+07         0.00000E+00
    0.36018E+07        -0.53331E+08         0.00000E+00
    0.00000E+00         0.00000E+00        -0.50462E+08
 
   -0.47178E+08        -0.14643E+06         0.00000E+00
   -0.14643E+06        -0.49951E+08         0.00000E+00
    0.00000E+00         0.00000E+00        -0.48332E+08
 
   -0.47917E+08        -0.54526E+06         0.00000E+00
   -0.54526E+06        -0.50029E+08         0.00000E+00
    0.00000E+00         0.00000E+00        -0.48495E+08
 
   -0.48489E+08        -0.94291E+06         0.00000E+00
   -0.94291E+06        -0.50148E+08         0.00000E+00
    0.00000E+00         0.00000E+00        -0.48633E+08
 
   -0.48917E+08        -0.13283E+07         0.00000E+00
   -0.13283E+07        -0.50309E+08         0.00000E+00
    0.00000E+00         0.00000E+00        -0.48749E+08
 
   -0.49219E+08        -0.16868E+07         0.00000E+00
   -0.16868E+07        -0.50502E+08         0.00000E+00
    0.00000E+00         0.00000E+00        -0.48845E+08
 
   -0.49412E+08        -0.20075E+07         0.00000E+00
   -0.20075E+07        -0.50716E+08         0.00000E+00
    0.00000E+00         0.00000E+00        -0.48922E+08
 
   -0.49515E+08        -0.22842E+07         0.00000E+00
   -0.22842E+07        -0.50938E+08         0.00000E+00
    0.00000E+00         0.00000E+00        -0.48982E+08
 
   -0.49545E+08        -0.25148E+07         0.00000E+00
   -0.25148E+07        -0.51161E+08         0.00000E+00
    0.00000E+00         0.00000E+00        -0.49027E+08
 
   -0.49520E+08        -0.27002E+07         0.00000E+00
   -0.27002E+07        -0.51377E+08         0.00000E+00
    0.00000E+00         0.00000E+00        -0.49057E+08
 
   -0.49452E+08        -0.28430E+07         0.00000E+00
   -0.28430E+07        -0.51583E+08         0.00000E+00
    0.00000E+00         0.00000E+00        -0.49076E+08
 
   -0.49353E+08        -0.29471E+07         0.00000E+00
   -0.29471E+07        -0.51774E+08         0.00000E+00
    0.00000E+00         0.00000E+00        -0.49084E+08
 
   -0.49232E+08        -0.30165E+07         0.00000E+00
   -0.30165E+07        -0.51949E+08         0.00000E+00
    0.00000E+00         0.00000E+00        -0.49083E+08
 
   -0.49095E+08        -0.30556E+07         0.00000E+00
   -0.30556E+07        -0.52107E+08         0.00000E+00
    0.00000E+00         0.00000E+00        -0.49074E+08
 
   -0.48948E+08        -0.30684E+07         0.00000E+00
   -0.30684E+07        -0.52249E+08         0.00000E+00
    0.00000E+00         0.00000E+00        -0.49058E+08
 
   -0.48796E+08        -0.30587E+07         0.00000E+00
   -0.30587E+07        -0.52374E+08         0.00000E+00
    0.00000E+00         0.00000E+00        -0.49037E+08
 
   -0.48641E+08        -0.30297E+07         0.00000E+00
   -0.30297E+07        -0.52484E+08         0.00000E+00
    0.00000E+00         0.00000E+00        -0.49010E+08
 
   -0.48485E+08        -0.29845E+07         0.00000E+00
   -0.29845E+07        -0.52579E+08         0.00000E+00
    0.00000E+00         0.00000E+00        -0.48980E+08
 
   -0.48330E+08        -0.29256E+07         0.00000E+00
   -0.29256E+07        -0.52661E+08         0.00000E+00
    0.00000E+00         0.00000E+00        -0.48946E+08
 
   -0.48177E+08        -0.28552E+07         0.00000E+00
   -0.28552E+07        -0.52732E+08         0.00000E+00
    0.00000E+00         0.00000E+00        -0.48909E+08
 
   -0.48026E+08        -0.27750E+07         0.00000E+00
   -0.27750E+07        -0.52791E+08         0.00000E+00
    0.00000E+00         0.00000E+00        -0.48869E+08
 
   -0.47879E+08        -0.26864E+07         0.00000E+00
   -0.26864E+07        -0.52842E+08         0.00000E+00
    0.00000E+00         0.00000E+00        -0.48828E+08
 
   -0.47735E+08        -0.25907E+07         0.00000E+00
   -0.25907E+07        -0.52884E+08         0.00000E+00
    0.00000E+00         0.00000E+00        -0.48785E+08
 
   -0.47595E+08        -0.24886E+07         0.00000E+00
   -0.24886E+07        -0.52920E+08         0.00000E+00
    0.00000E+00         0.00000E+00        -0.48740E+08
 
   -0.47458E+08        -0.23809E+07         0.00000E+00
   -0.23809E+07        -0.52950E+08         0.00000E+00
    0.00000E+00         0.00000E+00        -0.48695E+08
 
   -0.47325E+08        -0.22678E+07         0.00000E+00
   -0.22678E+07        -0.52976E+08         0.00000E+00
    0.00000E+00         0.00000E+00        -0.48650E+08
 
   -0.47195E+08        -0.21495E+07         0.00000E+00
   -0.21495E+07        -0.52998E+08         0.00000E+00
    0.00000E+00         0.00000E+00        -0.48604E+08
 
   -0.47068E+08        -0.20261E+07         0.00000E+00
   -0.20261E+07        -0.53017E+08         0.00000E+00
    0.00000E+00         0.00000E+00        -0.48559E+08
 
   -0.46944E+08        -0.18972E+07         0.00000E+00
   -0.18972E+07        -0.53035E+08         0.00000E+00
    0.00000E+00         0.00000E+00        -0.48514E+08
 
   -0.46823E+08        -0.17625E+07         0.00000E+00
   -0.17625E+07        -0.53053E+08         0.00000E+00
    0.00000E+00         0.00000E+00        -0.48470E+08
 
   -0.46706E+08        -0.16213E+07         0.00000E+00
   -0.16213E+07        -0.53069E+08         0.00000E+00
    0.00000E+00         0.00000E+00        -0.48427E+08
 
   -0.46591E+08        -0.14728E+07         0.00000E+00
   -0.14728E+07        -0.53087E+08         0.00000E+00
    0.00000E+00         0.00000E+00        -0.48385E+08
 
   -0.46480E+08        -0.13160E+07         0.00000E+00
   -0.13160E+07        -0.53105E+08         0.00000E+00
    0.00000E+00         0.00000E+00        -0.48344E+08
 
   -0.46373E+08        -0.11498E+07         0.00000E+00
   -0.11498E+07        -0.53125E+08         0.00000E+00
    0.00000E+00         0.00000E+00        -0.48305E+08
 
   -0.46271E+08        -0.97260E+06         0.00000E+00
   -0.97260E+06        -0.53147E+08         0.00000E+00
    0.00000E+00         0.00000E+00        -0.48268E+08
 
   -0.46174E+08        -0.78289E+06         0.00000E+00
   -0.78289E+06        -0.53170E+08         0.00000E+00
    0.00000E+00         0.00000E+00        -0.48234E+08
 
   -0.46085E+08        -0.57880E+06         0.00000E+00
   -0.57880E+06        -0.53195E+08         0.00000E+00
    0.00000E+00         0.00000E+00        -0.48201E+08
 
   -0.46004E+08        -0.35824E+06         0.00000E+00
   -0.35824E+06        -0.53222E+08         0.00000E+00
    0.00000E+00         0.00000E+00        -0.48172E+08
 
   -0.45933E+08        -0.11894E+06         0.00000E+00
   -0.11894E+06        -0.53250E+08         0.00000E+00
    0.00000E+00         0.00000E+00        -0.48146E+08
 
   -0.45877E+08         0.14162E+06         0.00000E+00
    0.14162E+06        -0.53277E+08         0.00000E+00
    0.00000E+00         0.00000E+00        -0.48123E+08
 
   -0.45837E+08         0.42607E+06         0.00000E+00
    0.42607E+06        -0.53304E+08         0.00000E+00
    0.00000E+00         0.00000E+00        -0.48104E+08
 
   -0.45820E+08         0.73715E+06         0.00000E+00
    0.73715E+06        -0.53327E+08         0.00000E+00
    0.00000E+00         0.00000E+00        -0.48090E+08
 
   -0.45830E+08         0.10775E+07         0.00000E+00
    0.10775E+07        -0.53345E+08         0.00000E+00
    0.00000E+00         0.00000E+00        -0.48081E+08
 
   -0.45875E+08         0.14497E+07         0.00000E+00
    0.14497E+07        -0.53353E+08         0.00000E+00
    0.00000E+00         0.00000E+00        -0.48077E+08
 
   -0.45963E+08         0.18557E+07         0.00000E+00
    0.18557E+07        -0.53348E+08         0.00000E+00
    0.00000E+00         0.00000E+00        -0.48081E+08
 
   -0.46104E+08         0.22966E+07         0.00000E+00
    0.22966E+07        -0.53323E+08         0.00000E+00
    0.00000E+00         0.00000E+00        -0.48091E+08
 
   -0.46308E+08         0.27722E+07         0.00000E+00
    0.27722E+07        -0.53272E+08         0.00000E+00
    0.00000E+00         0.00000E+00        -0.48110E+08
 
   -0.46587E+08         0.32808E+07         0.00000E+00
    0.32808E+07        -0.53188E+08         0.00000E+00
    0.00000E+00         0.00000E+00        -0.48139E+08
 
   -0.46954E+08         0.38188E+07         0.00000E+00
    0.38188E+07        -0.53061E+08         0.00000E+00
    0.00000E+00         0.00000E+00        -0.48178E+08
 
   -0.47421E+08         0.43822E+07         0.00000E+00
    0.43822E+07        -0.52885E+08         0.00000E+00
    0.00000E+00         0.00000E+00        -0.48230E+08
 
   -0.48009E+08         0.49712E+07         0.00000E+00
    0.49712E+07        -0.52657E+08         0.00000E+00
    0.00000E+00         0.00000E+00        -0.48298E+08
 
   -0.49964E+08        -0.43312E+06         0.00000E+00
   -0.43312E+06        -0.49924E+08         0.00000E+00
    0.00000E+00         0.00000E+00        -0.47151E+08
 
   -0.50583E+08        -0.11607E+07         0.00000E+00
   -0.11607E+07        -0.50030E+08         0.00000E+00
    0.00000E+00         0.00000E+00        -0.47280E+08
 
   -0.50939E+08        -0.18232E+07         0.00000E+00
   -0.18232E+07        -0.50238E+08         0.00000E+00
    0.00000E+00         0.00000E+00        -0.47365E+08
 
   -0.51067E+08        -0.23767E+07         0.00000E+00
   -0.23767E+07        -0.50484E+08         0.00000E+00
    0.00000E+00         0.00000E+00        -0.47404E+08
 
   -0.51028E+08        -0.28123E+07         0.00000E+00
   -0.28123E+07        -0.50734E+08         0.00000E+00
    0.00000E+00         0.00000E+00        -0.47405E+08
 
   -0.50875E+08        -0.31379E+07         0.00000E+00
   -0.31379E+07        -0.50966E+08         0.00000E+00
    0.00000E+00         0.00000E+00        -0.47375E+08
 
   -0.50651E+08        -0.33674E+07         0.00000E+00
   -0.33674E+07        -0.51169E+08         0.00000E+00
    0.00000E+00         0.00000E+00        -0.47324E+08
 
   -0.50387E+08        -0.35166E+07         0.00000E+00
   -0.35166E+07        -0.51339E+08         0.00000E+00
    0.00000E+00         0.00000E+00        -0.47257E+08
 
   -0.50103E+08        -0.36004E+07         0.00000E+00
   -0.36004E+07        -0.51474E+08         0.00000E+00
    0.00000E+00         0.00000E+00        -0.47179E+08
 
   -0.49814E+08        -0.36320E+07         0.00000E+00
   -0.36320E+07        -0.51577E+08         0.00000E+00
    0.00000E+00         0.00000E+00        -0.47093E+08
 
   -0.49529E+08        -0.36225E+07         0.00000E+00
   -0.36225E+07        -0.51649E+08         0.00000E+00
    0.00000E+00         0.00000E+00        -0.47001E+08
 
   -0.49253E+08        -0.35813E+07         0.00000E+00
   -0.35813E+07        -0.51693E+08         0.00000E+00
    0.00000E+00         0.00000E+00        -0.46906E+08
 
   -0.48989E+08        -0.35159E+07         0.00000E+00
   -0.35159E+07        -0.51713E+08         0.00000E+00
    0.00000E+00         0.00000E+00        -0.46809E+08
 
   -0.48738E+08        -0.34323E+07         0.00000E+00
   -0.34323E+07        -0.51712E+08         0.00000E+00
    0.00000E+00         0.00000E+00        -0.46711E+08
 
   -0.48502E+08        -0.33353E+07         0.00000E+00
   -0.33353E+07        -0.51692E+08         0.00000E+00
    0.00000E+00         0.00000E+00        -0.46612E+08
 
   -0.48280E+08        -0.32287E+07         0.00000E+00
   -0.32287E+07        -0.51658E+08         0.00000E+00
    0.00000E+00         0.00000E+00        -0.46514E+08
 
   -0.48071E+08        -0.31154E+07         0.00000E+00
   -0.31154E+07        -0.51612E+08         0.00000E+00
    0.00000E+00         0.00000E+00        -0.46416E+08
 
   -0.47874E+08        -0.29978E+07         0.00000E+00
   -0.29978E+07        -0.51556E+08         0.00000E+00
    0.00000E+00         0.00000E+00        -0.46319E+08
 
   -0.47688E+08        -0.28774E+07         0.00000E+00
   -0.28774E+07        -0.51492E+08         0.00000E+00
    0.00000E+00         0.00000E+00        -0.46223E+08
 
   -0.47511E+08        -0.27555E+07         0.00000E+00
   -0.27555E+07        -0.51422E+08         0.00000E+00
    0.00000E+00         0.00000E+00        -0.46128E+08
 
   -0.47343E+08        -0.26331E+07         0.00000E+00
   -0.26331E+07        -0.51348E+08         0.00000E+00
    0.00000E+00         0.00000E+00        -0.46035E+08
 
   -0.47182E+08        -0.25106E+07         0.00000E+00
   -0.25106E+07        -0.51271E+08         0.00000E+00
    0.00000E+00         0.00000E+00        -0.45943E+08
 
   -0.47026E+08        -0.23883E+07         0.00000E+00
   -0.23883E+07        -0.51192E+08         0.00000E+00
    0.00000E+00         0.00000E+00        -0.45853E+08
 
   -0.46876E+08        -0.22664E+07         0.00000E+00
   -0.22664E+07        -0.51114E+08         0.00000E+00
    0.00000E+00         0.00000E+00        -0.45764E+08
 
   -0.46729E+08        -0.21447E+07         0.00000E+00
   -0.21447E+07        -0.51036E+08         0.00000E+00
    0.00000E+00         0.00000E+00        -0.45676E+08
 
   -0.46585E+08        -0.20229E+07         0.00000E+00
   -0.20229E+07        -0.50960E+08         0.00000E+00
    0.00000E+00         0.00000E+00        -0.45590E+08
 
   -0.46442E+08        -0.19007E+07         0.00000E+00
   -0.19007E+07        -0.50886E+08         0.00000E+00
    0.00000E+00         0.00000E+00        -0.45506E+08
 
   -0.46300E+08        -0.17773E+07         0.00000E+00
   -0.17773E+07        -0.50816E+08         0.00000E+00
    0.00000E+00         0.00000E+00        -0.45423E+08
 
   -0.46157E+08        -0.16521E+07         0.00000E+00
   -0.16521E+07        -0.50751E+08         0.00000E+00
    0.00000E+00         0.00000E+00        -0.45341E+08
 
   -0.46014E+08        -0.15241E+07         0.00000E+00
   -0.15241E+07        -0.50690E+08         0.00000E+00
    0.00000E+00         0.00000E+00        -0.45261E+08
 
   -0.45867E+08        -0.13922E+07         0.00000E+00
   -0.13922E+07        -0.50635E+08         0.00000E+00
    0.00000E+00         0.00000E+00        -0.45183E+08
 
   -0.45718E+08        -0.12550E+07         0.00000E+00
   -0.12550E+07        -0.50586E+08         0.00000E+00
    0.00000E+00         0.00000E+00        -0.45105E+08
 
   -0.45566E+08        -0.11110E+07         0.00000E+00
   -0.11110E+07        -0.50544E+08         0.00000E+00
    0.00000E+00         0.00000E+00        -0.45029E+08
 
   -0.45409E+08        -0.95829E+06         0.00000E+00
   -0.95829E+06        -0.50510E+08         0.00000E+00
    0.00000E+00         0.00000E+00        -0.44955E+08
 
   -0.45247E+08        -0.79471E+06         0.00000E+00
   -0.79471E+06        -0.50484E+08         0.00000E+00
    0.00000E+00         0.00000E+00        -0.44881E+08
 
   -0.45080E+08        -0.61772E+06         0.00000E+00
   -0.61772E+06        -0.50467E+08         0.00000E+00
    0.00000E+00         0.00000E+00        -0.44810E+08
 
   -0.44908E+08        -0.42432E+06         0.00000E+00
   -0.42432E+06        -0.50460E+08         0.00000E+00
    0.00000E+00         0.00000E+00        -0.44740E+08
 
   -0.44731E+08        -0.21096E+06         0.00000E+00
   -0.21096E+06        -0.50463E+08         0.00000E+00
    0.00000E+00         0.00000E+00        -0.44671E+08
 
   -0.44549E+08         0.26510E+05         0.00000E+00
    0.26510E+05        -0.50476E+08         0.00000E+00
    0.00000E+00         0.00000E+00        -0.44604E+08
 
   -0.44365E+08         0.29297E+06         0.00000E+00
    0.29297E+06        -0.50499E+08         0.00000E+00
    0.00000E+00         0.00000E+00        -0.44540E+08
 
   -0.44181E+08         0.59414E+06         0.00000E+00
    0.59414E+06        -0.50533E+08         0.00000E+00
    0.00000E+00         0.00000E+00        -0.44479E+08
 
   -0.44001E+08         0.93667E+06         0.00000E+00
    0.93667E+06        -0.50577E+08         0.00000E+00
    0.00000E+00         0.00000E+00        -0.44421E+08
 
   -0.43830E+08         0.13283E+07         0.00000E+00
    0.13283E+07        -0.50628E+08         0.00000E+00
    0.00000E+00         0.00000E+00        -0.44367E+08
 
   -0.43676E+08         0.17775E+07         0.00000E+00
    0.17775E+07        -0.50686E+08         0.00000E+00
    0.00000E+00         0.00000E+00        -0.44319E+08
 
   -0.43553E+08         0.22940E+07         0.00000E+00
    0.22940E+07        -0.50745E+08         0.00000E+00
    0.00000E+00         0.00000E+00        -0.44279E+08
 
   -0.43476E+08         0.28875E+07         0.00000E+00
    0.28875E+07        -0.50799E+08         0.00000E+00
    0.00000E+00         0.00000E+00        -0.44249E+08
 
   -0.43468E+08         0.35667E+07         0.00000E+00
    0.35667E+07        -0.50838E+08         0.00000E+00
    0.00000E+00         0.00000E+00        -0.44233E+08
 
   -0.43555E+08         0.43369E+07         0.00000E+00
    0.43369E+07        -0.50846E+08         0.00000E+00
    0.00000E+00         0.00000E+00        -0.44232E+08
 
   -0.43763E+08         0.51947E+07         0.00000E+00
    0.51947E+07        -0.50800E+08         0.00000E+00
    0.00000E+00         0.00000E+00        -0.44249E+08
 
   -0.44099E+08         0.61190E+07         0.00000E+00
    0.61190E+07        -0.50663E+08         0.00000E+00
    0.00000E+00         0.00000E+00        -0.44280E+08
 
   -0.55093E+08        -0.93172E+06         0.00000E+00
   -0.93172E+06        -0.49891E+08         0.00000E+00
    0.00000E+00         0.00000E+00        -0.44014E+08
 
   -0.54763E+08        -0.21260E+07         0.00000E+00
   -0.21260E+07        -0.50220E+08         0.00000E+00
    0.00000E+00         0.00000E+00        -0.43993E+08
 
   -0.54090E+08        -0.28845E+07         0.00000E+00
   -0.28845E+07        -0.50437E+08         0.00000E+00
    0.00000E+00         0.00000E+00        -0.43865E+08
 
   -0.53311E+08        -0.33382E+07         0.00000E+00
   -0.33382E+07        -0.50552E+08         0.00000E+00
    0.00000E+00         0.00000E+00        -0.43684E+08
 
   -0.52533E+08        -0.35823E+07         0.00000E+00
   -0.35823E+07        -0.50578E+08         0.00000E+00
    0.00000E+00         0.00000E+00        -0.43479E+08
 
   -0.51802E+08        -0.36838E+07         0.00000E+00
   -0.36838E+07        -0.50533E+08         0.00000E+00
    0.00000E+00         0.00000E+00        -0.43264E+08
 
   -0.51136E+08        -0.36895E+07         0.00000E+00
   -0.36895E+07        -0.50430E+08         0.00000E+00
    0.00000E+00         0.00000E+00        -0.43049E+08
 
   -0.50540E+08        -0.36318E+07         0.00000E+00
   -0.36318E+07        -0.50282E+08         0.00000E+00
    0.00000E+00         0.00000E+00        -0.42837E+08
 
   -0.50011E+08        -0.35331E+07         0.00000E+00
   -0.35331E+07        -0.50101E+08         0.00000E+00
    0.00000E+00         0.00000E+00        -0.42633E+08
 
   -0.49543E+08        -0.34090E+07         0.00000E+00
   -0.34090E+07        -0.49896E+08         0.00000E+00
    0.00000E+00         0.00000E+00        -0.42436E+08
 
   -0.49130E+08        -0.32700E+07         0.00000E+00
   -0.32700E+07        -0.49673E+08         0.00000E+00
    0.00000E+00         0.00000E+00        -0.42247E+08
 
   -0.48764E+08        -0.31235E+07         0.00000E+00
   -0.31235E+07        -0.49440E+08         0.00000E+00
    0.00000E+00         0.00000E+00        -0.42067E+08
 
   -0.48440E+08        -0.29745E+07         0.00000E+00
   -0.29745E+07        -0.49200E+08         0.00000E+00
    0.00000E+00         0.00000E+00        -0.41895E+08
 
   -0.48151E+08        -0.28262E+07         0.00000E+00
   -0.28262E+07        -0.48957E+08         0.00000E+00
    0.00000E+00         0.00000E+00        -0.41731E+08
 
   -0.47893E+08        -0.26808E+07         0.00000E+00
   -0.26808E+07        -0.48714E+08         0.00000E+00
    0.00000E+00         0.00000E+00        -0.41575E+08
 
   -0.47660E+08        -0.25398E+07         0.00000E+00
   -0.25398E+07        -0.48473E+08         0.00000E+00
    0.00000E+00         0.00000E+00        -0.41426E+08
 
   -0.47449E+08        -0.24039E+07         0.00000E+00
   -0.24039E+07        -0.48236E+08         0.00000E+00
    0.00000E+00         0.00000E+00        -0.41283E+08
 
   -0.47256E+08        -0.22735E+07         0.00000E+00
   -0.22735E+07        -0.48005E+08         0.00000E+00
    0.00000E+00         0.00000E+00        -0.41146E+08
 
   -0.47078E+08        -0.21487E+07         0.00000E+00
   -0.21487E+07        -0.47780E+08         0.00000E+00
    0.00000E+00         0.00000E+00        -0.41015E+08
 
   -0.46912E+08        -0.20295E+07         0.00000E+00
   -0.20295E+07        -0.47562E+08         0.00000E+00
    0.00000E+00         0.00000E+00        -0.40889E+08
 
   -0.46755E+08        -0.19155E+07         0.00000E+00
   -0.19155E+07        -0.47351E+08         0.00000E+00
    0.00000E+00         0.00000E+00        -0.40767E+08
 
   -0.46606E+08        -0.18066E+07         0.00000E+00
   -0.18066E+07        -0.47149E+08         0.00000E+00
    0.00000E+00         0.00000E+00        -0.40650E+08
 
   -0.46462E+08        -0.17023E+07         0.00000E+00
   -0.17023E+07        -0.46955E+08         0.00000E+00
    0.00000E+00         0.00000E+00        -0.40537E+08
 
   -0.46322E+08        -0.16020E+07         0.00000E+00
   -0.16020E+07        -0.46769E+08         0.00000E+00
    0.00000E+00         0.00000E+00        -0.40427E+08
 
   -0.46183E+08        -0.15054E+07         0.00000E+00
   -0.15054E+07        -0.46592E+08         0.00000E+00
    0.00000E+00         0.00000E+00        -0.40320E+08
 
   -0.46045E+08        -0.14117E+07         0.00000E+00
   -0.14117E+07        -0.46425E+08         0.00000E+00
    0.00000E+00         0.00000E+00        -0.40216E+08
 
   -0.45905E+08        -0.13203E+07         0.00000E+00
   -0.13203E+07        -0.46266E+08         0.00000E+00
    0.00000E+00         0.00000E+00        -0.40114E+08
 
   -0.45762E+08        -0.12306E+07         0.00000E+00
   -0.12306E+07        -0.46117E+08         0.00000E+00
    0.00000E+00         0.00000E+00        -0.40015E+08
 
   -0.45614E+08        -0.11417E+07         0.00000E+00
   -0.11417E+07        -0.45977E+08         0.00000E+00
    0.00000E+00         0.00000E+00        -0.39917E+08
 
   -0.45460E+08        -0.10528E+07         0.00000E+00
   -0.10528E+07        -0.45847E+08         0.00000E+00
    0.00000E+00         0.00000E+00        -0.39821E+08
 
   -0.45298E+08        -0.96294E+06         0.00000E+00
   -0.96294E+06        -0.45727E+08         0.00000E+00
    0.00000E+00         0.00000E+00        -0.39726E+08
 
   -0.45126E+08        -0.87094E+06         0.00000E+00
   -0.87094E+06        -0.45618E+08         0.00000E+00
    0.00000E+00         0.00000E+00        -0.39631E+08
 
   -0.44943E+08        -0.77554E+06         0.00000E+00
   -0.77554E+06        -0.45520E+08         0.00000E+00
    0.00000E+00         0.00000E+00        -0.39538E+08
 
   -0.44746E+08        -0.67521E+06         0.00000E+00
   -0.67521E+06        -0.45434E+08         0.00000E+00
    0.00000E+00         0.00000E+00        -0.39444E+08
 
   -0.44533E+08        -0.56817E+06         0.00000E+00
   -0.56817E+06        -0.45361E+08         0.00000E+00
    0.00000E+00         0.00000E+00        -0.39351E+08
 
   -0.44301E+08        -0.45225E+06         0.00000E+00
   -0.45225E+06        -0.45302E+08         0.00000E+00
    0.00000E+00         0.00000E+00        -0.39257E+08
 
   -0.44048E+08        -0.32487E+06         0.00000E+00
   -0.32487E+06        -0.45258E+08         0.00000E+00
    0.00000E+00         0.00000E+00        -0.39163E+08
 
   -0.43771E+08        -0.18282E+06         0.00000E+00
   -0.18282E+06        -0.45230E+08         0.00000E+00
    0.00000E+00         0.00000E+00        -0.39067E+08
 
   -0.43467E+08        -0.22190E+05         0.00000E+00
   -0.22190E+05        -0.45220E+08         0.00000E+00
    0.00000E+00         0.00000E+00        -0.38971E+08
 
   -0.43132E+08         0.16195E+06         0.00000E+00
    0.16195E+06        -0.45230E+08         0.00000E+00
    0.00000E+00         0.00000E+00        -0.38873E+08
 
   -0.42763E+08         0.37580E+06         0.00000E+00
    0.37580E+06        -0.45264E+08         0.00000E+00
    0.00000E+00         0.00000E+00        -0.38773E+08
 
   -0.42355E+08         0.62725E+06         0.00000E+00
    0.62725E+06        -0.45322E+08         0.00000E+00
    0.00000E+00         0.00000E+00        -0.38672E+08
 
   -0.41906E+08         0.92645E+06         0.00000E+00
    0.92645E+06        -0.45409E+08         0.00000E+00
    0.00000E+00         0.00000E+00        -0.38569E+08
 
   -0.41412E+08         0.12866E+07         0.00000E+00
    0.12866E+07        -0.45528E+08         0.00000E+00
    0.00000E+00         0.00000E+00        -0.38466E+08
 
   -0.40873E+08         0.17250E+07         0.00000E+00
    0.17250E+07        -0.45682E+08         0.00000E+00
    0.00000E+00         0.00000E+00        -0.38362E+08
 
   -0.40292E+08         0.22645E+07         0.00000E+00
    0.22645E+07        -0.45874E+08         0.00000E+00
    0.00000E+00         0.00000E+00        -0.38259E+08
 
   -0.39679E+08         0.29357E+07         0.00000E+00
    0.29357E+07        -0.46107E+08         0.00000E+00
    0.00000E+00         0.00000E+00        -0.38162E+08
 
   -0.39062E+08         0.37793E+07         0.00000E+00
    0.37793E+07        -0.46382E+08         0.00000E+00
    0.00000E+00         0.00000E+00        -0.38075E+08
 
   -0.38502E+08         0.48493E+07         0.00000E+00
    0.48493E+07        -0.46695E+08         0.00000E+00
    0.00000E+00         0.00000E+00        -0.38013E+08
 
   -0.38127E+08         0.62154E+07         0.00000E+00
    0.62154E+07        -0.47037E+08         0.00000E+00
    0.00000E+00         0.00000E+00        -0.37999E+08
 
   -0.61830E+08        -0.17016E+07         0.00000E+00
   -0.17016E+07        -0.50260E+08         0.00000E+00
    0.00000E+00         0.00000E+00        -0.38516E+08
 
   -0.58561E+08        -0.20590E+07         0.00000E+00
   -0.20590E+07        -0.49712E+08         0.00000E+00
    0.00000E+00         0.00000E+00        -0.37743E+08
 
   -0.56139E+08        -0.21593E+07         0.00000E+00
   -0.21593E+07        -0.49074E+08         0.00000E+00
    0.00000E+00         0.00000E+00        -0.37115E+08
 
   -0.54295E+08        -0.21331E+07         0.00000E+00
   -0.21331E+07        -0.48397E+08         0.00000E+00
    0.00000E+00         0.00000E+00        -0.36590E+08
 
   -0.52861E+08        -0.20460E+07         0.00000E+00
   -0.20460E+07        -0.47713E+08         0.00000E+00
    0.00000E+00         0.00000E+00        -0.36142E+08
 
   -0.51726E+08        -0.19322E+07         0.00000E+00
   -0.19322E+07        -0.47041E+08         0.00000E+00
    0.00000E+00         0.00000E+00        -0.35754E+08
 
   -0.50814E+08        -0.18092E+07         0.00000E+00
   -0.18092E+07        -0.46391E+08         0.00000E+00
    0.00000E+00         0.00000E+00        -0.35413E+08
 
   -0.50072E+08        -0.16862E+07         0.00000E+00
   -0.16862E+07        -0.45771E+08         0.00000E+00
    0.00000E+00         0.00000E+00        -0.35112E+08
 
   -0.49461E+08        -0.15680E+07         0.00000E+00
   -0.15680E+07        -0.45182E+08         0.00000E+00
    0.00000E+00         0.00000E+00        -0.34843E+08
 
   -0.48953E+08        -0.14567E+07         0.00000E+00
   -0.14567E+07        -0.44626E+08         0.00000E+00
    0.00000E+00         0.00000E+00        -0.34601E+08
 
   -0.48526E+08        -0.13531E+07         0.00000E+00
   -0.13531E+07        -0.44102E+08         0.00000E+00
    0.00000E+00         0.00000E+00        -0.34382E+08
 
   -0.48164E+08        -0.12573E+07         0.00000E+00
   -0.12573E+07        -0.43610E+08         0.00000E+00
    0.00000E+00         0.00000E+00        -0.34184E+08
 
   -0.47854E+08        -0.11690E+07         0.00000E+00
   -0.11690E+07        -0.43148E+08         0.00000E+00
    0.00000E+00         0.00000E+00        -0.34002E+08
 
   -0.47586E+08        -0.10878E+07         0.00000E+00
   -0.10878E+07        -0.42714E+08         0.00000E+00
    0.00000E+00         0.00000E+00        -0.33835E+08
 
   -0.47352E+08        -0.10131E+07         0.00000E+00
   -0.10131E+07        -0.42307E+08         0.00000E+00
    0.00000E+00         0.00000E+00        -0.33681E+08
 
   -0.47145E+08        -0.94429E+06         0.00000E+00
   -0.94429E+06        -0.41925E+08         0.00000E+00
    0.00000E+00         0.00000E+00        -0.33539E+08
 
   -0.46960E+08        -0.88090E+06         0.00000E+00
   -0.88090E+06        -0.41567E+08         0.00000E+00
    0.00000E+00         0.00000E+00        -0.33406E+08
 
   -0.46793E+08        -0.82236E+06         0.00000E+00
   -0.82236E+06        -0.41232E+08         0.00000E+00
    0.00000E+00         0.00000E+00        -0.33282E+08
 
   -0.46639E+08        -0.76818E+06         0.00000E+00
   -0.76818E+06        -0.40916E+08         0.00000E+00
    0.00000E+00         0.00000E+00        -0.33165E+08
 
   -0.46496E+08        -0.71791E+06         0.00000E+00
   -0.71791E+06        -0.40621E+08         0.00000E+00
    0.00000E+00         0.00000E+00        -0.33055E+08
 
   -0.46361E+08        -0.67113E+06         0.00000E+00
   -0.67113E+06        -0.40343E+08         0.00000E+00
    0.00000E+00         0.00000E+00        -0.32951E+08
 
   -0.46231E+08        -0.62743E+06         0.00000E+00
   -0.62743E+06        -0.40082E+08         0.00000E+00
    0.00000E+00         0.00000E+00        -0.32852E+08
 
   -0.46104E+08        -0.58647E+06         0.00000E+00
   -0.58647E+06        -0.39838E+08         0.00000E+00
    0.00000E+00         0.00000E+00        -0.32758E+08
 
   -0.45979E+08        -0.54788E+06         0.00000E+00
   -0.54788E+06        -0.39609E+08         0.00000E+00
    0.00000E+00         0.00000E+00        -0.32667E+08
 
   -0.45854E+08        -0.51134E+06         0.00000E+00
   -0.51134E+06        -0.39394E+08         0.00000E+00
    0.00000E+00         0.00000E+00        -0.32580E+08
 
   -0.45726E+08        -0.47653E+06         0.00000E+00
   -0.47653E+06        -0.39193E+08         0.00000E+00
    0.00000E+00         0.00000E+00        -0.32496E+08
 
   -0.45594E+08        -0.44312E+06         0.00000E+00
   -0.44312E+06        -0.39005E+08         0.00000E+00
    0.00000E+00         0.00000E+00        -0.32413E+08
 
   -0.45457E+08        -0.41080E+06         0.00000E+00
   -0.41080E+06        -0.38831E+08         0.00000E+00
    0.00000E+00         0.00000E+00        -0.32333E+08
 
   -0.45311E+08        -0.37924E+06         0.00000E+00
   -0.37924E+06        -0.38668E+08         0.00000E+00
    0.00000E+00         0.00000E+00        -0.32254E+08
 
   -0.45156E+08        -0.34808E+06         0.00000E+00
   -0.34808E+06        -0.38518E+08         0.00000E+00
    0.00000E+00         0.00000E+00        -0.32176E+08
 
   -0.44990E+08        -0.31694E+06         0.00000E+00
   -0.31694E+06        -0.38381E+08         0.00000E+00
    0.00000E+00         0.00000E+00        -0.32098E+08
 
   -0.44809E+08        -0.28541E+06         0.00000E+00
   -0.28541E+06        -0.38256E+08         0.00000E+00
    0.00000E+00         0.00000E+00        -0.32020E+08
 
   -0.44612E+08        -0.25300E+06         0.00000E+00
   -0.25300E+06        -0.38143E+08         0.00000E+00
    0.00000E+00         0.00000E+00        -0.31942E+08
 
   -0.44395E+08        -0.21915E+06         0.00000E+00
   -0.21915E+06        -0.38044E+08         0.00000E+00
    0.00000E+00         0.00000E+00        -0.31863E+08
 
   -0.44155E+08        -0.18321E+06         0.00000E+00
   -0.18321E+06        -0.37959E+08         0.00000E+00
    0.00000E+00         0.00000E+00        -0.31782E+08
 
   -0.43888E+08        -0.14439E+06         0.00000E+00
   -0.14439E+06        -0.37888E+08         0.00000E+00
    0.00000E+00         0.00000E+00        -0.31699E+08
 
   -0.43590E+08        -0.10171E+06         0.00000E+00
   -0.10171E+06        -0.37834E+08         0.00000E+00
    0.00000E+00         0.00000E+00        -0.31613E+08
 
   -0.43254E+08        -0.53941E+05         0.00000E+00
   -0.53941E+05        -0.37797E+08         0.00000E+00
    0.00000E+00         0.00000E+00        -0.31524E+08
 
   -0.42875E+08         0.46550E+03         0.00000E+00
    0.46550E+03        -0.37781E+08         0.00000E+00
    0.00000E+00         0.00000E+00        -0.31430E+08
 
   -0.42444E+08         0.63518E+05         0.00000E+00
    0.63518E+05        -0.37788E+08         0.00000E+00
    0.00000E+00         0.00000E+00        -0.31331E+08
 
   -0.41952E+08         0.13786E+06         0.00000E+00
    0.13786E+06        -0.37822E+08         0.00000E+00
    0.00000E+00         0.00000E+00        -0.31226E+08
 
   -0.41386E+08         0.22702E+06         0.00000E+00
    0.22702E+06        -0.37888E+08         0.00000E+00
    0.00000E+00         0.00000E+00        -0.31113E+08
 
   -0.40731E+08         0.33584E+06         0.00000E+00
    0.33584E+06        -0.37991E+08         0.00000E+00
    0.00000E+00         0.00000E+00        -0.30990E+08
 
   -0.39967E+08         0.47104E+06         0.00000E+00
    0.47104E+06        -0.38140E+08         0.00000E+00
    0.00000E+00         0.00000E+00        -0.30855E+08
 
   -0.39069E+08         0.64224E+06         0.00000E+00
    0.64224E+06        -0.38346E+08         0.00000E+00
    0.00000E+00         0.00000E+00        -0.30706E+08
 
   -0.38002E+08         0.86359E+06         0.00000E+00
    0.86359E+06        -0.38623E+08         0.00000E+00
    0.00000E+00         0.00000E+00        -0.30538E+08
 
   -0.36720E+08         0.11566E+07         0.00000E+00
    0.11566E+07        -0.38990E+08         0.00000E+00
    0.00000E+00         0.00000E+00        -0.30347E+08
 
   -0.35156E+08         0.15551E+07         0.00000E+00
    0.15551E+07        -0.39473E+08         0.00000E+00
    0.00000E+00         0.00000E+00        -0.30125E+08
 
   -0.33212E+08         0.21154E+07         0.00000E+00
    0.21154E+07        -0.40108E+08         0.00000E+00
    0.00000E+00         0.00000E+00        -0.29859E+08
 
   -0.30739E+08         0.29358E+07         0.00000E+00
    0.29358E+07        -0.40946E+08         0.00000E+00
    0.00000E+00         0.00000E+00        -0.29529E+08
 
SCALARS stresss double 
LOOKUP_TABLE default
  -49571608.1197714     
  -50431136.1789791     
  -51221060.6033366     
  -51937652.7059366     
  -52596573.3489103     
  -53159925.3039988     
  -53635763.0723601     
  -54044528.5078849     
  -54400369.2874968     
  -54713454.4882650     
  -54991382.6663578     
  -55240005.1393990     
  -55463935.8333118     
  -55666883.1766589     
  -55851875.4801595     
  -56021419.4999690     
  -56177615.3493545     
  -56322241.8868432     
  -56456821.5438600     
  -56582670.4798017     
  -56700938.0537925     
  -56812638.3918095     
  -56918676.0343232     
  -57019867.1170979     
  -57116957.1737611     
  -57210636.3967018     
  -57301553.0176341     
  -57390325.3485681     
  -57477552.9440264     
  -57563827.2977314     
  -57649742.4672613     
  -57735906.0272755     
  -57822950.7880010     
  -57911547.7867129     
  -58002421.1769608     
  -58096365.8219181     
  -58194268.6750946     
  -58297135.4542862     
  -58406124.7678175     
  -58522592.8814242     
  -58648153.9769457     
  -58784763.5208495     
  -58934837.1232665     
  -59101425.7839746     
  -59288484.2963208     
  -59501300.5216286     
  -59747216.4140040     
  -60036906.7774881     
  -60386784.0684859     
  -60823803.5340886     
  -50656258.0593055     
  -50541601.4364429     
  -50565910.7574729     
  -50665457.8584841     
  -50797578.2946907     
  -50966896.5106803     
  -51160300.3799950     
  -51359661.4978598     
  -51556836.2562021     
  -51747805.4331145     
  -51930692.0436317     
  -52104768.2952874     
  -52269934.9708537     
  -52426437.4370880     
  -52574705.7195048     
  -52715262.4169026     
  -52848669.0984615     
  -52975495.2049428     
  -53096300.4246002     
  -53211625.2723579     
  -53321986.7104385     
  -53427876.8733904     
  -53529763.6926287     
  -53628092.6640811     
  -53723289.2824994     
  -53815761.8429105     
  -53905904.4217967     
  -53994099.9206676     
  -54080723.0963644     
  -54166143.5236583     
  -54250728.4406081     
  -54334845.4168743     
  -54418864.7580993     
  -54503161.5105265     
  -54588116.8493391     
  -54674118.5039380     
  -54761559.6619648     
  -54850835.4448016     
  -54942335.4572016     
  -55036429.8888073     
  -55133444.8114409     
  -55233618.9285384     
  -55337027.5615888     
  -55443446.8521029     
  -55552104.8750207     
  -55661210.3781427     
  -55767026.1082178     
  -55861969.9666775     
  -55930553.7120623     
  -55940316.9610279     
  -50778459.1387926     
  -50607258.0393438     
  -50462466.5872279     
  -50357876.1163157     
  -50294618.8036159     
  -50261918.0504692     
  -50255008.2228088     
  -50270959.9882098     
  -50305059.4131161     
  -50352848.3817828     
  -50410642.8689524     
  -50475557.6115641     
  -50545387.5981189     
  -50618467.9523725     
  -50693550.0642704     
  -50769702.0775063     
  -50846232.0919024     
  -50922629.9310482     
  -50998523.2872946     
  -51073644.7283836     
  -51147806.8141198     
  -51220883.2351510     
  -51292794.4102920     
  -51363496.3754525     
  -51432972.0900906     
  -51501224.4995267     
  -51568270.8424084     
  -51634137.7962944     
  -51698857.1207008     
  -51762461.4924234     
  -51824980.2359352     
  -51886434.6328421     
  -51946832.4468244     
  -52006161.2193941     
  -52064379.7690946     
  -52121407.1505961     
  -52177108.0843903     
  -52231273.5328512     
  -52283594.6551829     
  -52333627.8173628     
  -52380747.7123749     
  -52424085.1695136     
  -52462446.5474888     
  -52494214.5319399     
  -52517240.5897784     
  -52528770.2790090     
  -52525528.6093193     
  -52504325.9518633     
  -52464174.4858579     
  -52412610.0884145     
  -51097506.1085236     
  -50872962.9716830     
  -50686293.3287044     
  -50527141.7704472     
  -50391589.5278525     
  -50278949.1800682     
  -50186965.4346143     
  -50113201.4239994     
  -50055865.7602088     
  -50013207.5575479     
  -49983461.0588658     
  -49964918.4271492     
  -49955994.0488835     
  -49955258.0365620     
  -49961445.0711152     
  -49973448.2983714     
  -49990305.6931954     
  -50011183.5304530     
  -50035359.5507931     
  -50062207.1109404     
  -50091180.8523928     
  -50121804.0103335     
  -50153657.2757930     
  -50186369.0296384     
  -50219606.7334174     
  -50253069.2585029     
  -50286479.9438834     
  -50319580.1847037     
  -50352123.3631181     
  -50383868.9375419     
  -50414576.5048216     
  -50443999.6420507     
  -50471879.3215920     
  -50497936.6766865     
  -50521864.8806584     
  -50543319.8995117     
  -50561909.9028441     
  -50577183.2022712     
  -50588614.7834721     
  -50595591.8972801     
  -50597399.9194091     
  -50593210.9809196     
  -50582079.9327395     
  -50562955.0287274     
  -50534713.1395946     
  -50496226.0444430     
  -50446436.6302338     
  -50384311.3447251     
  -50308152.3988183     
  -50212541.0729681     
  -51297909.7526178     
  -51134405.3945909     
  -50975988.2098432     
  -50827254.3706953     
  -50689490.2274663     
  -50562772.4865937     
  -50447317.9024448     
  -50343114.3797423     
  -50249817.1110719     
  -50166972.2697097     
  -50094050.2460330     
  -50030450.7541712     
  -49975517.6103155     
  -49928560.1756991     
  -49888874.8097405     
  -49855762.6548454     
  -49828542.6825300     
  -49806560.3033997     
  -49789192.3551669     
  -49775849.3505652     
  -49765975.7522473     
  -49759048.8778122     
  -49754576.8826796     
  -49752096.1410158     
  -49751168.2476529     
  -49751376.7928208     
  -49752324.0109290     
  -49753627.3694635     
  -49754916.1403098     
  -49755827.9807811     
  -49756005.5437742     
  -49755093.1354447     
  -49752733.4452959     
  -49748564.3895099     
  -49742216.1367498     
  -49733308.4305152     
  -49721448.3875889     
  -49706229.0401775     
  -49687228.9944678     
  -49664013.6756040     
  -49636138.6508555     
  -49603155.3164188     
  -49564618.4983334     
  -49520093.7551930     
  -49469158.8268943     
  -49411389.2119054     
  -49346318.3084809     
  -49273396.0894000     
  -49192143.1972737     
  -49103376.2327157     
  -51411209.1456327     
  -51294847.2590838     
  -51177746.1421753     
  -51060871.7003683     
  -50945833.3630015     
  -50834046.8304927     
  -50726484.5430075     
  -50623865.0411427     
  -50526719.5476318     
  -50435378.4414484     
  -50350008.9130482     
  -50270648.7219000     
  -50197230.0300671     
  -50129597.9803084     
  -50067526.9508178     
  -50010735.3597234     
  -49958898.9865777     
  -49911662.5955051     
  -49868649.7391154     
  -49829470.7654660     
  -49793729.1601296     
  -49761026.4174516     
  -49730965.6586928     
  -49703154.2136635     
  -49677205.3680887     
  -49652739.4591140     
  -49629384.4808599     
  -49606776.3433703     
  -49584558.9130016     
  -49562383.9507733     
  -49539911.0575578     
  -49516807.7310335     
  -49492749.6386340     
  -49467421.2124070     
  -49440516.6741491     
  -49411741.5994756     
  -49380815.1226500     
  -49347472.8621480     
  -49311470.5989520     
  -49272588.6529376     
  -49230636.7714579     
  -49185459.1916504     
  -49136939.4692092     
  -49085004.9684645     
  -49029632.1786153     
  -48970857.0782559     
  -48908799.1603709     
  -48843704.0686329     
  -48775948.7190008     
  -48705631.0507711     
  -51446802.3429701     
  -51364280.1715743     
  -51277600.4587896     
  -51188332.2100189     
  -51097617.7776593     
  -51006477.1808740     
  -50915846.1290884     
  -50826520.8127715     
  -50739155.7574864     
  -50654281.9144126     
  -50572311.7891874     
  -50493548.1297458     
  -50418195.4088790     
  -50346371.6190865     
  -50278119.4064949     
  -50213416.3864141     
  -50152184.6857417     
  -50094299.7406232     
  -50039598.3359181     
  -49987885.8595947     
  -49938942.7583808     
  -49892530.2069466     
  -49848395.0304243     
  -49806273.9432100     
  -49765897.1837449     
  -49726991.6355415     
  -49689283.5302437     
  -49652500.8303177     
  -49616375.3882212     
  -49580644.9764099     
  -49545055.2787834     
  -49509361.9292522     
  -49473332.6767798     
  -49436749.7479891     
  -49399412.4674714     
  -49361140.1815616     
  -49321775.5132862     
  -49281187.9555333     
  -49239277.7901798     
  -49195980.3116630     
  -49151270.3492535     
  -49105167.1412564     
  -49057739.7203354     
  -49009113.0578787     
  -48959475.0347742     
  -48909083.2531691     
  -48858268.0238533     
  -48807425.4060163     
  -48757011.0807319     
  -48707681.1761138     
  -51427828.3466718     
  -51365893.8336358     
  -51299971.7781233     
  -51230819.7855315     
  -51159252.6487431     
  -51086023.3138580     
  -51011812.4787786     
  -50937238.4252378     
  -50862852.1479302     
  -50789132.0494910     
  -50716485.0848217     
  -50645248.6473245     
  -50575693.3487443     
  -50508026.9337216     
  -50442399.0463401     
  -50378906.4676780     
  -50317598.5316908     
  -50258482.5288257     
  -50201528.9765174     
  -50146676.6775011     
  -50093837.5134800     
  -50042900.9417551     
  -49993738.1797973     
  -49946206.0783892     
  -49900150.6977118     
  -49855410.6122257     
  -49811819.9791452     
  -49769211.4117008     
  -49727418.7023308     
  -49686279.4426255     
  -49645637.5864445     
  -49605346.0003235     
  -49565269.0412441     
  -49525285.1962510     
  -49485289.8115879     
  -49445197.9314638     
  -49404947.2589919     
  -49364501.2450956     
  -49323852.3057386     
  -49283025.1626205     
  -49242080.2927042     
  -49201117.4464128     
  -49160279.1357679     
  -49119753.8931864     
  -49079779.0134001     
  -49040642.6619455     
  -49002686.2331181     
  -48966309.8538691     
  -48931980.7267976     
  -48900191.8930098     
  -51370231.7276923     
  -51322091.7558910     
  -51270401.9898674     
  -51215731.3756953     
  -51158608.3309589     
  -51099546.9092337     
  -51039036.7583214     
  -50977532.9999309     
  -50915452.9067237     
  -50853173.8955311     
  -50791031.4550725     
  -50729318.5166418     
  -50668285.8559212     
  -50608143.2305212     
  -50549061.1326585     
  -50491173.0508785     
  -50434578.1174737     
  -50379344.0177701     
  -50325510.0530221     
  -50273090.2702320     
  -50222076.5932530     
  -50172441.9076231     
  -50124143.0665048     
  -50077123.7973384     
  -50031317.4988819     
  -49986649.9265411     
  -49943041.7704777     
  -49900411.1360370     
  -49858675.9396148     
  -49817756.2352749     
  -49777576.4883079     
  -49738067.8116105     
  -49699170.1793804     
  -49660834.6303090     
  -49623025.4693274     
  -49585722.4730946     
  -49548923.0997157     
  -49512644.6973807     
  -49476926.6991588     
  -49441832.7815574     
  -49407452.9529561     
  -49373905.5277655     
  -49341338.9418172     
  -49309933.3885411     
  -49279902.3091456     
  -49251493.7894678     
  -49224991.6445958     
  -49200715.0208696     
  -49179015.3568234     
  -49160288.3232299     
  -51286742.8039869     
  -51248730.5498782     
  -51207707.5666679     
  -51164059.0800154     
  -51118172.1334558     
  -51070420.0498341     
  -51021159.8994997     
  -50970729.9274248     
  -50919446.1600493     
  -50867599.9976260     
  -50815456.8692698     
  -50763255.4209402     
  -50711207.2837476     
  -50659497.3797197     
  -50608284.6709100     
  -50557703.2662779     
  -50507863.8149767     
  -50458855.1230411     
  -50410745.9362052     
  -50363586.8377771     
  -50317412.2177923     
  -50272242.2775171     
  -50228085.0410376     
  -50184938.3526573     
  -50142791.8448825     
  -50101628.8668529     
  -50061428.3671767     
  -50022166.7283361     
  -49983819.5521874     
  -49946363.3976630     
  -49909777.4726547     
  -49874045.2822640     
  -49839156.2352106     
  -49805107.2092281     
  -49771904.0747834     
  -49739563.1744690     
  -49708112.7529804     
  -49677594.3298528     
  -49648064.0043835     
  -49619593.6799649     
  -49592272.1940986     
  -49566206.3408926     
  -49541521.7730476     
  -49518363.7640198     
  -49496897.7887513     
  -49477309.8497645     
  -49459806.5222120     
  -49444615.0499782     
  -49431984.2042137     
  -49422180.2095650     
  -51187446.5971394     
  -51157532.0301128     
  -51125047.1299476     
  -51090290.5565598     
  -51053553.8908302     
  -51015121.5292913     
  -50975267.0738772     
  -50934250.7363378     
  -50892317.6321070     
  -50849696.4156439     
  -50806598.2846308     
  -50763216.4477590     
  -50719725.9674685     
  -50676283.9237756     
  -50633029.8570464     
  -50590086.4448581     
  -50547560.3685482     
  -50505543.3291348     
  -50464113.1773947     
  -50423335.1277428     
  -50383263.0299381     
  -50343940.6766558     
  -50305403.1286655     
  -50267678.0427354     
  -50230786.9903835     
  -50194746.7581832     
  -50159570.6224700     
  -50125269.5930040     
  -50091853.6214270     
  -50059332.7712566     
  -50027718.3467126     
  -49997023.9779173     
  -49967266.6599953     
  -49938467.7433684     
  -49910653.8721556     
  -49883857.8671172     
  -49858119.5491168     
  -49833486.4986998     
  -49810014.7471571     
  -49787769.3943222     
  -49766825.1480994     
  -49747266.7800063     
  -49729189.4898447     
  -49712699.1727021     
  -49697912.5876270     
  -49684957.4433765     
  -49673972.4197458     
  -49665107.0299133     
  -49658520.9855079     
  -49654384.8210051     
  -51080567.2355018     
  -51057353.0797968     
  -51031948.4452752     
  -51004587.0889610     
  -50975499.1444349     
  -50944908.0973878     
  -50913029.2264647     
  -50880068.1046145     
  -50846219.3362363     
  -50811665.6746859     
  -50776577.4639521     
  -50741112.3442340     
  -50705415.2054930     
  -50669618.3556822     
  -50633841.8679961     
  -50598194.0750211     
  -50562772.1808759     
  -50527662.9653207     
  -50492943.5568723     
  -50458682.2551307     
  -50424939.3855640     
  -50391768.1727428     
  -50359215.6203987     
  -50327323.3887033     
  -50296128.6608490     
  -50265664.9923994     
  -50235963.1379843     
  -50207051.8507859     
  -50178958.6509204     
  -50151710.5593029     
  -50125334.7939233     
  -50099859.4256978     
  -50075313.9912335     
  -50051730.0599937     
  -50029141.7535143     
  -50007586.2145511     
  -49987104.0243364     
  -49967739.5665395     
  -49949541.3370308     
  -49932562.1991784     
  -49916859.5851914     
  -49902495.6451127     
  -49889537.3465914     
  -49878056.5301837     
  -49868129.9248012     
  -49859839.1226477     
  -49853270.5058807     
  -49848515.1461588     
  -49845668.8085157     
  -49844831.5246676     
  -50972588.3185187     
  -50954934.8335680     
  -50935425.0813212     
  -50914245.1589000     
  -50891577.5275906     
  -50867599.7774756     
  -50842483.2485684     
  -50816391.9829610     
  -50789481.9348179     
  -50761900.3953553     
  -50733785.6338622     
  -50705266.7401429     
  -50676463.6377481     
  -50647487.2421300     
  -50618439.7389092     
  -50589414.9585005     
  -50560498.8255605     
  -50531769.8643810     
  -50503299.7439980     
  -50475153.8492494     
  -50447391.8662509     
  -50420068.3727384     
  -50393233.4254200     
  -50366933.1378990     
  -50341210.2438728     
  -50316104.6412222     
  -50291653.9133087     
  -50267893.8243306     
  -50244858.7859966     
  -50222582.2930891     
  -50201097.3257453     
  -50180436.7165169     
  -50160633.4805131     
  -50141721.1072167     
  -50123733.8129162     
  -50106706.7531434     
  -50090676.1950765     
  -50075679.6505608     
  -50061755.9712560     
  -50048945.4084041     
  -50037289.6408299     
  -50026831.7759006     
  -50017616.3290948     
  -50009689.1883622     
  -50003097.5698212     
  -49997889.9727741     
  -49994116.1446766     
  -49991827.0580083     
  -49991074.8522582     
  -49991912.8927648     
  -50868319.7905209     
  -50855210.4848606     
  -50840545.9999057     
  -50824472.8915095     
  -50807135.1849908     
  -50788673.2371353     
  -50769222.8525487     
  -50748914.5358868     
  -50727872.9173596     
  -50706216.3539905     
  -50684056.6881502     
  -50661499.1453998     
  -50638642.3544321     
  -50615578.4693027     
  -50592393.3747278     
  -50569166.9567466     
  -50545973.4228216     
  -50522881.6573839     
  -50499955.6008188     
  -50477254.6417895     
  -50454834.0145198     
  -50432745.1941640     
  -50411036.2846706     
  -50389752.3946050     
  -50368935.9972490     
  -50348627.2719714     
  -50328864.4243864     
  -50309683.9832235     
  -50291121.0721455     
  -50273209.6550118     
  -50255982.7533128     
  -50239472.6347355     
  -50223710.9720801     
  -50208728.9720616     
  -50194557.4739200     
  -50181227.0182509     
  -50168767.8870619     
  -50157210.1167743     
  -50146583.4867149     
  -50136917.4865576     
  -50128241.2671349     
  -50120583.5800030     
  -50113972.7120422     
  -50108436.4221674     
  -50104001.8876769     
  -50100695.6671972     
  -50098543.6846863     
  -50097571.2378114     
  -50097803.0474704     
  -50099263.2999828     
  -50771016.6385724     
  -50761534.2053025     
  -50750766.8327412     
  -50738828.1092716     
  -50725829.9142759     
  -50711881.6580743     
  -50697089.6042041     
  -50681556.3259745     
  -50665380.2883143     
  -50648655.5496840     
  -50631471.5770367     
  -50613913.1617224     
  -50596060.4220002     
  -50577988.8779948     
  -50559769.5852500     
  -50541469.3139091     
  -50523150.7618250     
  -50504872.7913387     
  -50486690.6809064     
  -50468656.3841431     
  -50450818.7901123     
  -50433223.9798095     
  -50415915.4747476     
  -50398934.4743481     
  -50382320.0794936     
  -50366109.5001239     
  -50350338.2451651     
  -50335040.2934164     
  -50320248.2442833     
  -50305993.4474738     
  -50292306.1109903     
  -50279215.3869658     
  -50266749.4351412     
  -50254935.4640698     
  -50243799.7504878     
  -50233367.6377175     
  -50223663.5144778     
  -50214710.7760731     
  -50206531.7706065     
  -50199147.7335985     
  -50192578.7151702     
  -50186843.5047048     
  -50181959.5585666     
  -50177942.9368974     
  -50174808.2555859     
  -50172568.6592105     
  -50171235.8202792     
  -50170819.9684389     
  -50171329.9448510     
  -50172773.2911116     
  -50682589.2354224     
  -50675922.5248874     
  -50668209.6118123     
  -50659536.6359172     
  -50649988.7897113     
  -50639649.7447071     
  -50628601.1634981     
  -50616922.2942442     
  -50604689.6536711     
  -50591976.7958126     
  -50578854.1596938     
  -50565388.9876077     
  -50551645.3045420     
  -50537683.9487467     
  -50523562.6436842     
  -50509336.1022281     
  -50495056.1548233     
  -50480771.8942837     
  -50466529.8309031     
  -50452374.0525186     
  -50438346.3850591     
  -50424486.5499060     
  -50410832.3150832     
  -50397419.6378817     
  -50384282.7970053     
  -50371454.5127253     
  -50358966.0538554     
  -50346847.3306220     
  -50335126.9727278     
  -50323832.3921033     
  -50312989.8300228     
  -50302624.3884530     
  -50292760.0457062     
  -50283419.6567090     
  -50274624.9384756     
  -50266396.4417004     
  -50258753.5097713     
  -50251714.2269398     
  -50245295.3578729     
  -50239512.2813332     
  -50234378.9212686     
  -50229907.6790942     
  -50226109.3713728     
  -50222993.1773750     
  -50220566.6010600     
  -50218835.4517120     
  -50217803.8465321     
  -50217474.2369561     
  -50217847.4603425     
  -50218922.8108730     
  -50603868.6185850     
  -50599322.6546266     
  -50593936.6629818     
  -50587774.4255816     
  -50580899.3463428     
  -50573374.0402004     
  -50565259.9725846     
  -50556617.1581074     
  -50547503.9186372     
  -50537976.6991950     
  -50528089.9378610     
  -50517895.9841590     
  -50507445.0595674     
  -50496785.2535508     
  -50485962.5485854     
  -50475020.8680042     
  -50464002.1410201     
  -50452946.3799076     
  -50441891.7649707     
  -50430874.7335659     
  -50419930.0700460     
  -50409090.9940332     
  -50398389.2449087     
  -50387855.1608155     
  -50377517.7508230     
  -50367404.7591915     
  -50357542.7209187     
  -50347957.0079576     
  -50338671.8656647     
  -50329710.4391991     
  -50321094.7897353     
  -50312845.9004993     
  -50304983.6727921     
  -50297526.9123338     
  -50290493.3064518     
  -50283899.3928575     
  -50277760.5209974     
  -50272090.8072433     
  -50266903.0854795     
  -50262208.8549561     
  -50258018.2275834     
  -50254339.8771206     
  -50251180.9929343     
  -50248547.2411136     
  -50246442.7356793     
  -50244870.0223505     
  -50243830.0768171     
  -50243322.3186593     
  -50243344.6401558     
  -50243893.4490081     
  -50534883.9722874     
  -50531883.1403911     
  -50528215.9977913     
  -50523928.5799972     
  -50519066.9436176     
  -50513676.8704268     
  -50507803.6061252     
  -50501491.6364668     
  -50494784.5022816     
  -50487724.6524481     
  -50480353.3324173     
  -50472710.5049592     
  -50464834.7992183     
  -50456763.4839155     
  -50448532.4605451     
  -50440176.2726118     
  -50431728.1272546     
  -50423219.9259735     
  -50414682.3015785     
  -50406144.6588772     
  -50397635.2170003     
  -50389181.0516178     
  -50380808.1356123     
  -50372541.3770579     
  -50364404.6535879     
  -50356420.8424464     
  -50348611.8456888     
  -50340998.6101490     
  -50333601.1419178     
  -50326438.5151939     
  -50319528.8754678     
  -50312889.4371037     
  -50306536.4754762     
  -50300485.3139226     
  -50294750.3058725     
  -50289344.8126310     
  -50284281.1774060     
  -50279570.6962940     
  -50275223.5870639     
  -50271248.9566958     
  -50267654.7687435     
  -50264447.8116694     
  -50261633.6693483     
  -50259216.6949229     
  -50257199.9891049     
  -50255585.3838317     
  -50254373.4318611     
  -50253563.4023939     
  -50253153.2823868     
  -50253139.7820667     
  -50475118.5744873     
  -50473201.9710453     
  -50470761.8466282     
  -50467830.5594352     
  -50464440.7350310     
  -50460625.0572209     
  -50456416.0798358     
  -50451846.0619639     
  -50446946.8273350     
  -50441749.6475302     
  -50436285.1477728     
  -50430583.2334203     
  -50424673.0348999     
  -50418582.8686540     
  -50412340.2116306     
  -50405971.6869312     
  -50399503.0583936     
  -50392959.2320843     
  -50386364.2629103     
  -50379741.3647928     
  -50373112.9230770     
  -50366500.5080707     
  -50359924.8888049     
  -50353406.0462893     
  -50346963.1856948     
  -50340614.7470350     
  -50334378.4140371     
  -50328271.1209973     
  -50322309.0575036     
  -50316507.6709821     
  -50310881.6670888     
  -50305445.0080200     
  -50300210.9088585     
  -50295191.8321101     
  -50290399.4806072     
  -50285844.7889747     
  -50281537.9138585     
  -50277488.2231081     
  -50273704.2840839     
  -50270193.8512210     
  -50266963.8529256     
  -50264020.3778048     
  -50261368.6601394     
  -50259013.0644039     
  -50256957.0685197     
  -50255203.2454157     
  -50253753.2423701     
  -50252607.7575551     
  -50251766.5131294     
  -50251228.2243771     
  -50423725.1609637     
  -50422535.9762537     
  -50420937.8570714     
  -50418952.9472378     
  -50416603.7851956     
  -50413913.1574443     
  -50410903.9644093     
  -50407599.1000567     
  -50404021.3458976     
  -50400193.2793191     
  -50396137.1956789     
  -50391875.0432356     
  -50387428.3697433     
  -50382818.2794090     
  -50378065.3988670     
  -50373189.8508464     
  -50368211.2342787     
  -50363148.6096918     
  -50358020.4888631     
  -50352844.8278288     
  -50347639.0224848     
  -50342419.9061397     
  -50337203.7485060     
  -50332006.2557251     
  -50326842.5711267     
  -50321727.2765116     
  -50316674.3938266     
  -50311697.3871668     
  -50306809.1650936     
  -50302022.0833004     
  -50297347.9476835     
  -50292798.0178908     
  -50288383.0114187     
  -50284113.1083041     
  -50279997.9564231     
  -50276046.6773400     
  -50272267.8725670     
  -50268669.6299803     
  -50265259.5300007     
  -50262044.6509802     
  -50259031.5730560     
  -50256226.3795319     
  -50253634.6546545     
  -50251261.4764761     
  -50249111.4033693     
  -50247188.4527173     
  -50245496.0703869     
  -50244037.0898403     
  -50242813.6802133     
  -50241827.2833389     
  -50379693.8344093     
  -50378965.2888201     
  -50377917.6742988     
  -50376565.7649008     
  -50374924.7698722     
  -50373010.2314324     
  -50370837.9295389     
  -50368423.7944486     
  -50365783.8274802     
  -50362934.0300729     
  -50359890.3409609     
  -50356668.5810835     
  -50353284.4057065     
  -50349753.2631431     
  -50346090.3594232     
  -50342310.6282526     
  -50338428.7056316     
  -50334458.9085449     
  -50330415.2171985     
  -50326311.2603443     
  -50322160.3033113     
  -50317975.2384335     
  -50313768.5776399     
  -50309552.4470422     
  -50305338.5834171     
  -50301138.3325413     
  -50296962.6493844     
  -50292822.1002037     
  -50288726.8666153     
  -50284686.7517292     
  -50280711.1884358     
  -50276809.2499123     
  -50272989.6623777     
  -50269260.8200602     
  -50265630.8022463     
  -50262107.3921602     
  -50258698.0972595     
  -50255410.1703445     
  -50252250.6306463     
  -50249226.2838053     
  -50246343.7393685     
  -50243609.4241500     
  -50241029.5895290     
  -50238610.3105378     
  -50236357.4744656     
  -50234276.7567213     
  -50232373.5819257     
  -50230653.0687086     
  -50229119.9575031     
  -50227778.5217975     
  -50341973.9044152     
  -50341513.9293189     
  -50340803.8383025     
  -50339853.2920116     
  -50338672.3690373     
  -50337271.4940028     
  -50335661.3696238     
  -50333852.9131614     
  -50331857.1975360     
  -50329685.3972200     
  -50327348.7388988     
  -50324858.4567900     
  -50322225.7524310     
  -50319461.7586950     
  -50316577.5077665     
  -50313583.9027991     
  -50310491.6929862     
  -50307311.4517952     
  -50304053.5581514     
  -50300728.1803890     
  -50297345.2628383     
  -50293914.5149568     
  -50290445.4029604     
  -50286947.1439581     
  -50283428.7026284     
  -50279898.7905192     
  -50276365.8680781     
  -50272838.1495417     
  -50269323.6108219     
  -50265830.0005240     
  -50262364.8542052     
  -50258935.5119419     
  -50255549.1392044     
  -50252212.7509393     
  -50248933.2386272     
  -50245717.3999162     
  -50242571.9702203     
  -50239503.6554204     
  -50236519.1645178     
  -50233625.2407639     
  -50230828.6894449     
  -50228136.4001547     
  -50225555.3610699     
  -50223092.6624900     
  -50220755.4867843     
  -50218551.0819505     
  -50216486.7163275     
  -50214569.6126845     
  -50212806.8609956     
  -50211205.3107050     
  -50309555.6008288     
  -50309231.8575082     
  -50308709.8240576     
  -50307995.7762493     
  -50307096.3558580     
  -50306018.5186510     
  -50304769.4849479     
  -50303356.6929660     
  -50301787.7550926     
  -50300070.4171656     
  -50298212.5207800     
  -50296221.9685951     
  -50294106.6925774     
  -50291874.6250928     
  -50289533.6727513     
  -50287091.6929057     
  -50284556.4727151     
  -50281935.7107037     
  -50279237.0007661     
  -50276467.8185989     
  -50273635.5105733     
  -50270747.2850901     
  -50267810.2064987     
  -50264831.1916886     
  -50261817.0094926     
  -50258774.2830674     
  -50255709.4954304     
  -50252628.9983450     
  -50249539.0247388     
  -50246445.7048227     
  -50243355.0860415     
  -50240273.1569230     
  -50237205.8748060     
  -50234159.1973061     
  -50231139.1172176     
  -50228151.7003534     
  -50225203.1255777     
  -50222299.7259996     
  -50219448.0299637     
  -50216654.8001102     
  -50213927.0683879     
  -50211272.1645222     
  -50208697.7350917     
  -50206211.7501051     
  -50203822.4938486     
  -50201538.5368811     
  -50199368.6864588     
  -50197321.9134750     
  -50195407.2552541     
  -50193633.6952587     
  -50281519.4535251     
  -50281245.6909072     
  -50280811.8562312     
  -50280222.1173972     
  -50279480.9390491     
  -50278593.0429637     
  -50277563.3706574     
  -50276397.0483167     
  -50275099.3541045     
  -50273675.6878455     
  -50272131.5430572     
  -50270472.4812707     
  -50268704.1085714     
  -50266832.0542898     
  -50264861.9517783     
  -50262799.4212260     
  -50260650.0544828     
  -50258419.4018906     
  -50256112.9611473     
  -50253736.1682580     
  -50251294.3906628     
  -50248792.9226583     
  -50246236.9832616     
  -50243631.7166949     
  -50240982.1956885     
  -50238293.4278244     
  -50235570.3651479     
  -50232817.9172801     
  -50230040.9682504     
  -50227244.3972416     
  -50224433.1033897     
  -50221612.0347125     
  -50218786.2211348     
  -50215960.8114460     
  -50213141.1138478     
  -50210332.6395343     
  -50207541.1484828     
  -50204772.6963218     
  -50202033.6807929     
  -50199330.8859323     
  -50196671.5216937     
  -50194063.2563301     
  -50191514.2384948     
  -50189033.1057534     
  -50186628.9760896     
  -50184311.4191131     
  -50182090.4041339     
  -50179976.2231352     
  -50177979.3880281     
  -50176110.5034098     
  -50257061.2587382     
  -50256785.5307919     
  -50256377.4512040     
  -50255839.9863290     
  -50255176.3249136     
  -50254389.8456909     
  -50253484.0874474     
  -50252462.7216350     
  -50251329.5275110     
  -50250088.3697208     
  -50248743.1781959     
  -50247297.9302221     
  -50245756.6345278     
  -50244123.3172623     
  -50242402.0097521     
  -50240596.7379587     
  -50238711.5135972     
  -50236750.3269124     
  -50234717.1411500     
  -50232615.8887985     
  -50230450.4697168     
  -50228224.7512963     
  -50225942.5708411     
  -50223607.7403746     
  -50221224.0541101     
  -50218795.2988325     
  -50216325.2674530     
  -50213817.7759921     
  -50211276.6842309     
  -50208705.9202397     
  -50206109.5089359     
  -50203491.6047486     
  -50200856.5283542     
  -50198208.8073088     
  -50195553.2202166     
  -50192894.8438506     
  -50190239.1023680     
  -50187591.8174461     
  -50184959.2578032     
  -50182348.1861753     
  -50179765.9014062     
  -50177220.2729053     
  -50174719.7643672     
  -50172273.4433848     
  -50169890.9734861     
  -50167582.5852667     
  -50165359.0237672     
  -50163231.4701406     
  -50161211.4370419     
  -50159310.6390529     
  -50235499.7360468     
  -50235194.6529493     
  -50234777.0774165     
  -50234249.3874592     
  -50233614.1120374     
  -50232873.9024345     
  -50232031.5066618     
  -50231089.7469733     
  -50230051.5004258     
  -50228919.6823129     
  -50227697.2322373     
  -50226387.1025634     
  -50224992.2489896     
  -50223515.6230087     
  -50221960.1660604     
  -50220328.8052297     
  -50218624.4503969     
  -50216849.9927981     
  -50215008.3050095     
  -50213102.2424194     
  -50211134.6462963     
  -50209108.3486085     
  -50207026.1787840     
  -50204890.9726334     
  -50202705.5836844     
  -50200472.8971912     
  -50198195.8470922     
  -50195877.4361843     
  -50193520.7597645     
  -50191129.0329545     
  -50188705.6218679     
  -50186254.0786985     
  -50183778.1806969     
  -50181281.9728589     
  -50178769.8139653     
  -50176246.4253846     
  -50173716.9417819     
  -50171186.9625593     
  -50168662.6024962     
  -50166150.5396701     
  -50163658.0583301     
  -50161193.0840018     
  -50158764.2077491     
  -50156380.6962687     
  -50154052.4843963     
  -50151790.1467574     
  -50149604.8457728     
  -50147508.2541231     
  -50145512.4511566     
  -50143629.7945826     
  -50216272.7550237     
  -50215927.7147879     
  -50215484.3360360     
  -50214944.7980654     
  -50214311.3673284     
  -50213586.3704770     
  -50212772.1710900     
  -50211871.1501925     
  -50210885.6904711     
  -50209818.1639369     
  -50208670.9227013     
  -50207446.2924889     
  -50206146.5685131     
  -50204774.0133732     
  -50203330.8566789     
  -50201819.2961712     
  -50200241.5001762     
  -50198599.6112975     
  -50196895.7513150     
  -50195132.0273255     
  -50193310.5392128     
  -50191433.3885870     
  -50189502.6893756     
  -50187520.5802865     
  -50185489.2393875     
  -50183410.9010704     
  -50181287.8756718     
  -50179122.5720236     
  -50176917.5231829     
  -50174675.4155613     
  -50172399.1216127     
  -50170091.7361624     
  -50167756.6163467     
  -50165397.4249938     
  -50163018.1770940     
  -50160623.2887874     
  -50158217.6280346     
  -50155806.5658264     
  -50153396.0264461     
  -50150992.5349200     
  -50148603.2594006     
  -50146236.0458485     
  -50143899.4420406     
  -50141602.7076959     
  -50139355.8074244     
  -50137169.3833549     
  -50135054.7047698     
  -50133023.5929420     
  -50131088.3207058     
  -50129261.4880945     
  -50198926.7057627     
  -50198541.9196111     
  -50198068.9493440     
  -50197510.0008993     
  -50196867.3135798     
  -50196143.1336012     
  -50195339.6919386     
  -50194459.1866178     
  -50193503.7693388     
  -50192475.5361212     
  -50191376.5215506     
  -50190208.6961498     
  -50188973.9663961     
  -50187674.1769402     
  -50186311.1146421     
  -50184886.5141087     
  -50183402.0645008     
  -50181859.4174544     
  -50180260.1960387     
  -50178606.0047478     
  -50176898.4405838     
  -50175139.1053493     
  -50173329.6193161     
  -50171471.6364733     
  -50169566.8615948     
  -50167617.0693811     
  -50165624.1259450     
  -50163590.0129049     
  -50161516.8543350     
  -50159406.9467842     
  -50157262.7925262     
  -50155087.1361196     
  -50152883.0042566     
  -50150653.7487376     
  -50148403.0922394     
  -50146135.1763324     
  -50143854.6109483     
  -50141566.5242119     
  -50139276.6112165     
  -50136991.1799706     
  -50134717.1923682     
  -50132462.2976798     
  -50130234.8557418     
  -50128043.9468005     
  -50125899.3648888     
  -50123811.5917633     
  -50121791.7488787     
  -50119851.5257078     
  -50118003.0839822     
  -50116258.9391427     
  -50183102.3832766     
  -50182684.4428550     
  -50182185.7803868     
  -50181608.7380107     
  -50180955.6481492     
  -50180228.8070379     
  -50179430.4530578     
  -50178562.7500551     
  -50177627.7755247     
  -50176627.5133082     
  -50175563.8503149     
  -50174438.5767114     
  -50173253.3890161     
  -50172009.8955713     
  -50170709.6239284     
  -50169354.0297620     
  -50167944.5070158     
  -50166482.3990744     
  -50164969.0108359     
  -50163405.6216462     
  -50161793.4991209     
  -50160133.9139472     
  -50158428.1558106     
  -50156677.5506323     
  -50154883.4793406     
  -50153047.3984180     
  -50151170.8624805     
  -50149255.5491432     
  -50147303.2864101     
  -50145316.0827952     
  -50143296.1603304     
  -50141245.9905407     
  -50139168.3333688     
  -50137066.2789005     
  -50134943.2915800     
  -50132803.2564030     
  -50130650.5263425     
  -50128489.9699825     
  -50126327.0180301     
  -50124167.7070407     
  -50122018.7183437     
  -50119887.4098219     
  -50117781.8379024     
  -50115710.7669093     
  -50113683.6628609     
  -50111710.6689346     
  -50109802.5602484     
  -50107970.6763872     
  -50106226.8312923     
  -50104583.2017363     
  -50168519.7343683     
  -50168078.4498392     
  -50167562.1825289     
  -50166973.4427340     
  -50166314.6982965     
  -50165588.3480108     
  -50164796.7001908     
  -50163941.9566155     
  -50163026.2017290     
  -50162051.3967157     
  -50161019.3779161     
  -50159931.8589718     
  -50158790.4360741     
  -50157596.5957281     
  -50156351.7245097     
  -50155057.1203738     
  -50153714.0051710     
  -50152323.5381188     
  -50150886.8300690     
  -50149404.9584931     
  -50147878.9831872     
  -50146309.9627609     
  -50144698.9720314     
  -50143047.1204912     
  -50141355.5720505     
  -50139625.5662814     
  -50137858.4414027     
  -50136055.6592456     
  -50134218.8324259     
  -50132349.7539191     
  -50130450.4291873     
  -50128523.1109377     
  -50126570.3364989     
  -50124594.9676799     
  -50122600.2328250     
  -50120589.7705927     
  -50118567.6747649     
  -50116538.5391387     
  -50114507.5012657     
  -50112480.2834951     
  -50110463.2294543     
  -50108463.3337916     
  -50106488.2627337     
  -50104546.3628197     
  -50102646.6551106     
  -50100798.8123105     
  -50099013.1166254     
  -50097300.3969150     
  -50095671.9447926     
  -50094139.4108153     
  -50154962.9998992     
  -50154509.2478575     
  -50153985.2235186     
  -50153393.5887122     
  -50152736.9394207     
  -50152017.7792073     
  -50151238.4980083     
  -50150401.3565336     
  -50149508.4761548     
  -50148561.8338878     
  -50147563.2619110     
  -50146514.4509731     
  -50145416.9570293     
  -50144272.2104781     
  -50143081.5274366     
  -50141846.1225774     
  -50140567.1231479     
  -50139245.5838878     
  -50137882.5026555     
  -50136478.8366582     
  -50135035.5192638     
  -50133553.4774336     
  -50132033.6498764     
  -50130477.0060715     
  -50128884.5663416     
  -50127257.4231831     
  -50125596.7640764     
  -50123903.8959979     
  -50122180.2718455     
  -50120427.5189623     
  -50118647.4698997     
  -50116842.1954950     
  -50115014.0402559     
  -50113165.6599303     
  -50111300.0609986     
  -50109420.6416577     
  -50107531.2336580     
  -50105636.1441248     
  -50103740.1962281     
  -50101848.7672817     
  -50099967.8225582     
  -50098103.9428189     
  -50096264.3433149     
  -50094456.8818328     
  -50092690.0533109     
  -50090972.9686719     
  -50089315.3158818     
  -50087727.3019120     
  -50086219.5752969     
  -50084803.1303392     
  -50142267.1655749     
  -50141811.5120045     
  -50141289.7446360     
  -50140704.6328720     
  -50140058.8649065     
  -50139355.0214472     
  -50138595.5548611     
  -50137782.7740051     
  -50136918.8346249     
  -50136005.7349313     
  -50135045.3157840     
  -50134039.2648282     
  -50132989.1239038     
  -50131896.2990845     
  -50130762.0727631     
  -50129587.6172879     
  -50128374.0097507     
  -50127122.2476205     
  -50125833.2650150     
  -50124507.9494852     
  -50123147.1592686     
  -50121751.7410333     
  -50120322.5481915     
  -50118860.4599119     
  -50117366.4009892     
  -50115841.3627638     
  -50114286.4252895     
  -50112702.7809584     
  -50111091.7597765     
  -50109454.8564614     
  -50107793.7594947     
  -50106110.3822020     
  -50104406.8958542     
  -50102685.7646824     
  -50100949.7825694     
  -50099202.1110248     
  -50097446.3178637     
  -50095686.4157949     
  -50093926.8998850     
  -50092172.7826022     
  -50090429.6248773     
  -50088703.5613583     
  -50087001.3178100     
  -50085330.2184491     
  -50083698.1809581     
  -50082113.6970340     
  -50080585.7966604     
  -50079123.9948979     
  -50077738.2209171     
  -50076438.7302349     
  -50130306.1849521     
  -50129858.0823618     
  -50129347.7836346     
  -50128778.1093624     
  -50128151.7901869     
  -50127471.4411368     
  -50126739.5413219     
  -50125958.4192512     
  -50125130.2436689     
  -50124257.0195230     
  -50123340.5885085     
  -50122382.6335304     
  -50121384.6864147     
  -50120348.1382210     
  -50119274.2515736     
  -50118164.1745104     
  -50117018.9554436     
  -50115839.5589159     
  -50114626.8819347     
  -50113381.7707457     
  -50112105.0379865     
  -50110797.4802265     
  -50109459.8959566     
  -50108093.1041349     
  -50106697.9634345     
  -50105275.3923613     
  -50103826.3904259     
  -50102352.0605565     
  -50100853.6329333     
  -50099332.4904009     
  -50097790.1955818     
  -50096228.5197590     
  -50094649.4735256     
  -50093055.3391042     
  -50091448.7041255     
  -50089832.4965077     
  -50088210.0199148     
  -50086584.9890735     
  -50084961.5640114     
  -50083344.3820419     
  -50081738.5860804     
  -50080149.8476366     
  -50078584.3826274     
  -50077048.9580082     
  -50075550.8871752     
  -50074098.0121999     
  -50072698.6712507     
  -50071361.6501144     
  -50070096.1175661     
  -50068911.5454604     
  -50118983.1284884     
  -50118550.5221746     
  -50118059.5856970     
  -50117513.1319662     
  -50116913.8804518     
  -50116264.4324526     
  -50115567.2515508     
  -50114824.6495190     
  -50114038.7775793     
  -50113211.6226509     
  -50112345.0080403     
  -50111440.5979456     
  -50110499.9051167     
  -50109524.3010439     
  -50108515.0281016     
  -50107473.2131572     
  -50106399.8822400     
  -50105295.9759587     
  -50104162.3654419     
  -50102999.8686589     
  -50101809.2670528     
  -50100591.3224763     
  -50099346.7944826     
  -50098076.4580600     
  -50096781.1219395     
  -50095461.6476239     
  -50094118.9693064     
  -50092754.1148463     
  -50091368.2279664     
  -50089962.5918159     
  -50088538.6540103     
  -50087098.0532134     
  -50085642.6472595     
  -50084174.5427326     
  -50082696.1258110     
  -50081210.0940577     
  -50079719.4886863     
  -50078227.7266533     
  -50076738.6317319     
  -50075256.4635092     
  -50073785.9430292     
  -50072332.2735908     
  -50070901.1550258     
  -50069498.7896525     
  -50068131.8780593     
  -50066807.6029687     
  -50065533.5996991     
  -50064317.9122453     
  -50063168.9347478     
  -50062095.3391387     
  -50108222.2115732     
  -50107811.4241255     
  -50107346.2235344     
  -50106829.3598334     
  -50106263.4901330     
  -50105651.1551075     
  -50104994.7604127     
  -50104296.5632927     
  -50103558.6642891     
  -50102783.0037054     
  -50101971.3623137     
  -50101125.3657012     
  -50100246.4916316     
  -50099336.0798208     
  -50098395.3435768     
  -50097425.3828332     
  -50096427.1981825     
  -50095401.7056087     
  -50094349.7516951     
  -50093272.1291636     
  -50092169.5926714     
  -50091042.8748492     
  -50089892.7026178     
  -50088719.8138618     
  -50087524.9745702     
  -50086308.9965781     
  -50085072.7560586     
  -50083817.2129163     
  -50082543.4312315     
  -50081252.6008836     
  -50079946.0604586     
  -50078625.3214966     
  -50077292.0940832     
  -50075948.3137090     
  -50074596.1692263     
  -50073238.1316203     
  -50071876.9831706     
  -50070515.8464222     
  -50069158.2122092     
  -50067807.9657817     
  -50066469.4098884     
  -50065147.2834798     
  -50063846.7745260     
  -50062573.5253323     
  -50061333.6286951     
  -50060133.6133276     
  -50058980.4172251     
  -50057881.3480893     
  -50056844.0306047     
  -50055876.3412706     
  -50097962.5352694     
  -50097578.3289963     
  -50097143.7220000     
  -50096661.3533167     
  -50096133.7725126     
  -50095563.4176251     
  -50094952.5977172     
  -50094303.4802942     
  -50093618.0835045     
  -50092898.2728001     
  -50092145.7615810     
  -50091362.1152576     
  -50090548.7581471     
  -50089706.9826377     
  -50088837.9601052     
  -50087942.7531338     
  -50087022.3286740     
  -50086077.5718435     
  -50085109.3001622     
  -50084118.2780767     
  -50083105.2317009     
  -50082070.8637483     
  -50081015.8686872     
  -50079940.9481817     
  -50078846.8269168     
  -50077734.2689250     
  -50076604.0945474     
  -50075457.1981650     
  -50074294.5668333     
  -50073117.2999361     
  -50071926.6299539     
  -50070723.9443979     
  -50069510.8089131     
  -50068288.9914856     
  -50067060.4876022     
  -50065827.5461105     
  -50064592.6954008     
  -50063358.7693944     
  -50062128.9326609     
  -50060906.7038176     
  -50059695.9761878     
  -50058501.0345238     
  -50057326.5664527     
  -50056177.6671992     
  -50055059.8361054     
  -50053978.9635440     
  -50052941.3070383     
  -50051953.4557982     
  -50051022.2834866     
  -50050154.8898410     
  -50088153.3129907     
  -50087799.0560110     
  -50087398.5134579     
  -50086954.1737879     
  -50086468.4414869     
  -50085943.6166481     
  -50085381.8788063     
  -50084785.2752584     
  -50084155.7138027     
  -50083494.9595989     
  -50082804.6357110     
  -50082086.2268124     
  -50081341.0855140     
  -50080570.4407913     
  -50079775.4080336     
  -50078957.0003000     
  -50078116.1404387     
  -50077253.6737968     
  -50076370.3813216     
  -50075466.9929182     
  -50074544.2009871     
  -50073602.6741194     
  -50072643.0709692     
  -50071666.0543575     
  -50070672.3056938     
  -50069662.5398176     
  -50068637.5203774     
  -50067598.0758693     
  -50066545.1164507     
  -50065479.6516375     
  -50064402.8089651     
  -50063315.8536632     
  -50062220.2093469     
  -50061117.4796678     
  -50060009.4707910     
  -50058898.2144751     
  -50057785.9914203     
  -50056675.3544272     
  -50055569.1507651     
  -50054470.5429984     
  -50053383.0273630     
  -50052310.4486324     
  -50051257.0102812     
  -50050227.2786621     
  -50049226.1798822     
  -50048258.9881300     
  -50047331.3043987     
  -50046449.0249006     
  -50045618.2990062     
  -50044845.4772570     
  -50078750.3361107     
  -50078428.2192447     
  -50078064.0207116     
  -50077660.0475155     
  -50077218.5295237     
  -50076741.6008159     
  -50076231.2849042     
  -50075689.4840347     
  -50075117.9725102     
  -50074518.3937656     
  -50073892.2607981     
  -50073240.9594795     
  -50072565.7542604     
  -50071867.7957894     
  -50071148.1300117     
  -50070407.7083690     
  -50069647.3987850     
  -50068867.9971866     
  -50068070.2393772     
  -50067254.8131347     
  -50066422.3704637     
  -50065573.5399761     
  -50064708.9394143     
  -50063829.1883654     
  -50062934.9212365     
  -50062026.8005850     
  -50061105.5309046     
  -50060171.8729743     
  -50059226.6588760     
  -50058270.8077723     
  -50057305.3425197     
  -50056331.4071593     
  -50055350.2852909     
  -50054363.4192778     
  -50053372.4301688     
  -50052379.1381380     
  -50051385.5831507     
  -50050394.0454496     
  -50049407.0653331     
  -50048427.4615636     
  -50047458.3476031     
  -50046503.1447423     
  -50045565.5910707     
  -50044649.7451539     
  -50043759.9832588     
  -50042900.9890236     
  -50042077.7346395     
  -50041295.4529211     
  -50040559.6001134     
  -50039875.8099167     
  -50069713.4373050     
  -50069424.7058495     
  -50069098.1612431     
  -50068735.9062428     
  -50068339.9740895     
  -50067912.3117185     
  -50067454.7664397     
  -50066969.0762777     
  -50066456.8639177     
  -50065919.6340187     
  -50065358.7735362     
  -50064775.5546336     
  -50064171.1397412     
  -50063546.5883365     
  -50062902.8650536     
  -50062240.8487827     
  -50061561.3424757     
  -50060865.0834303     
  -50060152.7538888     
  -50059424.9918330     
  -50058682.4019113     
  -50057925.5664714     
  -50057155.0567100     
  -50056371.4439783     
  -50055575.3113061     
  -50054767.2652240     
  -50053947.9479725     
  -50053118.0501923     
  -50052278.3241871     
  -50051429.5978406     
  -50050572.7892539     
  -50049708.9221400     
  -50048839.1419814     
  -50047964.7329065     
  -50047087.1351841     
  -50046207.9631634     
  -50045329.0234052     
  -50044452.3326483     
  -50043580.1351507     
  -50042714.9188254     
  -50041859.4294702     
  -50041016.6822719     
  -50040189.9696660     
  -50039382.8645577     
  -50038599.2178891     
  -50037843.1495858     
  -50037119.0320641     
  -50036431.4657510     
  -50035785.2464792     
  -50035185.3251748     
  -50061004.7316866     
  -50060749.9091519     
  -50060461.5797895     
  -50060141.6263152     
  -50059791.8699320     
  -50059414.0554543     
  -50059009.8394955     
  -50058580.7818873     
  -50058128.3402805     
  -50057653.8677193     
  -50057158.6128738     
  -50056643.7225583     
  -50056110.2461480     
  -50055559.1415170     
  -50054991.2821515     
  -50054407.4651395     
  -50053808.4197824     
  -50053194.8166320     
  -50052567.2768010     
  -50051926.3814464     
  -50051272.6813643     
  -50050606.7066722     
  -50049928.9765880     
  -50049240.0093361     
  -50048540.3322370     
  -50047830.4920468     
  -50047111.0656230     
  -50046382.6710012     
  -50045645.9789579     
  -50044901.7251339     
  -50044150.7227741     
  -50043393.8761168     
  -50042632.1944370     
  -50041866.8067082     
  -50041098.9767931     
  -50040330.1190173     
  -50039561.8139034     
  -50038795.8237598     
  -50038034.1077259     
  -50037278.8357696     
  -50036532.4010330     
  -50035797.4298148     
  -50035076.7883943     
  -50034373.5858351     
  -50033691.1718878     
  -50033033.1291544     
  -50032403.2588012     
  -50031805.5593423     
  -50031244.1983735     
  -50030723.4776085     
  -50052587.4449261     
  -50052366.5354419     
  -50052116.4385643     
  -50051838.8069051     
  -50051535.2396625     
  -50051207.2696839     
  -50050856.3531876     
  -50050483.8622841     
  -50050091.0802585     
  -50049679.1994279     
  -50049249.3213050     
  -50048802.4587431     
  -50048339.5397269     
  -50047861.4124842     
  -50047368.8516164     
  -50046862.5649899     
  -50046343.2011673     
  -50045811.3572060     
  -50045267.5866949     
  -50044712.4079379     
  -50044146.3122318     
  -50043569.7722171     
  -50042983.2503060     
  -50042387.2072178     
  -50041782.1106631     
  -50041168.4442389     
  -50040546.7165968     
  -50039917.4709564     
  -50039281.2950299     
  -50038638.8314215     
  -50037990.7885478     
  -50037337.9521098     
  -50036681.1971210     
  -50036021.5004595     
  -50035359.9538705     
  -50034697.7772942     
  -50034036.3323284     
  -50033377.1355687     
  -50032721.8714814     
  -50032072.4043837     
  -50031430.7890130     
  -50030799.2790783     
  -50030180.3331147     
  -50029576.6169030     
  -50028991.0017042     
  -50028426.5575877     
  -50027886.5412450     
  -50027374.3778773     
  -50026893.6370466     
  -50026448.0027875     
  -50044425.1693790     
  -50044237.8323271     
  -50044025.6205838     
  -50043789.9510265     
  -50043532.1951249     
  -50043253.6679480     
  -50042955.6194275     
  -50042639.2279968     
  -50042305.5965704     
  -50041955.7507069     
  -50041590.6387255     
  -50041211.1335022     
  -50040818.0356618     
  -50040412.0778875     
  -50039993.9300962     
  -50039564.2052570     
  -50039123.4656678     
  -50038672.2295432     
  -50038210.9778020     
  -50037740.1609792     
  -50037260.2062152     
  -50036771.5243044     
  -50036274.5168071     
  -50035769.5832462     
  -50035257.1284289     
  -50034737.5699387     
  -50034211.3458552     
  -50033678.9227589     
  -50033140.8040788     
  -50032597.5388341     
  -50032049.7308104     
  -50031498.0481969     
  -50030943.2336880     
  -50030386.1150211     
  -50029827.6158948     
  -50029268.7671565     
  -50028710.7181058     
  -50028154.7476957     
  -50027602.2753439     
  -50027054.8709989     
  -50026514.2640265     
  -50025982.3504084     
  -50025461.1976830     
  -50024953.0470119     
  -50024460.3117393     
  -50023985.5718407     
  -50023531.5637481     
  -50023101.1652019     
  -50022697.3750333     
  -50022323.2881188     
  -50036481.4203958     
  -50036327.1154978     
  -50036152.2281990     
  -50035957.9372218     
  -50035745.3836820     
  -50035515.6620305     
  -50035269.8128561     
  -50035008.8176477     
  -50034733.5954834     
  -50034445.0015153     
  -50034143.8270629     
  -50033830.8010862     
  -50033506.5928077     
  -50033171.8152516     
  -50032827.0294959     
  -50032472.7494512     
  -50032109.4470164     
  -50031737.5574887     
  -50031357.4851374     
  -50030969.6088774     
  -50030574.2880055     
  -50030171.8679827     
  -50029762.6862664     
  -50029347.0782100     
  -50028925.3830611     
  -50028497.9500972     
  -50028065.1449445     
  -50027627.3561275     
  -50027185.0018955     
  -50026738.5373694     
  -50026288.4620420     
  -50025835.3276526     
  -50025379.7464400     
  -50024922.3997521     
  -50024464.0469656     
  -50024005.5346273     
  -50023547.8056921     
  -50023091.9086790     
  -50022639.0065152     
  -50022190.3847746     
  -50021747.4589605     
  -50021311.7804159     
  -50020885.0404000     
  -50020469.0718245     
  -50020065.8481348     
  -50019677.4788418     
  -50019306.2012841     
  -50018954.3683285     
  -50018624.4319285     
  -50018318.9227268     
  -50028719.3935245     
  -50028597.4975856     
  -50028459.2839535     
  -50028305.6928981     
  -50028137.6346247     
  -50027955.9821320     
  -50027761.5655489     
  -50027555.1680181     
  -50027337.5231025     
  -50027109.3136080     
  -50026871.1716727     
  -50026623.6799443     
  -50026367.3736598     
  -50026102.7434473     
  -50025830.2386881     
  -50025550.2712910     
  -50025263.2197626     
  -50024969.4334760     
  -50024669.2370657     
  -50024362.9349000     
  -50024050.8156001     
  -50023733.1565938     
  -50023410.2287053     
  -50023082.3007960     
  -50022749.6444806     
  -50022412.5389480     
  -50022071.2759246     
  -50021726.1648154     
  -50021377.5380614     
  -50021025.7567459     
  -50020671.2164770     
  -50020314.3535624     
  -50019955.6514809     
  -50019595.6476342     
  -50019234.9403420     
  -50018874.1960138     
  -50018514.1563989     
  -50018155.6457770     
  -50017799.5779093     
  -50017446.9625228     
  -50017098.9110520     
  -50016756.6413166     
  -50016421.4807704     
  -50016094.8679286     
  -50015778.3515678     
  -50015473.5873112     
  -50015182.3312661     
  -50014906.4304821     
  -50014647.8101582     
  -50014408.4577364     
  -50021101.8481938     
  -50021011.7464171     
  -50020909.5631368     
  -50020796.0010664     
  -50020671.7401258     
  -50020537.4321991     
  -50020393.6969916     
  -50020241.1190344     
  -50020080.2458120     
  -50019911.5869355     
  -50019735.6142466     
  -50019552.7627209     
  -50019363.4320337     
  -50019167.9886539     
  -50018966.7683473     
  -50018760.0789806     
  -50018548.2035399     
  -50018331.4032909     
  -50018109.9210313     
  -50017883.9843952     
  -50017653.8091891     
  -50017419.6027518     
  -50017181.5673360     
  -50016939.9035261     
  -50016694.8137075     
  -50016446.5056112     
  -50016195.1959592     
  -50015941.1142389     
  -50015684.5066342     
  -50015425.6401368     
  -50015164.8068596     
  -50014902.3285632     
  -50014638.5614002     
  -50014373.9008659     
  -50014108.7869285     
  -50013843.7092923     
  -50013579.2127229     
  -50013315.9023337     
  -50013054.4487048     
  -50012795.5926692     
  -50012540.1495656     
  -50012289.0127243     
  -50012043.1559212     
  -50011803.6345103     
  -50011571.5849420     
  -50011348.2223777     
  -50011134.8361566     
  -50010932.7829393     
  -50010743.4774657     
  -50010568.3810171     
  -50013591.0643478     
  -50013532.2199482     
  -50013465.5063794     
  -50013391.3901232     
  -50013310.3218892     
  -50013222.7332557     
  -50013129.0340364     
  -50013029.6104028     
  -50012924.8237379     
  -50012815.0101686     
  -50012700.4807001     
  -50012581.5218656     
  -50012458.3968007     
  -50012331.3466556     
  -50012200.5922669     
  -50012066.3360201     
  -50011928.7638451     
  -50011788.0472993     
  -50011644.3457047     
  -50011497.8083151     
  -50011348.5764988     
  -50011196.7859320     
  -50011042.5688035     
  -50010886.0560377     
  -50010727.3795476     
  -50010566.6745327     
  -50010404.0818389     
  -50010239.7503993     
  -50010073.8397714     
  -50009906.5227918     
  -50009737.9883559     
  -50009568.4443374     
  -50009398.1206465     
  -50009227.2724229     
  -50009056.1833467     
  -50008885.1690400     
  -50008714.5805127     
  -50008544.8075934     
  -50008376.2822606     
  -50008209.4817738     
  -50008044.9314758     
  -50007883.2071185     
  -50007724.9365450     
  -50007570.8005411     
  -50007421.5326696     
  -50007277.9178991     
  -50007140.7898662     
  -50007011.0266513     
  -50006889.5450166     
  -50006777.2931464     
  -50006148.8354997     
  -50006120.8415156     
  -50006089.1762767     
  -50006054.0711763     
  -50006015.7486514     
  -50005974.4206925     
  -50005930.2877155     
  -50005883.5377988     
  -50005834.3462669     
  -50005782.8755910     
  -50005729.2755663     
  -50005673.6837232     
  -50005616.2259295     
  -50005557.0171405     
  -50005496.1622618     
  -50005433.7570922     
  -50005369.8893194     
  -50005304.6395488     
  -50005238.0823486     
  -50005170.2873019     
  -50005101.3200591     
  -50005031.2433872     
  -50004960.1182192     
  -50004888.0047050     
  -50004814.9632697     
  -50004741.0556881     
  -50004666.3461823     
  -50004590.9025510     
  -50004514.7973404     
  -50004438.1090644     
  -50004360.9234806     
  -50004283.3349290     
  -50004205.4477334     
  -50004127.3776678     
  -50004049.2534790     
  -50003971.2184587     
  -50003893.4320432     
  -50003816.0714195     
  -50003739.3331018     
  -50003663.4344359     
  -50003588.6149779     
  -50003515.1376825     
  -50003443.2898292     
  -50003373.3836026     
  -50003305.7562429     
  -50003240.7696792     
  -50003178.8095657     
  -50003120.2836554     
  -50003065.6194712     
  -50003015.2612664     
  -49998736.4750881     
  -49998739.0920415     
  -49998742.2345365     
  -49998745.8993718     
  -49998750.0810581     
  -49998754.7721921     
  -49998759.9638312     
  -49998765.6458474     
  -49998771.8072451     
  -49998778.4364372     
  -49998785.5214747     
  -49998793.0502319     
  -49998801.0105480     
  -49998809.3903304     
  -49998818.1776227     
  -49998827.3606432     
  -49998836.9277956     
  -49998846.8676590     
  -49998857.1689556     
  -49998867.8205032     
  -49998878.8111502     
  -49998890.1296968     
  -49998901.7648015     
  -49998913.7048740     
  -49998925.9379537     
  -49998938.4515737     
  -49998951.2326096     
  -49998964.2671131     
  -49998977.5401296     
  -49998991.0355007     
  -49999004.7356509     
  -49999018.6213622     
  -49999032.6715363     
  -49999046.8629511     
  -49999061.1700137     
  -49999075.5645208     
  -49999090.0154314     
  -49999104.4886670     
  -49999118.9469502     
  -49999133.3497013     
  -49999147.6530071     
  -49999161.8096863     
  -49999175.7694697     
  -49999189.4793152     
  -49999202.8838778     
  -49999215.9261423     
  -49999228.5482240     
  -49999240.6923245     
  -49999252.3018122     
  -49999263.3223718     
  -49991314.8233161     
  -49991348.0058431     
  -49991385.9258376     
  -49991428.3450060     
  -49991475.0293562     
  -49991525.7514407     
  -49991580.2922383     
  -49991638.4426298     
  -49991700.0044574     
  -49991764.7911817     
  -49991832.6281716     
  -49991903.3526697     
  -49991976.8134817     
  -49992052.8704386     
  -49992131.3936785     
  -49992212.2627860     
  -49992295.3658262     
  -49992380.5983001     
  -49992467.8620432     
  -49992557.0640820     
  -49992648.1154588     
  -49992740.9300285     
  -49992835.4232285     
  -49992931.5108179     
  -49993029.1075805     
  -49993128.1259830     
  -49993228.4747804     
  -49993330.0575572     
  -49993432.7711972     
  -49993536.5042717     
  -49993641.1353432     
  -49993746.5311788     
  -49993852.5448793     
  -49993959.0139301     
  -49994065.7581905     
  -49994172.5778463     
  -49994279.2513623     
  -49994385.5334802     
  -49994491.1533267     
  -49994595.8127052     
  -49994699.1846621     
  -49994800.9124323     
  -49994900.6088787     
  -49994997.8565463     
  -49995092.2084537     
  -49995183.1897285     
  -49995270.3001740     
  -49995353.0178071     
  -49995430.8033468     
  -49995503.1055511     
  -49983844.2493048     
  -49983908.1641778     
  -49983981.0618547     
  -49984062.4672306     
  -49984151.9160889     
  -49984248.9592284     
  -49984353.1658634     
  -49984464.1262327     
  -49984581.4534073     
  -49984704.7843358     
  -49984833.7801985     
  -49984968.1261553     
  -49985107.5305846     
  -49985251.7239051     
  -49985400.4570682     
  -49985553.4997982     
  -49985710.6386461     
  -49985871.6749081     
  -49986036.4224503     
  -49986204.7054667     
  -49986376.3561886     
  -49986551.2125537     
  -49986729.1158340     
  -49986909.9082175     
  -49987093.4303300     
  -49987279.5186836     
  -49987468.0030322     
  -49987658.7036156     
  -49987851.4282751     
  -49988045.9694224     
  -49988242.1008516     
  -49988439.5743871     
  -49988638.1163705     
  -49988837.4239999     
  -49989037.1615460     
  -49989236.9564912     
  -49989436.3956519     
  -49989635.0213689     
  -49989832.3278758     
  -49990027.7579810     
  -49990220.7002258     
  -49990410.4867069     
  -49990596.3917741     
  -49990777.6318250     
  -49990953.3664221     
  -49991122.7009410     
  -49991284.6909136     
  -49991438.3481655     
  -49991582.6487342     
  -49991716.5424171     
  -49976284.6488250     
  -49976379.6859794     
  -49976488.0040960     
  -49976608.8881915     
  -49976741.6408370     
  -49976885.5881919     
  -49977040.0849440     
  -49977204.5180665     
  -49977378.3093850     
  -49977560.9170177     
  -49977751.8357943     
  -49977950.5967859     
  -49978156.7660877     
  -49978369.9429920     
  -49978589.7576831     
  -49978815.8685669     
  -49979047.9593315     
  -49979285.7358166     
  -49979528.9227507     
  -49979777.2603965     
  -49980030.5011317     
  -49980288.4059748     
  -49980550.7410586     
  -49980817.2740382     
  -49981087.7704182     
  -49981361.9897757     
  -49981639.6818511     
  -49981920.5824798     
  -49982204.4093361     
  -49982490.8574662     
  -49982779.5945914     
  -49983070.2561716     
  -49983362.4402306     
  -49983655.7019634     
  -49983949.5481600     
  -49984243.4315089     
  -49984536.7448691     
  -49984828.8156321     
  -49985118.9003319     
  -49985406.1796993     
  -49985689.7543966     
  -49985968.6417067     
  -49986241.7734810     
  -49986507.9956743     
  -49986766.0697949     
  -49987014.6765775     
  -49987252.4221295     
  -49987477.8466987     
  -49987689.4360639     
  -49987885.6353461     
  -49968595.4414217     
  -49968722.2187223     
  -49968866.6475941     
  -49969027.7687361     
  -49969204.6472288     
  -49969396.3805094     
  -49969602.1048820     
  -49969821.0004421     
  -49970052.2944171     
  -49970295.2630058     
  -49970549.2318622     
  -49970813.5754007     
  -49971087.7151100     
  -49971371.1170637     
  -49971663.2887987     
  -49971963.7757135     
  -49972272.1571141     
  -49972588.0420113     
  -49972911.0647465     
  -49973240.8805008     
  -49973577.1607224     
  -49973919.5884862     
  -49974267.8537867     
  -49974621.6487491     
  -49974980.6627377     
  -49975344.5773269     
  -49975713.0611030     
  -49976085.7642562     
  -49976462.3129269     
  -49976842.3032741     
  -49977225.2952409     
  -49977610.8060020     
  -49977998.3030982     
  -49978387.1972769     
  -49978776.8350914     
  -49979166.4913341     
  -49979555.3614250     
  -49979942.5539107     
  -49980327.0832853     
  -49980707.8633872     
  -49981083.7016858     
  -49981453.2948168     
  -49981815.2257691     
  -49982167.9631556     
  -49982509.8630045     
  -49982839.1734781     
  -49983154.0428551     
  -49983452.5309800     
  -49983732.6241896     
  -49983992.2534666     
  -49960735.5726543     
  -49960894.9342124     
  -49961076.4093008     
  -49961278.7885672     
  -49961500.8941103     
  -49961741.5894442     
  -49961999.7876131     
  -49962274.4573112     
  -49962564.6270104     
  -49962869.3872052     
  -49963187.8909578     
  -49963519.3529656     
  -49963863.0473906     
  -49964218.3046832     
  -49964584.5076172     
  -49964961.0867270     
  -49965347.5153078     
  -49965743.3041066     
  -49966147.9958030     
  -49966561.1593479     
  -49966982.3842034     
  -49967411.2745009     
  -49967847.4431197     
  -49968290.5056669     
  -49968740.0743305     
  -49969195.7515654     
  -49969657.1235686     
  -49970123.7534953     
  -49970595.1743695     
  -49971070.8816481     
  -49971550.3254078     
  -49972032.9021351     
  -49972517.9461235     
  -49973004.7205043     
  -49973492.4079716     
  -49973980.1013000     
  -49974466.7938001     
  -49974951.3699090     
  -49975432.5961759     
  -49975909.1129615     
  -49976379.4272402     
  -49976841.9069536     
  -49977294.7774180     
  -49977736.1203265     
  -49978163.8758892     
  -49978575.8486254     
  -49978969.7172282     
  -49979343.0487617     
  -49979693.3172118     
  -49980017.9260868     
  -49952663.5275418     
  -49952856.5344327     
  -49953076.2253203     
  -49953321.1339660     
  -49953589.8329736     
  -49953880.9457997     
  -49954193.1565164     
  -49954525.2171567     
  -49954875.9526470     
  -49955244.2634612     
  -49955629.1262202     
  -49956029.5925063     
  -49956444.7861823     
  -49956873.8994980     
  -49957316.1882467     
  -49957770.9662021     
  -49958237.5990299     
  -49958715.4978310     
  -49959204.1124328     
  -49959702.9245128     
  -49960211.4406065     
  -49960729.1850199     
  -49961255.6926493     
  -49961790.5016846     
  -49962333.1461631     
  -49962883.1483242     
  -49963440.0107118     
  -49964003.2079665     
  -49964572.1782516     
  -49965146.3142619     
  -49965724.9537783     
  -49966307.3697451     
  -49966892.7598733     
  -49967480.2358011     
  -49968068.8118850     
  -49968657.3937384     
  -49969244.7666925     
  -49969829.5844174     
  -49970410.3580135     
  -49970985.4459597     
  -49971553.0453838     
  -49972111.1851971     
  -49972657.7216985     
  -49973190.3372981     
  -49973706.5430183     
  -49974203.6853920     
  -49974678.9582678     
  -49975129.4198401     
  -49975552.0149345     
  -49975943.6021930     
  -49944337.3600591     
  -49944565.2713051     
  -49944824.5598381     
  -49945113.4949218     
  -49945430.3924478     
  -49945773.6290566     
  -49946141.6535991     
  -49946532.9957405     
  -49946946.2717157     
  -49947380.1873961     
  -49947833.5389328     
  -49948305.2112968     
  -49948794.1750560     
  -49949299.4817269     
  -49949820.2580082     
  -49950355.6991686     
  -49950905.0618205     
  -49951467.6562613     
  -49952042.8385217     
  -49952630.0022216     
  -49953228.5702900     
  -49953837.9865792     
  -49954457.7073702     
  -49955087.1927461     
  -49955725.8977912     
  -49956373.2635581     
  -49957028.7077412     
  -49957691.6149858     
  -49958361.3267683     
  -49959037.1307875     
  -49959718.2498208     
  -49960403.8300205     
  -49961092.9286512     
  -49961784.5013071     
  -49962477.3886923     
  -49963170.3031034     
  -49963861.8148179     
  -49964550.3386690     
  -49965234.1211700     
  -49965911.2286428     
  -49966579.5368981     
  -49967236.7231037     
  -49967880.2605528     
  -49968507.4170980     
  -49969115.2580260     
  -49969700.6541012     
  -49970260.2953827     
  -49970790.7111911     
  -49971288.2962663     
  -49971749.3427045     
  -49935714.7405072     
  -49935978.9812014     
  -49936279.4255824     
  -49936614.0705067     
  -49936980.9676984     
  -49937378.2400519     
  -49937804.0948448     
  -49938256.8336383     
  -49938734.8588716     
  -49939236.6773434     
  -49939760.9008852     
  -49940306.2445993     
  -49940871.5230582     
  -49941455.6448552     
  -49942057.6058627     
  -49942676.4815165     
  -49943311.4183907     
  -49943961.6252761     
  -49944626.3639247     
  -49945304.9395731     
  -49945996.6913131     
  -49946700.9823434     
  -49947417.1900986     
  -49948144.6962281     
  -49948882.8763760     
  -49949631.0896959     
  -49950388.6680269     
  -49951154.9046512     
  -49951929.0425556     
  -49952710.2621301     
  -49953497.6682474     
  -49954290.2766952     
  -49955086.9999627     
  -49955886.6324245     
  -49956687.8350188     
  -49957489.1195794     
  -49958288.8330578     
  -49959085.1419580     
  -49959876.0174046     
  -49960659.2213686     
  -49961432.2946851     
  -49962192.5475961     
  -49962937.0536447     
  -49963662.6478044     
  -49964365.9297392     
  -49965043.2730422     
  -49965690.8411478     
  -49966304.6103608     
  -49966880.4000510     
  -49967413.9095452     
  -49926753.0173984     
  -49927055.1298960     
  -49927398.4105758     
  -49927780.5763414     
  -49928199.4076962     
  -49928652.7673015     
  -49929138.6149983     
  -49929655.0190375     
  -49930200.1635324     
  -49930772.3523520     
  -49931370.0098062     
  -49931991.6785517     
  -49932636.0151704     
  -49933301.7838669     
  -49933987.8486947     
  -49934693.1646728     
  -49935416.7680964     
  -49936157.7662850     
  -49936915.3269529     
  -49937688.6673301     
  -49938477.0431152     
  -49939279.7372923     
  -49940096.0488137     
  -49940925.2811121     
  -49941766.7303893     
  -49942619.6736028     
  -49943483.3560685     
  -49944356.9785858     
  -49945239.6839983     
  -49946130.5431103     
  -49947028.5398990     
  -49947932.5559863     
  -49948841.3543724     
  -49949753.5624817     
  -49950667.6546293     
  -49951581.9340910     
  -49952494.5150462     
  -49953403.3047619     
  -49954305.9864967     
  -49955200.0037254     
  -49956082.5464053     
  -49956950.5401247     
  -49957800.6390740     
  -49958629.2238505     
  -49959432.4051204     
  -49960206.0341055     
  -49960945.7206922     
  -49961646.8596695     
  -49962304.6651563     
  -49962914.2126889     
  -49917409.2827030     
  -49917750.8559555     
  -49918138.6983834     
  -49918570.2406238     
  -49919042.9861460     
  -49919554.5321378     
  -49920102.5863894     
  -49920684.9798876     
  -49921299.6751397     
  -49921944.7704735     
  -49922618.5007139     
  -49923319.2347198     
  -49924045.4702958     
  -49924795.8269809     
  -49925569.0371801     
  -49926363.9360464     
  -49927179.4504572     
  -49928014.5873597     
  -49928868.4216935     
  -49929740.0840366     
  -49930628.7480626     
  -49931533.6178507     
  -49932453.9150431     
  -49933388.8658149     
  -49934337.6875904     
  -49935299.5754204     
  -49936273.6879255     
  -49937259.1326998     
  -49938254.9510757     
  -49939260.1021605     
  -49940273.4460754     
  -49941293.7263551     
  -49942319.5515137     
  -49943349.3758281     
  -49944381.4794668     
  -49945413.9481673     
  -49946444.6527680     
  -49947471.2290094     
  -49948491.0581493     
  -49949501.2490672     
  -49950498.6226764     
  -49951479.6995936     
  -49952440.6921296     
  -49953377.5017452     
  -49954285.7231315     
  -49955160.6560082     
  -49955997.3255453     
  -49956790.5119827     
  -49957534.7895201     
  -49958224.5738805     
  -49907640.4182390     
  -49908022.9897174     
  -49908457.0584842     
  -49908939.7649303     
  -49909468.3319728     
  -49910040.0883354     
  -49910652.4873410     
  -49911303.1208995     
  -49911989.7287100     
  -49912710.2029600     
  -49913462.5889675     
  -49914245.0823126     
  -49915056.0230323     
  -49915893.8874443     
  -49916757.2781211     
  -49917644.9124696     
  -49918555.6103028     
  -49919488.2807102     
  -49920441.9084588     
  -49921415.5400885     
  -49922408.2698000     
  -49923419.2251783     
  -49924447.5527484     
  -49925492.4033214     
  -49926552.9170546     
  -49927628.2081331     
  -49928717.3489610     
  -49929819.3537465     
  -49930933.1613685     
  -49932057.6174223     
  -49933191.4553676     
  -49934333.2767326     
  -49935481.5303770     
  -49936634.4908759     
  -49937790.2361635     
  -49938946.6246681     
  -49940101.2722798     
  -49941251.5296187     
  -49942394.4602121     
  -49943526.8203431     
  -49944645.0414865     
  -49945745.2164004     
  -49946823.0900689     
  -49947874.0567788     
  -49948893.1646358     
  -49949875.1287475     
  -49950814.3540910     
  -49951704.9687149     
  -49952540.8673561     
  -49953315.7648078     
  -49897403.0859779     
  -49897828.0103799     
  -49898309.7692193     
  -49898845.2123422     
  -49899431.2821729     
  -49900065.0394401     
  -49900743.6839154     
  -49901464.5698114     
  -49902225.2158661     
  -49903023.3104265     
  -49903856.7120305     
  -49904723.4460940     
  -49905621.6983429     
  -49906549.8056181     
  -49907506.2446325     
  -49908489.6191867     
  -49909498.6462699     
  -49910532.1413890     
  -49911589.0033798     
  -49912668.1988817     
  -49913768.7465849     
  -49914889.7012948     
  -49916030.1378106     
  -49917189.1345662     
  -49918365.7569532     
  -49919559.0402164     
  -49920767.9717987     
  -49921991.4730054     
  -49923228.3798618     
  -49924477.4230499     
  -49925737.2068368     
  -49927006.1869445     
  -49928282.6473633     
  -49929564.6761793     
  -49930850.1405682     
  -49932136.6612176     
  -49933421.5865568     
  -49934701.9673174     
  -49935974.5321047     
  -49937235.6648317     
  -49938481.3850387     
  -49939707.3322923     
  -49940908.7559994     
  -49942080.5120702     
  -49943217.0678887     
  -49944312.5169618     
  -49945360.6043879     
  -49946354.7638684     
  -49947288.1663580     
  -49948153.7796137     
  -49886653.6053382     
  -49887121.8846383     
  -49887652.4173921     
  -49888241.7678659     
  -49888886.6031245     
  -49889583.7212329     
  -49890330.0739572     
  -49891122.7835791     
  -49891959.1538549     
  -49892836.6754665     
  -49893753.0265159     
  -49894706.0687338     
  -49895693.8401084     
  -49896714.5446273     
  -49897766.5397695     
  -49898848.3223065     
  -49899958.5128822     
  -49901095.8397455     
  -49902259.1219173     
  -49903447.2519881     
  -49904659.1786646     
  -49905893.8891132     
  -49907150.3910935     
  -49908427.6948249     
  -49909724.7944927     
  -49911040.6492730     
  -49912374.1637388     
  -49913724.1675000     
  -49915089.3939391     
  -49916468.4579134     
  -49917859.8323277     
  -49919261.8235213     
  -49920672.5454709     
  -49922089.8928877     
  -49923511.5133813     
  -49924934.7789772     
  -49926356.7574142     
  -49927774.1838012     
  -49929183.4333923     
  -49930580.4964257     
  -49931960.9561672     
  -49933319.9714851     
  -49934652.2654435     
  -49935952.1215102     
  -49937213.3890008     
  -49938429.4992873     
  -49939593.4940404     
  -49940698.0663111     
  -49941735.6145629     
  -49942698.3088305     
  -49875347.6354552     
  -49875859.7061608     
  -49876439.4955034     
  -49877083.2941793     
  -49877787.5057677     
  -49878548.6774051     
  -49879363.5244403     
  -49880228.9486518     
  -49881142.0500647     
  -49882100.1327475     
  -49883100.7051964     
  -49884141.4760405     
  -49885220.3458407     
  -49886335.3957416     
  -49887484.8736718     
  -49888667.1787027     
  -49889880.8440788     
  -49891124.5193246     
  -49892396.9517364     
  -49893696.9674689     
  -49895023.4523435     
  -49896375.3324288     
  -49897751.5543810     
  -49899151.0654802     
  -49900572.7932562     
  -49902015.6245687     
  -49903478.3839888     
  -49904959.8113186     
  -49906458.5380921     
  -49907973.0629191     
  -49909501.7255611     
  -49911042.6796788     
  -49912593.8642544     
  -49914152.9737730     
  -49915717.4273576     
  -49917284.3371745     
  -49918850.4765820     
  -49920412.2486675     
  -49921965.6560122     
  -49923506.2727353     
  -49925029.2200805     
  -49926529.1470192     
  -49928000.2175191     
  -49929436.1062479     
  -49930830.0045138     
  -49932174.6381356     
  -49933462.2986538     
  -49934684.8887755     
  -49935833.9821792     
  -49936900.8967675     
  -49863439.5494843     
  -49863995.0256174     
  -49864623.6895297     
  -49865321.5792885     
  -49866084.8553457     
  -49866909.8336361     
  -49867793.0121447     
  -49868731.0904922     
  -49869720.9825798     
  -49870759.8227113     
  -49871844.9658518     
  -49872973.9828208     
  -49874144.6512596     
  -49875354.9431954     
  -49876603.0099544     
  -49877887.1650880     
  -49879205.8658605     
  -49880557.6937405     
  -49881941.3342223     
  -49883355.5562045     
  -49884799.1910568     
  -49886271.1114276     
  -49887770.2097734     
  -49889295.3765356     
  -49890845.4778467     
  -49892419.3326122     
  -49894015.6887995     
  -49895633.1987522     
  -49897270.3933573     
  -49898925.6549091     
  -49900597.1885515     
  -49902282.9922291     
  -49903980.8251519     
  -49905688.1748685     
  -49907402.2231618     
  -49909119.8111200     
  -49910837.4039050     
  -49912551.0559333     
  -49914256.3773994     
  -49915948.5033031     
  -49917622.0663833     
  -49919271.1755841     
  -49920889.4018831     
  -49922469.7734373     
  -49924004.7820431     
  -49925486.4027818     
  -49926906.1284146     
  -49928255.0195164     
  -49929523.7704875     
  -49930702.7904392     
  -49850881.3511065     
  -49851478.7259766     
  -49852154.7172030     
  -49852905.1419313     
  -49853725.9479843     
  -49854613.2492811     
  -49855563.3542335     
  -49856572.7866362     
  -49857638.2991015     
  -49858756.8794865     
  -49859925.7510292     
  -49861142.3670476     
  -49862404.4011098     
  -49863709.7335550     
  -49865056.4351759     
  -49866442.7487698     
  -49867867.0691492     
  -49869327.9220780     
  -49870823.9424850     
  -49872353.8521874     
  -49873916.4372652     
  -49875510.5251328     
  -49877134.9612835     
  -49878788.5856200     
  -49880470.2082361     
  -49882178.5844812     
  -49883912.3891171     
  -49885670.1893680     
  -49887450.4166710     
  -49889251.3369592     
  -49891071.0193418     
  -49892907.3031096     
  -49894757.7630699     
  -49896619.6733161     
  -49898489.9696707     
  -49900365.2111903     
  -49902241.5413118     
  -49904114.6494281     
  -49905979.7339230     
  -49907831.4679469     
  -49909663.9694835     
  -49911470.7775038     
  -49913244.8362271     
  -49914978.4896525     
  -49916663.4885616     
  -49918291.0120639     
  -49919851.7054110     
  -49921335.7351736     
  -49922732.8619360     
  -49924032.5294010     
  -49837620.9411293     
  -49838257.2580380     
  -49838977.5397298     
  -49839777.4264255     
  -49840652.6952712     
  -49841599.2979078     
  -49842613.3905645     
  -49843691.3561641     
  -49844829.8184980     
  -49846025.6489511     
  -49847275.9665426     
  -49848578.1321922     
  -49849929.7381781     
  -49851328.5937228     
  -49852772.7075663     
  -49854260.2682752     
  -49855789.6229124     
  -49857359.2545577     
  -49858967.7590451     
  -49860613.8211611     
  -49862296.1904414     
  -49864013.6566118     
  -49865765.0246344     
  -49867549.0892620     
  -49869364.6089458     
  -49871210.2789091     
  -49873084.7031766     
  -49874986.3653379     
  -49876913.5978357     
  -49878864.5495909     
  -49880837.1518193     
  -49882829.0819601     
  -49884837.7257218     
  -49886860.1373652     
  -49888892.9984840     
  -49890932.5757162     
  -49892974.6780229     
  -49895014.6144068     
  -49897047.1532039     
  -49899066.4843645     
  -49901066.1864313     
  -49903039.2001966     
  -49904977.8112654     
  -49906873.6439100     
  -49908717.6686438     
  -49910500.2257991     
  -49912211.0670108     
  -49913839.4158155     
  -49915374.0475372     
  -49916803.3872402     
  -49823599.4959755     
  -49824270.0083652     
  -49825029.7305745     
  -49825874.1830176     
  -49826799.0261615     
  -49827800.1000017     
  -49828873.4556680     
  -49830015.3786272     
  -49831222.4035475     
  -49832491.3213342     
  -49833819.1791422     
  -49835203.2743292     
  -49836641.1433595     
  -49838130.5466449     
  -49839669.4502213     
  -49841256.0050440     
  -49842888.5245516     
  -49844565.4610071     
  -49846285.3809913     
  -49848046.9402968     
  -49849848.8583567     
  -49851689.8922430     
  -49853568.8101871     
  -49855484.3645034     
  -49857435.2637444     
  -49859420.1438787     
  -49861437.5382555     
  -49863485.8461184     
  -49865563.2994308     
  -49867667.9278151     
  -49869797.5214415     
  -49871949.5917835     
  -49874121.3302467     
  -49876309.5648053     
  -49878510.7149333     
  -49880720.7453089     
  -49882935.1189958     
  -49885148.7510587     
  -49887355.9638652     
  -49889550.4456314     
  -49891725.2140909     
  -49893872.5874713     
  -49895984.1652279     
  -49898050.8211619     
  -49900062.7115946     
  -49902009.3011155     
  -49903879.4079967     
  -49905661.2706070     
  -49907342.6350154     
  -49908910.8624418     
  -49808747.6729892     
  -49809445.5290598     
  -49810237.7465518     
  -49811119.7959075     
  -49812087.2862940     
  -49813136.0066611     
  -49814261.9586262     
  -49815461.3806360     
  -49816730.7634767     
  -49818066.8576679     
  -49819466.6735770     
  -49820927.4752548     
  -49822446.7690406     
  -49824022.2879558     
  -49825651.9728133     
  -49827333.9508489     
  -49829066.5125386     
  -49830848.0871211     
  -49832677.2172012     
  -49834552.5326813     
  -49836472.7241445     
  -49838436.5157123     
  -49840442.6373135     
  -49842489.7962221     
  -49844576.6476756     
  -49846701.7643353     
  -49848863.6043351     
  -49851060.4776523     
  -49853290.5105451     
  -49855551.6078383     
  -49857841.4128819     
  -49860157.2650911     
  -49862496.1550807     
  -49864854.6775399     
  -49867228.9821680     
  -49869614.7231970     
  -49872007.0082735     
  -49874400.3477581     
  -49876788.6058118     
  -49879164.9549859     
  -49881521.8363787     
  -49883850.9277590     
  -49886143.1223483     
  -49888388.5211476     
  -49890576.4417473     
  -49892695.4463828     
  -49894733.3915402     
  -49896677.5005758     
  -49898514.4595601     
  -49900230.5348738     
  -49792980.3149708     
  -49793696.3213369     
  -49794511.8141968     
  -49795422.2941889     
  -49796423.3932946     
  -49797510.9170852     
  -49798680.8786116     
  -49799929.5233799     
  -49801253.3454906     
  -49802649.0954951     
  -49804113.7808217     
  -49805644.6597973     
  -49807239.2303300     
  -49808895.2142884     
  -49810610.5385179     
  -49812383.3133064     
  -49814211.8089663     
  -49816094.4310496     
  -49818029.6945644     
  -49820016.1974294     
  -49822052.5932737     
  -49824137.5635900     
  -49826269.7891515     
  -49828447.9205338     
  -49830670.5475237     
  -49832936.1671537     
  -49835243.1500833     
  -49837589.7050346     
  -49839973.8410082     
  -49842393.3270370     
  -49844845.6492957     
  -49847327.9654636     
  -49849837.0563605     
  -49852369.2750189     
  -49854920.4935439     
  -49857486.0483421     
  -49860060.6845646     
  -49862638.5009269     
  -49865212.8964070     
  -49867776.5207010     
  -49870321.2307011     
  -49872838.0556238     
  -49875317.1737406     
  -49877747.9038724     
  -49880118.7148713     
  -49882417.2561183     
  -49884630.4115623     
  -49886744.3789099     
  -49888744.7741950     
  -49890616.7601196     
  -49776189.2960472     
  -49776911.8404618     
  -49777739.1259759     
  -49778666.7685893     
  -49779690.5003750     
  -49780806.2124747     
  -49782009.9897028     
  -49783298.1362093     
  -49784667.1922862     
  -49786113.9428725     
  -49787635.4186160     
  -49789228.8905167     
  -49790891.8592140     
  -49792622.0399493     
  -49794417.3441331     
  -49796275.8583204     
  -49798195.8212448     
  -49800175.5994128     
  -49802213.6616082     
  -49804308.5525223     
  -49806458.8655954     
  -49808663.2150539     
  -49810920.2070284     
  -49813228.4095684     
  -49815586.3213083     
  -49817992.3384989     
  -49820444.7200960     
  -49822941.5505918     
  -49825480.7002919     
  -49828059.7827769     
  -49830676.1093530     
  -49833326.6403865     
  -49836007.9335454     
  -49838716.0891291     
  -49841446.6928769     
  -49844194.7568872     
  -49846954.6595766     
  -49849720.0859473     
  -49852483.9698035     
  -49855238.4399728     
  -49857974.7730015     
  -49860683.3552005     
  -49863353.6572612     
  -49865974.2249017     
  -49868532.6890608     
  -49871015.7989542     
  -49873409.4807526     
  -49875698.9236425     
  -49877868.6935252     
  -49879902.8725941     
  -49758234.1443577     
  -49758949.3895731     
  -49759775.0474330     
  -49760706.9299311     
  -49761740.9399783     
  -49762873.1147007     
  -49764099.6604976     
  -49765416.9793269     
  -49766821.6863059     
  -49768310.6191746     
  -49769880.8404622     
  -49771529.6333519     
  -49773254.4922818     
  -49775053.1092748     
  -49776923.3568980     
  -49778863.2686186     
  -49780871.0171741     
  -49782944.8914259     
  -49785083.2720156     
  -49787284.6060053     
  -49789547.3805643     
  -49791870.0956493     
  -49794251.2355417     
  -49796689.2390246     
  -49799182.4679279     
  -49801729.1737295     
  -49804327.4618760     
  -49806975.2534859     
  -49809670.2441161     
  -49812409.8593125     
  -49815191.2067381     
  -49818011.0247698     
  -49820865.6275924     
  -49823750.8469929     
  -49826661.9712808     
  -49829593.6820255     
  -49832539.9896243     
  -49835494.1690755     
  -49838448.6977499     
  -49841395.1973890     
  -49844324.3830193     
  -49847226.0219099     
  -49850088.9060759     
  -49852900.8420935     
  -49855648.6620518     
  -49858318.2592540     
  -49860894.6516708     
  -49863362.0750661     
  -49865704.1060769     
  -49867903.8133365     
  -49738930.1100827     
  -49739622.6098902     
  -49740432.0830165     
  -49741354.5983038     
  -49742386.2784367     
  -49743523.3431749     
  -49744762.1447010     
  -49746099.1945860     
  -49747531.1824611     
  -49749054.9869167     
  -49750667.6794251     
  -49752366.5222259     
  -49754148.9611507     
  -49756012.6143164     
  -49757955.2575266     
  -49759974.8070859     
  -49762069.3005944     
  -49764236.8761392     
  -49766475.7501569     
  -49768784.1941091     
  -49771160.5099933     
  -49773603.0046046     
  -49776109.9623783     
  -49778679.6165668     
  -49781310.1184512     
  -49783999.5042488     
  -49786745.6593555     
  -49789546.2795626     
  -49792398.8289092     
  -49795300.4938759     
  -49798248.1337024     
  -49801238.2267175     
  -49804266.8127182     
  -49807329.4316226     
  -49810421.0588590     
  -49813536.0382423     
  -49816668.0134329     
  -49819809.8594671     
  -49822953.6162952     
  -49826090.4267376     
  -49829210.4817673     
  -49832302.9764971     
  -49835356.0806640     
  -49838356.9276806     
  -49841291.6263982     
  -49844145.2994882     
  -49846902.1516988     
  -49849545.5700684     
  -49852058.2564068     
  -49854422.3899794     
  -49718033.4414452     
  -49718687.3755062     
  -49719466.4550759     
  -49720367.0241628     
  -49721385.4297841     
  -49722518.0649578     
  -49723761.4043826     
  -49725112.0323558     
  -49726566.6630128     
  -49728122.1533631     
  -49729775.5098484     
  -49731523.8892723     
  -49733364.5949809     
  -49735295.0691296     
  -49737312.8817818     
  -49739415.7174611     
  -49741601.3596470     
  -49743867.6735646     
  -49746212.5874834     
  -49748634.0726183     
  -49751130.1216095     
  -49753698.7254613     
  -49756337.8487351     
  -49759045.4027219     
  -49761819.2162681     
  -49764657.0038908     
  -49767556.3308003     
  -49770514.5744510     
  -49773528.8822627     
  -49776596.1252078     
  -49779712.8470362     
  -49782875.2090285     
  -49786078.9303223     
  -49789319.2240558     
  -49792590.7298304     
  -49795887.4432997     
  -49799202.6440589     
  -49802528.8234340     
  -49805857.6142458     
  -49809179.7251346     
  -49812484.8825633     
  -49815761.7841272     
  -49818998.0672376     
  -49822180.2975518     
  -49825293.9816022     
  -49828323.6078230     
  -49831252.7194798     
  -49834064.0217441     
  -49836739.5232549     
  -49839260.7099577     
  -49695223.8141780     
  -49695825.0890363     
  -49696562.3427786     
  -49697432.1380696     
  -49698430.9746717     
  -49699555.3323994     
  -49700801.7075303     
  -49702166.6422855     
  -49703646.7474484     
  -49705238.7185351     
  -49706939.3461334     
  -49708745.5211447     
  -49710654.2356744     
  -49712662.5802796     
  -49714767.7381994     
  -49716966.9770833     
  -49719257.6386088     
  -49721637.1262621     
  -49724102.8914264     
  -49726652.4178131     
  -49729283.2041704     
  -49731992.7451078     
  -49734778.5098014     
  -49737637.9182814     
  -49740568.3149507     
  -49743566.9389540     
  -49746630.8909977     
  -49749757.0962287     
  -49752942.2627995     
  -49756182.8358100     
  -49759474.9463915     
  -49762814.3558242     
  -49766196.3947431     
  -49769615.8976981     
  -49773067.1336011     
  -49776543.7329199     
  -49780038.6128662     
  -49783543.9022736     
  -49787050.8683673     
  -49790549.8481702     
  -49794030.1878555     
  -49797480.1938983     
  -49800887.1003505     
  -49804237.0568866     
  -49807515.1423589     
  -49810705.4083349     
  -49813790.9563485     
  -49816754.0512678     
  -49819576.2711463     
  -49822238.6912220     
  -49670084.1659499     
  -49670623.6825908     
  -49671314.1364596     
  -49672152.1335734     
  -49673134.1357548     
  -49674256.5043744     
  -49675515.5384619     
  -49676907.5068603     
  -49678428.6744754     
  -49680075.3229417     
  -49681843.7661992     
  -49683730.3615594     
  -49685731.5168526     
  -49687843.6942112     
  -49690063.4109740     
  -49692387.2381017     
  -49694811.7963916     
  -49697333.7506725     
  -49699949.8020556     
  -49702656.6782217     
  -49705451.1216319     
  -49708329.8754710     
  -49711289.6670628     
  -49714327.1884398     
  -49717439.0737040     
  -49720621.8727865     
  -49723872.0212018     
  -49727185.8053916     
  -49730559.3232896     
  -49733988.4397879     
  -49737468.7368726     
  -49740995.4583257     
  -49744563.4490525     
  -49748167.0893222     
  -49751800.2244775     
  -49755456.0910164     
  -49759127.2403505     
  -49762805.4620118     
  -49766481.7086142     
  -49770146.0254406     
  -49773787.4881237     
  -49777394.1524577     
  -49780953.0208762     
  -49784450.0304780     
  -49787870.0675766     
  -49791197.0134780     
  -49794413.8254194     
  -49797502.6552039     
  -49800445.0059330     
  -49803221.9243968     
  -49642078.6572174     
  -49642557.0953176     
  -49643207.5240503     
  -49644026.2410093     
  -49645009.3042906     
  -49646152.5788170     
  -49647451.7779610     
  -49648902.5002024     
  -49650500.2608368     
  -49652240.5189551     
  -49654118.7000407     
  -49656130.2145941     
  -49658270.4732094     
  -49660534.8984904     
  -49662918.9341504     
  -49665418.0515546     
  -49668027.7538940     
  -49670743.5780850     
  -49673561.0944111     
  -49676475.9038383     
  -49679483.6328621     
  -49682579.9256747     
  -49685760.4333815     
  -49689020.7999444     
  -49692356.6444912     
  -49695763.5395979     
  -49699236.9851484     
  -49702772.3773692     
  -49706364.9726763     
  -49710009.8460179     
  -49713701.8434893     
  -49717435.5291166     
  -49721205.1258831     
  -49725004.4512900     
  -49728826.8480282     
  -49732665.1106847     
  -49736511.4098243     
  -49740357.2152615     
  -49744193.2208939     
  -49748009.2740465     
  -49751794.3128947     
  -49755536.3161269     
  -49759222.2695184     
  -49762838.1544605     
  -49766368.9635841     
  -49769798.7483450     
  -49773110.7026519     
  -49776287.2851710     
  -49779310.3807444     
  -49782161.4984200     
  -49610530.1593168     
  -49610964.6662174     
  -49611600.8783751     
  -49612434.1836992     
  -49613459.6252130     
  -49614671.9531600     
  -49616065.6731532     
  -49617635.0901399     
  -49619374.3481524     
  -49621277.4659473     
  -49623338.3687387     
  -49625550.9162682     
  -49627908.9274776     
  -49630406.2020305     
  -49633036.5388940     
  -49635793.7521443     
  -49638671.6841009     
  -49641664.2158310     
  -49644765.2750022     
  -49647968.8409975     
  -49651268.9471436     
  -49654659.6798476     
  -49658135.1743843     
  -49661689.6070291     
  -49665317.1831979     
  -49669012.1212235     
  -49672768.6313922     
  -49676580.8898619     
  -49680443.0071127     
  -49684348.9906312     
  -49688292.7016114     
  -49692267.8055813     
  -49696267.7170270     
  -49700285.5383114     
  -49704313.9934607     
  -49708345.3577419     
  -49712371.3843654     
  -49716383.2301365     
  -49720371.3824195     
  -49724325.5903824     
  -49728234.8041019     
  -49732087.1257154     
  -49735869.7773325     
  -49739569.0907897     
  -49743170.5244507     
  -49746658.7119764     
  -49750017.5472114     
  -49753230.3078689     
  -49756279.8184901     
  -49759148.6501663     
  -49574599.6050555     
  -49575032.7903072     
  -49575709.2938536     
  -49576622.6541453     
  -49577765.9568521     
  -49579131.8979158     
  -49580712.8428782     
  -49582500.8822506     
  -49584487.8828242     
  -49586665.5349230     
  -49589025.3956786     
  -49591558.9284552     
  -49594257.5385816     
  -49597112.6055491     
  -49600115.5118245     
  -49603257.6684013     
  -49606530.5371743     
  -49609925.6501831     
  -49613434.6257189     
  -49617049.1812393     
  -49620761.1429835     
  -49624562.4521279     
  -49628445.1672770     
  -49632401.4630346     
  -49636423.6243672     
  -49640504.0364411     
  -49644635.1695966     
  -49648809.5591237     
  -49653019.7795218     
  -49657258.4129686     
  -49661518.0118019     
  -49665791.0549259     
  -49670069.8982159     
  -49674346.7192015     
  -49678613.4565773     
  -49682861.7454253     
  -49687082.8494328     
  -49691267.5918632     
  -49695406.2875692     
  -49699488.6789240     
  -49703503.8791540     
  -49707440.3271523     
  -49711285.7583757     
  -49715027.1968030     
  -49718650.9730557     
  -49722142.7735283     
  -49725487.7246148     
  -49728670.5146997     
  -49731675.5544124     
  -49734487.1727171     
  -49533270.7639300     
  -49533782.3690913     
  -49534594.7544361     
  -49535698.2265867     
  -49537082.5415243     
  -49538736.9863887     
  -49540650.4568020     
  -49542811.5293911     
  -49545208.5293170     
  -49547829.5927400     
  -49550662.7242500     
  -49553695.8493699     
  -49556916.8622952     
  -49560313.6690651     
  -49563874.2263735     
  -49567586.5762196     
  -49571438.8765796     
  -49575419.4282473     
  -49579516.6979472     
  -49583719.3377804     
  -49588016.2010045     
  -49592396.3541010     
  -49596849.0850268     
  -49601363.9074967     
  -49605930.5610990     
  -49610539.0070080     
  -49615179.4190332     
  -49619842.1697299     
  -49624517.8113064     
  -49629197.0510919     
  -49633870.7213902     
  -49638529.7436397     
  -49643165.0869393     
  -49647767.7211864     
  -49652328.5653181     
  -49656838.4314519     
  -49661287.9660949     
  -49665667.5900275     
  -49669967.4389693     
  -49674177.3076837     
  -49678286.6007522     
  -49682284.2938163     
  -49686158.9095884     
  -49689898.5132955     
  -49693490.7323516     
  -49696922.8048341     
  -49700181.6606376     
  -49703254.0378552     
  -49706126.6349074     
  -49708786.2961787     
  -49485345.5369361     
  -49486067.0493964     
  -49487167.3016516     
  -49488631.4279492     
  -49490443.9429946     
  -49492588.8537252     
  -49495049.7642161     
  -49497809.9731589     
  -49500852.5636110     
  -49504160.4849362     
  -49507716.6270531     
  -49511503.8872550     
  -49515505.2299746     
  -49519703.7399352     
  -49524082.6691632     
  -49528625.4783374     
  -49533315.8729323     
  -49538137.8345680     
  -49543075.6479272     
  -49548113.9235327     
  -49553237.6166110     
  -49558432.0421920     
  -49563682.8865250     
  -49568976.2148207     
  -49574298.4752656     
  -49579636.4992011     
  -49584977.4973152     
  -49590309.0516643     
  -49595619.1033328     
  -49600895.9355465     
  -49606128.1520957     
  -49611304.6509904     
  -49616414.5933829     
  -49621447.3679406     
  -49626392.5510618     
  -49631239.8635812     
  -49635979.1249368     
  -49640600.2061482     
  -49645092.9833962     
  -49649447.2944764     
  -49653652.9009156     
  -49657699.4590450     
  -49661576.5037811     
  -49665273.4492065     
  -49668779.6101775     
  -49672084.2490129     
  -49675176.6507210     
  -49678046.2290729     
  -49680682.6640422     
  -49683076.0686982     
  -49429456.6689795     
  -49430588.9449710     
  -49432203.6634122     
  -49434278.1676092     
  -49436789.1680383     
  -49439712.8996464     
  -49443025.2673752     
  -49446701.9788981     
  -49450718.6641365     
  -49455050.9815856     
  -49459674.7118720     
  -49464565.8392531     
  -49469700.6219625     
  -49475055.6524169     
  -49480607.9083503     
  -49486334.7959262     
  -49492214.1858331     
  -49498224.4432865     
  -49504344.4527571     
  -49510553.6381403     
  -49516831.9789576     
  -49523160.0230681     
  -49529518.8962537     
  -49535890.3089324     
  -49542256.5601625     
  -49548600.5390078     
  -49554905.7232661     
  -49561156.1755036     
  -49567336.5362989     
  -49573432.0145814     
  -49579428.3749550     
  -49585311.9219295     
  -49591069.4810489     
  -49596688.3770116     
  -49602156.4090175     
  -49607461.8237745     
  -49612593.2868381     
  -49617539.8532492     
  -49622290.9387844     
  -49626836.2935117     
  -49631165.9797633     
  -49635270.3570473     
  -49639140.0768048     
  -49642766.0902089     
  -49646139.6723434     
  -49649252.4659920     
  -49652096.5478269     
  -49654664.5188983     
  -49656949.6199303     
  -49658945.8699847     
  -49364106.7253444     
  -49365940.3426302     
  -49368391.4673286     
  -49371426.2431268     
  -49375010.2584439     
  -49379108.7701597     
  -49383686.9069907     
  -49388709.8507960     
  -49394142.9951801     
  -49399952.0817359     
  -49406103.3149870     
  -49412563.4576136     
  -49419299.9078664     
  -49426280.7612501     
  -49433474.8585910     
  -49440851.8225537     
  -49448382.0845451     
  -49456036.9037779     
  -49463788.3800710     
  -49471609.4617581     
  -49479473.9498696     
  -49487356.4995546     
  -49495232.6195234     
  -49503078.6701162     
  -49510871.8604563     
  -49518590.2450052     
  -49526212.7197239     
  -49533719.0179462     
  -49541089.7059920     
  -49548306.1784915     
  -49555350.6533521     
  -49562206.1662874     
  -49568856.5648359     
  -49575286.5018355     
  -49581481.4283860     
  -49587427.5864314     
  -49593112.0012345     
  -49598522.4741807     
  -49603647.5765698     
  -49608476.6452874     
  -49612999.7815251     
  -49617207.8539921     
  -49621092.5083372     
  -49624646.1847116     
  -49627862.1455469     
  -49630734.5155979     
  -49633258.3360722     
  -49635429.6341614     
  -49637245.5084016     
  -49638704.2291221     
  -49287744.0013268     
  -49290681.5389541     
  -49294408.6319927     
  -49298875.9386321     
  -49304033.7737621     
  -49309832.4264465     
  -49316222.4435557     
  -49323154.8765351     
  -49330581.4905506     
  -49338454.9368808     
  -49346728.8907341     
  -49355358.1575492     
  -49364298.7513524     
  -49373507.9489806     
  -49382944.3239808     
  -49392567.7638531     
  -49402339.4740370     
  -49412221.9717170     
  -49422179.0721659     
  -49432175.8699768     
  -49442178.7171819     
  -49452155.1999211     
  -49462074.1150229     
  -49471905.4475830     
  -49481620.3503932     
  -49491191.1258605     
  -49500591.2108826     
  -49509795.1649908     
  -49518778.6619468     
  -49527518.4848706     
  -49535992.5248877     
  -49544179.7832104     
  -49552060.3765083     
  -49559615.5453796     
  -49566827.6656984     
  -49573680.2626033     
  -49580158.0268845     
  -49586246.8335443     
  -49591933.7623455     
  -49597207.1202093     
  -49602056.4654131     
  -49606472.6336212     
  -49610447.7659115     
  -49613975.3390629     
  -49617050.1985001     
  -49619668.5943768     
  -49621828.2213234     
  -49623528.2623285     
  -49624769.4371623     
  -49625554.0553212     
  -49198887.2382692     
  -49203465.9593227     
  -49209048.3554771     
  -49215564.3957321     
  -49222944.1012183     
  -49231117.9918696     
  -49240017.4788310     
  -49249575.1982870     
  -49259725.2853748     
  -49270403.5900672     
  -49281547.8389455     
  -49293097.7481807     
  -49304995.0938379     
  -49317183.7459310     
  -49329609.6725769     
  -49342220.9202875     
  -49354967.5759396     
  -49367801.7153890     
  -49380677.3430748     
  -49393550.3263486     
  -49406378.3276788     
  -49419120.7373477     
  -49431738.6087789     
  -49444194.5982166     
  -49456452.9101170     
  -49468479.2493044     
  -49480240.7806876     
  -49491706.0971093     
  -49502845.1957126     
  -49513629.4630477     
  -49524031.6689856     
  -49534025.9693701     
  -49543587.9171996     
  -49552694.4819853     
  -49561324.0767891     
  -49569456.5922795     
  -49577073.4369824     
  -49584157.5827168     
  -49590693.6140327     
  -49596667.7802785     
  -49602068.0487674     
  -49606884.1573658     
  -49611107.6647457     
  -49614731.9965174     
  -49617752.4855461     
  -49620166.4049572     
  -49621972.9927211     
  -49623173.4673242     
  -49623771.0345010     
  -49623770.8865376     
  -49096310.8086049     
  -49103223.3347759     
  -49111399.6239565     
  -49120742.8600752     
  -49131156.9066765     
  -49142546.9273207     
  -49154819.9243571     
  -49167885.1873125     
  -49181654.6502275     
  -49196043.1608151     
  -49210968.6678682     
  -49226352.3355492     
  -49242118.5943358     
  -49258195.1387578     
  -49274512.8818682     
  -49291005.8758099     
  -49307611.2070028     
  -49324268.8735232     
  -49340921.6512450     
  -49357514.9543410     
  -49373996.6948359     
  -49390317.1450789     
  -49406428.8062890     
  -49422286.2857014     
  -49437846.1843266     
  -49453066.9968929     
  -49467909.0251871     
  -49482334.3056982     
  -49496306.5522206     
  -49509791.1138389     
  -49522754.9485087     
  -49535166.6122340     
  -49546996.2636205     
  -49558215.6833370     
  -49568798.3077445     
  -49578719.2756239     
  -49587955.4865848     
  -49596485.6693286     
  -49604290.4574999     
  -49611352.4704018     
  -49617656.3953915     
  -49623189.0683438     
  -49627939.5482269     
  -49631899.1816359     
  -49635061.6531640     
  -49637423.0178397     
  -49638981.7125415     
  -49639738.5444021     
  -49639696.6569123     
  -49638861.4745790     
  -48979299.2520665     
  -48989408.9255012     
  -49001090.4595002     
  -49014213.3633862     
  -49028648.7177617     
  -49044270.0305638     
  -49060953.9688863     
  -49078580.9608684     
  -49097035.6626684     
  -49116207.2960542     
  -49135989.8666537     
  -49156282.2758280     
  -49176988.3408355     
  -49198016.7384798     
  -49219280.8870370     
  -49240698.7802800     
  -49262192.7860956     
  -49283689.4207052     
  -49305119.1079829     
  -49326415.9318979     
  -49347517.3887642     
  -49368364.1447743     
  -49388899.8032580     
  -49409070.6852264     
  -49428825.6260353     
  -49448115.7904058     
  -49466894.5075620     
  -49485117.1278468     
  -49502740.9018567     
  -49519724.8828437     
  -49536029.8528657     
  -49551618.2728907     
  -49566454.2567606     
  -49580503.5685713     
  -49593733.6426241     
  -49606113.6246134     
  -49617614.4321607     
  -49628208.8321577     
  -49637871.5316543     
  -49646579.2782630     
  -49654310.9652500     
  -49661047.7357359     
  -49666773.0797895     
  -49671472.9177718     
  -49675135.6631777     
  -49677752.2586396     
  -49679316.1800925     
  -49679823.4063226     
  -49679272.3511885     
  -49677663.7673562     
  -48847973.2421189     
  -48862320.3978761     
  -48878595.3290171     
  -48896626.3089062     
  -48916244.3432543     
  -48937284.3310446     
  -48959586.0666755     
  -48982995.0470963     
  -49007363.0899412     
  -49032548.7679946     
  -49058417.6734281     
  -49084842.5307736     
  -49111703.1798805     
  -49138886.4505288     
  -49166285.9496789     
  -49193801.7808851     
  -49221340.2134696     
  -49248813.3168847     
  -49276138.5734907     
  -49303238.4808784     
  -49330040.1529517     
  -49356474.9273026     
  -49382477.9849731     
  -49407987.9874991     
  -49432946.7351560     
  -49457298.8495420     
  -49480991.4830201     
  -49503974.0570480     
  -49526198.0310327     
  -49547616.7030044     
  -49568185.0430990     
  -49587859.5605084     
  -49606598.2042064     
  -49624360.2973237     
  -49641106.5045350     
  -49656798.8311869     
  -49671400.6521486     
  -49684876.7674906     
  -49697193.4810985     
  -49708318.6972420     
  -49718222.0289786     
  -49726874.9111470     
  -49734250.7097284     
  -49740324.8187043     
  -49745074.7354287     
  -49748480.1059717     
  -49750522.7325890     
  -49751186.5379197     
  -49750457.4931387     
  -49748323.4960143     
  -48703676.8253196     
  -48723473.1514348     
  -48745598.9783150     
  -48769833.1216285     
  -48795958.4615305     
  -48823763.5705736     
  -48853044.0603167     
  -48883603.6936362     
  -48915255.2268523     
  -48947820.9935066     
  -48981133.2519009     
  -49015034.3218364     
  -49049376.5388630     
  -49084022.0555813     
  -49118842.5188370     
  -49153718.6495799     
  -49188539.7493988     
  -49223203.1547166     
  -49257613.6566089     
  -49291682.9013652     
  -49325328.7843189     
  -49358474.8472114     
  -49391049.6874284     
  -49422986.3858539     
  -49454221.9588047     
  -49484696.8384967     
  -49514354.3857086     
  -49543140.4377079     
  -49571002.8940288     
  -49597891.3423126     
  -49623756.7260749     
  -49648551.0559226     
  -49672227.1653584     
  -49694738.5118471     
  -49716039.0232467     
  -49736082.9889858     
  -49754824.9944991     
  -49772219.8963774     
  -49788222.8344812     
  -49802789.2759226     
  -49815875.0844083     
  -49827436.6070420     
  -49837430.7693672     
  -49845815.1683017     
  -49852548.1519743     
  -49857588.8763875     
  -49860897.3326042     
  -49862434.3399287     
  -49862161.4804622     
  -49860041.0480531     
  -48549397.7617683     
  -48576010.4145488     
  -48605398.3945887     
  -48637281.5381717     
  -48671385.2002365     
  -48707442.3731079     
  -48745195.6618922     
  -48784398.8249883     
  -48824817.9626673     
  -48866232.3620068     
  -48908435.0127084     
  -48951232.8260324     
  -48994446.5963446     
  -49037910.7453669     
  -49081472.8873944     
  -49124993.2509448     
  -49168343.9889203     
  -49211408.4055906     
  -49254080.1248267     
  -49296262.2202808     
  -49337866.3247818     
  -49378811.7332222     
  -49419024.5106475     
  -49458436.6151457     
  -49496985.0434162     
  -49534611.0055349     
  -49571259.1343756     
  -49606876.7343387     
  -49641413.0734216     
  -49674818.7221908     
  -49707044.9428299     
  -49738043.1310811     
  -49767764.3135428     
  -49796158.7023546     
  -49823175.3087896     
  -49848761.6166034     
  -49872863.3151734     
  -49895424.0914266     
  -49916385.4783296     
  -49935686.7562600     
  -49953264.9019731     
  -49969054.5782689     
  -49982988.1561602     
  -49994995.7606440     
  -50005005.3307370     
  -50012942.6824229     
  -50018731.5593229     
  -50022293.6690610     
  -50023548.7763704     
  -50022414.6271506     
  -48390171.7629025     
  -48425111.6405439     
  -48463319.8565141     
  -48504444.5894384     
  -48548140.4233967     
  -48594071.9430976     
  -48641916.2745280     
  -48691365.4099765     
  -48742128.0237172     
  -48793930.7662144     
  -48846519.0938210     
  -48899657.6842727     
  -48953130.4842758     
  -49006740.4377621     
  -49060308.9448881     
  -49113675.1002525     
  -49166694.7548700     
  -49219239.4414561     
  -49271195.1974257     
  -49322461.3151071     
  -49372949.0441779     
  -49422580.2673235     
  -49471286.1665762     
  -49519005.8947686     
  -49565685.2639604     
  -49611275.4605904     
  -49655731.7954041     
  -49699012.4948789     
  -49741077.5398595     
  -49781887.5563764     
  -49821402.7630982     
  -49859581.9794941     
  -49896381.6985238     
  -49931755.2274371     
  -49965651.9000240     
  -49998016.3633282     
  -50028787.9414037     
  -50057900.0781141     
  -50085279.8602558     
  -50110847.6214176     
  -50134516.6258907     
  -50156192.8304233     
  -50175774.7194568     
  -50193153.2072157     
  -50208211.6004153     
  -50220825.6234623     
  -50230863.5189289     
  -50238186.1931001     
  -50242647.2117376     
  -50244093.4484837     
  -48233408.0425008     
  -48278366.2667261     
  -48327148.5715146     
  -48379308.5831274     
  -48434408.4337258     
  -48492022.0362173     
  -48551740.0286049     
  -48613173.2374142     
  -48675955.3734338     
  -48739745.1073547     
  -48804227.4936682     
  -48869114.7581906     
  -48934146.5130597     
  -48999089.4781003     
  -49063736.7853775     
  -49127906.9374613     
  -49191442.4836954     
  -49254208.4728565     
  -49316090.7345845     
  -49376994.0356735     
  -49436840.1509037     
  -49495565.8818569     
  -49553121.0513116     
  -49609466.4955538     
  -49664572.0723309     
  -49718414.6982659     
  -49770976.4263085     
  -49822242.5712246     
  -49872199.8891495     
  -49920834.8158393     
  -49968131.7673703     
  -50014071.5066212     
  -50058629.5788671     
  -50101774.8201384     
  -50143467.9425744     
  -50183660.2017240     
  -50222292.1514766     
  -50259292.4929316     
  -50294577.0239224     
  -50328047.6962057     
  -50359591.7878191     
  -50389081.1993401     
  -50416371.8847238     
  -50441303.4274990     
  -50463698.7642101     
  -50483364.0333088     
  -50500088.5234601     
  -50513644.8648750     
  -50523789.9724804     
  -50530264.1161204     
  -48089090.8069226     
  -48146134.3644508     
  -48207648.8359734     
  -48273050.9857370     
  -48341763.7117671     
  -48413229.2670825     
  -48486913.5366804     
  -48562311.4717038     
  -48638951.8032003     
  -48716400.3980971     
  -48794262.3985108     
  -48872183.3559970     
  -48949849.5019585     
  -49026987.2592443     
  -49103362.0973860     
  -49178776.8393863     
  -49253069.5285856     
  -49326110.9579354     
  -49397801.9532139     
  -49468070.4889121     
  -49536868.7024407     
  -49604169.8598998     
  -49669965.3152903     
  -49734261.4949032     
  -49797076.9297529     
  -49858439.3513371     
  -49918382.8597172     
  -49976945.1679091     
  -50034164.9228154     
  -50090079.1003764     
  -50144720.4711771     
  -50198115.1323681     
  -50250280.1023248     
  -50301220.9759410     
  -50350929.6407349     
  -50399382.0570130     
  -50446536.1090749     
  -50492329.5386668     
  -50536677.9761320     
  -50579473.0881565     
  -50620580.8626225     
  -50659840.0504895     
  -50697060.7845953     
  -50732023.4050182     
  -50764477.5543956     
  -50794141.6543233     
  -50820702.8045096     
  -50843816.6106436     
  -50863105.8802424     
  -50878166.7109134     
  -47969909.1385103     
  -48042066.0985882     
  -48119454.2068692     
  -48201244.8789708     
  -48286642.5361208     
  -48374876.1936834     
  -48465216.5948468     
  -48556985.7431656     
  -48649562.3920659     
  -48742385.8819273     
  -48834958.6131811     
  -48926847.0261925     
  -49017681.1181339     
  -49107152.6909158     
  -49195012.5858191     
  -49281067.1544124     
  -49365174.1834450     
  -49447238.4556264     
  -49527207.0957483     
  -49605064.8231963     
  -49680829.2065716     
  -49754545.9931344     
  -49826284.5648517     
  -49896133.5540807     
  -49964196.6356217     
  -50030588.4981779     
  -50095430.9872983     
  -50158849.4035794     
  -50220968.9341717     
  -50281911.1922848     
  -50341790.8381657     
  -50400712.2557358     
  -50458766.2614113     
  -50516026.8253964     
  -50572547.7906901     
  -50628359.5810935     
  -50683465.8967616     
  -50737840.4047272     
  -50791423.4431688     
  -50844118.7727873     
  -50895790.4260677     
  -50946259.7207796     
  -50995302.5048770     
  -51042646.6643110     
  -51087969.8454283     
  -51130897.3150603     
  -51171000.2883605     
  -51207796.4788143     
  -51240754.6079710     
  -51269276.5184632     
  -47891577.3154370     
  -47984256.5067050     
  -48082854.0440405     
  -48186156.4605269     
  -48292956.3325706     
  -48402143.1009233     
  -48512699.2088989     
  -48623703.5481037     
  -48734338.7539603     
  -48843895.7034939     
  -48951773.9010943     
  -49057478.6084813     
  -49160615.7900836     
  -49260885.6483909     
  -49358075.2568122     
  -49452050.6465445     
  -49542748.6280212     
  -49630168.5812987     
  -49714364.4091224     
  -49795436.8038767     
  -49873525.9358089     
  -49948804.6278283     
  -50021472.0445269     
  -50091747.8914132     
  -50159867.0952123     
  -50226074.9171843     
  -50290622.4381289     
  -50353762.3452647     
  -50415744.9467658     
  -50476814.3387704     
  -50537204.6516580     
  -50597136.3070098     
  -50656812.2236227     
  -50716413.9199886     
  -50776097.4713345     
  -50835989.2909607     
  -50896181.7171590     
  -50956728.3972358     
  -51017639.4683997     
  -51078876.5431641     
  -51140347.5216461     
  -51201901.2914718     
  -51263322.4638213     
  -51324326.4448690     
  -51384555.2743036     
  -51443574.4073255     
  -51500869.1218887     
  -51555836.2212079     
  -51607771.4950060     
  -51655931.3708694     
  -47873970.8960100     
  -47997583.7933082     
  -48127000.1002881     
  -48260138.9078964     
  -48395290.9069368     
  -48530884.8831692     
  -48665533.2284796     
  -48798059.2333672     
  -48927495.0704568     
  -49053068.1191587     
  -49174184.6663857     
  -49290413.4311723     
  -49401469.1121867     
  -49507195.8943636     
  -49607551.0792073     
  -49702589.1803396     
  -49792446.8574947     
  -49877328.9935732     
  -49957496.1102879     
  -50033253.2082997     
  -50104940.0267096     
  -50172922.6497983     
  -50237586.3443304     
  -50299329.4841539     
  -50358558.4053818     
  -50415683.0309172     
  -50471113.1041796     
  -50525254.8762810     
  -50578508.0970609     
  -50631263.1674615     
  -50683898.3184541     
  -50736776.6902915     
  -50790243.1959015     
  -50844621.0647914     
  -50900207.9801242     
  -50957271.7429177     
  -51016045.4240289     
  -51076721.9951705     
  -51139448.4587974     
  -51204319.5102752     
  -51271370.7419442     
  -51340571.3103606     
  -51411815.8294437     
  -51484915.1196240     
  -51559585.7134553     
  -51635439.5936372     
  -51711979.6494877     
  -51788610.0160804     
  -51864645.1701732     
  -51939099.1773337     
  -47943454.3640290     
  -48116923.8579033     
  -48291924.7123495     
  -48466154.1187982     
  -48637090.8621060     
  -48802793.0170708     
  -48961829.4695478     
  -49113158.1666440     
  -49256053.0820937     
  -49390060.0653468     
  -49514961.3364495     
  -49630740.7974454     
  -49737549.3677719     
  -49835671.8273485     
  -49925496.7001031     
  -50007490.0891797     
  -50082173.7480373     
  -50150107.2342832     
  -50211873.7494952     
  -50268069.1667763     
  -50319293.7341191     
  -50366145.9748931     
  -50409218.3602505     
  -50449094.3864185     
  -50486346.7444999     
  -50521536.3178385     
  -50555211.7809812     
  -50587909.6048386     
  -50620154.2953545     
  -50652458.7085982     
  -50685324.2943951     
  -50719241.1241844     
  -50754687.5576176     
  -50792129.3979289     
  -50832018.3807361     
  -50874789.8390576     
  -50920859.3963465     
  -50970618.5710384     
  -51024429.2470447     
  -51082617.0935561     
  -51145464.2133094     
  -51213201.5262974     
  -51286001.4984744     
  -51363971.3728475     
  -51447145.1602742     
  -51535468.0733758     
  -51628760.5192304     
  -51726654.2444697     
  -51828584.6050758     
  -51934404.2845039     
  -48135377.3385690     
  -48382631.5335362     
  -48618625.9670751     
  -48838952.8218514     
  -49042501.3223985     
  -49228787.3878260     
  -49397622.1497363     
  -49549149.1927600     
  -49683848.2923700     
  -49802480.0915953     
  -49906006.4446875     
  -49995512.7939469     
  -50072144.3924032     
  -50137058.9819458     
  -50191394.2746602     
  -50236247.2075380     
  -50272661.9237672     
  -50301623.9266406     
  -50324058.4484495     
  -50340831.6117817     
  -50352753.3858979     
  -50360581.6574924     
  -50365026.9615014     
  -50366757.5750877     
  -50366404.7853095     
  -50364568.2131113     
  -50361821.1240190     
  -50358715.6869127     
  -50355788.1614814     
  -50353564.0053874     
  -50352562.8950508     
  -50353303.6490576     
  -50356309.0287715     
  -50362110.3634985     
  -50371251.9026274     
  -50384294.7283044     
  -50401819.9630161     
  -50424430.8737935     
  -50452753.3167956     
  -50487433.8199401     
  -50529134.5681776     
  -50578524.8641491     
  -50636269.7359126     
  -50703019.0000126     
  -50779405.0895038     
  -50866064.6311921     
  -50963698.0785818     
  -51073131.5366802     
  -51195086.2095472     
  -51328345.1958402     
  -48487062.7139518     
  -48813700.0184747     
  -49089864.2376274     
  -49325107.1051269     
  -49522126.2614568     
  -49683287.7187783     
  -49811703.1273139     
  -49910983.8674474     
  -49984846.7472395     
  -50036837.4046912     
  -50070184.6591243     
  -50087746.3474923     
  -50092008.6983126     
  -50085113.0115160     
  -50068893.7572561     
  -50044919.2781351     
  -50014530.6264923     
  -49978876.5746661     
  -49938944.2040502     
  -49895585.1779087     
  -49849538.1241618     
  -49801447.6706490     
  -49751880.6865901     
  -49701340.2464982     
  -49650277.7776072     
  -49599103.7954180     
  -49548197.5825355     
  -49497916.1274115     
  -49448602.6134371     
  -49400594.7352936     
  -49354233.1181810     
  -49309870.1254082     
  -49267879.3588106     
  -49228666.1806207     
  -49192679.6072228     
  -49160425.9305824     
  -49132484.3862154     
  -49109525.0612399     
  -49092328.9422243     
  -49081809.4059016     
  -49079033.3431639     
  -49085238.1735377     
  -49101837.9237159     
  -49130407.3224975     
  -49172629.2306891     
  -49230195.6071167     
  -49304693.6739669     
  -49397677.2294380     
  -49511695.8446897     
  -49654868.2237592     
  -49013068.5359384     
  -49297919.0158338     
  -49513876.3875209     
  -49651788.8002112     
  -49722010.5200336     
  -49738719.3734047     
  -49714908.0189866     
  -49661161.1170930     
  -49585693.9461242     
  -49494741.4680177     
  -49392984.1589036     
  -49283915.6952903     
  -49170134.9221134     
  -49053569.3873491     
  -48935643.6332207     
  -48817404.9679466     
  -48699617.2304104     
  -48582830.7127470     
  -48467434.4063055     
  -48353695.1660493     
  -48241787.1994996     
  -48131814.4022879     
  -48023827.4113167     
  -47917836.7700971     
  -47813823.2545112     
  -47711746.1581809     
  -47611550.1611396     
  -47513171.2869555     
  -47416542.3806986     
  -47321598.5064014     
  -47228282.6649024     
  -47136552.2716030     
  -47046386.9126835     
  -46957798.0256312     
  -46870841.3381260     
  -46785633.1665698     
  -46702372.0461854     
  -46621367.6682365     
  -46543079.7653049     
  -46468170.4201253     
  -46397574.2043964     
  -46332591.2691802     
  -46275008.0383265     
  -46227245.7818117     
  -46192521.7418188     
  -46174961.1880135     
  -46179470.1176103     
  -46210829.2580210     
  -46270528.2034693     
  -46347307.6428299     
  -49666113.3195078     
  -49658496.6701094     
  -49463966.7734142     
  -49182169.1070726     
  -48863132.1200972     
  -48532821.1703272     
  -48204954.4528416     
  -47886738.6168368     
  -47581790.4260680     
  -47291694.3036092     
  -47016867.1231905     
  -46757055.0492632     
  -46511626.6427192     
  -46279748.9076279     
  -46060493.9273964     
  -45852903.2801056     
  -45656026.2705536     
  -45468941.7105383     
  -45290769.2915767     
  -45120674.3726644     
  -44957868.6319285     
  -44801608.1628544     
  -44651190.0374322     
  -44505947.9948975     
  -44365247.6761022     
  -44228481.6669612     
  -44095064.5128531     
  -43964427.8022832     
  -43836015.3819585     
  -43709278.7505476     
  -43583672.6821269     
  -43458651.1530187     
  -43333663.6912094     
  -43208152.3441633     
  -43081549.5839428     
  -42953277.6651593     
  -42822750.2688303     
  -42689377.7884721     
  -42552578.4983945     
  -42411799.3782798     
  -42266553.1125938     
  -42116482.8524719     
  -41961476.0112821     
  -41801867.5272534     
  -41638812.3528795     
  -41474990.6941685     
  -41315994.6911211     
  -41173169.7435140     
  -41069691.4423122     
  -41054130.7858886     
  -50201962.1705281     
  -48672167.9105014     
  -47442715.4191298     
  -46427429.5465736     
  -45572000.9135476     
  -44840080.2329235     
  -44206111.7258521     
  -43651405.9706973     
  -43161859.2640720     
  -42726557.3687508     
  -42336879.9216469     
  -41985902.3239191     
  -41667982.2425058     
  -41378465.1634163     
  -41113469.3418935     
  -40869725.2736206     
  -40644453.5656794     
  -40435270.4508592     
  -40240113.5782507     
  -40057182.9133547     
  -39884893.0443031     
  -39721834.1849622     
  -39566739.8536113     
  -39418459.6890733     
  -39275936.2091756     
  -39138184.5609839     
  -39004274.4856107     
  -38873313.8402724     
  -38744433.0978722     
  -38616770.2861615     
  -38489455.8370703     
  -38361596.7910610     
  -38232259.7363514     
  -38100451.7484432     
  -37965098.4142578     
  -37825017.7488484     
  -37678888.3948790     
  -37525209.8599071     
  -37362251.5668823     
  -37187985.9511667     
  -36999998.3474243     
  -36795362.2677194     
  -36570461.5435050     
  -36320728.0591451     
  -36040240.0477035     
  -35721079.6168171     
  -35352253.6488918     
  -34917780.0605764     
  -34393089.0282191     
  -33737832.4551429     
SCALARS 2waySource double 
LOOKUP_TABLE default
  2.248686404841495E-003
  1.911790647364161E-003
  1.743313568014756E-003
  1.119211624962245E-003
  1.265804823523361E-003
  1.571496506441744E-003
  1.810326271479077E-003
  2.004462180107666E-003
  2.171105611283281E-003
  2.319130964913809E-003
  2.453396534118596E-003
  2.576748254845549E-003
  2.690986136425242E-003
  2.797345497160528E-003
  2.896742818471886E-003
  2.989903813963153E-003
  3.077431153946160E-003
  3.159840807987832E-003
  3.237581968402231E-003
  3.311048401400819E-003
  3.380585355687910E-003
  3.446494178845599E-003
  3.509035726269905E-003
  3.568433072823800E-003
  3.624873729493760E-003
  3.678511404138662E-003
  3.729467259025941E-003
  3.777830569774503E-003
  3.823658658315079E-003
  3.866975943117616E-003
  3.907771914204736E-003
  3.945997790969385E-003
  3.981561549337808E-003
  4.014320899719927E-003
  4.044073639822542E-003
  4.070544564934167E-003
  4.093367737163549E-003
  4.112062295763328E-003
  4.125998955589029E-003
  4.134352565729547E-003
  4.136032982406129E-003
  4.129580905102436E-003
  4.113005007887596E-003
  4.083517222831868E-003
  4.037085231186249E-003
  3.967645529839971E-003
  3.865663599081050E-003
  3.715390423484747E-003
  3.489410751273664E-003
  3.137326768428940E-003
  1.619468353947650E-003
  2.474143348852788E-003
  3.035649687545790E-003
  3.451053397200223E-003
  3.655623860751104E-003
  3.807474084363982E-003
  3.992556401943425E-003
  4.185999344115351E-003
  4.372336071708733E-003
  4.545959321578251E-003
  4.705381435345628E-003
  4.850840749237289E-003
  4.983277171534111E-003
  5.103882002018545E-003
  5.213895209775983E-003
  5.314512761117118E-003
  5.406844806787919E-003
  5.491898502606069E-003
  5.570573412547167E-003
  5.643663673387327E-003
  5.711863915635806E-003
  5.775777260686697E-003
  5.835924377001568E-003
  5.892752938625714E-003
  5.946647044974190E-003
  5.997936301170658E-003
  6.046904354585552E-003
  6.093796750426933E-003
  6.138828015379277E-003
  6.182187908782985E-003
  6.224046800741556E-003
  6.264560151564485E-003
  6.303872084815899E-003
  6.342118078102177E-003
  6.379426858953242E-003
  6.415921715538770E-003
  6.451721660006454E-003
  6.486943296183739E-003
  6.521704986833451E-003
  6.556136255359652E-003
  6.590397807746609E-003
  6.624722155804045E-003
  6.659493715240846E-003
  6.695405092825013E-003
  6.733763467933983E-003
  6.777101553294269E-003
  6.830428883134338E-003
  6.903881717281448E-003
  7.018548127337077E-003
  7.219775096094904E-003
  7.528224244031677E-005
  6.078881898079618E-004
  1.085889932470194E-003
  1.494585098873609E-003
  1.868742692086880E-003
  2.187496607799760E-003
  2.453814950573158E-003
  2.689467125900496E-003
  2.903851322625761E-003
  3.100345737734462E-003
  3.280452172261334E-003
  3.445216160142908E-003
  3.595666894418187E-003
  3.732913776758403E-003
  3.858132001042262E-003
  3.972520683652419E-003
  4.077262053350550E-003
  4.173490013847167E-003
  4.262269170700898E-003
  4.344583039925107E-003
  4.421329574791357E-003
  4.493322205684653E-003
  4.561294848339816E-003
  4.625909633885528E-003
  4.687766390076486E-003
  4.747413137550206E-003
  4.805357054502362E-003
  4.862075510644373E-003
  4.918026882272936E-003
  4.973660941719688E-003
  5.029428674745070E-003
  5.085791429026610E-003
  5.143229349516332E-003
  5.202249131307455E-003
  5.263391245682272E-003
  5.327237011452235E-003
  5.394416252922519E-003
  5.465616898263942E-003
  5.541598858171178E-003
  5.623216063747537E-003
  5.711452857150617E-003
  5.807484224492119E-003
  5.912773599533871E-003
  6.029226154826820E-003
  6.159415611045780E-003
  6.306885718039477E-003
  6.476455465070734E-003
  6.674220326377036E-003
  6.906230944752514E-003
  7.172771891032171E-003
  2.893058734410168E-004
  2.328729695899516E-004
  2.670035105477293E-004
  3.603577961371792E-004
  4.822392061392908E-004
  6.235116343279121E-004
  7.729723424566436E-004
  9.202618925779985E-004
  1.061664366370638E-003
  1.195925717622336E-003
  1.322527531327855E-003
  1.441260250673056E-003
  1.552131876401721E-003
  1.655339628520296E-003
  1.751241038713176E-003
  1.840317922160044E-003
  1.923138412605913E-003
  2.000322113009058E-003
  2.072511189515331E-003
  2.140348374145816E-003
  2.204461692927913E-003
  2.265455149803626E-003
  2.323904368462895E-003
  2.380356168951609E-003
  2.435331132500869E-003
  2.489328325541062E-003
  2.542831477421593E-003
  2.596316017107252E-003
  2.650256462930528E-003
  2.705133723066606E-003
  2.761441903056030E-003
  2.819694233168615E-003
  2.880427727095404E-003
  2.944206170056940E-003
  3.011621015175927E-003
  3.083289747023067E-003
  3.159851251024005E-003
  3.241957694682465E-003
  3.330262341071121E-003
  3.425402479510492E-003
  3.527976068930771E-003
  3.638509359150960E-003
  3.757410026181517E-003
  3.884895302874967E-003
  4.020876512970028E-003
  4.164772281629705E-003
  4.315225988781335E-003
  4.469773332538030E-003
  4.624832621815966E-003
  4.777588215600928E-003
  9.267378059408457E-004
  6.778092560169050E-004
  5.032899057091449E-004
  3.883094500748172E-004
  3.210712454068994E-004
  2.882503889640235E-004
  2.807820796507719E-004
  2.918379750691393E-004
  3.152180586259214E-004
  3.462690744538133E-004
  3.817654568004745E-004
  4.195256228746552E-004
  4.580954839046274E-004
  4.965297848239390E-004
  5.342448946683973E-004
  5.709172417219603E-004
  6.064106290773670E-004
  6.407226855980509E-004
  6.739448638251087E-004
  7.062326184831822E-004
  7.377835444762504E-004
  7.688218529621947E-004
  7.995879023160078E-004
  8.303317165313006E-004
  8.613095797218895E-004
  8.927829177637202E-004
  9.250187758110366E-004
  9.582912754838521E-004
  9.928834875692647E-004
  1.029089184127205E-003
  1.067213937044545E-003
  1.107575007603934E-003
  1.150499422764602E-003
  1.196319557377612E-003
  1.245365435289423E-003
  1.297952822269282E-003
  1.354366003633600E-003
  1.414833910492829E-003
  1.479497971836449E-003
  1.548369724805680E-003
  1.621275844147896E-003
  1.697787971685240E-003
  1.777134849724040E-003
  1.858095473396422E-003
  1.938875499844561E-003
  2.016976365050773E-003
  2.089075763452304E-003
  2.150930042478339E-003
  2.197191908780604E-003
  2.220455244191579E-003
  1.360124112026072E-003
  1.142591225423278E-003
  9.575023499905402E-004
  8.028001566207105E-004
  6.750772959348787E-004
  5.712246324098981E-004
  4.874052712787531E-004
  4.200061335549265E-004
  3.660317634205078E-004
  3.228265754094824E-004
  2.881133403003368E-004
  2.600343481507193E-004
  2.371310344411173E-004
  2.182895479745102E-004
  2.026776084622630E-004
  1.896854485730582E-004
  1.788754257437583E-004
  1.699409719894149E-004
  1.626740376785536E-004
  1.569397672437501E-004
  1.526571511849429E-004
  1.497845362779898E-004
  1.483090321900955E-004
  1.482389917136350E-004
  1.495988558932103E-004
  1.524257454439826E-004
  1.567672485836713E-004
  1.626799047215400E-004
  1.702279146528799E-004
  1.794816217203117E-004
  1.905153055191478E-004
  2.034038109310514E-004
  2.182175020201465E-004
  2.350149849746497E-004
  2.538329909294466E-004
  2.746727549961069E-004
  2.974821835589707E-004
  3.221330865100466E-004
  3.483927941844232E-004
  3.758896249035542E-004
  4.040719790180784E-004
  4.321613758198046E-004
  4.591005507500770E-004
  4.834986729094398E-004
  5.035763351173967E-004
  5.171121001640505E-004
  5.213889054119939E-004
  5.131368362011671E-004
  4.885053041361618E-004
  4.433502567521841E-004
  1.562064346048825E-003
  1.412880920861110E-003
  1.273700193051137E-003
  1.145168706548679E-003
  1.027459060112803E-003
  9.201409191599923E-004
  8.226565886243803E-004
  7.342236906560163E-004
  6.539121569942020E-004
  5.808174624059724E-004
  5.140917991136840E-004
  4.529593721887072E-004
  3.967321114623985E-004
  3.448182223265421E-004
  2.967215050949777E-004
  2.520336370882172E-004
  2.104225792005135E-004
  1.716197014992209E-004
  1.354073195420854E-004
  1.016075654354809E-004
  7.007298512932421E-005
  4.067892310709748E-005
  1.331756731477737E-005
 -1.210657106264251E-005
 -3.568001328654326E-005
 -5.748278999256873E-005
 -7.759032588799546E-005
 -9.607501361957819E-005
 -1.130077522606437E-004
 -1.284597217075049E-004
 -1.425046627718828E-004
 -1.552219333868898E-004
 -1.667006122561331E-004
 -1.770449192368894E-004
 -1.863812119089339E-004
 -1.948667935239317E-004
 -2.027007204223722E-004
 -2.101367172577352E-004
 -2.174981862168634E-004
 -2.251951253614735E-004
 -2.337425530057248E-004
 -2.437797856502578E-004
 -2.560896655359456E-004
 -2.716165929978719E-004
 -2.914818807456871E-004
 -3.169940601511289E-004
 -3.496493873958132E-004
 -3.911140385190779E-004
 -4.431869451074884E-004
 -5.078413361489372E-004
  1.626407788072292E-003
  1.526455471891898E-003
  1.428554218138083E-003
  1.333268753509811E-003
  1.240962405082698E-003
  1.151891714833769E-003
  1.066153973544517E-003
  9.837772050439869E-004
  9.047387067761135E-004
  8.289606577610518E-004
  7.563367347376455E-004
  6.867490457108092E-004
  6.200764120640123E-004
  5.561991854814599E-004
  4.950023352469076E-004
  4.363770712897021E-004
  3.802211260223125E-004
  3.264379883216721E-004
  2.749354834151271E-004
  2.256240761409786E-004
  1.784151905046833E-004
  1.332197346438076E-004
  8.994692566139227E-005
  4.850343441328862E-005
  8.792817363933694E-006
 -2.928483216841706E-005
 -6.583310205312479E-005
 -1.009594486114192E-004
 -1.347754576488576E-004
 -1.673972838232423E-004
 -1.989463694290742E-004
 -2.295505368916643E-004
 -2.593455386686493E-004
 -2.884771327440144E-004
 -3.171037299446717E-004
 -3.453996291844279E-004
 -3.735588168518366E-004
 -4.017992557622515E-004
 -4.303675270354461E-004
 -4.595436150576129E-004
 -4.896455406896130E-004
 -5.210334464440991E-004
 -5.541126069663806E-004
 -5.893346612361258E-004
 -6.271961508447077E-004
 -6.682333575271299E-004
 -7.130129748954373E-004
 -7.621199787730141E-004
 -8.161437617537955E-004
 -8.756280085121226E-004
  1.616611189633554E-003
  1.545988752391058E-003
  1.475314333651113E-003
  1.404700142248827E-003
  1.334254000160268E-003
  1.264075770257811E-003
  1.194283108620014E-003
  1.124995596786089E-003
  1.056337293040170E-003
  9.884390835860840E-004
  9.214310285363561E-004
  8.554377103936162E-004
  7.905752940763706E-004
  7.269489543031536E-004
  6.646506433085223E-004
  6.037574101972142E-004
  5.443303405097241E-004
  4.864140558260665E-004
  4.300366671540019E-004
  3.752100803709737E-004
  3.219305723836980E-004
  2.701795752884316E-004
  2.199246178091550E-004
  1.711203795742826E-004
  1.237098168186197E-004
  7.762531993963246E-005
  3.278986537598538E-005
 -1.088187283388147E-005
 -5.348248240370712E-005
 -9.511086836408295E-005
 -1.358714235501793E-004
 -1.758733247571294E-004
 -2.152299558438490E-004
 -2.540584479717525E-004
 -2.924793142997916E-004
 -3.306161417635314E-004
 -3.685952860078927E-004
 -4.065454971030222E-004
 -4.445973832677702E-004
 -4.828825971815033E-004
 -5.215326045672002E-004
 -5.606768690234309E-004
 -6.004402665618473E-004
 -6.409395421199658E-004
 -6.822786562202236E-004
 -7.245429238881063E-004
 -7.677917435889524E-004
 -8.120490295806202E-004
 -8.572898760471511E-004
 -9.034343265624411E-004
  1.563994652503614E-003
  1.511071193656054E-003
  1.457673093609065E-003
  1.403672560302993E-003
  1.348981071688307E-003
  1.293559616173928E-003
  1.237415532057210E-003
  1.180604245804841E-003
  1.123221349737023E-003
  1.065393244447003E-003
  1.007269257087381E-003
  9.490126888296869E-004
  8.907923355415547E-004
  8.327752730324458E-004
  7.751210172279216E-004
  7.179769994839623E-004
  6.614752638227386E-004
  6.057302665532568E-004
  5.508376326360492E-004
  4.968737088381823E-004
  4.438957545993065E-004
  3.919426241193627E-004
  3.410358122713952E-004
  2.911807582168187E-004
  2.423683213896656E-004
  1.945763634941111E-004
  1.477713869035239E-004
  1.019101943905192E-004
  5.694154774481669E-005
  1.280781384501370E-005
 -3.055340351469250E-005
 -7.320763905014526E-005
 -1.152219338131048E-004
 -1.566631734434551E-004
 -1.975963684393165E-004
 -2.380828423564684E-004
 -2.781782890347051E-004
 -3.179306562913004E-004
 -3.573778114513017E-004
 -3.965449443811882E-004
 -4.354416675159494E-004
 -4.740587810547794E-004
 -5.123646854468967E-004
 -5.503014393843159E-004
 -5.877804711080616E-004
 -6.246779490750836E-004
 -6.608298542890365E-004
 -6.960270669694045E-004
 -7.300112720057746E-004
 -7.624685135620057E-004
  1.484205159335631E-003
  1.443167749916199E-003
  1.401540912902090E-003
  1.359135426900185E-003
  1.315804381052249E-003
  1.271450472249368E-003
  1.226029796248695E-003
  1.179548758441641E-003
  1.132059486844425E-003
  1.083652753596469E-003
  1.034449318030112E-003
  9.845914323729720E-004
  9.342347545384909E-004
  8.835409913140281E-004
  8.326715556759837E-004
  7.817823667657832E-004
  7.310197960713682E-004
  6.805176893359302E-004
  6.303953544847091E-004
  5.807563873401265E-004
  5.316882015901658E-004
  4.832621333753810E-004
  4.355340010856904E-004
  3.885450151856920E-004
  3.423229490725005E-004
  2.968834986411080E-004
  2.522317742962465E-004
  2.083638840035767E-004
  1.652685792978898E-004
  1.229289478452784E-004
  8.132414623946791E-005
  4.043117527317598E-005
  2.267070533444357E-007
 -3.931102090354557E-005
 -7.820022507493393E-005
 -1.164534863816366E-004
 -1.540755279832989E-004
 -1.910608374910459E-004
 -2.273911139553542E-004
 -2.630325263868290E-004
 -2.979327807040727E-004
 -3.320180064546326E-004
 -3.651894940796370E-004
 -3.973203394830855E-004
 -4.282520892746379E-004
 -4.577915326443244E-004
 -4.857078430776405E-004
 -5.117302537920693E-004
 -5.355462645152896E-004
 -5.568016298959633E-004
  1.386935057691618E-003
  1.354829893205915E-003
  1.322027144932129E-003
  1.288361507158803E-003
  1.253700351973596E-003
  1.217951292872176E-003
  1.181065049587069E-003
  1.143035215339057E-003
  1.103894721741860E-003
  1.063710587943063E-003
  1.022577728295149E-003
  9.806122687102180E-004
  9.379450054648243E-004
  8.947153678376843E-004
  8.510660853524987E-004
  8.071386691666513E-004
  7.630697452733826E-004
  7.189882205314029E-004
  6.750132233484059E-004
  6.312527377084698E-004
  5.878028385428048E-004
  5.447474346473928E-004
  5.021584294604097E-004
  4.600962179344065E-004
  4.186104478423945E-004
  3.777409850229265E-004
  3.375190334492365E-004
  2.979683720515176E-004
  2.591066805450703E-004
  2.209469359231691E-004
  1.834988696309411E-004
  1.467704827197259E-004
  1.107696224646255E-004
  7.550562895285664E-005
  4.099106398275394E-005
  7.243537067343480E-006
 -2.571235583510646E-005
 -5.784296639261945E-005
 -8.910338999238172E-005
 -1.194351199751005E-004
 -1.487635671623859E-004
 -1.769954681168682E-004
 -2.040162283957129E-004
 -2.296872773407013E-004
 -2.538435480713344E-004
 -2.762912364957687E-004
 -2.968060327705049E-004
 -3.151320751126557E-004
 -3.309819876918551E-004
 -3.440379613095243E-004
  1.279602908921374E-003
  1.254677208364073E-003
  1.228942490325170E-003
  1.202283713873965E-003
  1.174608558500016E-003
  1.145853639359145E-003
  1.115987552622745E-003
  1.085010947716921E-003
  1.052954558538397E-003
  1.019875682014504E-003
  9.858537548328035E-004
  9.509855835405957E-004
  9.153805729453374E-004
  8.791562284145924E-004
  8.424341158321891E-004
  8.053363796212381E-004
  7.679828583159890E-004
  7.304887947658979E-004
  6.929631093496276E-004
  6.555071864555373E-004
  6.182141146475311E-004
  5.811683174282898E-004
  5.444455125345660E-004
  5.081129418235879E-004
  4.722298198416446E-004
  4.368479562656773E-004
  4.020125149378876E-004
  3.677628797714744E-004
  3.341336050763364E-004
  3.011554347023711E-004
  2.688563806615007E-004
  2.372628575568788E-004
  2.064008741047344E-004
  1.762972872408404E-004
  1.469811276153270E-004
  1.184850075228975E-004
  9.084662318938397E-005
  6.411036243454456E-005
  3.832902548353677E-005
  1.356566038853376E-005
 -1.010449574158625E-005
 -3.259199366647236E-005
 -5.379111201050480E-005
 -7.357783264103712E-005
 -9.180795792204240E-005
 -1.083155173063246E-004
 -1.229116564769965E-004
 -1.353842386164098E-004
 -1.454983756138722E-004
 -1.529982002597135E-004
  1.168332933223050E-003
  1.149304295672580E-003
  1.129385011891420E-003
  1.108509442834450E-003
  1.086626873325113E-003
  1.063706330983933E-003
  1.039739034588497E-003
  1.014738825394827E-003
  9.887409664515517E-004
  9.617998454314593E-004
  9.339860016122587E-004
  9.053828275405242E-004
  8.760832352406819E-004
  8.461864845834024E-004
  8.157953040380341E-004
  7.850133810713160E-004
  7.539432573184465E-004
  7.226846323694715E-004
  6.913330585026406E-004
  6.599789950883701E-004
  6.287071838197497E-004
  5.975963028124236E-004
  5.667188577121291E-004
  5.361412702322453E-004
  5.059241282608097E-004
  4.761225662315956E-004
  4.467867494339046E-004
  4.179624410348266E-004
  3.896916356142220E-004
  3.620132478326322E-004
  3.349638493928465E-004
  3.085784516351732E-004
  2.828913348843268E-004
  2.579369289363978E-004
  2.337507517347133E-004
  2.103704151133617E-004
  1.878367072485728E-004
  1.661947607386238E-004
  1.454953125511622E-004
  1.257960568026793E-004
  1.071630827221523E-004
  8.967237738097497E-005
  7.341135500658232E-005
  5.848035128084676E-005
  4.499399183261724E-005
  3.308231043344516E-005
  2.289145775161387E-005
  1.458381031057398E-005
  8.337262417410091E-006
  4.343536759102245E-006
  1.058059609097023E-003
  1.043846098903858E-003
  1.028708430706119E-003
  1.012619818128173E-003
  9.955628990351842E-004
  9.775332197236952E-004
  9.585410963774293E-004
  9.386120405357717E-004
  9.177860763344413E-004
  8.961162634032610E-004
  8.736667308573085E-004
  8.505104735640016E-004
  8.267271004469495E-004
  8.024006754559284E-004
  7.776177449450133E-004
  7.524656068668301E-004
  7.270308480251432E-004
  7.013981542426859E-004
  6.756493833744487E-004
  6.498628814277915E-004
  6.241130165170500E-004
  5.984699029421425E-004
  5.729992874983023E-004
  5.477625714704533E-004
  5.228169441377466E-004
  4.982156065898148E-004
  4.740080679685850E-004
  4.502404996819636E-004
  4.269561365699795E-004
  4.041957173382248E-004
  3.819979597569980E-004
  3.604000691027363E-004
  3.394382810335933E-004
  3.191484424870157E-004
  2.995666361286297E-004
  2.807298552423219E-004
  2.626767364776362E-004
  2.454483572821704E-004
  2.290891027366083E-004
  2.136476023866164E-004
  1.991777309615047E-004
  1.857396569507872E-004
  1.734009092776930E-004
  1.622374143538254E-004
  1.523344336262438E-004
  1.437873060502340E-004
  1.367018726910343E-004
  1.311944368627926E-004
  1.273911055122730E-004
  1.254263636977397E-004
  9.524882427047544E-004
  9.421304554963933E-004
  9.308638480021923E-004
  9.186882483361613E-004
  9.056092315914113E-004
  8.916405019272738E-004
  8.768051951565264E-004
  8.611362328610028E-004
  8.446759254250913E-004
  8.274750437333506E-004
  8.095915554158421E-004
  7.910891907337496E-004
  7.720359677318167E-004
  7.525027701005139E-004
  7.325620409497821E-004
  7.122866308156743E-004
  6.917488186958319E-004
  6.710195104543048E-004
  6.501676088330922E-004
  6.292595427216385E-004
  6.083589394955730E-004
  5.875264224670265E-004
  5.668195152195752E-004
  5.462926353948498E-004
  5.259971619771184E-004
  5.059815620409018E-004
  4.862915650816283E-004
  4.669703753068239E-004
  4.480589145400443E-004
  4.295960906085310E-004
  4.116190882175636E-004
  3.941636813157153E-004
  3.772645677812640E-004
  3.609557288718195E-004
  3.452708171733829E-004
  3.302435776727912E-004
  3.159083068815215E-004
  3.023003544563402E-004
  2.894566702226574E-004
  2.774163965662312E-004
  2.662215014490654E-004
  2.559174404029777E-004
  2.465538263840489E-004
  2.381850740603706E-004
  2.308709699755579E-004
  2.246771026759146E-004
  2.196750689790627E-004
  2.159423573168282E-004
  2.135618008861706E-004
  2.126205073380424E-004
  8.541299454848513E-004
  8.467805706097627E-004
  8.385771654764512E-004
  8.295354598022101E-004
  8.196745740340237E-004
  8.090185512137042E-004
  7.975972087432208E-004
  7.854463872968025E-004
  7.726077229602914E-004
  7.591280762687131E-004
  7.450587430850710E-004
  7.304545519909189E-004
  7.153729300857074E-004
  6.998729976128694E-004
  6.840147325185798E-004
  6.678582301512142E-004
  6.514630708890940E-004
  6.348877992051799E-004
  6.181895110943412E-004
  6.014235424416656E-004
  5.846432483179823E-004
  5.678998619343582E-004
  5.512424217101427E-004
  5.347177553192710E-004
  5.183705104519188E-004
  5.022432231888634E-004
  4.863764162068270E-004
  4.708087204280580E-004
  4.555770151314574E-004
  4.407165829112901E-004
  4.262612771778738E-004
  4.122437011086097E-004
  3.986953980581789E-004
  3.856470543805994E-004
  3.731287163639594E-004
  3.611700234536751E-004
  3.498004600626979E-004
  3.390496279069524E-004
  3.289475398162964E-004
  3.195249341762217E-004
  3.108136063454269E-004
  3.028467493582131E-004
  2.956592907751448E-004
  2.892882055721191E-004
  2.837727765341481E-004
  2.791547641268202E-004
  2.754784381113402E-004
  2.727904150612806E-004
  2.711392430471752E-004
  2.705746808860753E-004
  7.644347168999112E-004
  7.593642362551016E-004
  7.535210233536936E-004
  7.469284876536468E-004
  7.396119902757899E-004
  7.315997585024075E-004
  7.229233972372176E-004
  7.136180416279128E-004
  7.037222229518173E-004
  6.932775270043908E-004
  6.823281184224741E-004
  6.709201934997303E-004
  6.591014110732694E-004
  6.469203382169521E-004
  6.344259361483687E-004
  6.216671022645466E-004
  6.086922766795537E-004
  5.955491159451252E-004
  5.822842325467891E-004
  5.689429960128487E-004
  5.555693897821505E-004
  5.422059170956820E-004
  5.288935489003286E-004
  5.156717069088815E-004
  5.025782753930166E-004
  4.896496359112082E-004
  4.769207198836293E-004
  4.644250746886232E-004
  4.521949397042639E-004
  4.402613294417147E-004
  4.286541215853166E-004
  4.174021483499217E-004
  4.065332900835937E-004
  3.960745704489922E-004
  3.860522528231308E-004
  3.764919376972378E-004
  3.674186608482485E-004
  3.588569918264633E-004
  3.508311318266059E-004
  3.433650092441255E-004
  3.364823701023617E-004
  3.302068590422884E-004
  3.245620846796589E-004
  3.195716608459701E-004
  3.152592126642015E-004
  3.116483337003363E-004
  3.087624779591836E-004
  3.066247688214538E-004
  3.052577068728944E-004
  3.046827617191905E-004
  6.839870615056570E-004
  6.805871877035429E-004
  6.765098574138713E-004
  6.717804205002732E-004
  6.664253561985837E-004
  6.604727642684764E-004
  6.539526369656448E-004
  6.468969341134068E-004
  6.393394994524743E-004
  6.313158605728314E-004
  6.228629525905746E-004
  6.140188001375979E-004
  6.048221854450313E-004
  5.953123235115525E-004
  5.855285591268812E-004
  5.755100952624267E-004
  5.652957580820008E-004
  5.549238005573044E-004
  5.444317442674558E-004
  5.338562572934624E-004
  5.232330650471113E-004
  5.125968902642249E-004
  5.019814181238242E-004
  4.914192824348523E-004
  4.809420689749814E-004
  4.705803323053510E-004
  4.603636226692809E-004
  4.503205198885617E-004
  4.404786714364025E-004
  4.308648321185225E-004
  4.215049029677950E-004
  4.124239670915756E-004
  4.036463202697979E-004
  3.951954941030332E-004
  3.870942694541300E-004
  3.793646778372059E-004
  3.720279882919466E-004
  3.651046771949116E-004
  3.586143784260432E-004
  3.525758114106402E-004
  3.470066848825278E-004
  3.419235748276652E-004
  3.373417761445149E-004
  3.332751291520251E-004
  3.297358243286713E-004
  3.267341915591430E-004
  3.242784835763493E-004
  3.223746667225151E-004
  3.210262346954362E-004
  3.202340605036535E-004
  6.127219150629444E-004
  6.105021786336920E-004
  6.077039921352815E-004
  6.043510021424379E-004
  6.004675638394133E-004
  5.960789606240103E-004
  5.912115187485999E-004
  5.858926263963252E-004
  5.801506744946179E-004
  5.740149392287067E-004
  5.675154256536721E-004
  5.606826895631134E-004
  5.535476517556108E-004
  5.461414156462555E-004
  5.384950961838417E-004
  5.306396653942105E-004
  5.226058176994854E-004
  5.144238564155825E-004
  5.061236015221860E-004
  4.977343178409265E-004
  4.892846620919373E-004
  4.808026468851129E-004
  4.723156194433911E-004
  4.638502527342082E-004
  4.554325466331096E-004
  4.470878367335284E-004
  4.388408084131987E-004
  4.307155137470371E-004
  4.227353888006604E-004
  4.149232687357147E-004
  4.073013979915959E-004
  3.998914325919890E-004
  3.927144313552199E-004
  3.857908324771887E-004
  3.791404116518852E-004
  3.727822176161183E-004
  3.667344808453002E-004
  3.610144911468612E-004
  3.556384402467728E-004
  3.506212262586642E-004
  3.459762183875301E-004
  3.417149825210407E-004
  3.378469717505019E-004
  3.343791905110511E-004
  3.313158470351284E-004
  3.286580160650488E-004
  3.264033417149065E-004
  3.245458178031888E-004
  3.230756873770619E-004
  3.219795001605929E-004
  5.501291988839192E-004
  5.487073421857110E-004
  5.468023633457902E-004
  5.444341727017140E-004
  5.416232190532053E-004
  5.383905503738036E-004
  5.347578339866956E-004
  5.307473388134819E-004
  5.263818857287751E-004
  5.216847735795140E-004
  5.166796886893300E-004
  5.113906051151801E-004
  5.058416819358979E-004
  5.000571626632064E-004
  4.940612806667142E-004
  4.878781733747922E-004
  4.815318070277015E-004
  4.750459129284390E-004
  4.684439354709895E-004
  4.617489917054226E-004
  4.549838417994982E-004
  4.481708694592431E-004
  4.413320711432821E-004
  4.344890527250469E-004
  4.276630320926261E-004
  4.208748460127068E-004
  4.141449593983831E-004
  4.074934748972551E-004
  4.009401404369604E-004
  3.945043520308092E-004
  3.882051487464119E-004
  3.820611962809927E-004
  3.760907550853233E-004
  3.703116284626609E-004
  3.647410855774837E-004
  3.593957539186743E-004
  3.542914755695348E-004
  3.494431217609619E-004
  3.448643608121193E-004
  3.405673759054852E-004
  3.365625314394232E-004
  3.328579902724249E-004
  3.294592892749834E-004
  3.263688874999386E-004
  3.235857100538828E-004
  3.211047211768511E-004
  3.189165713054274E-004
  3.170073731711026E-004
  3.153586677564414E-004
  3.139476359458090E-004
  4.954286909215352E-004
  4.945170711777210E-004
  4.932092532152267E-004
  4.915205305209456E-004
  4.894667118266102E-004
  4.870641023869234E-004
  4.843294750553944E-004
  4.812800310705684E-004
  4.779333517229816E-004
  4.743073428944319E-004
  4.704201749158013E-004
  4.662902202845688E-004
  4.619359916548218E-004
  4.573760822147646E-004
  4.526291101952900E-004
  4.477136688459738E-004
  4.426482828250521E-004
  4.374513715808213E-004
  4.321412199905422E-004
  4.267359562273977E-004
  4.212535366013314E-004
  4.157117368905333E-004
  4.101281494847553E-004
  4.045201854589690E-004
  3.989050804779903E-004
  3.932999031903558E-004
  3.877215644763883E-004
  3.821868255734991E-004
  3.767123026927013E-004
  3.713144652603518E-004
  3.660096243702630E-004
  3.608139074201415E-004
  3.557432142588368E-004
  3.508131495147163E-004
  3.460389251702185E-004
  3.414352269957011E-004
  3.370160382374517E-004
  3.327944141724258E-004
  3.287822019773381E-004
  3.249897020724770E-004
  3.214252700101322E-004
  3.180948624014727E-004
  3.150015366788741E-004
  3.121449229131760E-004
  3.095206965703497E-004
  3.071200936567667E-004
  3.049295232109745E-004
  3.029303442719327E-004
  3.010988810953568E-004
  2.994067440245658E-004
  4.477078913417260E-004
  4.470981277876503E-004
  4.461681738360133E-004
  4.449285941794282E-004
  4.433905228759190E-004
  4.415656181197099E-004
  4.394660150747132E-004
  4.371042765654260E-004
  4.344933419854048E-004
  4.316464752270875E-004
  4.285772127007041E-004
  4.252993126091637E-004
  4.218267066307548E-004
  4.181734550404836E-004
  4.143537061424540E-004
  4.103816606927798E-004
  4.062715418003148E-004
  4.020375705988351E-004
  3.976939478109907E-004
  3.932548411540830E-004
  3.887343783744145E-004
  3.841466455379463E-004
  3.795056900254463E-004
  3.748255274874161E-004
  3.701201517800708E-004
  3.654035466304982E-004
  3.606896974414767E-004
  3.559926012471141E-004
  3.513262723540231E-004
  3.467047406472637E-004
  3.421420389094121E-004
  3.376521748080283E-004
  3.332490824717571E-004
  3.289465478457970E-004
  3.247581013532907E-004
  3.206968708939268E-004
  3.167753880030746E-004
  3.130053402722452E-004
  3.093972641022998E-004
  3.059601738253860E-004
  3.027011265125502E-004
  2.996247267608219E-004
  2.967325827804521E-004
  2.940227344778340E-004
  2.914890860241070E-004
  2.891208892713688E-004
  2.869023391934427E-004
  2.848123558229847E-004
  2.828246342647005E-004
  2.809080371241192E-004
  4.060229487462580E-004
  4.055705559519242E-004
  4.048622098788382E-004
  4.039041052216891E-004
  4.027030922544007E-004
  4.012666377893625E-004
  3.996027793112748E-004
  3.977200733938507E-004
  3.956275403262604E-004
  3.933346071073894E-004
  3.908510508793941E-004
  3.881869445974610E-004
  3.853526063981045E-004
  3.823585537785867E-004
  3.792154633802139E-004
  3.759341368848916E-004
  3.725254733002384E-004
  3.690004477138373E-004
  3.653700964354323E-004
  3.616455083071939E-004
  3.578378218326933E-004
  3.539582276450367E-004
  3.500179756849138E-004
  3.460283862814784E-004
  3.420008641120261E-004
  3.379469137398234E-004
  3.338781550914077E-004
  3.298063368185455E-004
  3.257433449927270E-004
  3.217012039992488E-004
  3.176920658367596E-004
  3.137281832959631E-004
  3.098218617301299E-004
  3.059853833620742E-004
  3.022308973931610E-004
  2.985702686680906E-004
  2.950148774608014E-004
  2.915753632590184E-004
  2.882613064835974E-004
  2.850808441720893E-004
  2.820402191432433E-004
  2.791432674069318E-004
  2.763908559842348E-004
  2.737802931318375E-004
  2.713047453072235E-004
  2.689527096811277E-004
  2.667076064213277E-004
  2.645475687389650E-004
  2.624455159643841E-004
  2.603695872062483E-004
  3.694668818195743E-004
  3.690770437848202E-004
  3.684840005505965E-004
  3.676901880630490E-004
  3.666987880810936E-004
  3.655137132766241E-004
  3.641395737997931E-004
  3.625816284002319E-004
  3.608457247421425E-004
  3.589382337179580E-004
  3.568659820473171E-004
  3.546361866330117E-004
  3.522563932936683E-004
  3.497344216964448E-004
  3.470783176499383E-004
  3.442963133798169E-004
  3.413967960098682E-004
  3.383882841680207E-004
  3.352794124261972E-004
  3.320789231182925E-004
  3.287956649622691E-004
  3.254385977910666E-004
  3.220168025811096E-004
  3.185394958108552E-004
  3.150160469916522E-004
  3.114559979627535E-004
  3.078690822185450E-004
  3.042652421383820E-004
  3.006546415032989E-004
  2.970476701038889E-004
  2.934549365941290E-004
  2.898872450122647E-004
  2.863555496269124E-004
  2.828708820110982E-004
  2.794442435650152E-004
  2.760864562071754E-004
  2.728079637887773E-004
  2.696185771166159E-004
  2.665271565617721E-004
  2.635412283832669E-004
  2.606665344253082E-004
  2.579065201812819E-004
  2.552617736865619E-004
  2.527294376246822E-004
  2.503026294522263E-004
  2.479699188940926E-004
  2.457149276070819E-004
  2.435161295875217E-004
  2.413469380904756E-004
  2.391761569743438E-004
  3.372111384352864E-004
  3.368262669012833E-004
  3.362804331282714E-004
  3.355730266000273E-004
  3.347042607093577E-004
  3.336751897053952E-004
  3.324876928761455E-004
  3.311444311968888E-004
  3.296487841370021E-004
  3.280047744989128E-004
  3.262169882199606E-004
  3.242904946849422E-004
  3.222307716576990E-004
  3.200436376412326E-004
  3.177351933935174E-004
  3.153117734815761E-004
  3.127799081306958E-004
  3.101462951769911E-004
  3.074177816332365E-004
  3.046013541711187E-004
  3.017041376895001E-004
  2.987334010310976E-004
  2.956965688108662E-004
  2.926012381971536E-004
  2.894551993271226E-004
  2.862664578222173E-004
  2.830432575789381E-004
  2.797941016445147E-004
  2.765277685281232E-004
  2.732533207530860E-004
  2.699801018252021E-004
  2.667177170917871E-004
  2.634759932283988E-004
  2.602649103564381E-004
  2.570945001427171E-004
  2.539747027532629E-004
  2.509151753829146E-004
  2.479250454291052E-004
  2.450126024687525E-004
  2.421849253213769E-004
  2.394474439799951E-004
  2.368034414208140E-004
  2.342535076575457E-004
  2.317949681282487E-004
  2.294213206642056E-004
  2.271217295172220E-004
  2.248806400037085E-004
  2.226775907347040E-004
  2.204873073611880E-004
  2.182801540076624E-004
  3.085268288570280E-004
  3.081161645698413E-004
  3.075776290581207E-004
  3.069082799177483E-004
  3.061060565428667E-004
  3.051698298904207E-004
  3.040994054908156E-004
  3.028954869069006E-004
  3.015596102296494E-004
  3.000940604269554E-004
  2.985017790549738E-004
  2.967862709290447E-004
  2.949515153678094E-004
  2.930018858352580E-004
  2.909420803237289E-004
  2.887770636664871E-004
  2.865120221129605E-004
  2.841523299061542E-004
  2.817035272002003E-004
  2.791713084023572E-004
  2.765615198708822E-004
  2.738801657980253E-004
  2.711334210247941E-004
  2.683276494429678E-004
  2.654694265169903E-004
  2.625655642745771E-004
  2.596231368712135E-004
  2.566495045021401E-004
  2.536523330222591E-004
  2.506396061245782E-004
  2.476196263459039E-004
  2.446010005042342E-004
  2.415926044808483E-004
  2.386035215635710E-004
  2.356429479545633E-004
  2.327200585996462E-004
  2.298438263589457E-004
  2.270227878918071E-004
  2.242647506868051E-004
  2.215764377268896E-004
  2.189630696509373E-004
  2.164278893146883E-004
  2.139716407176352E-004
  2.115920236004303E-004
  2.092831566861544E-004
  2.070350961600785E-004
  2.048334704180878E-004
  2.026593049216085E-004
  2.004891176107129E-004
  1.982953578289478E-004
  2.827914181078556E-004
  2.823426730014653E-004
  2.817914799073842E-004
  2.811332221467256E-004
  2.803641997448535E-004
  2.794817088972266E-004
  2.784840625397274E-004
  2.773705608679604E-004
  2.761414248335230E-004
  2.747977059412747E-004
  2.733411840793266E-004
  2.717742627535059E-004
  2.700998686675980E-004
  2.683213603775955E-004
  2.664424489310145E-004
  2.644671319648557E-004
  2.623996416957871E-004
  2.602444064946850E-004
  2.580060252534460E-004
  2.556892534489081E-004
  2.532989996389225E-004
  2.508403310169514E-004
  2.483184865967827E-004
  2.457388965251109E-004
  2.431072059334746E-004
  2.404293015948303E-004
  2.377113394455609E-004
  2.349597707471377E-004
  2.321813642920886E-004
  2.293832215965587E-004
  2.265727814922542E-004
  2.237578099095823E-004
  2.209463700122052E-004
  2.181467671886651E-004
  2.153674628415768E-004
  2.126169505002834E-004
  2.099035876695445E-004
  2.072353771625229E-004
  2.046196926860193E-004
  2.020629453997198E-004
  1.995701913667587E-004
  1.971446845907481E-004
  1.947873870088688E-004
  1.924964556391810E-004
  1.902667380861388E-004
  1.880893204611247E-004
  1.859511853719758E-004
  1.838350496838578E-004
  1.817194579521810E-004
  1.795792003077634E-004
  2.594857249032890E-004
  2.589986043748910E-004
  2.584282480177266E-004
  2.577689345998782E-004
  2.570158720369651E-004
  2.561653012575021E-004
  2.552145316897687E-004
  2.541619184411151E-004
  2.530067960513515E-004
  2.517493840717703E-004
  2.503906779133653E-004
  2.489323357252641E-004
  2.473765692831271E-004
  2.457260443457546E-004
  2.439837938365289E-004
  2.421531455810154E-004
  2.402376651137011E-004
  2.382411132300270E-004
  2.361674173975865E-004
  2.340206558025375E-004
  2.318050526127434E-004
  2.295249829414459E-004
  2.271849859462809E-004
  2.247897844486354E-004
  2.223443094037769E-004
  2.198537274387505E-004
  2.173234695096185E-004
  2.147592584819906E-004
  2.121671331212365E-004
  2.095534655616520E-004
  2.069249688412141E-004
  2.042886905337224E-004
  2.016519879210241E-004
  1.990224795533163E-004
  1.964079675270104E-004
  1.938163244283378E-004
  1.912553387983318E-004
  1.887325132892278E-004
  1.862548106523332E-004
  1.838283445205221E-004
  1.814580149420058E-004
  1.791470930867645E-004
  1.768967657786409E-004
  1.747056587362669E-004
  1.725693676734622E-004
  1.704800383737810E-004
  1.684260495199459E-004
  1.663918632482194E-004
  1.643581141545194E-004
  1.623020008053872E-004
  2.381850372918585E-004
  2.376663989489453E-004
  2.370788591267470E-004
  2.364160623125400E-004
  2.356725745171152E-004
  2.348440053728232E-004
  2.339270552838554E-004
  2.329194984994074E-004
  2.318201182344587E-004
  2.306286103885816E-004
  2.293454704712560E-004
  2.279718754527135E-004
  2.265095692423281E-004
  2.249607577611571E-004
  2.233280172978831E-004
  2.216142180543788E-004
  2.198224634734028E-004
  2.179560450191127E-004
  2.160184114658869E-004
  2.140131513926749E-004
  2.119439873657442E-004
  2.098147801990599E-004
  2.076295416414065E-004
  2.053924538135672E-004
  2.031078936796487E-004
  2.007804607623153E-004
  1.984150061736828E-004
  1.960166608320667E-004
  1.935908604511842E-004
  1.911433645292364E-004
  1.886802661242568E-004
  1.862079887104231E-004
  1.837332658678307E-004
  1.812630990234225E-004
  1.788046879864672E-004
  1.763653286805333E-004
  1.739522723866978E-004
  1.715725411230089E-004
  1.692326946729657E-004
  1.669385464782418E-004
  1.646948283747084E-004
  1.625048082816872E-004
  1.603698707128179E-004
  1.582890775760185E-004
  1.562587362080471E-004
  1.542720126260568E-004
  1.523186396506793E-004
  1.503847798716550E-004
  1.484531087036708E-004
  1.465031766096034E-004
  2.185471785213430E-004
  2.180075535297525E-004
  2.174096436388223E-004
  2.167468308158788E-004
  2.160133941585309E-004
  2.152046440525277E-004
  2.143169776277933E-004
  2.133478667995545E-004
  2.122957956711962E-004
  2.111601645578654E-004
  2.099411758746280E-004
  2.086397141467867E-004
  2.072572292533230E-004
  2.057956291700757E-004
  2.042571860938621E-004
  2.026444579727066E-004
  2.009602260865259E-004
  1.992074483521741E-004
  1.973892273948323E-004
  1.955087920346667E-004
  1.935694906306172E-004
  1.915747946235695E-004
  1.895283105925939E-004
  1.874337991244719E-004
  1.852951987808975E-004
  1.831166533925267E-004
  1.809025408077292E-004
  1.786575010507941E-004
  1.763864616043023E-004
  1.740946572107772E-004
  1.717876412070524E-004
  1.694712849477059E-004
  1.671517614022896E-004
  1.648355085208749E-004
  1.625291675324733E-004
  1.602394910376045E-004
  1.579732156813524E-004
  1.557368944785425E-004
  1.535366846875392E-004
  1.513780886849880E-004
  1.492656478372121E-004
  1.472025931496360E-004
  1.451904617507898E-004
  1.432286952312884E-004
  1.413142445357658E-004
  1.394412162059268E-004
  1.376006054538714E-004
  1.357801709739709E-004
  1.339645112171525E-004
  1.321353961875617E-004
  2.002995168696514E-004
  1.997507235297847E-004
  1.991515133300704E-004
  1.984952873228907E-004
  1.977763060875753E-004
  1.969898302772507E-004
  1.961321812408285E-004
  1.952007330720155E-004
  1.941938530095504E-004
  1.931108076180795E-004
  1.919516501666689E-004
  1.907171016220112E-004
  1.894084344932925E-004
  1.880273658992601E-004
  1.865759638133770E-004
  1.850565685639639E-004
  1.834717302613114E-004
  1.818241618451154E-004
  1.801167067965062E-004
  1.783523201641536E-004
  1.765340613407773E-004
  1.746650969359621E-004
  1.727487120605019E-004
  1.707883283434331E-004
  1.687875269948081E-004
  1.667500752009846E-004
  1.646799540493078E-004
  1.625813860506304E-004
  1.604588601119121E-004
  1.583171515388105E-004
  1.561613343028072E-004
  1.539967824129835E-004
  1.518291567971984E-004
  1.496643736641863E-004
  1.475085499315875E-004
  1.453679210323942E-004
  1.432487263467707E-004
  1.411570577732254E-004
  1.390986676994305E-004
  1.370787340637058E-004
  1.351015825046600E-004
  1.331703690506361E-004
  1.312867315971280E-004
  1.294504247665620E-004
  1.276589606222347E-004
  1.259072869151969E-004
  1.241875442295677E-004
  1.224889519798135E-004
  1.207978775660706E-004
  1.190981378450919E-004
  1.832262351307853E-004
  1.826798375440244E-004
  1.820889244971683E-004
  1.814471197444621E-004
  1.807488591613891E-004
  1.799895327916624E-004
  1.791655478776306E-004
  1.782743240142729E-004
  1.773142370646684E-004
  1.762845289969869E-004
  1.751851988445035E-004
  1.740168870317949E-004
  1.727807622058543E-004
  1.714784168681031E-004
  1.701117757385876E-004
  1.686830189211442E-004
  1.671945205513421E-004
  1.656488026429966E-004
  1.640485032013642E-004
  1.623963572838955E-004
  1.606951894798374E-004
  1.589479161866783E-004
  1.571575560463451E-004
  1.553272469056132E-004
  1.534602676801580E-004
  1.515600634792353E-004
  1.496302722895462E-004
  1.476747514017210E-004
  1.456976015874319E-004
  1.437031867909675E-004
  1.416961468012678E-004
  1.396814000130246E-004
  1.376641330040343E-004
  1.356497732655026E-004
  1.336439410757498E-004
  1.316523762672496E-004
  1.296808355754662E-004
  1.277349565076255E-004
  1.258200843463382E-004
  1.239410601922258E-004
  1.221019700523122E-004
  1.203058580932569E-004
  1.185544115332515E-004
  1.168476303751039E-004
  1.151835023254709E-004
  1.135577115520119E-004
  1.119634187117601E-004
  1.103911574270145E-004
  1.088288963288632E-004
  1.072623111171309E-004
  1.671566550709807E-004
  1.666230528572770E-004
  1.660494806101094E-004
  1.654299239298130E-004
  1.647591263631555E-004
  1.640327289414742E-004
  1.632473333231741E-004
  1.624004992473204E-004
  1.614906923110122E-004
  1.605171986139487E-004
  1.594800209291041E-004
  1.583797682273481E-004
  1.572175473879281E-004
  1.559948631908902E-004
  1.547135304071867E-004
  1.533755999999381E-004
  1.519833001118276E-004
  1.505389915774511E-004
  1.490451370711067E-004
  1.475042826251093E-004
  1.459190500540642E-004
  1.442921387255830E-004
  1.426263351122360E-004
  1.409245285655961E-004
  1.391897317709656E-004
  1.374251043367206E-004
  1.356339779264330E-004
  1.338198812445226E-004
  1.319865630432238E-004
  1.301380111020386E-004
  1.282784648681566E-004
  1.264124191344343E-004
  1.245446157884598E-004
  1.226800203204751E-004
  1.208237794694437E-004
  1.189811561694181E-004
  1.171574379094548E-004
  1.153578148432691E-004
  1.135872245974720E-004
  1.118501618875194E-004
  1.101504529472788E-004
  1.084909975766665E-004
  1.068734855399015E-004
  1.052980991962555E-004
  1.037632206799457E-004
  1.022651694228949E-004
  1.007980037114120E-004
  9.935342693993139E-005
  9.792084276724280E-005
  9.648759917095132E-005
  1.519550311373747E-004
  1.514430025396554E-004
  1.508946553747062E-004
  1.503044250436082E-004
  1.496674465043502E-004
  1.489796881587912E-004
  1.482380132797000E-004
  1.474401790773957E-004
  1.465847885457404E-004
  1.456712107391597E-004
  1.446994833633728E-004
  1.436702088929200E-004
  1.425844525888123E-004
  1.414436482164052E-004
  1.402495150851615E-004
  1.390039883384899E-004
  1.377091631447278E-004
  1.363672525498866E-004
  1.349805581589420E-004
  1.335514524557364E-004
  1.320823713729471E-004
  1.305758156516514E-004
  1.290343595042377E-004
  1.274606651255262E-004
  1.258575016052979E-004
  1.242277668034578E-004
  1.225745107133952E-004
  1.209009587661697E-004
  1.192105333937887E-004
  1.175068719924572E-004
  1.157938391935436E-004
  1.140755310703696E-004
  1.123562686110843E-004
  1.106405774765577E-004
  1.089331507895484E-004
  1.072387915093940E-004
  1.055623309013691E-004
  1.039085198138948E-004
  1.022818900219642E-004
  1.006865839421506E-004
  9.912615271522458E-005
  9.760332517299761E-005
  9.611975370839480E-005
  9.467574770061184E-005
  9.327001089828396E-005
  9.189940586367375E-005
  9.055877566562539E-005
  8.924085923709931E-005
  8.793633999754202E-005
  8.663406356101489E-005
  1.375119621563216E-004
  1.370285183833193E-004
  1.365118517414213E-004
  1.359568963283164E-004
  1.353592252317111E-004
  1.347151764229224E-004
  1.340219110756928E-004
  1.332774136848279E-004
  1.324804480713468E-004
  1.316304838410658E-004
  1.307276062330631E-004
  1.297724198072221E-004
  1.287659537889026E-004
  1.277095744815120E-004
  1.266049081414271E-004
  1.254537761170759E-004
  1.242581428731052E-004
  1.230200766814469E-004
  1.217417222111255E-004
  1.204252839083430E-004
  1.190730188818173E-004
  1.176872379303041E-004
  1.162703133400930E-004
  1.148246920969015E-004
  1.133529131816278E-004
  1.118576276236477E-004
  1.103416199635754E-004
  1.088078297136141E-004
  1.072593712940805E-004
  1.056995507660362E-004
  1.041318774765577E-004
  1.025600684924257E-004
  1.009880434254098E-004
  9.941990698586733E-005
  9.785991635347335E-005
  9.631243028674923E-005
  9.478183685357030E-005
  9.327245684551922E-005
  9.178842042688472E-005
  9.033351550172174E-005
  8.891100779053154E-005
  8.752343485306042E-005
  8.617237942084622E-005
  8.485823152700261E-005
  8.357995405204886E-005
  8.233487227928377E-005
  8.111851435971907E-005
  7.992453515075707E-005
  7.874475872009027E-005
  7.756937144322611E-005
  1.237373954491386E-004
  1.232878363625313E-004
  1.228078330789881E-004
  1.222928387181598E-004
  1.217388841998426E-004
  1.211426944896691E-004
  1.205017427962616E-004
  1.198142513000049E-004
  1.190791513209776E-004
  1.182960162823787E-004
  1.174649793425330E-004
  1.165866452862621E-004
  1.156620038612680E-004
  1.146923495324877E-004
  1.136792107784814E-004
  1.126242905967072E-004
  1.115294187870540E-004
  1.103965158274876E-004
  1.092275676321229E-004
  1.080246101836374E-004
  1.067897228593924E-004
  1.055250292028306E-004
  1.042327038854872E-004
  1.029149846194252E-004
  1.015741878066965E-004
  1.002127267185940E-004
  9.883313098841305E-005
  9.743806613647752E-005
  9.603035176715885E-005
  9.461297692740751E-005
  9.318911094973682E-005
  9.176210787964781E-005
  9.033550235924635E-005
  8.891299459555716E-005
  8.749842182541946E-005
  8.609571354441817E-005
  8.470882772876196E-005
  8.334166543829511E-005
  8.199796162658863E-005
  8.068115080732333E-005
  7.939420756000357E-005
  7.813946385437154E-005
  7.691840794008850E-005
  7.573147320495937E-005
  7.457782995648989E-005
  7.345519837380663E-005
  7.235970647251913E-005
  7.128582185664500E-005
  7.022638853548279E-005
  6.917279710773409E-005
  1.105550925254790E-004
  1.101431816491393E-004
  1.097034497652199E-004
  1.092318694686002E-004
  1.087249304601998E-004
  1.081797450548312E-004
  1.075940975654410E-004
  1.069664453009529E-004
  1.062958828400803E-004
  1.055820816459661E-004
  1.048252157633172E-004
  1.040258822695881E-004
  1.031850229865095E-004
  1.023038519560851E-004
  1.013837915120420E-004
  1.004264184606424E-004
  9.943342089174085E-005
  9.840656545086637E-005
  9.734767443930723E-005
  9.625861182544774E-005
  9.514127710467563E-005
  9.399760587972454E-005
  9.282957602397186E-005
  9.163921831552155E-005
  9.042863044382572E-005
  8.919999330803092E-005
  8.795558851404508E-005
  8.669781592837364E-005
  8.542921007705521E-005
  8.415245404920495E-005
  8.287038941554243E-005
  8.158602048591367E-005
  8.030251101939018E-005
  7.902317129782871E-005
  7.775143327569016E-005
  7.649081139328001E-005
  7.524484661037950E-005
  7.401703135421995E-005
  7.281071346019139E-005
  7.162897790857722E-005
  7.047450633947472E-005
  6.934941607549614E-005
  6.825508282836308E-005
  6.719195447872032E-005
  6.615936732800653E-005
  6.515538088507316E-005
  6.417665217215340E-005
  6.321837488291126E-005
  6.227431093071514E-005
  6.133693930000754E-005
  9.789837045331133E-005
  9.752657037126336E-005
  9.712952064950517E-005
  9.670370088200921E-005
  9.624604831971998E-005
  9.575405199746057E-005
  9.522579686551015E-005
  9.465996480806935E-005
  9.405580292153916E-005
  9.341306979963117E-005
  9.273196938927404E-005
  9.201308014696003E-005
  9.125728529509351E-005
  9.046570819479208E-005
  8.963965536210535E-005
  8.878056847919961E-005
  8.788998586787505E-005
  8.696951327702638E-005
  8.602080341871574E-005
  8.504554343977049E-005
  8.404544937955233E-005
  8.302226660843301E-005
  8.197777523854012E-005
  8.091379951036102E-005
  7.983222018574478E-005
  7.873498898433098E-005
  7.762414409730021E-005
  7.650182577233135E-005
  7.537029089811355E-005
  7.423192541335824E-005
  7.308925323096029E-005
  7.194494021003797E-005
  7.080179152167793E-005
  6.966274057961456E-005
  6.853082753530754E-005
  6.740916522511765E-005
  6.630089043131214E-005
  6.520909843750440E-005
  6.413675919680300E-005
  6.308661405747566E-005
  6.206105302480124E-005
  6.106197406093342E-005
  6.009062805957320E-005
  5.914745593707769E-005
  5.823192778646205E-005
  5.734239810412870E-005
  5.647599540995431E-005
  5.562856836734476E-005
  5.479471244247492E-005
  5.396789885114971E-005
  8.570691278238509E-005
  8.537664047457641E-005
  8.502369993213584E-005
  8.464505768979101E-005
  8.423808018558335E-005
  8.380061619385154E-005
  8.333103546540625E-005
  8.282822958436491E-005
  8.229158412985798E-005
  8.172093155777129E-005
  8.111649317831831E-005
  8.047881701249537E-005
  7.980871660498667E-005
  7.910721432041122E-005
  7.837549134071263E-005
  7.761484554453693E-005
  7.682665768693161E-005
  7.601236574112166E-005
  7.517344691545124E-005
  7.431140662364419E-005
  7.342777358268629E-005
  7.252410015177346E-005
  7.160196703032571E-005
  7.066299144178446E-005
  6.970883795180144E-005
  6.874123108506380E-005
  6.776196889014623E-005
  6.677293658263042E-005
  6.577611932849847E-005
  6.477361315459343E-005
  6.376763284262890E-005
  6.276051554116694E-005
  6.175471866273413E-005
  6.075281047860621E-005
  5.975745168515630E-005
  5.877136611019927E-005
  5.779729870894719E-005
  5.683795910000425E-005
  5.589594918334167E-005
  5.497367392148703E-005
  5.407323525713761E-005
  5.319631045478198E-005
  5.234401799732156E-005
  5.151677658852882E-005
  5.071416583842206E-005
  4.993480072145296E-005
  4.917623561382335E-005
  4.843491698979661E-005
  4.770620553076909E-005
  4.698448641204008E-005
  7.392444655911749E-005
  7.363632251757306E-005
  7.332815464670611E-005
  7.299737275525593E-005
  7.264175070566010E-005
  7.225947708737194E-005
  7.184918825855280E-005
  7.140996892190371E-005
  7.094132803802517E-005
  7.044315816957409E-005
  6.991568546186786E-005
  6.935941608785974E-005
  6.877508352672184E-005
  6.816359971013896E-005
  6.752601194150710E-005
  6.686346660762553E-005
  6.617718003583582E-005
  6.546841638450815E-005
  6.473847213810111E-005
  6.398866659441451E-005
  6.322033762263736E-005
  6.243484193762767E-005
  6.163355912307723E-005
  6.081789865757233E-005
  5.998930921096298E-005
  5.914928948703872E-005
  5.829939989311682E-005
  5.744127428205819E-005
  5.657663097072053E-005
  5.570728216389986E-005
  5.483514081279003E-005
  5.396222382385969E-005
  5.309065039630955E-005
  5.222263413876373E-005
  5.136046748704982E-005
  5.050649686466356E-005
  4.966308700665172E-005
  4.883257295306495E-005
  4.801719846066598E-005
  4.721904005217186E-005
  4.643991666239902E-005
  4.568128597235468E-005
  4.494413008017577E-005
  4.422883522058127E-005
  4.353507281529823E-005
  4.286169212718187E-005
  4.220663794845407E-005
  4.156690954687935E-005
  4.093857850846026E-005
  4.031688143169867E-005
  6.249709850814456E-005
  6.225117415574303E-005
  6.198788745200257E-005
  6.170510703791563E-005
  6.140099169943498E-005
  6.107404936442556E-005
  6.072316454402726E-005
  6.034759854489358E-005
  5.994696900269315E-005
  5.952121552984491E-005
  5.907055752403336E-005
  5.859544903450259E-005
  5.809653435023316E-005
  5.757460686047867E-005
  5.703057278343201E-005
  5.646542061853675E-005
  5.588019661835581E-005
  5.527598618103202E-005
  5.465390080355051E-005
  5.401507007733546E-005
  5.336063812076947E-005
  5.269176381035988E-005
  5.200962416765485E-005
  5.131542027240413E-005
  5.061038508562316E-005
  4.989579257876818E-005
  4.917296755986829E-005
  4.844329556801957E-005
  4.770823217013384E-005
  4.696931092842608E-005
  4.622814923215961E-005
  4.548645108148370E-005
  4.474600580979412E-005
  4.400868160980748E-005
  4.327641263608672E-005
  4.255117837607004E-005
  4.183497397050607E-005
  4.112977023333816E-005
  4.043746232239335E-005
  3.975980639795221E-005
  3.909834423010796E-005
  3.845431664911599E-005
  3.782856803483182E-005
  3.722144575483709E-005
  3.663270060348718E-005
  3.606139678468141E-005
  3.550584261232570E-005
  3.496355542594230E-005
  3.443127540378906E-005
  3.390504155091654E-005
  5.137226734115969E-005
  5.116822295352170E-005
  5.094955742302720E-005
  5.071455494294695E-005
  5.046173778352250E-005
  5.018991379206084E-005
  4.989819828633990E-005
  4.958601385707611E-005
  4.925307339667708E-005
  4.889935187841370E-005
  4.852505180330760E-005
  4.813056628749696E-005
  4.771644277819166E-005
  4.728334945939504E-005
  4.683204565055229E-005
  4.636335688435967E-005
  4.587815490503111E-005
  4.537734250128247E-005
  4.486184288070690E-005
  4.433259315645698E-005
  4.379054145755055E-005
  4.323664713506199E-005
  4.267188354479390E-005
  4.209724288926483E-005
  4.151374261958994E-005
  4.092243290323440E-005
  4.032440466510052E-005
  3.972079768880209E-005
  3.911280823825096E-005
  3.850169560760829E-005
  3.788878694249911E-005
  3.727547959640699E-005
  3.666324019845444E-005
  3.605359951412416E-005
  3.544814210071812E-005
  3.484848969963149E-005
  3.425627729161194E-005
  3.367312079862503E-005
  3.310057557770248E-005
  3.254008515943792E-005
  3.199292019135789E-005
  3.146010829179047E-005
  3.094235657616911E-005
  3.043996999908027E-005
  2.995277038467424E-005
  2.948002302660877E-005
  2.902037987442340E-005
  2.857185018782348E-005
  2.813181050861538E-005
  2.769706466003182E-005
  4.049787585568804E-005
  4.033518645441751E-005
  4.016067345719990E-005
  3.997301573472319E-005
  3.977107981888734E-005
  3.955395612231673E-005
  3.932097537143570E-005
  3.907170796876498E-005
  3.880595040760649E-005
  3.852370301980402E-005
  3.822514286570503E-005
  3.791059484979314E-005
  3.758050336997412E-005
  3.723540610069248E-005
  3.687591090960572E-005
  3.650267644280279E-005
  3.611639655407431E-005
  3.571778851188949E-005
  3.530758474923286E-005
  3.488652782307105E-005
  3.445536819627136E-005
  3.401486443631848E-005
  3.356578541768390E-005
  3.310891413269392E-005
  3.264505271638442E-005
  3.217502830563173E-005
  3.169969934657564E-005
  3.121996195479557E-005
  3.073675591027316E-005
  3.025106982541207E-005
  2.976394498207652E-005
  2.927647726433098E-005
  2.878981655098022E-005
  2.830516285591459E-005
  2.782375844222026E-005
  2.734687509119531E-005
  2.687579568901130E-005
  2.641178934307182E-005
  2.595607935745195E-005
  2.550980363409141E-005
  2.507396745659271E-005
  2.464938918372008E-005
  2.423664019458677E-005
  2.383598148558716E-005
  2.344730065492989E-005
  2.307005455750421E-005
  2.270322455221934E-005
  2.234529270812627E-005
  2.199424807957706E-005
  2.164763127730363E-005
  2.982189304082057E-005
  2.969996311656599E-005
  2.956905768694155E-005
  2.942823257347400E-005
  2.927668224340162E-005
  2.911376496693943E-005
  2.893901388126989E-005
  2.875213590050250E-005
  2.855300142034348E-005
  2.834162788886981E-005
  2.811815996845054E-005
  2.788284849636392E-005
  2.763602989421391E-005
  2.737810716756842E-005
  2.710953320605627E-005
  2.683079675915245E-005
  2.654241121047987E-005
  2.624490609273362E-005
  2.593882117248457E-005
  2.562470285835849E-005
  2.530310265219083E-005
  2.497457734673729E-005
  2.463969067402052E-005
  2.429901611540911E-005
  2.395314058916911E-005
  2.360266874471834E-005
  2.324822758369499E-005
  2.289047112559199E-005
  2.253008481597542E-005
  2.216778935183594E-005
  2.180434355679752E-005
  2.144054590185186E-005
  2.107723421212073E-005
  2.071528305075768E-005
  2.035559822588086E-005
  1.999910782848221E-005
  1.964674920278942E-005
  1.929945127423517E-005
  1.895811174932110E-005
  1.862356886306030E-005
  1.829656762806537E-005
  1.797772093747609E-005
  1.766746645494559E-005
  1.736602097229153E-005
  1.707333486216612E-005
  1.678905035068330E-005
  1.651246850085691E-005
  1.624253082276802E-005
  1.597782195243763E-005
  1.571659921819196E-005
  1.929204096124620E-005
  1.921031085050605E-005
  1.912249797078667E-005
  1.902802091280478E-005
  1.892638900413223E-005
  1.881721659513947E-005
  1.870022883764771E-005
  1.857526013273958E-005
  1.844224705367358E-005
  1.830121761852951E-005
  1.815227858171367E-005
  1.799560208965504E-005
  1.783141270504781E-005
  1.765997549022670E-005
  1.748158557464864E-005
  1.729655942818883E-005
  1.710522790484462E-005
  1.690793101219807E-005
  1.670501429390554E-005
  1.649682666877690E-005
  1.628371954529078E-005
  1.606604702737531E-005
  1.584416702522820E-005
  1.561844308924865E-005
  1.538924679487331E-005
  1.515696050587281E-005
  1.492198034695581E-005
  1.468471921259570E-005
  1.444560962538597E-005
  1.420510624706362E-005
  1.396368781694699E-005
  1.372185827113568E-005
  1.348014676061722E-005
  1.323910625931430E-005
  1.299931041693653E-005
  1.276134829711689E-005
  1.252581662387431E-005
  1.229330918040526E-005
  1.206440305213081E-005
  1.183964149449854E-005
  1.161951337792720E-005
  1.140442939389156E-005
  1.119469554913109E-005
  1.099048492783380E-005
  1.079180926028167E-005
  1.059849249864675E-005
  1.041014929931368E-005
  1.022617192285026E-005
  1.004572938385125E-005
  9.867782305799536E-006
  8.855622784992629E-006
  8.813650444246660E-006
  8.768527984844191E-006
  8.720026300535153E-006
  8.667959904264667E-006
  8.612190481866337E-006
  8.552627446309391E-006
  8.489225919387283E-006
  8.421982817243568E-006
  8.350931738849699E-006
  8.276137282719467E-006
  8.197689288629780E-006
  8.115697370540293E-006
  8.030285987222896E-006
  7.941590194548894E-006
  7.849752146238334E-006
  7.754918353410635E-006
  7.657237669370873E-006
  7.556859945048213E-006
  7.453935283804127E-006
  7.348613817551577E-006
  7.241045925196131E-006
  7.131382818871955E-006
  7.019777422892843E-006
  6.906385475506230E-006
  6.791366789296288E-006
  6.674886604168336E-006
  6.557116964763507E-006
  6.438238056960493E-006
  6.318439427713610E-006
  6.197921004219726E-006
  6.076893823732957E-006
  5.955580365716929E-006
  5.834214371527121E-006
  5.713040021703629E-006
  5.592310326691388E-006
  5.472284588731647E-006
  5.353224783621587E-006
  5.235390729591755E-006
  5.119033935228503E-006
  5.004390069207022E-006
  4.891670071999266E-006
  4.781050038210226E-006
  4.672660153460662E-006
  4.566573151833186E-006
  4.462792990927057E-006
  4.361244674009746E-006
  4.261766362147302E-006
  4.164105029059302E-006
  4.067916779192606E-006
 -1.540573495686781E-006
 -1.543051397429770E-006
 -1.545709926889344E-006
 -1.548432590413185E-006
 -1.551105931131364E-006
 -1.553626636624883E-006
 -1.555906178401022E-006
 -1.557873301181863E-006
 -1.559474809969350E-006
 -1.560675114388325E-006
 -1.561454946915901E-006
 -1.561809597098478E-006
 -1.561746928282841E-006
 -1.561285373783912E-006
 -1.560452045162822E-006
 -1.559281041842342E-006
 -1.557812004262373E-006
 -1.556088933108821E-006
 -1.554159275994324E-006
 -1.552073260896871E-006
 -1.549883461269410E-006
 -1.547644557713178E-006
 -1.545413269321543E-006
 -1.543248418920894E-006
 -1.541211098258788E-006
 -1.539364895594145E-006
 -1.537776147721800E-006
 -1.536514174069439E-006
 -1.535651447606728E-006
 -1.535263652155764E-006
 -1.535429568290975E-006
 -1.536230725001675E-006
 -1.537750750241454E-006
 -1.540074338254350E-006
 -1.543285760410715E-006
 -1.547466834691632E-006
 -1.552694280035682E-006
 -1.559036389552353E-006
 -1.566548987894796E-006
 -1.575270670510261E-006
 -1.585217388219525E-006
 -1.596376523812658E-006
 -1.608700725982901E-006
 -1.622101909127838E-006
 -1.636446016502041E-006
 -1.651549350130009E-006
 -1.667177490334171E-006
 -1.683048016714432E-006
 -1.698838345696240E-006
 -1.714199881597467E-006
 -1.195032636078598E-005
 -1.191335046334616E-005
 -1.187355034556052E-005
 -1.183046685666575E-005
 -1.178369041819377E-005
 -1.173287879535695E-005
 -1.167776693832823E-005
 -1.161816995287727E-005
 -1.155398077108444E-005
 -1.148516413992914E-005
 -1.141174838537710E-005
 -1.133381613129914E-005
 -1.125149487380545E-005
 -1.116494804937240E-005
 -1.107436700904772E-005
 -1.097996413739441E-005
 -1.088196722080218E-005
 -1.078061507137728E-005
 -1.067615435013377E-005
 -1.056883749048986E-005
 -1.045892159709750E-005
 -1.034666818721034E-005
 -1.023234363454225E-005
 -1.011622017378683E-005
 -9.998577328757136E-006
 -9.879703623626064E-006
 -9.759898433948361E-006
 -9.639473829228560E-006
 -9.518756245765806E-006
 -9.398087814189158E-006
 -9.277827148014132E-006
 -9.158349370809382E-006
 -9.040045141944377E-006
 -8.923318408212183E-006
 -8.808582594833369E-006
 -8.696254932127210E-006
 -8.586748616792975E-006
 -8.480462538128582E-006
 -8.377768352837179E-006
 -8.278994808277700E-006
 -8.184409375018620E-006
 -8.094197509979299E-006
 -8.008440201034173E-006
 -7.927090903934046E-006
 -7.849953529178131E-006
 -7.776663779936295E-006
 -7.706676822593766E-006
 -7.639264859065113E-006
 -7.573528479431761E-006
 -7.508425313102398E-006
 -2.242800639292154E-005
 -2.235136491040102E-005
 -2.226885936108096E-005
 -2.217968712561132E-005
 -2.208314191387868E-005
 -2.197864229006784E-005
 -2.186574676439329E-005
 -2.174415726260687E-005
 -2.161371366666297E-005
 -2.147438222213717E-005
 -2.132624030548716E-005
 -2.116945958021734E-005
 -2.100428908467428E-005
 -2.083103932326489E-005
 -2.065006806683496E-005
 -2.046176824642592E-005
 -2.026655810450818E-005
 -2.006487360199454E-005
 -1.985716295938888E-005
 -1.964388315719522E-005
 -1.942549816339931E-005
 -1.920247864970959E-005
 -1.897530294811873E-005
 -1.874445899835226E-005
 -1.851044704524140E-005
 -1.827378283893697E-005
 -1.803500109402540E-005
 -1.779465894620170E-005
 -1.755333913526325E-005
 -1.731165260923734E-005
 -1.707024021585140E-005
 -1.682977310627946E-005
 -1.659095142927375E-005
 -1.635450085738200E-005
 -1.612116643814794E-005
 -1.589170324975389E-005
 -1.566686333443759E-005
 -1.544737842494101E-005
 -1.523393807947248E-005
 -1.502716301130862E-005
 -1.482757368525509E-005
 -1.463555466740193E-005
 -1.445131577599885E-005
 -1.427485184570672E-005
 -1.410590383244254E-005
 -1.394392507233295E-005
 -1.378805764239788E-005
 -1.363712477016069E-005
 -1.348964574944311E-005
 -1.334387922359919E-005
 -3.302858724570399E-005
 -3.291179854296935E-005
 -3.278607089961029E-005
 -3.265025362857543E-005
 -3.250333969954900E-005
 -3.234450519438933E-005
 -3.217312974525666E-005
 -3.198880052459821E-005
 -3.179130362484615E-005
 -3.158060681173367E-005
 -3.135683720066373E-005
 -3.112025675094630E-005
 -3.087123775570549E-005
 -3.061023986410538E-005
 -3.033778961617570E-005
 -3.005446303745589E-005
 -2.976087151324040E-005
 -2.945765092743826E-005
 -2.914545389206302E-005
 -2.882494479946492E-005
 -2.849679736678560E-005
 -2.816169432507380E-005
 -2.782032889279950E-005
 -2.747340767890010E-005
 -2.712165466213235E-005
 -2.676581590093073E-005
 -2.640666461990829E-005
 -2.604500630245449E-005
 -2.568168340189407E-005
 -2.531757923785032E-005
 -2.495362060330359E-005
 -2.459077854713678E-005
 -2.423006673460596E-005
 -2.387253672746760E-005
 -2.351926946697774E-005
 -2.317136220880684E-005
 -2.282991015970386E-005
 -2.249598211380621E-005
 -2.217058952926815E-005
 -2.185464872406226E-005
 -2.154893626796135E-005
 -2.125403822640369E-005
 -2.097029471169058E-005
 -2.069774225578367E-005
 -2.043605782541084E-005
 -2.018450981837722E-005
 -1.994192298521261E-005
 -1.970666563041488E-005
 -1.947666816868898E-005
 -1.924948126370869E-005
 -4.380764755451211E-005
 -4.364995419384301E-005
 -4.348021246688759E-005
 -4.329691515105206E-005
 -4.309874692813208E-005
 -4.288463503997792E-005
 -4.265377521482172E-005
 -4.240563620796677E-005
 -4.213994796559826E-005
 -4.185667861044255E-005
 -4.155600488252424E-005
 -4.123827980457595E-005
 -4.090400041718906E-005
 -4.055377757603024E-005
 -4.018830908726783E-005
 -3.980835688758063E-005
 -3.941472854814275E-005
 -3.900826307484570E-005
 -3.858982077337110E-005
 -3.816027682108479E-005
 -3.772051811311034E-005
 -3.727144292187672E-005
 -3.681396289679083E-005
 -3.634900694123116E-005
 -3.587752650142507E-005
 -3.540050181603496E-005
 -3.491894866268718E-005
 -3.443392512054136E-005
 -3.394653784186974E-005
 -3.345794726788693E-005
 -3.296937117037139E-005
 -3.248208582273868E-005
 -3.199742402209775E-005
 -3.151676910144450E-005
 -3.104154399986755E-005
 -3.057319440735857E-005
 -3.011316500273391E-005
 -2.966286786617188E-005
 -2.922364232590802E-005
 -2.879670580680445E-005
 -2.838309576868252E-005
 -2.798360355791215E-005
 -2.759870204558893E-005
 -2.722847028544590E-005
 -2.687252012039820E-005
 -2.652993163838488E-005
 -2.619920645552655E-005
 -2.587824963419089E-005
 -2.556439197851870E-005
 -2.525446335339223E-005
 -5.482136673050984E-005
 -5.462174132894747E-005
 -5.440692552436325E-005
 -5.417504308590704E-005
 -5.392445920626254E-005
 -5.365384272128369E-005
 -5.336219771110775E-005
 -5.304886863021848E-005
 -5.271352517954548E-005
 -5.235613336875395E-005
 -5.197691851958209E-005
 -5.157632488527192E-005
 -5.115497540772499E-005
 -5.071363408535580E-005
 -5.025317252733109E-005
 -4.977454156332762E-005
 -4.927874825266759E-005
 -4.876683824987545E-005
 -4.823988323864004E-005
 -4.769897298050524E-005
 -4.714521144160136E-005
 -4.657971642172288E-005
 -4.600362209665864E-005
 -4.541808389273069E-005
 -4.482428512472132E-005
 -4.422344482718161E-005
 -4.361682620715771E-005
 -4.300574512605072E-005
 -4.239157797432689E-005
 -4.177576824420387E-005
 -4.115983103665969E-005
 -4.054535463390584E-005
 -3.993399817839331E-005
 -3.932748438970751E-005
 -3.872758616304539E-005
 -3.813610583173912E-005
 -3.755484587256235E-005
 -3.698556991409448E-005
 -3.642995312092372E-005
 -3.588952141407784E-005
 -3.536557961451545E-005
 -3.485912952125566E-005
 -3.437078021309670E-005
 -3.390065455083068E-005
 -3.344829794787175E-005
 -3.301259790844357E-005
 -3.259172539748505E-005
 -3.218311136857501E-005
 -3.178347292768451E-005
 -3.138890225661401E-005
 -6.612651762297566E-005
 -6.588368209738764E-005
 -6.562248585188286E-005
 -6.534066699470439E-005
 -6.503625620195233E-005
 -6.470765094851101E-005
 -6.435365302027043E-005
 -6.397347427808503E-005
 -6.356671814006538E-005
 -6.313334452481207E-005
 -6.267362516563995E-005
 -6.218809490382221E-005
 -6.167750319629461E-005
 -6.114276879466461E-005
 -6.058493948991446E-005
 -6.000515796075276E-005
 -5.940463413033517E-005
 -5.878462398124464E-005
 -5.814641447316697E-005
 -5.749131401751595E-005
 -5.682064786206497E-005
 -5.613575768891153E-005
 -5.543800471779119E-005
 -5.472877561822885E-005
 -5.400949053936980E-005
 -5.328161258132256E-005
 -5.254665801551646E-005
 -5.180620654337292E-005
 -5.106191083243839E-005
 -5.031550449740974E-005
 -4.956880760630802E-005
 -4.882372867456864E-005
 -4.808226199584774E-005
 -4.734647902704626E-005
 -4.661851244281720E-005
 -4.590053139670884E-005
 -4.519470652528501E-005
 -4.450316332087508E-005
 -4.382792276051306E-005
 -4.317082853363281E-005
 -4.253346096401167E-005
 -4.191703881999540E-005
 -4.132231174287078E-005
 -4.074944803154321E-005
 -4.019792502859716E-005
 -3.966643225650716E-005
 -3.915280052266779E-005
 -3.865397291647383E-005
 -3.816603499983947E-005
 -3.768431987043845E-005
 -7.778046188126753E-005
 -7.749292289312864E-005
 -7.718383208338823E-005
 -7.685052089062215E-005
 -7.649066643110783E-005
 -7.610237827913845E-005
 -7.568424216212262E-005
 -7.523532641207828E-005
 -7.475515993762479E-005
 -7.424369081485687E-005
 -7.370123360985866E-005
 -7.312841201810310E-005
 -7.252610179300502E-005
 -7.189537743316347E-005
 -7.123746484561539E-005
 -7.055370120512456E-005
 -6.984550247685336E-005
 -6.911433854049195E-005
 -6.836171549546789E-005
 -6.758916450268869E-005
 -6.679823639896981E-005
 -6.599050126839291E-005
 -6.516755213239469E-005
 -6.433101194214148E-005
 -6.348254306240848E-005
 -6.262385844906811E-005
 -6.175673371045238E-005
 -6.088301921860860E-005
 -6.000465137574221E-005
 -5.912366206303795E-005
 -5.824218519039470E-005
 -5.736245913490532E-005
 -5.648682371464819E-005
 -5.561771019852028E-005
 -5.475762272417582E-005
 -5.390910941301665E-005
 -5.307472145983350E-005
 -5.225695858777811E-005
 -5.145819955665756E-005
 -5.068061695032121E-005
 -4.992607634414189E-005
 -4.919602124108586E-005
 -4.849134696000662E-005
 -4.781226900757297E-005
 -4.715819440061800E-005
 -4.652760780177967E-005
 -4.591798792142082E-005
 -4.532577280871462E-005
 -4.474639425992630E-005
 -4.417439968087305E-005
 -8.984115967543185E-005
 -8.950726426969227E-005
 -8.914861629425431E-005
 -8.876211502115104E-005
 -8.834506080663597E-005
 -8.789525502484307E-005
 -8.741105025581510E-005
 -8.689135747883763E-005
 -8.633562039705745E-005
 -8.574376740657800E-005
 -8.511615058245204E-005
 -8.445347929003234E-005
 -8.375675416084237E-005
 -8.302720544074236E-005
 -8.226623826776156E-005
 -8.147538628284297E-005
 -8.065627411355417E-005
 -7.981058865142959E-005
 -7.894005863595379E-005
 -7.804644179916263E-005
 -7.713151868532890E-005
 -7.619709219724801E-005
 -7.524499190920280E-005
 -7.427708219145433E-005
 -7.329527321918992E-005
 -7.230153393674358E-005
 -7.129790604764714E-005
 -7.028651806369945E-005
 -6.926959838465422E-005
 -6.824948628291406E-005
 -6.722863954809784E-005
 -6.620963739316000E-005
 -6.519517705998293E-005
 -6.418806239607593E-005
 -6.319118252437592E-005
 -6.220747863192966E-005
 -6.123989688652543E-005
 -6.029132562976181E-005
 -5.936451532075231E-005
 -5.846198033967250E-005
 -5.758588275457029E-005
 -5.673789964803917E-005
 -5.591907765551394E-005
 -5.512968108276282E-005
 -5.436904334160536E-005
 -5.363543535673995E-005
 -5.292596873557231E-005
 -5.223655513770514E-005
 -5.156194513269500E-005
 -5.089586765647893E-005
 -1.023672146278825E-004
 -1.019852310940347E-004
 -1.015752993642097E-004
 -1.011338565574943E-004
 -1.006577988814109E-004
 -1.001445953702379E-004
 -9.959234490018451E-005
 -9.899978417956202E-005
 -9.836625827089055E-005
 -9.769166564252608E-005
 -9.697638843830941E-005
 -9.622121665128293E-005
 -9.542727273953197E-005
 -9.459594125827352E-005
 -9.372880641951681E-005
 -9.282759917562128E-005
 -9.189415444072895E-005
 -9.093037835554808E-005
 -8.993822503587819E-005
 -8.891968195275796E-005
 -8.787676293115830E-005
 -8.681150768416075E-005
 -8.572598678508657E-005
 -8.462231099185768E-005
 -8.350264385820590E-005
 -8.236921658039599E-005
 -8.122434401265225E-005
 -8.007044075451817E-005
 -7.891003613331059E-005
 -7.774578680301625E-005
 -7.658048553942350E-005
 -7.541706463416525E-005
 -7.425859211490380E-005
 -7.310825881536356E-005
 -7.196935415772095E-005
 -7.084522839500761E-005
 -6.973923904699360E-005
 -6.865467940945233E-005
 -6.759468740623014E-005
 -6.656213375353068E-005
 -6.555948955444730E-005
 -6.458867513264289E-005
 -6.365089425510711E-005
 -6.274646098689807E-005
 -6.187463025440254E-005
 -6.103344765687603E-005
 -6.021963876818585E-005
 -5.942856232814694E-005
 -5.865425382910591E-005
 -5.788958351368349E-005
 -1.154179877216410E-004
 -1.149862174737054E-004
 -1.145233261614643E-004
 -1.140252545153550E-004
 -1.134884632001864E-004
 -1.129100610353572E-004
 -1.122878691760969E-004
 -1.116204299494897E-004
 -1.109069734073930E-004
 -1.101473551446873E-004
 -1.093419774562211E-004
 -1.084917036404470E-004
 -1.075977728332189E-004
 -1.066617205291130E-004
 -1.056853080778888E-004
 -1.046704629550367E-004
 -1.036192304902386E-004
 -1.025337369513231E-004
 -1.014161633424548E-004
 -1.002687289552768E-004
 -9.909368352613822E-005
 -9.789330677423058E-005
 -9.666991408293420E-005
 -9.542586709398182E-005
 -9.416358801565163E-005
 -9.288557645217393E-005
 -9.159442755700940E-005
 -9.029285026382230E-005
 -8.898368427307970E-005
 -8.766991434770489E-005
 -8.635468031099433E-005
 -8.504128095214004E-005
 -8.373316982635253E-005
 -8.243394072497587E-005
 -8.114730039895441E-005
 -7.987702599015433E-005
 -7.862690461003295E-005
 -7.740065267071891E-005
 -7.620181300850017E-005
 -7.503362863396442E-005
 -7.389889323720061E-005
 -7.279978048171996E-005
 -7.173765676669785E-005
 -7.071288562369525E-005
 -6.972463624384098E-005
 -6.877071366532547E-005
 -6.784743345776506E-005
 -6.694956843455644E-005
 -6.607039729624427E-005
 -6.520188230148020E-005
 -1.290538310746623E-004
 -1.285707576506392E-004
 -1.280534317237706E-004
 -1.274972597655042E-004
 -1.268982320391644E-004
 -1.262530659536202E-004
 -1.255592777307167E-004
 -1.248151921260194E-004
 -1.240199048373596E-004
 -1.231732127694278E-004
 -1.222755256822108E-004
 -1.213277701982358E-004
 -1.203312944328542E-004
 -1.192877790204693E-004
 -1.181991582115764E-004
 -1.170675530469353E-004
 -1.158952173777061E-004
 -1.146844966044467E-004
 -1.134377984202551E-004
 -1.121575744770099E-004
 -1.108463116879640E-004
 -1.095065317978274E-004
 -1.081407978278087E-004
 -1.067517260230996E-004
 -1.053420019563412E-004
 -1.039143994542108E-004
 -1.024718010031549E-004
 -1.010172182402874E-004
 -9.955381104694301E-005
 -9.808490362368352E-005
 -9.661399574529007E-005
 -9.514476718554450E-005
 -9.368107304850695E-005
 -9.222692751755584E-005
 -9.078647330776105E-005
 -8.936393396477252E-005
 -8.796354613927187E-005
 -8.658946914742206E-005
 -8.524566961584492E-005
 -8.393577990271949E-005
 -8.266293043090213E-005
 -8.142955821167485E-005
 -8.023719679982130E-005
 -7.908625683064656E-005
 -7.797581114291897E-005
 -7.690340413563332E-005
 -7.586491096028773E-005
 -7.485447740169187E-005
 -7.386457397087026E-005
 -7.288619457842944E-005
 -1.433365141464727E-004
 -1.428009950226694E-004
 -1.422281497673595E-004
 -1.416128102722275E-004
 -1.409504591381278E-004
 -1.402373887318325E-004
 -1.394707806079897E-004
 -1.386487161326745E-004
 -1.377701345671722E-004
 -1.368347554818987E-004
 -1.358429805256677E-004
 -1.347957867428465E-004
 -1.336946206204026E-004
 -1.325412992688548E-004
 -1.313379228179169E-004
 -1.300868002479945E-004
 -1.287903895075245E-004
 -1.274512517721801E-004
 -1.260720190461743E-004
 -1.246553739045266E-004
 -1.232040399441479E-004
 -1.217207814202773E-004
 -1.202084105240171E-004
 -1.186698007708703E-004
 -1.171079050073470E-004
 -1.155257765505434E-004
 -1.139265919675843E-004
 -1.123136739421674E-004
 -1.106905125778800E-004
 -1.090607833306904E-004
 -1.074283595660654E-004
 -1.057973174917659E-004
 -1.041719309510492E-004
 -1.025566532914638E-004
 -1.009560832840972E-004
 -9.937491190410231E-005
 -9.781784676709136E-005
 -9.628951122041929E-005
 -9.479431562743997E-005
 -9.333629938377792E-005
 -9.191894381615926E-005
 -9.054495849665031E-005
 -8.921604682006958E-005
 -8.793266104629497E-005
 -8.669376242693378E-005
 -8.549660832994586E-005
 -8.433659491976678E-005
 -8.320718980331168E-005
 -8.209999203667805E-005
 -8.100495336011709E-005
 -1.583299413803785E-004
 -1.577414468257677E-004
 -1.571126190884908E-004
 -1.564376746818884E-004
 -1.557115506852749E-004
 -1.549300799114317E-004
 -1.540900782601661E-004
 -1.531893562183584E-004
 -1.522266724586203E-004
 -1.512016481427668E-004
 -1.501146585070113E-004
 -1.489667151753990E-004
 -1.477593493190264E-004
 -1.464945027227672E-004
 -1.451744312456880E-004
 -1.438016231272367E-004
 -1.423787330633092E-004
 -1.409085318902148E-004
 -1.393938709971824E-004
 -1.378376601300033E-004
 -1.362428570131406E-004
 -1.346124671048589E-004
 -1.329495517809424E-004
 -1.312572432618809E-004
 -1.295387646297359E-004
 -1.277974532982250E-004
 -1.260367862834086E-004
 -1.242604055574981E-004
 -1.224721416547853E-004
 -1.206760335300143E-004
 -1.188763424404773E-004
 -1.170775573567645E-004
 -1.152843891097935E-004
 -1.135017501768736E-004
 -1.117347167455715E-004
 -1.099884695134250E-004
 -1.082682096533327E-004
 -1.065790466142638E-004
 -1.049258550149528E-004
 -1.033130990065450E-004
 -1.017446242656923E-004
 -1.002234204368734E-004
 -9.875136051210985E-005
 -9.732892849073311E-005
 -9.595495266965429E-005
 -9.462636892026375E-005
 -9.333804568262848E-005
 -9.208270891866085E-005
 -9.085100857675964E-005
 -8.963176419765109E-005
 -1.741012912922020E-004
 -1.734601915014473E-004
 -1.727758113050666E-004
 -1.720417135867290E-004
 -1.712522542466938E-004
 -1.704027736234925E-004
 -1.694896918001771E-004
 -1.685105209082093E-004
 -1.674638140967796E-004
 -1.663490715486939E-004
 -1.651666216903020E-004
 -1.639174923145995E-004
 -1.626032826851571E-004
 -1.612260443438657E-004
 -1.597881755253795E-004
 -1.582923318522874E-004
 -1.567413543179921E-004
 -1.551382143746450E-004
 -1.534859751554714E-004
 -1.517877673705663E-004
 -1.500467781487211E-004
 -1.482662509801494E-004
 -1.464494948913894E-004
 -1.445999010068624E-004
 -1.427209646836512E-004
 -1.408163114214386E-004
 -1.388897247305720E-004
 -1.369451740690115E-004
 -1.349868408277809E-004
 -1.330191401585112E-004
 -1.310467361772566E-004
 -1.290745477864724E-004
 -1.271077420232773E-004
 -1.251517115039458E-004
 -1.232120322400840E-004
 -1.212943979007709E-004
 -1.194045265681177E-004
 -1.175480362883169E-004
 -1.157302863813837E-004
 -1.139561827078752E-004
 -1.122299470706260E-004
 -1.105548538688689E-004
 -1.089329412000882E-004
 -1.073647089726651E-004
 -1.058488232589945E-004
 -1.043818538765455E-004
 -1.029580803618242E-004
 -1.015694087131885E-004
 -1.002054449462212E-004
 -9.885376715891521E-005
 -1.907227418220040E-004
 -1.900306385075084E-004
 -1.892923339714236E-004
 -1.885007061469201E-004
 -1.876495003869463E-004
 -1.867335368898247E-004
 -1.857488137579104E-004
 -1.846925199543852E-004
 -1.835629795450101E-004
 -1.823595493678660E-004
 -1.810824898503471E-004
 -1.797328249510345E-004
 -1.783122032420850E-004
 -1.768227685061484E-004
 -1.752670451649763E-004
 -1.736478414319893E-004
 -1.719681712738837E-004
 -1.702311949778241E-004
 -1.684401772651327E-004
 -1.665984613601568E-004
 -1.647094571376856E-004
 -1.627766413411814E-004
 -1.608035678428382E-004
 -1.587938859339387E-004
 -1.567513646716075E-004
 -1.546799213213747E-004
 -1.525836519071218E-004
 -1.504668617994921E-004
 -1.483340941283139E-004
 -1.461901535839398E-004
 -1.440401229011596E-004
 -1.418893689759165E-004
 -1.397435352053881E-004
 -1.376085162627984E-004
 -1.354904111887091E-004
 -1.333954504622129E-004
 -1.313298926793208E-004
 -1.292998867511103E-004
 -1.273112962635973E-004
 -1.253694840021117E-004
 -1.234790568418017E-004
 -1.216435744448353E-004
 -1.198652297254387E-004
 -1.181445149686046E-004
 -1.164798948706753E-004
 -1.148675163427164E-004
 -1.133009939606346E-004
 -1.117713179225868E-004
 -1.102669354239211E-004
 -1.087740515571551E-004
 -2.082739836722663E-004
 -2.075340744687706E-004
 -2.067449944461313E-004
 -2.058989182618196E-004
 -2.049889633321214E-004
 -2.040094124700276E-004
 -2.029558241853943E-004
 -2.018250460481105E-004
 -2.006151541602957E-004
 -1.993253426003759E-004
 -1.979557840693551E-004
 -1.965074789379062E-004
 -1.949821056206954E-004
 -1.933818812793521E-004
 -1.917094385650799E-004
 -1.899677215035082E-004
 -1.881599016799827E-004
 -1.862893144968014E-004
 -1.843594143591952E-004
 -1.823737470718250E-004
 -1.803359374210235E-004
 -1.782496897820486E-004
 -1.761187995602048E-004
 -1.739471732943849E-004
 -1.717388552904569E-004
 -1.694980586574118E-004
 -1.672291985878959E-004
 -1.649369256251340E-004
 -1.626261564979470E-004
 -1.603020998557806E-004
 -1.579702739281457E-004
 -1.556365127594495E-004
 -1.533069572597580E-004
 -1.509880268989217E-004
 -1.486863675028810E-004
 -1.464087703669552E-004
 -1.441620578623192E-004
 -1.419529310241273E-004
 -1.397877754150796E-004
 -1.376724230598620E-004
 -1.356118706714815E-004
 -1.336099579690425E-004
 -1.316690148711576E-004
 -1.297894928986842E-004
 -1.279696042591112E-004
 -1.262050015576912E-004
 -1.244885410595313E-004
 -1.228101812299631E-004
 -1.211570727574777E-004
 -1.195138909471221E-004
 -2.268457593797833E-004
 -2.260632120305246E-004
 -2.252283388354345E-004
 -2.243326139016128E-004
 -2.233685289113258E-004
 -2.223298294526193E-004
 -2.212116316494378E-004
 -2.200104355508171E-004
 -2.187240598810751E-004
 -2.173515236108565E-004
 -2.158928969801099E-004
 -2.143491403037349E-004
 -2.127219443224067E-004
 -2.110135816810217E-004
 -2.092267756021873E-004
 -2.073645890502336E-004
 -2.054303356056273E-004
 -2.034275118010088E-004
 -2.013597496878463E-004
 -1.992307878035842E-004
 -1.970444583743549E-004
 -1.948046884465522E-004
 -1.925155126046024E-004
 -1.901810949539526E-004
 -1.878057580799062E-004
 -1.853940166921878E-004
 -1.829506136286292E-004
 -1.804805557680177E-004
 -1.779891472181537E-004
 -1.754820168688133E-004
 -1.729651370527680E-004
 -1.704448296391431E-004
 -1.679277554281260E-004
 -1.654208822612006E-004
 -1.629314268471562E-004
 -1.604667650347358E-004
 -1.580343052210108E-004
 -1.556413199223880E-004
 -1.532947314269881E-004
 -1.510008490972277E-004
 -1.487650585675142E-004
 -1.465914670244361E-004
 -1.444825142516283E-004
 -1.424385663379621E-004
 -1.404575179249335E-004
 -1.385344393056191E-004
 -1.366613156873942E-004
 -1.348269356422850E-004
 -1.330169906903418E-004
 -1.312144421133518E-004
 -2.465446962292812E-004
 -2.457269937186172E-004
 -2.448534019680916E-004
 -2.439147286394349E-004
 -2.429028712851140E-004
 -2.418110649368955E-004
 -2.406340036386466E-004
 -2.393678533237579E-004
 -2.380101820040241E-004
 -2.365598341165085E-004
 -2.350167728867728E-004
 -2.333819100079584E-004
 -2.316569371255120E-004
 -2.298441692027079E-004
 -2.279464061394581E-004
 -2.259668161017538E-004
 -2.239088418287997E-004
 -2.217761296479869E-004
 -2.195724798926506E-004
 -2.173018167878416E-004
 -2.149681755180348E-004
 -2.125757040428546E-004
 -2.101286771790204E-004
 -2.076315204964780E-004
 -2.050888415878926E-004
 -2.025054662742512E-004
 -1.998864772454276E-004
 -1.972372525010164E-004
 -1.945635007343761E-004
 -1.918712904984005E-004
 -1.891670695955247E-004
 -1.864576706741979E-004
 -1.837502985027753E-004
 -1.810524938878096E-004
 -1.783720687477533E-004
 -1.757170065489198E-004
 -1.730953222664234E-004
 -1.705148763998960E-004
 -1.679831385542953E-004
 -1.655068979149360E-004
 -1.630919208800410E-004
 -1.607425604665748E-004
 -1.584613281368639E-004
 -1.562484466477349E-004
 -1.541014124001999E-004
 -1.520146072500553E-004
 -1.499790118596083E-004
 -1.479820833476418E-004
 -1.460078654245163E-004
 -1.440373927505785E-004
 -2.674997187392294E-004
 -2.666569153677284E-004
 -2.657539115672068E-004
 -2.647809267931766E-004
 -2.637293376671730E-004
 -2.625919332715759E-004
 -2.613630395395956E-004
 -2.600385308919228E-004
 -2.586157561593323E-004
 -2.570934067266937E-004
 -2.554713516945870E-004
 -2.537504601130161E-004
 -2.519324253240320E-004
 -2.500196018591631E-004
 -2.480148614965642E-004
 -2.459214720424457E-004
 -2.437430001459348E-004
 -2.414832378461318E-004
 -2.391461514921732E-004
 -2.367358510146196E-004
 -2.342565771698614E-004
 -2.317127042143780E-004
 -2.291087554243497E-004
 -2.264494288843159E-004
 -2.237396309844769E-004
 -2.209845150461797E-004
 -2.181895224157210E-004
 -2.153604232036256E-004
 -2.125033535967157E-004
 -2.096248463130475E-004
 -2.067318503363726E-004
 -2.038317355457445E-004
 -2.009322772936013E-004
 -1.980416154183956E-004
 -1.951681816803045E-004
 -1.923205892651590E-004
 -1.895074779516859E-004
 -1.867373089412443E-004
 -1.840181044169147E-004
 -1.813571289021231E-004
 -1.787605127078392E-004
 -1.762328225354490E-004
 -1.737765909347786E-004
 -1.713918250466650E-004
 -1.690755259187649E-004
 -1.668212622953016E-004
 -1.646188561033123E-004
 -1.624542485877882E-004
 -1.603096220229840E-004
 -1.581638448393766E-004
 -2.898703212262423E-004
 -2.890151222871000E-004
 -2.880941726944941E-004
 -2.870972412117914E-004
 -2.860153128960598E-004
 -2.848408472568121E-004
 -2.835679027369409E-004
 -2.821921461577898E-004
 -2.807107748388318E-004
 -2.791223799773617E-004
 -2.774267766522828E-004
 -2.756248209382786E-004
 -2.737182294801629E-004
 -2.717094121822964E-004
 -2.696013247317909E-004
 -2.673973445843046E-004
 -2.651011717229845E-004
 -2.627167538748369E-004
 -2.602482347815641E-004
 -2.576999234513223E-004
 -2.550762819491618E-004
 -2.523819291184832E-004
 -2.496216575706916E-004
 -2.468004612800961E-004
 -2.439235711279061E-004
 -2.409964956920523E-004
 -2.380250644806910E-004
 -2.350154706085432E-004
 -2.319743096238120E-004
 -2.289086107948088E-004
 -2.258258566692713E-004
 -2.227339861443666E-004
 -2.196413756563695E-004
 -2.165567924741946E-004
 -2.134893135248867E-004
 -2.104482028033462E-004
 -2.074427403547729E-004
 -2.044819962597275E-004
 -2.015745442206366E-004
 -1.987281115369010E-004
 -1.959491657884848E-004
 -1.932424437736328E-004
 -1.906104355257187E-004
 -1.880528457944365E-004
 -1.855660672849459E-004
 -1.831427137784768E-004
 -1.807712758615829E-004
 -1.784359748622722E-004
 -1.761168971431595E-004
 -1.737904831358800E-004
 -3.138569392042118E-004
 -3.130044827319376E-004
 -3.120788039010595E-004
 -3.110694347192763E-004
 -3.099671708714774E-004
 -3.087643264713883E-004
 -3.074548550821998E-004
 -3.060343557812762E-004
 -3.044999921155011E-004
 -3.028503526234497E-004
 -3.010852783516162E-004
 -2.992056778768599E-004
 -2.972133451912487E-004
 -2.951107910930428E-004
 -2.929010947880124E-004
 -2.905877793077399E-004
 -2.881747120401455E-004
 -2.856660300385066E-004
 -2.830660886910135E-004
 -2.803794316635479E-004
 -2.776107796590864E-004
 -2.747650353612887E-004
 -2.718473018712991E-004
 -2.688629119292061E-004
 -2.658174651995991E-004
 -2.627168708277046E-004
 -2.595673923423531E-004
 -2.563756917434729E-004
 -2.531488692729092E-004
 -2.498944949135494E-004
 -2.466206271093832E-004
 -2.433358135497198E-004
 -2.400490681726741E-004
 -2.367698178423188E-004
 -2.335078115450733E-004
 -2.302729845325819E-004
 -2.270752697611251E-004
 -2.239243494579616E-004
 -2.208293409182710E-004
 -2.177984130218669E-004
 -2.148383338124019E-004
 -2.119539552010468E-004
 -2.091476487935793E-004
 -2.064187173004723E-004
 -2.037628189967082E-004
 -2.011714578218707E-004
 -1.986316076772695E-004
 -1.961255535570051E-004
 -1.936310393197395E-004
 -1.911218034269886E-004
 -3.397135620763505E-004
 -3.388807399207913E-004
 -3.379643873146490E-004
 -3.369541081607172E-004
 -3.358408017623422E-004
 -3.346169064506722E-004
 -3.332765127894588E-004
 -3.318153648350381E-004
 -3.302307767430589E-004
 -3.285214928074998E-004
 -3.266875157876716E-004
 -3.247299235633997E-004
 -3.226506891004180E-004
 -3.204525140953116E-004
 -3.181386828219221E-004
 -3.157129396767226E-004
 -3.131793916667200E-004
 -3.105424354974745E-004
 -3.078067078603298E-004
 -3.049770568696296E-004
 -3.020585322316846E-004
 -2.990563915493969E-004
 -2.959761200969925E-004
 -2.928234613658422E-004
 -2.896044556339018E-004
 -2.863254837216349E-004
 -2.829933129117781E-004
 -2.796151417389989E-004
 -2.761986399480309E-004
 -2.727519794219094E-004
 -2.692838512429891E-004
 -2.658034633472804E-004
 -2.623205124530107E-004
 -2.588451231857251E-004
 -2.553877466409132E-004
 -2.519590101682207E-004
 -2.485695100679792E-004
 -2.452295394080558E-004
 -2.419487445486133E-004
 -2.387357065522411E-004
 -2.355974478491887E-004
 -2.325388707396925E-004
 -2.295621429587145E-004
 -2.266660569059734E-004
 -2.238454033079156E-004
 -2.210904165437589E-004
 -2.183863662567271E-004
 -2.157133852236493E-004
 -2.130466312642252E-004
 -2.103568717634068E-004
 -3.677625560381606E-004
 -3.669666637680759E-004
 -3.660729099745479E-004
 -3.650713916545029E-004
 -3.639535133818348E-004
 -3.627122107853600E-004
 -3.613420508742250E-004
 -3.598392268433354E-004
 -3.582014733160054E-004
 -3.564279286725814E-004
 -3.545189680333611E-004
 -3.524760258659041E-004
 -3.503014223825986E-004
 -3.479982035232381E-004
 -3.455700006672160E-004
 -3.430209133644405E-004
 -3.403554162376862E-004
 -3.375782897197323E-004
 -3.346945732827216E-004
 -3.317095392024265E-004
 -3.286286845462201E-004
 -3.254577388993917E-004
 -3.222026852451327E-004
 -3.188697913743825E-004
 -3.154656491088186E-004
 -3.119972184920498E-004
 -3.084718738780313E-004
 -3.048974485087796E-004
 -3.012822737225962E-004
 -2.976352083519600E-004
 -2.939656531749575E-004
 -2.902835444922328E-004
 -2.865993200556646E-004
 -2.829238497325109E-004
 -2.792683225448063E-004
 -2.756440812197424E-004
 -2.720623952765424E-004
 -2.685341642294570E-004
 -2.650695439688105E-004
 -2.616774921800365E-004
 -2.583652331895033E-004
 -2.551376493429675E-004
 -2.519966153724352E-004
 -2.489403045239507E-004
 -2.459625105491093E-004
 -2.430520474994100E-004
 -2.401923081043823E-004
 -2.373610781545837E-004
 -2.345307127976024E-004
 -2.316687706933046E-004
 -3.984113877724356E-004
 -3.976678403755832E-004
 -3.968065880514355E-004
 -3.958187694281380E-004
 -3.946968200454791E-004
 -3.934346657681709E-004
 -3.920278046796036E-004
 -3.904732936438065E-004
 -3.887696632597526E-004
 -3.869167855116474E-004
 -3.849157155774817E-004
 -3.827685250531181E-004
 -3.804781394610342E-004
 -3.780481889286696E-004
 -3.754828776061095E-004
 -3.727868747894022E-004
 -3.699652287860210E-004
 -3.670233031975854E-004
 -3.639667343877575E-004
 -3.608014083354344E-004
 -3.575334547436252E-004
 -3.541692560967535E-004
 -3.507154692502166E-004
 -3.471790570552474E-004
 -3.435673274009145E-004
 -3.398879768732986E-004
 -3.361491359531238E-004
 -3.323594122793611E-004
 -3.285279279857269E-004
 -3.246643464690404E-004
 -3.207788831714870E-004
 -3.168822940988868E-004
 -3.129858348584713E-004
 -3.091011820897527E-004
 -3.052403083517052E-004
 -3.014153009687855E-004
 -2.976381152180780E-004
 -2.939202528228458E-004
 -2.902723582966525E-004
 -2.867037286847792E-004
 -2.832217370989257E-004
 -2.798311776533637E-004
 -2.765335494500646E-004
 -2.733263104908189E-004
 -2.702021488749831E-004
 -2.671483378193840E-004
 -2.641462613159307E-004
 -2.611712151521305E-004
 -2.581925971880329E-004
 -2.551745900954175E-004
 -4.321705247710345E-004
 -4.314893213070289E-004
 -4.306632512482587E-004
 -4.296851785513731E-004
 -4.285492287463105E-004
 -4.272509422739312E-004
 -4.257873323578270E-004
 -4.241568615229408E-004
 -4.223593573258337E-004
 -4.203958883169233E-004
 -4.182686187734695E-004
 -4.159806570907163E-004
 -4.135359089287105E-004
 -4.109389427650763E-004
 -4.081948726487838E-004
 -4.053092607029857E-004
 -4.022880402660990E-004
 -3.991374593815634E-004
 -3.958640435620432E-004
 -3.924745762562388E-004
 -3.889760951454264E-004
 -3.853759022149545E-004
 -3.816815854277410E-004
 -3.779010496965687E-004
 -3.740425546965844E-004
 -3.701147568200744E-004
 -3.661267522373054E-004
 -3.620881175707496E-004
 -3.580089441069098E-004
 -3.538998607392894E-004
 -3.497720399991439E-004
 -3.456371805787388E-004
 -3.415074587489083E-004
 -3.373954400824752E-004
 -3.333139420161370E-004
 -3.292758371852872E-004
 -3.252937873171557E-004
 -3.213798980783298E-004
 -3.175452869404335E-004
 -3.137995593101262E-004
 -3.101501933132085E-004
 -3.066018412898522E-004
 -3.031555667274341E-004
 -2.998080494424189E-004
 -2.965508093575713E-004
 -2.933695196694540E-004
 -2.902435018002830E-004
 -2.871455136577256E-004
 -2.840419525288745E-004
 -2.808935825985917E-004
 -4.696712033119134E-004
 -4.690517747087903E-004
 -4.682508932658138E-004
 -4.672639623245872E-004
 -4.660875876812126E-004
 -4.647196820850712E-004
 -4.631594942058862E-004
 -4.614075735225589E-004
 -4.594656876927845E-004
 -4.573367093030896E-004
 -4.550244868873966E-004
 -4.525337121745824E-004
 -4.498697924746476E-004
 -4.470387343602686E-004
 -4.440470425021640E-004
 -4.409016357195301E-004
 -4.376097809715076E-004
 -4.341790450644833E-004
 -4.306172632079342E-004
 -4.269325231370760E-004
 -4.231331632531243E-004
 -4.192277830483246E-004
 -4.152252639416437E-004
 -4.111347984848365E-004
 -4.069659256868769E-004
 -4.027285699155977E-004
 -3.984330804344476E-004
 -3.940902681147869E-004
 -3.897114352100962E-004
 -3.853083932917847E-004
 -3.808934635313699E-004
 -3.764794524941526E-004
 -3.720795955448126E-004
 -3.677074588962696E-004
 -3.633767904112990E-004
 -3.591013086093363E-004
 -3.548944191727539E-004
 -3.507688488626055E-004
 -3.467361884999713E-004
 -3.428063399865655E-004
 -3.389868677333108E-004
 -3.352822628978378E-004
 -3.316931400421080E-004
 -3.282154006089574E-004
 -3.248394160662897E-004
 -3.215493050716278E-004
 -3.183224017742195E-004
 -3.151290325352482E-004
 -3.119327287311656E-004
 -3.086909914362057E-004
 -5.116809689624247E-004
 -5.111050088281268E-004
 -5.102992417156803E-004
 -5.092625295161539E-004
 -5.079948590613773E-004
 -5.064973923313588E-004
 -5.047724634984455E-004
 -5.028235311576568E-004
 -5.006550977133164E-004
 -4.982726081448379E-004
 -4.956823389367416E-004
 -4.928912858611027E-004
 -4.899070571186379E-004
 -4.867377763573516E-004
 -4.833919984324936E-004
 -4.798786394630195E-004
 -4.762069217626755E-004
 -4.723863335171577E-004
 -4.684266025925832E-004
 -4.643376835241643E-004
 -4.601297565032782E-004
 -4.558132369950255E-004
 -4.513987944476261E-004
 -4.468973783485284E-004
 -4.423202496241356E-004
 -4.376790150326423E-004
 -4.329856617453535E-004
 -4.282525887394064E-004
 -4.234926309151124E-004
 -4.187190710090283E-004
 -4.139456334060140E-004
 -4.091864528813750E-004
 -4.044560101835236E-004
 -3.997690252522259E-004
 -3.951402978999434E-004
 -3.905844850873985E-004
 -3.861158037455379E-004
 -3.817476487227739E-004
 -3.774921172044055E-004
 -3.733594343738443E-004
 -3.693572806246658E-004
 -3.654900289253502E-004
 -3.617579124988317E-004
 -3.581561582691261E-004
 -3.546741406065787E-004
 -3.512946321719251E-004
 -3.479932522592413E-004
 -3.447382339722584E-004
 -3.414906424116954E-004
 -3.382051638426012E-004
 -5.591138861425462E-004
 -5.585357594055801E-004
 -5.576652558634796E-004
 -5.565056640789645E-004
 -5.550613139091882E-004
 -5.533375733038459E-004
 -5.513408139482228E-004
 -5.490783508643900E-004
 -5.465583632946133E-004
 -5.437898044116971E-004
 -5.407823065912604E-004
 -5.375460877653006E-004
 -5.340918630609495E-004
 -5.304307647216943E-004
 -5.265742722756401E-004
 -5.225341540793884E-004
 -5.183224207318888E-004
 -5.139512903658641E-004
 -5.094331654733523E-004
 -5.047806206568415E-004
 -5.000064004898003E-004
 -4.951234264681718E-004
 -4.901448118471618E-004
 -4.850838828997531E-004
 -4.799542048430406E-004
 -4.747696102798139E-004
 -4.695442275126463E-004
 -4.642925054728704E-004
 -4.590292312679745E-004
 -4.537695354717617E-004
 -4.485288792902085E-004
 -4.433230166357586E-004
 -4.381679229981875E-004
 -4.330796818594633E-004
 -4.280743184096315E-004
 -4.231675696026947E-004
 -4.183745793952993E-004
 -4.137095086129194E-004
 -4.091850506673232E-004
 -4.048118477610336E-004
 -4.005978078038208E-004
 -3.965473306101012E-004
 -3.926604636225231E-004
 -3.889320228603004E-004
 -3.853507341040546E-004
 -3.818984718985310E-004
 -3.785496979076893E-004
 -3.752712214592400E-004
 -3.720224162104176E-004
 -3.687560146224263E-004
 -6.130310860562043E-004
 -6.123654553083144E-004
 -6.113283381322021E-004
 -6.099283663177692E-004
 -6.081751454789439E-004
 -6.060792098630309E-004
 -6.036519629808274E-004
 -6.009056063701079E-004
 -5.978530599808041E-004
 -5.945078779849115E-004
 -5.908841636272876E-004
 -5.869964862622039E-004
 -5.828598031505554E-004
 -5.784893879940351E-004
 -5.739007676337952E-004
 -5.691096678550626E-004
 -5.641319688294046E-004
 -5.589836703925721E-004
 -5.536808670682767E-004
 -5.482397325240663E-004
 -5.426765129161237E-004
 -5.370075283835091E-004
 -5.312491817070410E-004
 -5.254179728865866E-004
 -5.195305180548013E-004
 -5.136035707353277E-004
 -5.076540429463611E-004
 -5.016990230291856E-004
 -4.957557863447471E-004
 -4.898417941079142E-004
 -4.839746746539108E-004
 -4.781721803432336E-004
 -4.724521121872966E-004
 -4.668322031500515E-004
 -4.613299501033080E-004
 -4.559623836877700E-004
 -4.507457651314480E-004
 -4.456951996305573E-004
 -4.408241576191496E-004
 -4.361438985659817E-004
 -4.316627973769975E-004
 -4.273855816398972E-004
 -4.233124993789539E-004
 -4.194384521496890E-004
 -4.157521472788218E-004
 -4.122353452829480E-004
 -4.088623021241145E-004
 -4.055995270414857E-004
 -4.024059877741442E-004
 -3.992338830965135E-004
 -6.746259253392593E-004
 -6.737323579597418E-004
 -6.723698075166179E-004
 -6.705529524674579E-004
 -6.682974302644535E-004
 -6.656197777597351E-004
 -6.625373622012026E-004
 -6.590683036255536E-004
 -6.552313904838606E-004
 -6.510459909714309E-004
 -6.465319627882926E-004
 -6.417095640141283E-004
 -6.365993675400939E-004
 -6.312221811254336E-004
 -6.255989747267550E-004
 -6.197508163111164E-004
 -6.136988169585030E-004
 -6.074640856860731E-004
 -6.010676941005358E-004
 -5.945306506942340E-004
 -5.878738843354602E-004
 -5.811182362573709E-004
 -5.742844595873185E-004
 -5.673932251783284E-004
 -5.604651321778334E-004
 -5.535207213729226E-004
 -5.465804888773165E-004
 -5.396648971545032E-004
 -5.327943796783010E-004
 -5.259893347421867E-004
 -5.192701030120167E-004
 -5.126569224173807E-004
 -5.061698529215845E-004
 -4.998286626647049E-004
 -4.936526660402016E-004
 -4.876605035882146E-004
 -4.818698533650365E-004
 -4.762970639480333E-004
 -4.709567008147626E-004
 -4.658610008957479E-004
 -4.610192351777348E-004
 -4.564369868529758E-004
 -4.521153632372837E-004
 -4.480501739296009E-004
 -4.442311255822177E-004
 -4.406411046501957E-004
 -4.372556418825580E-004
 -4.340426723834399E-004
 -4.309627157416771E-004
 -4.279695897186447E-004
 -7.451865883226893E-004
 -7.438511439993771E-004
 -7.419299688838577E-004
 -7.394440363517087E-004
 -7.364153724842256E-004
 -7.328670330909066E-004
 -7.288230534223243E-004
 -7.243083724790312E-004
 -7.193487362987425E-004
 -7.139705858856427E-004
 -7.082009357913767E-004
 -7.020672490589879E-004
 -6.955973135607284E-004
 -6.888191238593814E-004
 -6.817607717829472E-004
 -6.744503479810197E-004
 -6.669158559085991E-004
 -6.591851389656682E-004
 -6.512858209358145E-004
 -6.432452593845816E-004
 -6.350905112900043E-004
 -6.268483098606999E-004
 -6.185450512181082E-004
 -6.102067893581063E-004
 -6.018592375328157E-004
 -5.935277738780628E-004
 -5.852374487448140E-004
 -5.770129907322732E-004
 -5.688788078811567E-004
 -5.608589798321063E-004
 -5.529772360020196E-004
 -5.452569139941242E-004
 -5.377208915613920E-004
 -5.303914845458248E-004
 -5.232903024008068E-004
 -5.164380523055664E-004
 -5.098542826602909E-004
 -5.035570571594338E-004
 -4.975625519795723E-004
 -4.918845712615502E-004
 -4.865339804736328E-004
 -4.815180639041274E-004
 -4.768398219535417E-004
 -4.724972364555966E-004
 -4.684825481018922E-004
 -4.647816087016353E-004
 -4.613733910012054E-004
 -4.582297567989920E-004
 -4.553155938733380E-004
 -4.525894227733946E-004
 -8.260277330334767E-004
 -8.239419205293809E-004
 -8.211351744727644E-004
 -8.176342126413141E-004
 -8.134670899013492E-004
 -8.086632952624722E-004
 -8.032537665285924E-004
 -7.972708299296156E-004
 -7.907480787258969E-004
 -7.837202071281398E-004
 -7.762228156786635E-004
 -7.682922025319668E-004
 -7.599651526426622E-004
 -7.512787342303550E-004
 -7.422701093436655E-004
 -7.329763630813402E-004
 -7.234343541050482E-004
 -7.136805875434071E-004
 -7.037511101881886E-004
 -6.936814270079245E-004
 -6.835064373675957E-004
 -6.732603889236430E-004
 -6.629768468693256E-004
 -6.526886760189393E-004
 -6.424280330652876E-004
 -6.322263662069082E-004
 -6.221144191765544E-004
 -6.121222364720755E-004
 -6.022791663022580E-004
 -5.926138573672243E-004
 -5.831542451170402E-004
 -5.739275225704588E-004
 -5.649600901429343E-004
 -5.562774782827955E-004
 -5.479042361104373E-004
 -5.398637787780298E-004
 -5.321781860888529E-004
 -5.248679451872937E-004
 -5.179516311209255E-004
 -5.114455210883857E-004
 -5.053631415689749E-004
 -4.997147527138787E-004
 -4.945067817585347E-004
 -4.897412271432951E-004
 -4.854150676205717E-004
 -4.815197255759350E-004
 -4.780406499214348E-004
 -4.749570986134766E-004
 -4.722422091223936E-004
 -4.698634380278401E-004
 -9.183821780344702E-004
 -9.151202463457625E-004
 -9.109870180719136E-004
 -9.060131420780303E-004
 -9.002311964440165E-004
 -8.936760320026766E-004
 -8.863849215401613E-004
 -8.783975346232108E-004
 -8.697557723721635E-004
 -8.605035007612934E-004
 -8.506862191701573E-004
 -8.403506959784444E-004
 -8.295445968443836E-004
 -8.183161250258430E-004
 -8.067136873308169E-004
 -7.947855943567037E-004
 -7.825797996521709E-004
 -7.701436793405010E-004
 -7.575238514395148E-004
 -7.447660325231761E-004
 -7.319149283279251E-004
 -7.190141543097826E-004
 -7.061061818784756E-004
 -6.932323059800636E-004
 -6.804326297833335E-004
 -6.677460623863422E-004
 -6.552103256280331E-004
 -6.428619662533072E-004
 -6.307363697723390E-004
 -6.188677723821396E-004
 -6.072892672670329E-004
 -5.960328014306985E-004
 -5.851291590063399E-004
 -5.746079266902879E-004
 -5.644974366594848E-004
 -5.548246820607782E-004
 -5.456152000422262E-004
 -5.368929174001210E-004
 -5.286799544470212E-004
 -5.209963838129700E-004
 -5.138599428730293E-004
 -5.072857015681500E-004
 -5.012856918952789E-004
 -4.958685115016235E-004
 -4.910389217753365E-004
 -4.867974704323720E-004
 -4.831401791537681E-004
 -4.800583467351604E-004
 -4.775385241121169E-004
 -4.755627139327967E-004
 -1.023244296508801E-003
 -1.018240596096040E-003
 -1.012206804426217E-003
 -1.005173830998560E-003
 -9.971755780744749E-004
 -9.882497114693217E-004
 -9.784380434120390E-004
 -9.677865695766229E-004
 -9.563452311645867E-004
 -9.441674793934650E-004
 -9.313097148074971E-004
 -9.178306630341039E-004
 -9.037907357915896E-004
 -8.892514132896642E-004
 -8.742746728476234E-004
 -8.589224790518701E-004
 -8.432563432254091E-004
 -8.273369542670412E-004
 -8.112238788173123E-004
 -7.949753259516245E-004
 -7.786479699174434E-004
 -7.622968235775124E-004
 -7.459751549682783E-004
 -7.297344395650548E-004
 -7.136243412964339E-004
 -6.976927159780082E-004
 -6.819856315370703E-004
 -6.665474001188089E-004
 -6.514206178462893E-004
 -6.366462086356612E-004
 -6.222634690014159E-004
 -6.083101112334934E-004
 -5.948223026587125E-004
 -5.818346989418387E-004
 -5.693804695059222E-004
 -5.574913131989093E-004
 -5.461974623012013E-004
 -5.355276728930307E-004
 -5.255091995199277E-004
 -5.161677520666818E-004
 -5.075274328471349E-004
 -4.996106522548665E-004
 -4.924380219883568E-004
 -4.860282260352478E-004
 -4.803978713632573E-004
 -4.755613227231894E-004
 -4.715305290290730E-004
 -4.683148521007699E-004
 -4.659209115484481E-004
 -4.643524597414118E-004
 -1.141159588276486E-003
 -1.133688635704430E-003
 -1.125031391569003E-003
 -1.115212787966384E-003
 -1.104262509650064E-003
 -1.092216439653685E-003
 -1.079117408377565E-003
 -1.065015327088042E-003
 -1.049966833956076E-003
 -1.034034592451077E-003
 -1.017286371150626E-003
 -9.997940135732112E-004
 -9.816323831570780E-004
 -9.628783456938503E-004
 -9.436098314010988E-004
 -9.239050021455356E-004
 -9.038415362745056E-004
 -8.834960337595913E-004
 -8.629435374777933E-004
 -8.422571619481542E-004
 -8.215078181764018E-004
 -8.007640220342607E-004
 -7.800917734002577E-004
 -7.595544938082829E-004
 -7.392130113694891E-004
 -7.191255830200753E-004
 -6.993479456143339E-004
 -6.799333888854254E-004
 -6.609328448041317E-004
 -6.423949892960254E-004
 -6.243663536381801E-004
 -6.068914440759910E-004
 -5.900128692915459E-004
 -5.737714762791452E-004
 -5.582064958832773E-004
 -5.433556997136669E-004
 -5.292555702775619E-004
 -5.159414858857946E-004
 -5.034479210932198E-004
 -4.918086619973257E-004
 -4.810570335163612E-004
 -4.712261326637922E-004
 -4.623490577496488E-004
 -4.544591183164423E-004
 -4.475900045884519E-004
 -4.417758886026098E-004
 -4.370514227839990E-004
 -4.334515968578064E-004
 -4.310114121550180E-004
 -4.297653396781601E-004
 -1.271960797086013E-003
 -1.261123461742719E-003
 -1.248962000964750E-003
 -1.235485800200112E-003
 -1.220711763843021E-003
 -1.204666754002055E-003
 -1.187388877565074E-003
 -1.168927752162958E-003
 -1.149343970968740E-003
 -1.128707998365376E-003
 -1.107098710035488E-003
 -1.084601756231926E-003
 -1.061307887231988E-003
 -1.037311341906405E-003
 -1.012708367076062E-003
 -9.875959080790577E-004
 -9.620704897648556E-004
 -9.362272914611420E-004
 -9.101594085232319E-004
 -8.839572859931347E-004
 -8.577083058405239E-004
 -8.314965074705001E-004
 -8.054024210450624E-004
 -7.795029941838728E-004
 -7.538715943702678E-004
 -7.285780716172212E-004
 -7.036888684256080E-004
 -6.792671666432158E-004
 -6.553730634040345E-004
 -6.320637708444182E-004
 -6.093938366738815E-004
 -5.874153849267476E-004
 -5.661783782568292E-004
 -5.457309049178370E-004
 -5.261194950263148E-004
 -5.073894716827565E-004
 -4.895853428930685E-004
 -4.727512397586772E-004
 -4.569314048033852E-004
 -4.421707312652748E-004
 -4.285153492930901E-004
 -4.160132478664242E-004
 -4.047149115319466E-004
 -3.946739384897862E-004
 -3.859475912905183E-004
 -3.785972140113702E-004
 -3.726884318045841E-004
 -3.682910334897973E-004
 -3.654784334039706E-004
 -3.643266163147342E-004
 -1.414460573782522E-003
 -1.399179873563071E-003
 -1.382475504808900E-003
 -1.364327763769796E-003
 -1.344728650782043E-003
 -1.323685709761565E-003
 -1.301224045189368E-003
 -1.277386754677009E-003
 -1.252234111217470E-003
 -1.225841863412057E-003
 -1.198298988922503E-003
 -1.169705179293837E-003
 -1.140168271512040E-003
 -1.109801782022886E-003
 -1.078722647016002E-003
 -1.047049230427563E-003
 -1.014899628368738E-003
 -9.823902746628360E-004
 -9.496348355080836E-004
 -9.167433706050235E-004
 -8.838217320263294E-004
 -8.509711695268924E-004
 -8.182881109035522E-004
 -7.858640876533647E-004
 -7.537857789332339E-004
 -7.221351502682285E-004
 -6.909896672547629E-004
 -6.604225684518803E-004
 -6.305031855954648E-004
 -6.012973031232244E-004
 -5.728675526872620E-004
 -5.452738418062354E-004
 -5.185738190137770E-004
 -4.928233806939925E-004
 -4.680772271448388E-004
 -4.443894770619002E-004
 -4.218143503469933E-004
 -4.004069285280292E-004
 -3.802239996814376E-004
 -3.613249899982490E-004
 -3.437729763553516E-004
 -3.276357627606067E-004
 -3.129869876198435E-004
 -2.999072079689471E-004
 -2.884848811044248E-004
 -2.788171345263983E-004
 -2.710101848658338E-004
 -2.651792403473872E-004
 -2.614477036666385E-004
 -2.599455281732064E-004
 -1.566123466769575E-003
 -1.545151411963900E-003
 -1.522715863034101E-003
 -1.498750339738482E-003
 -1.473206267484271E-003
 -1.446058629220120E-003
 -1.417308954564209E-003
 -1.386985907234514E-003
 -1.355144021915309E-003
 -1.321861137401451E-003
 -1.287235024503975E-003
 -1.251379624637916E-003
 -1.214421220164674E-003
 -1.176494767338055E-003
 -1.137740544946904E-003
 -1.098301208785530E-003
 -1.058319293616096E-003
 -1.017935168807417E-003
 -9.772854293130075E-004
 -9.365016879702970E-004
 -8.957097262691982E-004
 -8.550289569880941E-004
 -8.145721520074329E-004
 -7.744453910043744E-004
 -7.347481907568713E-004
 -6.955737797585311E-004
 -6.570094883410176E-004
 -6.191372301648172E-004
 -5.820340565990681E-004
 -5.457727710072427E-004
 -5.104225952249643E-004
 -4.760498854677075E-004
 -4.427188994799067E-004
 -4.104926208034779E-004
 -3.794336494440071E-004
 -3.496051706782343E-004
 -3.210720149210747E-004
 -2.939018209359385E-004
 -2.681663115943552E-004
 -2.439426850306550E-004
 -2.213151134479088E-004
 -2.003763259651284E-004
 -1.812292297791157E-004
 -1.639884948886448E-004
 -1.487819916366378E-004
 -1.357519281878537E-004
 -1.250554896514468E-004
 -1.168647424943974E-004
 -1.113655661578511E-004
 -1.087553433417887E-004
 -1.722752347301015E-003
 -1.694682073816062E-003
 -1.665184864804760E-003
 -1.634126847818035E-003
 -1.601400911383145E-003
 -1.566934799876953E-003
 -1.530695133747833E-003
 -1.492688103977876E-003
 -1.452957497751198E-003
 -1.411580859084350E-003
 -1.368664517638043E-003
 -1.324338084440893E-003
 -1.278748873568498E-003
 -1.232056579931185E-003
 -1.184428432027392E-003
 -1.136034947916961E-003
 -1.087046352866823E-003
 -1.037629666129229E-003
 -9.879464291837987E-004
 -9.381510253539221E-004
 -8.883895280821602E-004
 -8.387990097816848E-004
 -7.895072430208348E-004
 -7.406327291637433E-004
 -6.922849952668951E-004
 -6.445651070381799E-004
 -5.975663533636804E-004
 -5.513750658322409E-004
 -5.060715445273190E-004
 -4.617310689270911E-004
 -4.184249799509193E-004
 -3.762218258823041E-004
 -3.351885710540950E-004
 -2.953918716154020E-004
 -2.568994272565364E-004
 -2.197814211247120E-004
 -1.841120618932853E-004
 -1.499712414341297E-004
 -1.174463180015747E-004
 -8.663402724752293E-005
 -5.764251057183350E-005
 -3.059343088469179E-005
 -5.624118409382420E-006
  1.711034743587751E-005
  3.743525968798440E-005
  5.515480042018302E-005
  7.005119584161853E-005
  8.188480735915475E-005
  9.039552670853106E-005
  9.530561941485191E-005
 -1.878227232583497E-003
 -1.841485352224998E-003
 -1.803430175819384E-003
 -1.763840789617594E-003
 -1.722535911731257E-003
 -1.679384126974652E-003
 -1.634309330976212E-003
 -1.587291172981609E-003
 -1.538361861811381E-003
 -1.487600464117085E-003
 -1.435125679956646E-003
 -1.381087926540256E-003
 -1.325661375325585E-003
 -1.269036403806408E-003
 -1.211412764042630E-003
 -1.152993642074159E-003
 -1.093980684761970E-003
 -1.034569999497216E-003
 -9.749490831887723E-004
 -9.152946056354698E-004
 -8.557709548230748E-004
 -7.965294443789584E-004
 -7.377080834607130E-004
 -6.794318144117846E-004
 -6.218131317839016E-004
 -5.649530064430843E-004
 -5.089420494658474E-004
 -4.538618617253762E-004
 -3.997865259795625E-004
 -3.467842086448465E-004
 -2.949188480793874E-004
 -2.442519149865670E-004
 -1.948442384201269E-004
 -1.467578976825274E-004
 -1.000581860215067E-004
 -5.481565614111389E-005
 -1.110825973120920E-005
  3.097640713651413E-005
  7.133874468871595E-005
  1.098646764713881E-004
  1.464230771446153E-004
  1.808631368785310E-004
  2.130117280554000E-004
  2.426708795761051E-004
  2.696155150801922E-004
  2.935916758782009E-004
  3.143155213919365E-004
  3.314734321840396E-004
  3.447234485943345E-004
  3.536988708369550E-004
 -2.024311228986649E-003
 -1.977059576012631E-003
 -1.928653638932960E-003
 -1.878778861862554E-003
 -1.827176089038736E-003
 -1.773656315066902E-003
 -1.718105859742443E-003
 -1.660486090304319E-003
 -1.600828323209322E-003
 -1.539225339180987E-003
 -1.475820969866097E-003
 -1.410798920810967E-003
 -1.344371692766507E-003
 -1.276770207123279E-003
 -1.208234528924552E-003
 -1.139005908705386E-003
 -1.069320230764259E-003
 -9.994028575262197E-004
 -9.294647926076814E-004
 -8.597000433079369E-004
 -7.902840408676060E-004
 -7.213729688914029E-004
 -6.531038526698364E-004
 -5.855952713787829E-004
 -5.189485686880558E-004
 -4.532494531767265E-004
 -3.885698966828350E-004
 -3.249702552592357E-004
 -2.625015530850813E-004
 -2.012078840443189E-004
 -1.411288984982658E-004
 -8.230235393524239E-005
 -2.476671762971804E-005
  3.143618282024097E-005
  8.625845926070645E-005
  1.396434071770498E-004
  1.915226865435514E-004
  2.418134322327132E-004
  2.904152907994952E-004
  3.372073885928675E-004
  3.820452499250724E-004
  4.247577053040533E-004
  4.651438603302997E-004
  5.029702360073080E-004
  5.379682367434170E-004
  5.698321454461081E-004
  5.982178968034443E-004
  6.227430344676857E-004
  6.429885691468240E-004
  6.585014089177697E-004
 -2.150474439174833E-003
 -2.090244923975104E-003
 -2.028996712441567E-003
 -1.966348568296847E-003
 -1.901999000559933E-003
 -1.835735379445573E-003
 -1.767441819857926E-003
 -1.697096640725274E-003
 -1.624763557586440E-003
 -1.550579192230840E-003
 -1.474738578476924E-003
 -1.397480032863457E-003
 -1.319070483806764E-003
 -1.239792037950859E-003
 -1.159930263947072E-003
 -1.079764429692266E-003
 -9.995597468212629E-004
 -9.195615491199601E-004
 -8.399912490519072E-004
 -7.610438689530871E-004
 -6.828869222745854E-004
 -6.056604184794591E-004
 -5.294777769261690E-004
 -4.544274554189784E-004
 -3.805751242014541E-004
 -3.079662430827139E-004
 -2.366289259772936E-004
 -1.665770020062500E-004
 -9.781320458996894E-005
 -3.033243921327716E-005
  3.587490337460466E-005
  1.008196088005372E-004
  1.645102858036236E-004
  2.269500010637071E-004
  2.881329004029801E-004
  3.480408123715778E-004
  4.066398303574822E-004
  4.638768719918480E-004
  5.196762198998140E-004
  5.739360558967733E-004
  6.265250116290995E-004
  6.772787726923976E-004
  7.259967923617734E-004
  7.724392015566222E-004
  8.163240557267994E-004
  8.573251398125753E-004
  8.950705830261706E-004
  9.291422458857366E-004
  9.590753315099566E-004
  9.843638861359602E-004
 -2.243606482926574E-003
 -2.166289004714343E-003
 -2.088008579251931E-003
 -2.008447932988926E-003
 -1.927365186051621E-003
 -1.844628191686440E-003
 -1.760209962094042E-003
 -1.674181464144832E-003
 -1.586699507767783E-003
 -1.497990230002568E-003
 -1.408330527863126E-003
 -1.318029528014781E-003
 -1.227411465751797E-003
 -1.136800763090488E-003
 -1.046509691646078E-003
 -9.568287242347046E-004
 -8.680194808964993E-004
 -7.803100424140820E-004
 -6.938923269035457E-004
 -6.089211924696421E-004
 -5.255149300025044E-004
 -4.437568340257137E-004
 -3.636975765872351E-004
 -2.853581521803347E-004
 -2.087332054256231E-004
 -1.337945944465266E-004
 -6.049507968655492E-005
  1.122794047988235E-005
  8.144869977451383E-005
  1.502493710665422E-004
  2.177164255617436E-004
  2.839370472451030E-004
  3.489955974932590E-004
  4.129701198491454E-004
  4.759288728736132E-004
  5.379268792604513E-004
  5.990024816849232E-004
  6.591738998939261E-004
  7.184357894461293E-004
  7.767558107285064E-004
  8.340712278444629E-004
  8.902855695441911E-004
  9.452653922333621E-004
  9.988371730942046E-004
  1.050784313125747E-003
  1.100844183133677E-003
  1.148705347505560E-003
  1.194006083871148E-003
  1.236335882968597E-003
  1.275223004584803E-003
 -2.287646777376013E-003
 -2.185100941503090E-003
 -2.081902527982298E-003
 -1.978034261065204E-003
 -1.873586339080125E-003
 -1.768692390738550E-003
 -1.663548387722337E-003
 -1.558408717628687E-003
 -1.453570476906381E-003
 -1.349355629827351E-003
 -1.246094140496967E-003
 -1.144109027993442E-003
 -1.043703870706911E-003
 -9.451530867673780E-004
 -8.486950540564064E-004
 -7.545278774116926E-004
 -6.628074369284778E-004
 -5.736472750044774E-004
 -4.871198797711887E-004
 -4.032589683166580E-004
 -3.220624388458864E-004
 -2.434957296547275E-004
 -1.674953852809775E-004
 -9.397268272352444E-005
 -2.281721267131088E-005
  4.609965666148924E-005
  1.129214805449971E-004
  1.778036320410331E-004
  2.409104035233419E-004
  3.024123179955353E-004
  3.624836438097206E-004
  4.213000991135226E-004
  4.790367264423190E-004
  5.358659131152584E-004
  5.919555293538519E-004
  6.474671530823366E-004
  7.025543476238441E-004
  7.573609548498154E-004
  8.120193600677120E-004
  8.666486743299662E-004
  9.213527652724290E-004
  9.762180555580712E-004
  1.031311016093939E-003
  1.086675333865772E-003
  1.142328818441187E-003
  1.198260029088136E-003
  1.254423719330189E-003
  1.310731825263708E-003
  1.367038222714316E-003
  1.423168575111189E-003
 -2.264314818336098E-003
 -2.119981886106506E-003
 -1.977255316860439E-003
 -1.837068403146989E-003
 -1.700023500237146E-003
 -1.566661283816994E-003
 -1.437427548451770E-003
 -1.312661638731692E-003
 -1.192605521765589E-003
 -1.077416168113716E-003
 -9.671765827583413E-004
 -8.619059640525110E-004
 -7.615697310317442E-004
 -6.660893925814362E-004
 -5.753517919871529E-004
 -4.892172478360342E-004
 -4.075263124618725E-004
 -3.301050999730849E-004
 -2.567693087628421E-004
 -1.873271572105397E-004
 -1.215814779486925E-004
 -5.933119750139774E-005
 -3.723849640566438E-007
  5.550099891961488E-005
  1.084965725517713E-004
  1.588231898873935E-004
  2.066907851298644E-004
  2.523104361292267E-004
  2.958946957693362E-004
  3.376582511903649E-004
  3.778189735023095E-004
  4.165994160270338E-004
  4.542288072208810E-004
  4.909455653184206E-004
  5.270003356025652E-004
  5.626595185956509E-004
  5.982092193733518E-004
  6.339595058257874E-004
  6.702488171978975E-004
  7.074483101398351E-004
  7.459658561235838E-004
  7.862492874582245E-004
  8.287882983743729E-004
  8.741141476512671E-004
  9.227961573985890E-004
  9.754345920228121E-004
  1.032652070273291E-003
  1.095089789141216E-003
  1.163402407108798E-003
  1.238103102229685E-003
 -2.160407646746070E-003
 -1.944420829595570E-003
 -1.741094337392500E-003
 -1.551546826960150E-003
 -1.376859077265454E-003
 -1.217346649905962E-003
 -1.072750237004369E-003
 -9.424253256221477E-004
 -8.254693040849348E-004
 -7.208193005108219E-004
 -6.273355966176849E-004
 -5.438710755103046E-004
 -4.693242514220959E-004
 -4.026752359009330E-004
 -3.430062692730771E-004
 -2.895098013930387E-004
 -2.414874912902867E-004
 -1.983432451730710E-004
 -1.595728567623865E-004
 -1.247521777417256E-004
 -9.352515284074564E-005
 -6.559255715435700E-005
 -4.070188511920833E-005
 -1.863855269774978E-005
  7.816300899257931E-007
  1.771889869625920E-005
  3.231515958230911E-005
  4.469913311415406E-005
  5.499137880216948E-005
  6.330958470963264E-005
  6.977450670080997E-005
  7.451693492210054E-005
  7.768604274685383E-005
  7.945943328889044E-005
  8.005513454027418E-005
  7.974569936272479E-005
  7.887443463461690E-005
  7.787361183962327E-005
  7.728430354887079E-005
  7.777726301499369E-005
  8.017404857071121E-005
  8.546742695075043E-005
  9.483996604289718E-005
  1.096794766408522E-004
  1.315889892467293E-004
  1.623859752678385E-004
  2.040794612587575E-004
  2.588113078704924E-004
  3.288010788094453E-004
  4.166912103825483E-004
 -1.993870153751693E-003
 -1.674223299399732E-003
 -1.399909778202454E-003
 -1.171841136554103E-003
 -9.868051419626559E-004
 -8.405809803951222E-004
 -7.284587656036012E-004
 -6.455027362375658E-004
 -5.868396846351717E-004
 -5.479135579380123E-004
 -5.246581840105469E-004
 -5.135830724025073E-004
 -5.117896432855856E-004
 -5.169405756150742E-004
 -5.272022642776811E-004
 -5.411752848592959E-004
 -5.578228416426762E-004
 -5.764032657575013E-004
 -5.964098232616975E-004
 -6.175192073465931E-004
 -6.395488925141805E-004
 -6.624228156885217E-004
 -6.861444599999601E-004
 -7.107762351743268E-004
 -7.364239924276801E-004
 -7.632255257949863E-004
 -7.913419584840532E-004
 -8.209509678780550E-004
 -8.522408511690524E-004
 -8.854044670156490E-004
 -9.206321041070541E-004
 -9.581023266125677E-004
 -9.979698352533596E-004
 -1.040349372191059E-003
 -1.085294705295192E-003
 -1.132771777496657E-003
 -1.182625234344890E-003
 -1.234537792896611E-003
 -1.287982342813944E-003
 -1.342167332739050E-003
 -1.395976924451621E-003
 -1.447908540825239E-003
 -1.496011522054199E-003
 -1.537830931540734E-003
 -1.570358757625463E-003
 -1.589989308412604E-003
 -1.592469034657233E-003
 -1.572849494031733E-003
 -1.525620680380349E-003
 -1.446010748120473E-003
 -1.866089597469392E-003
 -1.478144440820885E-003
 -1.216058418495544E-003
 -1.055090181494855E-003
 -9.770519144728664E-004
 -9.645079997724793E-004
 -1.001172351112981E-003
 -1.072852903000507E-003
 -1.167890709509269E-003
 -1.277143493630167E-003
 -1.393719605864086E-003
 -1.512617062041226E-003
 -1.630355248292780E-003
 -1.744640818433762E-003
 -1.854083125345356E-003
 -1.957961208128476E-003
 -2.056038293454079E-003
 -2.148417493190513E-003
 -2.235431958351219E-003
 -2.317563165893610E-003
 -2.395381757564805E-003
 -2.469506169862946E-003
 -2.540575075991851E-003
 -2.609230355282085E-003
 -2.676107895707117E-003
 -2.741834018433972E-003
 -2.807025693871425E-003
 -2.872293002760842E-003
 -2.938242490307714E-003
 -3.005480172403982E-003
 -3.074612986234673E-003
 -3.146247437947162E-003
 -3.220984092448875E-003
 -3.299406380572931E-003
 -3.382061975129870E-003
 -3.469434723526813E-003
 -3.561904845226566E-003
 -3.659694851950935E-003
 -3.762798509706772E-003
 -3.870890286517634E-003
 -3.983213396341314E-003
 -4.098446251625500E-003
 -4.214550694520564E-003
 -4.328611952535009E-003
 -4.436690775114523E-003
 -4.533720286686012E-003
 -4.613476446528378E-003
 -4.668559466191012E-003
 -4.689887209383367E-003
 -4.663569193343780E-003
 -1.932688564346644E-003
 -1.816187841582377E-003
 -1.861496075339342E-003
 -2.032226465052324E-003
 -2.282203449657444E-003
 -2.574290993969862E-003
 -2.882510144684467E-003
 -3.189950749641414E-003
 -3.486230016925916E-003
 -3.765430842864588E-003
 -4.024611864135707E-003
 -4.262776103928412E-003
 -4.480168101425774E-003
 -4.677797097892877E-003
 -4.857114191277104E-003
 -5.019794725537145E-003
 -5.167593284033869E-003
 -5.302249303577039E-003
 -5.425428285080478E-003
 -5.538688151291112E-003
 -5.643463357871773E-003
 -5.741061450528895E-003
 -5.832668219051896E-003
 -5.919358639424260E-003
 -6.002111547900574E-003
 -6.081826537848035E-003
 -6.159341963376962E-003
 -6.235453207249301E-003
 -6.310930546656653E-003
 -6.386536043767864E-003
 -6.463038907515936E-003
 -6.541228723406737E-003
 -6.621925829413981E-003
 -6.705987923649326E-003
 -6.794311712403420E-003
 -6.887828024537882E-003
 -6.987488293574677E-003
 -7.094239580253670E-003
 -7.208984272978745E-003
 -7.332519097834937E-003
 -7.465445853084293E-003
 -7.608043062769831E-003
 -7.760083367623252E-003
 -7.920576669433695E-003
 -8.087417864827199E-003
 -8.256935232273587E-003
 -8.423418585038081E-003
 -8.578998749269050E-003
 -8.715174822805517E-003
 -8.830074112861203E-003
 -1.963915448141886E-003
 -2.717554957267422E-003
 -3.515025765162900E-003
 -4.246481832707547E-003
 -4.885049457249303E-003
 -5.433029610601056E-003
 -5.901467703626694E-003
 -6.302687584138694E-003
 -6.647836898123520E-003
 -6.946315382221782E-003
 -7.205857017314295E-003
 -7.432793243412434E-003
 -7.632326239520150E-003
 -7.808759958699648E-003
 -7.965681096231518E-003
 -8.106096852185175E-003
 -8.232539484401650E-003
 -8.347146717466775E-003
 -8.451725069217984E-003
 -8.547801193253827E-003
 -8.636664756276613E-003
 -8.719405213029196E-003
 -8.796944045333741E-003
 -8.870063508560556E-003
 -8.939432599611139E-003
 -9.005630762468544E-003
 -9.069169734855716E-003
 -9.130513881332222E-003
 -9.190099334624070E-003
 -9.248352267415936E-003
 -9.305706637805519E-003
 -9.362621795793913E-003
 -9.419600414036930E-003
 -9.477207328168064E-003
 -9.536090061415734E-003
 -9.597002092776946E-003
 -9.660830340448798E-003
 -9.728628903627270E-003
 -9.801661845292763E-003
 -9.881458642084654E-003
 -9.969886610228211E-003
 -1.006924436603146E-002
 -1.018237717085682E-002
 -1.031280375191714E-002
 -1.046481223743041E-002
 -1.064339873217648E-002
 -1.085370668674147E-002
 -1.109907683347538E-002
 -1.137541292048636E-002
 -1.165592757282239E-002
 -9.924823086848234E-004
 -2.818743164325892E-003
 -3.913309560220216E-003
 -4.601894376851087E-003
 -5.058866753509129E-003
 -5.380625335061099E-003
 -5.621733897374978E-003
 -5.813584287877213E-003
 -5.974436558090216E-003
 -6.114997810923469E-003
 -6.241595829810868E-003
 -6.358012045251962E-003
 -6.466548398933481E-003
 -6.568649055213835E-003
 -6.665261056829169E-003
 -6.757041516653112E-003
 -6.844474950162927E-003
 -6.927938531504749E-003
 -7.007737686235782E-003
 -7.084125216084338E-003
 -7.157311613862701E-003
 -7.227470914193084E-003
 -7.294744464627884E-003
 -7.359243861602063E-003
 -7.421053651926792E-003
 -7.480234054734854E-003
 -7.536823790099082E-003
 -7.590843037159291E-003
 -7.642296545741322E-003
 -7.691176971083935E-003
 -7.737468586003455E-003
 -7.781151655376450E-003
 -7.822207952844839E-003
 -7.860628192422585E-003
 -7.896422591571100E-003
 -7.929636461107264E-003
 -7.960373763060087E-003
 -7.988833201777781E-003
 -8.015363963098534E-003
 -8.040552277870471E-003
 -8.065356586909687E-003
 -8.091320096095776E-003
 -8.120908487749053E-003
 -8.158054548618928E-003
 -8.209055083277853E-003
 -8.284090208726074E-003
 -8.399891698404110E-003
 -8.584640203787131E-003
 -8.887417939739045E-003
 -9.397470744317122E-003
  2.559678447574391E-004
  1.328898492909690E-003
  1.991636723711683E-003
  2.382020238057640E-003
  2.588131204636603E-003
  2.668460747492598E-003
  2.662904592900109E-003
  2.599157340479754E-003
  2.496648347861509E-003
  2.369080181173326E-003
  2.226125984582490E-003
  2.074595133349515E-003
  1.919249143496612E-003
  1.763380418249849E-003
  1.609226508002018E-003
  1.458268423749089E-003
  1.311446280275418E-003
  1.169315529730343E-003
  1.032160279184888E-003
  9.000755103783296E-004
  7.730267359942089E-004
  6.508932927965952E-004
  5.334997998808517E-004
  4.206391067345914E-004
  3.120891883716937E-004
  2.076258212476945E-004
  1.070324292643894E-004
  1.010817821235979E-005
 -8.332481254515038E-005
 -1.734144026688418E-004
 -2.602708351141971E-004
 -3.439579499226004E-004
 -4.244825047317647E-004
 -5.017808075198298E-004
 -5.757017201289544E-004
 -6.459848793173619E-004
 -7.122326887319574E-004
 -7.738742317759250E-004
 -8.301186935455124E-004
 -8.798950750037021E-004
 -9.217737815949740E-004
 -9.538637879939289E-004
 -9.736759819915763E-004
 -9.779379283674716E-004
 -9.623355990734205E-004
 -9.211394099734211E-004
 -8.466365524416559E-004
 -7.282208074133519E-004
 -5.508448207164197E-004
 -2.922280316485338E-004
SCALARS elementIsPlast double 
LOOKUP_TABLE default
   1.00000000000000     
   1.00000000000000     
   1.00000000000000     
   1.00000000000000     
   1.00000000000000     
  0.000000000000000E+000
  0.000000000000000E+000
  0.000000000000000E+000
  0.000000000000000E+000
  0.000000000000000E+000
  0.000000000000000E+000
  0.000000000000000E+000
  0.000000000000000E+000
  0.000000000000000E+000
  0.000000000000000E+000
  0.000000000000000E+000
  0.000000000000000E+000
  0.000000000000000E+000
  0.000000000000000E+000
  0.000000000000000E+000
  0.000000000000000E+000
  0.000000000000000E+000
  0.000000000000000E+000
  0.000000000000000E+000
  0.000000000000000E+000
  0.000000000000000E+000
  0.000000000000000E+000
  0.000000000000000E+000
  0.000000000000000E+000
  0.000000000000000E+000
  0.000000000000000E+000
  0.000000000000000E+000
  0.000000000000000E+000
  0.000000000000000E+000
  0.000000000000000E+000
  0.000000000000000E+000
  0.000000000000000E+000
  0.000000000000000E+000
  0.000000000000000E+000
  0.000000000000000E+000
  0.000000000000000E+000
  0.000000000000000E+000
  0.000000000000000E+000
  0.000000000000000E+000
  0.000000000000000E+000
  0.000000000000000E+000
  0.000000000000000E+000
  0.000000000000000E+000
  0.000000000000000E+000
  0.000000000000000E+000
  0.000000000000000E+000
  0.000000000000000E+000
  0.000000000000000E+000
  0.000000000000000E+000
  0.000000000000000E+000
  0.000000000000000E+000
  0.000000000000000E+000
  0.000000000000000E+000
  0.000000000000000E+000
  0.000000000000000E+000
  0.000000000000000E+000
  0.000000000000000E+000
  0.000000000000000E+000
  0.000000000000000E+000
  0.000000000000000E+000
  0.000000000000000E+000
  0.000000000000000E+000
  0.000000000000000E+000
  0.000000000000000E+000
  0.000000000000000E+000
  0.000000000000000E+000
  0.000000000000000E+000
  0.000000000000000E+000
  0.000000000000000E+000
  0.000000000000000E+000
  0.000000000000000E+000
  0.000000000000000E+000
  0.000000000000000E+000
  0.000000000000000E+000
  0.000000000000000E+000
  0.000000000000000E+000
  0.000000000000000E+000
  0.000000000000000E+000
  0.000000000000000E+000
  0.000000000000000E+000
  0.000000000000000E+000
  0.000000000000000E+000
  0.000000000000000E+000
  0.000000000000000E+000
  0.000000000000000E+000
  0.000000000000000E+000
  0.000000000000000E+000
  0.000000000000000E+000
  0.000000000000000E+000
  0.000000000000000E+000
  0.000000000000000E+000
  0.000000000000000E+000
  0.000000000000000E+000
  0.000000000000000E+000
  0.000000000000000E+000
  0.000000000000000E+000
  0.000000000000000E+000
  0.000000000000000E+000
  0.000000000000000E+000
  0.000000000000000E+000
  0.000000000000000E+000
  0.000000000000000E+000
  0.000000000000000E+000
  0.000000000000000E+000
  0.000000000000000E+000
  0.000000000000000E+000
  0.000000000000000E+000
  0.000000000000000E+000
  0.000000000000000E+000
  0.000000000000000E+000
  0.000000000000000E+000
  0.000000000000000E+000
  0.000000000000000E+000
  0.000000000000000E+000
  0.000000000000000E+000
  0.000000000000000E+000
  0.000000000000000E+000
  0.000000000000000E+000
  0.000000000000000E+000
  0.000000000000000E+000
  0.000000000000000E+000
  0.000000000000000E+000
  0.000000000000000E+000
  0.000000000000000E+000
  0.000000000000000E+000
  0.000000000000000E+000
  0.000000000000000E+000
  0.000000000000000E+000
  0.000000000000000E+000
  0.000000000000000E+000
  0.000000000000000E+000
  0.000000000000000E+000
  0.000000000000000E+000
  0.000000000000000E+000
  0.000000000000000E+000
  0.000000000000000E+000
  0.000000000000000E+000
  0.000000000000000E+000
  0.000000000000000E+000
  0.000000000000000E+000
  0.000000000000000E+000
  0.000000000000000E+000
  0.000000000000000E+000
  0.000000000000000E+000
  0.000000000000000E+000
  0.000000000000000E+000
  0.000000000000000E+000
  0.000000000000000E+000
  0.000000000000000E+000
  0.000000000000000E+000
  0.000000000000000E+000
  0.000000000000000E+000
  0.000000000000000E+000
  0.000000000000000E+000
  0.000000000000000E+000
  0.000000000000000E+000
  0.000000000000000E+000
  0.000000000000000E+000
  0.000000000000000E+000
  0.000000000000000E+000
  0.000000000000000E+000
  0.000000000000000E+000
  0.000000000000000E+000
  0.000000000000000E+000
  0.000000000000000E+000
  0.000000000000000E+000
  0.000000000000000E+000
  0.000000000000000E+000
  0.000000000000000E+000
  0.000000000000000E+000
  0.000000000000000E+000
  0.000000000000000E+000
  0.000000000000000E+000
  0.000000000000000E+000
  0.000000000000000E+000
  0.000000000000000E+000
  0.000000000000000E+000
  0.000000000000000E+000
  0.000000000000000E+000
  0.000000000000000E+000
  0.000000000000000E+000
  0.000000000000000E+000
  0.000000000000000E+000
  0.000000000000000E+000
  0.000000000000000E+000
  0.000000000000000E+000
  0.000000000000000E+000
  0.000000000000000E+000
  0.000000000000000E+000
  0.000000000000000E+000
  0.000000000000000E+000
  0.000000000000000E+000
  0.000000000000000E+000
  0.000000000000000E+000
  0.000000000000000E+000
  0.000000000000000E+000
  0.000000000000000E+000
  0.000000000000000E+000
  0.000000000000000E+000
  0.000000000000000E+000
  0.000000000000000E+000
  0.000000000000000E+000
  0.000000000000000E+000
  0.000000000000000E+000
  0.000000000000000E+000
  0.000000000000000E+000
  0.000000000000000E+000
  0.000000000000000E+000
  0.000000000000000E+000
  0.000000000000000E+000
  0.000000000000000E+000
  0.000000000000000E+000
  0.000000000000000E+000
  0.000000000000000E+000
  0.000000000000000E+000
  0.000000000000000E+000
  0.000000000000000E+000
  0.000000000000000E+000
  0.000000000000000E+000
  0.000000000000000E+000
  0.000000000000000E+000
  0.000000000000000E+000
  0.000000000000000E+000
  0.000000000000000E+000
  0.000000000000000E+000
  0.000000000000000E+000
  0.000000000000000E+000
  0.000000000000000E+000
  0.000000000000000E+000
  0.000000000000000E+000
  0.000000000000000E+000
  0.000000000000000E+000
  0.000000000000000E+000
  0.000000000000000E+000
  0.000000000000000E+000
  0.000000000000000E+000
  0.000000000000000E+000
  0.000000000000000E+000
  0.000000000000000E+000
  0.000000000000000E+000
  0.000000000000000E+000
  0.000000000000000E+000
  0.000000000000000E+000
  0.000000000000000E+000
  0.000000000000000E+000
  0.000000000000000E+000
  0.000000000000000E+000
  0.000000000000000E+000
  0.000000000000000E+000
  0.000000000000000E+000
  0.000000000000000E+000
  0.000000000000000E+000
  0.000000000000000E+000
  0.000000000000000E+000
  0.000000000000000E+000
  0.000000000000000E+000
  0.000000000000000E+000
  0.000000000000000E+000
  0.000000000000000E+000
  0.000000000000000E+000
  0.000000000000000E+000
  0.000000000000000E+000
  0.000000000000000E+000
  0.000000000000000E+000
  0.000000000000000E+000
  0.000000000000000E+000
  0.000000000000000E+000
  0.000000000000000E+000
  0.000000000000000E+000
  0.000000000000000E+000
  0.000000000000000E+000
  0.000000000000000E+000
  0.000000000000000E+000
  0.000000000000000E+000
  0.000000000000000E+000
  0.000000000000000E+000
  0.000000000000000E+000
  0.000000000000000E+000
  0.000000000000000E+000
  0.000000000000000E+000
  0.000000000000000E+000
  0.000000000000000E+000
  0.000000000000000E+000
  0.000000000000000E+000
  0.000000000000000E+000
  0.000000000000000E+000
  0.000000000000000E+000
  0.000000000000000E+000
  0.000000000000000E+000
  0.000000000000000E+000
  0.000000000000000E+000
  0.000000000000000E+000
  0.000000000000000E+000
  0.000000000000000E+000
  0.000000000000000E+000
  0.000000000000000E+000
  0.000000000000000E+000
  0.000000000000000E+000
  0.000000000000000E+000
  0.000000000000000E+000
  0.000000000000000E+000
  0.000000000000000E+000
  0.000000000000000E+000
  0.000000000000000E+000
  0.000000000000000E+000
  0.000000000000000E+000
  0.000000000000000E+000
  0.000000000000000E+000
  0.000000000000000E+000
  0.000000000000000E+000
  0.000000000000000E+000
  0.000000000000000E+000
  0.000000000000000E+000
  0.000000000000000E+000
  0.000000000000000E+000
  0.000000000000000E+000
  0.000000000000000E+000
  0.000000000000000E+000
  0.000000000000000E+000
  0.000000000000000E+000
  0.000000000000000E+000
  0.000000000000000E+000
  0.000000000000000E+000
  0.000000000000000E+000
  0.000000000000000E+000
  0.000000000000000E+000
  0.000000000000000E+000
  0.000000000000000E+000
  0.000000000000000E+000
  0.000000000000000E+000
  0.000000000000000E+000
  0.000000000000000E+000
  0.000000000000000E+000
  0.000000000000000E+000
  0.000000000000000E+000
  0.000000000000000E+000
  0.000000000000000E+000
  0.000000000000000E+000
  0.000000000000000E+000
  0.000000000000000E+000
  0.000000000000000E+000
  0.000000000000000E+000
  0.000000000000000E+000
  0.000000000000000E+000
  0.000000000000000E+000
  0.000000000000000E+000
  0.000000000000000E+000
  0.000000000000000E+000
  0.000000000000000E+000
  0.000000000000000E+000
  0.000000000000000E+000
  0.000000000000000E+000
  0.000000000000000E+000
  0.000000000000000E+000
  0.000000000000000E+000
  0.000000000000000E+000
  0.000000000000000E+000
  0.000000000000000E+000
  0.000000000000000E+000
  0.000000000000000E+000
  0.000000000000000E+000
  0.000000000000000E+000
  0.000000000000000E+000
  0.000000000000000E+000
  0.000000000000000E+000
  0.000000000000000E+000
  0.000000000000000E+000
  0.000000000000000E+000
  0.000000000000000E+000
  0.000000000000000E+000
  0.000000000000000E+000
  0.000000000000000E+000
  0.000000000000000E+000
  0.000000000000000E+000
  0.000000000000000E+000
  0.000000000000000E+000
  0.000000000000000E+000
  0.000000000000000E+000
  0.000000000000000E+000
  0.000000000000000E+000
  0.000000000000000E+000
  0.000000000000000E+000
  0.000000000000000E+000
  0.000000000000000E+000
  0.000000000000000E+000
  0.000000000000000E+000
  0.000000000000000E+000
  0.000000000000000E+000
  0.000000000000000E+000
  0.000000000000000E+000
  0.000000000000000E+000
  0.000000000000000E+000
  0.000000000000000E+000
  0.000000000000000E+000
  0.000000000000000E+000
  0.000000000000000E+000
  0.000000000000000E+000
  0.000000000000000E+000
  0.000000000000000E+000
  0.000000000000000E+000
  0.000000000000000E+000
  0.000000000000000E+000
  0.000000000000000E+000
  0.000000000000000E+000
  0.000000000000000E+000
  0.000000000000000E+000
  0.000000000000000E+000
  0.000000000000000E+000
  0.000000000000000E+000
  0.000000000000000E+000
  0.000000000000000E+000
  0.000000000000000E+000
  0.000000000000000E+000
  0.000000000000000E+000
  0.000000000000000E+000
  0.000000000000000E+000
  0.000000000000000E+000
  0.000000000000000E+000
  0.000000000000000E+000
  0.000000000000000E+000
  0.000000000000000E+000
  0.000000000000000E+000
  0.000000000000000E+000
  0.000000000000000E+000
  0.000000000000000E+000
  0.000000000000000E+000
  0.000000000000000E+000
  0.000000000000000E+000
  0.000000000000000E+000
  0.000000000000000E+000
  0.000000000000000E+000
  0.000000000000000E+000
  0.000000000000000E+000
  0.000000000000000E+000
  0.000000000000000E+000
  0.000000000000000E+000
  0.000000000000000E+000
  0.000000000000000E+000
  0.000000000000000E+000
  0.000000000000000E+000
  0.000000000000000E+000
  0.000000000000000E+000
  0.000000000000000E+000
  0.000000000000000E+000
  0.000000000000000E+000
  0.000000000000000E+000
  0.000000000000000E+000
  0.000000000000000E+000
  0.000000000000000E+000
  0.000000000000000E+000
  0.000000000000000E+000
  0.000000000000000E+000
  0.000000000000000E+000
  0.000000000000000E+000
  0.000000000000000E+000
  0.000000000000000E+000
  0.000000000000000E+000
  0.000000000000000E+000
  0.000000000000000E+000
  0.000000000000000E+000
  0.000000000000000E+000
  0.000000000000000E+000
  0.000000000000000E+000
  0.000000000000000E+000
  0.000000000000000E+000
  0.000000000000000E+000
  0.000000000000000E+000
  0.000000000000000E+000
  0.000000000000000E+000
  0.000000000000000E+000
  0.000000000000000E+000
  0.000000000000000E+000
  0.000000000000000E+000
  0.000000000000000E+000
  0.000000000000000E+000
  0.000000000000000E+000
  0.000000000000000E+000
  0.000000000000000E+000
  0.000000000000000E+000
  0.000000000000000E+000
  0.000000000000000E+000
  0.000000000000000E+000
  0.000000000000000E+000
  0.000000000000000E+000
  0.000000000000000E+000
  0.000000000000000E+000
  0.000000000000000E+000
  0.000000000000000E+000
  0.000000000000000E+000
  0.000000000000000E+000
  0.000000000000000E+000
  0.000000000000000E+000
  0.000000000000000E+000
  0.000000000000000E+000
  0.000000000000000E+000
  0.000000000000000E+000
  0.000000000000000E+000
  0.000000000000000E+000
  0.000000000000000E+000
  0.000000000000000E+000
  0.000000000000000E+000
  0.000000000000000E+000
  0.000000000000000E+000
  0.000000000000000E+000
  0.000000000000000E+000
  0.000000000000000E+000
  0.000000000000000E+000
  0.000000000000000E+000
  0.000000000000000E+000
  0.000000000000000E+000
  0.000000000000000E+000
  0.000000000000000E+000
  0.000000000000000E+000
  0.000000000000000E+000
  0.000000000000000E+000
  0.000000000000000E+000
  0.000000000000000E+000
  0.000000000000000E+000
  0.000000000000000E+000
  0.000000000000000E+000
  0.000000000000000E+000
  0.000000000000000E+000
  0.000000000000000E+000
  0.000000000000000E+000
  0.000000000000000E+000
  0.000000000000000E+000
  0.000000000000000E+000
  0.000000000000000E+000
  0.000000000000000E+000
  0.000000000000000E+000
  0.000000000000000E+000
  0.000000000000000E+000
  0.000000000000000E+000
  0.000000000000000E+000
  0.000000000000000E+000
  0.000000000000000E+000
  0.000000000000000E+000
  0.000000000000000E+000
  0.000000000000000E+000
  0.000000000000000E+000
  0.000000000000000E+000
  0.000000000000000E+000
  0.000000000000000E+000
  0.000000000000000E+000
  0.000000000000000E+000
  0.000000000000000E+000
  0.000000000000000E+000
  0.000000000000000E+000
  0.000000000000000E+000
  0.000000000000000E+000
  0.000000000000000E+000
  0.000000000000000E+000
  0.000000000000000E+000
  0.000000000000000E+000
  0.000000000000000E+000
  0.000000000000000E+000
  0.000000000000000E+000
  0.000000000000000E+000
  0.000000000000000E+000
  0.000000000000000E+000
  0.000000000000000E+000
  0.000000000000000E+000
  0.000000000000000E+000
  0.000000000000000E+000
  0.000000000000000E+000
  0.000000000000000E+000
  0.000000000000000E+000
  0.000000000000000E+000
  0.000000000000000E+000
  0.000000000000000E+000
  0.000000000000000E+000
  0.000000000000000E+000
  0.000000000000000E+000
  0.000000000000000E+000
  0.000000000000000E+000
  0.000000000000000E+000
  0.000000000000000E+000
  0.000000000000000E+000
  0.000000000000000E+000
  0.000000000000000E+000
  0.000000000000000E+000
  0.000000000000000E+000
  0.000000000000000E+000
  0.000000000000000E+000
  0.000000000000000E+000
  0.000000000000000E+000
  0.000000000000000E+000
  0.000000000000000E+000
  0.000000000000000E+000
  0.000000000000000E+000
  0.000000000000000E+000
  0.000000000000000E+000
  0.000000000000000E+000
  0.000000000000000E+000
  0.000000000000000E+000
  0.000000000000000E+000
  0.000000000000000E+000
  0.000000000000000E+000
  0.000000000000000E+000
  0.000000000000000E+000
  0.000000000000000E+000
  0.000000000000000E+000
  0.000000000000000E+000
  0.000000000000000E+000
  0.000000000000000E+000
  0.000000000000000E+000
  0.000000000000000E+000
  0.000000000000000E+000
  0.000000000000000E+000
  0.000000000000000E+000
  0.000000000000000E+000
  0.000000000000000E+000
  0.000000000000000E+000
  0.000000000000000E+000
  0.000000000000000E+000
  0.000000000000000E+000
  0.000000000000000E+000
  0.000000000000000E+000
  0.000000000000000E+000
  0.000000000000000E+000
  0.000000000000000E+000
  0.000000000000000E+000
  0.000000000000000E+000
  0.000000000000000E+000
  0.000000000000000E+000
  0.000000000000000E+000
  0.000000000000000E+000
  0.000000000000000E+000
  0.000000000000000E+000
  0.000000000000000E+000
  0.000000000000000E+000
  0.000000000000000E+000
  0.000000000000000E+000
  0.000000000000000E+000
  0.000000000000000E+000
  0.000000000000000E+000
  0.000000000000000E+000
  0.000000000000000E+000
  0.000000000000000E+000
  0.000000000000000E+000
  0.000000000000000E+000
  0.000000000000000E+000
  0.000000000000000E+000
  0.000000000000000E+000
  0.000000000000000E+000
  0.000000000000000E+000
  0.000000000000000E+000
  0.000000000000000E+000
  0.000000000000000E+000
  0.000000000000000E+000
  0.000000000000000E+000
  0.000000000000000E+000
  0.000000000000000E+000
  0.000000000000000E+000
  0.000000000000000E+000
  0.000000000000000E+000
  0.000000000000000E+000
  0.000000000000000E+000
  0.000000000000000E+000
  0.000000000000000E+000
  0.000000000000000E+000
  0.000000000000000E+000
  0.000000000000000E+000
  0.000000000000000E+000
  0.000000000000000E+000
  0.000000000000000E+000
  0.000000000000000E+000
  0.000000000000000E+000
  0.000000000000000E+000
  0.000000000000000E+000
  0.000000000000000E+000
  0.000000000000000E+000
  0.000000000000000E+000
  0.000000000000000E+000
  0.000000000000000E+000
  0.000000000000000E+000
  0.000000000000000E+000
  0.000000000000000E+000
  0.000000000000000E+000
  0.000000000000000E+000
  0.000000000000000E+000
  0.000000000000000E+000
  0.000000000000000E+000
  0.000000000000000E+000
  0.000000000000000E+000
  0.000000000000000E+000
  0.000000000000000E+000
  0.000000000000000E+000
  0.000000000000000E+000
  0.000000000000000E+000
  0.000000000000000E+000
  0.000000000000000E+000
  0.000000000000000E+000
  0.000000000000000E+000
  0.000000000000000E+000
  0.000000000000000E+000
  0.000000000000000E+000
  0.000000000000000E+000
  0.000000000000000E+000
  0.000000000000000E+000
  0.000000000000000E+000
  0.000000000000000E+000
  0.000000000000000E+000
  0.000000000000000E+000
  0.000000000000000E+000
  0.000000000000000E+000
  0.000000000000000E+000
  0.000000000000000E+000
  0.000000000000000E+000
  0.000000000000000E+000
  0.000000000000000E+000
  0.000000000000000E+000
  0.000000000000000E+000
  0.000000000000000E+000
  0.000000000000000E+000
  0.000000000000000E+000
  0.000000000000000E+000
  0.000000000000000E+000
  0.000000000000000E+000
  0.000000000000000E+000
  0.000000000000000E+000
  0.000000000000000E+000
  0.000000000000000E+000
  0.000000000000000E+000
  0.000000000000000E+000
  0.000000000000000E+000
  0.000000000000000E+000
  0.000000000000000E+000
  0.000000000000000E+000
  0.000000000000000E+000
  0.000000000000000E+000
  0.000000000000000E+000
  0.000000000000000E+000
  0.000000000000000E+000
  0.000000000000000E+000
  0.000000000000000E+000
  0.000000000000000E+000
  0.000000000000000E+000
  0.000000000000000E+000
  0.000000000000000E+000
  0.000000000000000E+000
  0.000000000000000E+000
  0.000000000000000E+000
  0.000000000000000E+000
  0.000000000000000E+000
  0.000000000000000E+000
  0.000000000000000E+000
  0.000000000000000E+000
  0.000000000000000E+000
  0.000000000000000E+000
  0.000000000000000E+000
  0.000000000000000E+000
  0.000000000000000E+000
  0.000000000000000E+000
  0.000000000000000E+000
  0.000000000000000E+000
  0.000000000000000E+000
  0.000000000000000E+000
  0.000000000000000E+000
  0.000000000000000E+000
  0.000000000000000E+000
  0.000000000000000E+000
  0.000000000000000E+000
  0.000000000000000E+000
  0.000000000000000E+000
  0.000000000000000E+000
  0.000000000000000E+000
  0.000000000000000E+000
  0.000000000000000E+000
  0.000000000000000E+000
  0.000000000000000E+000
  0.000000000000000E+000
  0.000000000000000E+000
  0.000000000000000E+000
  0.000000000000000E+000
  0.000000000000000E+000
  0.000000000000000E+000
  0.000000000000000E+000
  0.000000000000000E+000
  0.000000000000000E+000
  0.000000000000000E+000
  0.000000000000000E+000
  0.000000000000000E+000
  0.000000000000000E+000
  0.000000000000000E+000
  0.000000000000000E+000
  0.000000000000000E+000
  0.000000000000000E+000
  0.000000000000000E+000
  0.000000000000000E+000
  0.000000000000000E+000
  0.000000000000000E+000
  0.000000000000000E+000
  0.000000000000000E+000
  0.000000000000000E+000
  0.000000000000000E+000
  0.000000000000000E+000
  0.000000000000000E+000
  0.000000000000000E+000
  0.000000000000000E+000
  0.000000000000000E+000
  0.000000000000000E+000
  0.000000000000000E+000
  0.000000000000000E+000
  0.000000000000000E+000
  0.000000000000000E+000
  0.000000000000000E+000
  0.000000000000000E+000
  0.000000000000000E+000
  0.000000000000000E+000
  0.000000000000000E+000
  0.000000000000000E+000
  0.000000000000000E+000
  0.000000000000000E+000
  0.000000000000000E+000
  0.000000000000000E+000
  0.000000000000000E+000
  0.000000000000000E+000
  0.000000000000000E+000
  0.000000000000000E+000
  0.000000000000000E+000
  0.000000000000000E+000
  0.000000000000000E+000
  0.000000000000000E+000
  0.000000000000000E+000
  0.000000000000000E+000
  0.000000000000000E+000
  0.000000000000000E+000
  0.000000000000000E+000
  0.000000000000000E+000
  0.000000000000000E+000
  0.000000000000000E+000
  0.000000000000000E+000
  0.000000000000000E+000
  0.000000000000000E+000
  0.000000000000000E+000
  0.000000000000000E+000
  0.000000000000000E+000
  0.000000000000000E+000
  0.000000000000000E+000
  0.000000000000000E+000
  0.000000000000000E+000
  0.000000000000000E+000
  0.000000000000000E+000
  0.000000000000000E+000
  0.000000000000000E+000
  0.000000000000000E+000
  0.000000000000000E+000
  0.000000000000000E+000
  0.000000000000000E+000
  0.000000000000000E+000
  0.000000000000000E+000
  0.000000000000000E+000
  0.000000000000000E+000
  0.000000000000000E+000
  0.000000000000000E+000
  0.000000000000000E+000
  0.000000000000000E+000
  0.000000000000000E+000
  0.000000000000000E+000
  0.000000000000000E+000
  0.000000000000000E+000
  0.000000000000000E+000
  0.000000000000000E+000
  0.000000000000000E+000
  0.000000000000000E+000
  0.000000000000000E+000
  0.000000000000000E+000
  0.000000000000000E+000
  0.000000000000000E+000
  0.000000000000000E+000
  0.000000000000000E+000
  0.000000000000000E+000
  0.000000000000000E+000
  0.000000000000000E+000
  0.000000000000000E+000
  0.000000000000000E+000
  0.000000000000000E+000
  0.000000000000000E+000
  0.000000000000000E+000
  0.000000000000000E+000
  0.000000000000000E+000
  0.000000000000000E+000
  0.000000000000000E+000
  0.000000000000000E+000
  0.000000000000000E+000
  0.000000000000000E+000
  0.000000000000000E+000
  0.000000000000000E+000
  0.000000000000000E+000
  0.000000000000000E+000
  0.000000000000000E+000
  0.000000000000000E+000
  0.000000000000000E+000
  0.000000000000000E+000
  0.000000000000000E+000
  0.000000000000000E+000
  0.000000000000000E+000
  0.000000000000000E+000
  0.000000000000000E+000
  0.000000000000000E+000
  0.000000000000000E+000
  0.000000000000000E+000
  0.000000000000000E+000
  0.000000000000000E+000
  0.000000000000000E+000
  0.000000000000000E+000
  0.000000000000000E+000
  0.000000000000000E+000
  0.000000000000000E+000
  0.000000000000000E+000
  0.000000000000000E+000
  0.000000000000000E+000
  0.000000000000000E+000
  0.000000000000000E+000
  0.000000000000000E+000
  0.000000000000000E+000
  0.000000000000000E+000
  0.000000000000000E+000
  0.000000000000000E+000
  0.000000000000000E+000
  0.000000000000000E+000
  0.000000000000000E+000
  0.000000000000000E+000
  0.000000000000000E+000
  0.000000000000000E+000
  0.000000000000000E+000
  0.000000000000000E+000
  0.000000000000000E+000
  0.000000000000000E+000
  0.000000000000000E+000
  0.000000000000000E+000
  0.000000000000000E+000
  0.000000000000000E+000
  0.000000000000000E+000
  0.000000000000000E+000
  0.000000000000000E+000
  0.000000000000000E+000
  0.000000000000000E+000
  0.000000000000000E+000
  0.000000000000000E+000
  0.000000000000000E+000
  0.000000000000000E+000
  0.000000000000000E+000
  0.000000000000000E+000
  0.000000000000000E+000
  0.000000000000000E+000
  0.000000000000000E+000
  0.000000000000000E+000
  0.000000000000000E+000
  0.000000000000000E+000
  0.000000000000000E+000
  0.000000000000000E+000
  0.000000000000000E+000
  0.000000000000000E+000
  0.000000000000000E+000
  0.000000000000000E+000
  0.000000000000000E+000
  0.000000000000000E+000
  0.000000000000000E+000
  0.000000000000000E+000
  0.000000000000000E+000
  0.000000000000000E+000
  0.000000000000000E+000
  0.000000000000000E+000
  0.000000000000000E+000
  0.000000000000000E+000
  0.000000000000000E+000
  0.000000000000000E+000
  0.000000000000000E+000
  0.000000000000000E+000
  0.000000000000000E+000
  0.000000000000000E+000
  0.000000000000000E+000
  0.000000000000000E+000
  0.000000000000000E+000
  0.000000000000000E+000
  0.000000000000000E+000
  0.000000000000000E+000
  0.000000000000000E+000
  0.000000000000000E+000
  0.000000000000000E+000
  0.000000000000000E+000
  0.000000000000000E+000
  0.000000000000000E+000
  0.000000000000000E+000
  0.000000000000000E+000
  0.000000000000000E+000
  0.000000000000000E+000
  0.000000000000000E+000
  0.000000000000000E+000
  0.000000000000000E+000
  0.000000000000000E+000
  0.000000000000000E+000
  0.000000000000000E+000
  0.000000000000000E+000
  0.000000000000000E+000
  0.000000000000000E+000
  0.000000000000000E+000
  0.000000000000000E+000
  0.000000000000000E+000
  0.000000000000000E+000
  0.000000000000000E+000
  0.000000000000000E+000
  0.000000000000000E+000
  0.000000000000000E+000
  0.000000000000000E+000
  0.000000000000000E+000
  0.000000000000000E+000
  0.000000000000000E+000
  0.000000000000000E+000
  0.000000000000000E+000
  0.000000000000000E+000
  0.000000000000000E+000
  0.000000000000000E+000
  0.000000000000000E+000
  0.000000000000000E+000
  0.000000000000000E+000
  0.000000000000000E+000
  0.000000000000000E+000
  0.000000000000000E+000
  0.000000000000000E+000
  0.000000000000000E+000
  0.000000000000000E+000
  0.000000000000000E+000
  0.000000000000000E+000
  0.000000000000000E+000
  0.000000000000000E+000
  0.000000000000000E+000
  0.000000000000000E+000
  0.000000000000000E+000
  0.000000000000000E+000
  0.000000000000000E+000
  0.000000000000000E+000
  0.000000000000000E+000
  0.000000000000000E+000
  0.000000000000000E+000
  0.000000000000000E+000
  0.000000000000000E+000
  0.000000000000000E+000
  0.000000000000000E+000
  0.000000000000000E+000
  0.000000000000000E+000
  0.000000000000000E+000
  0.000000000000000E+000
  0.000000000000000E+000
  0.000000000000000E+000
  0.000000000000000E+000
  0.000000000000000E+000
  0.000000000000000E+000
  0.000000000000000E+000
  0.000000000000000E+000
  0.000000000000000E+000
  0.000000000000000E+000
  0.000000000000000E+000
  0.000000000000000E+000
  0.000000000000000E+000
  0.000000000000000E+000
  0.000000000000000E+000
  0.000000000000000E+000
  0.000000000000000E+000
  0.000000000000000E+000
  0.000000000000000E+000
  0.000000000000000E+000
  0.000000000000000E+000
  0.000000000000000E+000
  0.000000000000000E+000
  0.000000000000000E+000
  0.000000000000000E+000
  0.000000000000000E+000
  0.000000000000000E+000
  0.000000000000000E+000
  0.000000000000000E+000
  0.000000000000000E+000
  0.000000000000000E+000
  0.000000000000000E+000
  0.000000000000000E+000
  0.000000000000000E+000
  0.000000000000000E+000
  0.000000000000000E+000
  0.000000000000000E+000
  0.000000000000000E+000
  0.000000000000000E+000
  0.000000000000000E+000
  0.000000000000000E+000
  0.000000000000000E+000
  0.000000000000000E+000
  0.000000000000000E+000
  0.000000000000000E+000
  0.000000000000000E+000
  0.000000000000000E+000
  0.000000000000000E+000
  0.000000000000000E+000
  0.000000000000000E+000
  0.000000000000000E+000
  0.000000000000000E+000
  0.000000000000000E+000
  0.000000000000000E+000
  0.000000000000000E+000
  0.000000000000000E+000
  0.000000000000000E+000
  0.000000000000000E+000
  0.000000000000000E+000
  0.000000000000000E+000
  0.000000000000000E+000
  0.000000000000000E+000
  0.000000000000000E+000
  0.000000000000000E+000
  0.000000000000000E+000
  0.000000000000000E+000
  0.000000000000000E+000
  0.000000000000000E+000
  0.000000000000000E+000
  0.000000000000000E+000
  0.000000000000000E+000
  0.000000000000000E+000
  0.000000000000000E+000
  0.000000000000000E+000
  0.000000000000000E+000
  0.000000000000000E+000
  0.000000000000000E+000
  0.000000000000000E+000
  0.000000000000000E+000
  0.000000000000000E+000
  0.000000000000000E+000
  0.000000000000000E+000
  0.000000000000000E+000
  0.000000000000000E+000
  0.000000000000000E+000
  0.000000000000000E+000
  0.000000000000000E+000
  0.000000000000000E+000
  0.000000000000000E+000
  0.000000000000000E+000
  0.000000000000000E+000
  0.000000000000000E+000
  0.000000000000000E+000
  0.000000000000000E+000
  0.000000000000000E+000
  0.000000000000000E+000
  0.000000000000000E+000
  0.000000000000000E+000
  0.000000000000000E+000
  0.000000000000000E+000
  0.000000000000000E+000
  0.000000000000000E+000
  0.000000000000000E+000
  0.000000000000000E+000
  0.000000000000000E+000
  0.000000000000000E+000
  0.000000000000000E+000
  0.000000000000000E+000
  0.000000000000000E+000
  0.000000000000000E+000
  0.000000000000000E+000
  0.000000000000000E+000
  0.000000000000000E+000
  0.000000000000000E+000
  0.000000000000000E+000
  0.000000000000000E+000
  0.000000000000000E+000
  0.000000000000000E+000
  0.000000000000000E+000
  0.000000000000000E+000
  0.000000000000000E+000
  0.000000000000000E+000
  0.000000000000000E+000
  0.000000000000000E+000
  0.000000000000000E+000
  0.000000000000000E+000
  0.000000000000000E+000
  0.000000000000000E+000
  0.000000000000000E+000
  0.000000000000000E+000
  0.000000000000000E+000
  0.000000000000000E+000
  0.000000000000000E+000
  0.000000000000000E+000
  0.000000000000000E+000
  0.000000000000000E+000
  0.000000000000000E+000
  0.000000000000000E+000
  0.000000000000000E+000
  0.000000000000000E+000
  0.000000000000000E+000
  0.000000000000000E+000
  0.000000000000000E+000
  0.000000000000000E+000
  0.000000000000000E+000
  0.000000000000000E+000
  0.000000000000000E+000
  0.000000000000000E+000
  0.000000000000000E+000
  0.000000000000000E+000
  0.000000000000000E+000
  0.000000000000000E+000
  0.000000000000000E+000
  0.000000000000000E+000
  0.000000000000000E+000
  0.000000000000000E+000
  0.000000000000000E+000
  0.000000000000000E+000
  0.000000000000000E+000
  0.000000000000000E+000
  0.000000000000000E+000
  0.000000000000000E+000
  0.000000000000000E+000
  0.000000000000000E+000
  0.000000000000000E+000
  0.000000000000000E+000
  0.000000000000000E+000
  0.000000000000000E+000
  0.000000000000000E+000
  0.000000000000000E+000
  0.000000000000000E+000
  0.000000000000000E+000
  0.000000000000000E+000
  0.000000000000000E+000
  0.000000000000000E+000
  0.000000000000000E+000
  0.000000000000000E+000
  0.000000000000000E+000
  0.000000000000000E+000
  0.000000000000000E+000
  0.000000000000000E+000
  0.000000000000000E+000
  0.000000000000000E+000
  0.000000000000000E+000
  0.000000000000000E+000
  0.000000000000000E+000
  0.000000000000000E+000
  0.000000000000000E+000
  0.000000000000000E+000
  0.000000000000000E+000
  0.000000000000000E+000
  0.000000000000000E+000
  0.000000000000000E+000
  0.000000000000000E+000
  0.000000000000000E+000
  0.000000000000000E+000
  0.000000000000000E+000
  0.000000000000000E+000
  0.000000000000000E+000
  0.000000000000000E+000
  0.000000000000000E+000
  0.000000000000000E+000
  0.000000000000000E+000
  0.000000000000000E+000
  0.000000000000000E+000
  0.000000000000000E+000
  0.000000000000000E+000
  0.000000000000000E+000
  0.000000000000000E+000
  0.000000000000000E+000
  0.000000000000000E+000
  0.000000000000000E+000
  0.000000000000000E+000
  0.000000000000000E+000
  0.000000000000000E+000
  0.000000000000000E+000
  0.000000000000000E+000
  0.000000000000000E+000
  0.000000000000000E+000
  0.000000000000000E+000
  0.000000000000000E+000
  0.000000000000000E+000
  0.000000000000000E+000
  0.000000000000000E+000
  0.000000000000000E+000
  0.000000000000000E+000
  0.000000000000000E+000
  0.000000000000000E+000
  0.000000000000000E+000
  0.000000000000000E+000
  0.000000000000000E+000
  0.000000000000000E+000
  0.000000000000000E+000
  0.000000000000000E+000
  0.000000000000000E+000
  0.000000000000000E+000
  0.000000000000000E+000
  0.000000000000000E+000
  0.000000000000000E+000
  0.000000000000000E+000
  0.000000000000000E+000
  0.000000000000000E+000
  0.000000000000000E+000
  0.000000000000000E+000
  0.000000000000000E+000
  0.000000000000000E+000
  0.000000000000000E+000
  0.000000000000000E+000
  0.000000000000000E+000
  0.000000000000000E+000
  0.000000000000000E+000
  0.000000000000000E+000
  0.000000000000000E+000
  0.000000000000000E+000
  0.000000000000000E+000
  0.000000000000000E+000
  0.000000000000000E+000
  0.000000000000000E+000
  0.000000000000000E+000
  0.000000000000000E+000
  0.000000000000000E+000
  0.000000000000000E+000
  0.000000000000000E+000
  0.000000000000000E+000
  0.000000000000000E+000
  0.000000000000000E+000
  0.000000000000000E+000
  0.000000000000000E+000
  0.000000000000000E+000
  0.000000000000000E+000
  0.000000000000000E+000
  0.000000000000000E+000
  0.000000000000000E+000
  0.000000000000000E+000
  0.000000000000000E+000
  0.000000000000000E+000
  0.000000000000000E+000
  0.000000000000000E+000
  0.000000000000000E+000
  0.000000000000000E+000
  0.000000000000000E+000
  0.000000000000000E+000
  0.000000000000000E+000
  0.000000000000000E+000
  0.000000000000000E+000
  0.000000000000000E+000
  0.000000000000000E+000
  0.000000000000000E+000
  0.000000000000000E+000
  0.000000000000000E+000
  0.000000000000000E+000
  0.000000000000000E+000
  0.000000000000000E+000
  0.000000000000000E+000
  0.000000000000000E+000
  0.000000000000000E+000
  0.000000000000000E+000
  0.000000000000000E+000
  0.000000000000000E+000
  0.000000000000000E+000
  0.000000000000000E+000
  0.000000000000000E+000
  0.000000000000000E+000
  0.000000000000000E+000
  0.000000000000000E+000
  0.000000000000000E+000
  0.000000000000000E+000
  0.000000000000000E+000
  0.000000000000000E+000
  0.000000000000000E+000
  0.000000000000000E+000
  0.000000000000000E+000
  0.000000000000000E+000
  0.000000000000000E+000
  0.000000000000000E+000
  0.000000000000000E+000
  0.000000000000000E+000
  0.000000000000000E+000
  0.000000000000000E+000
  0.000000000000000E+000
  0.000000000000000E+000
  0.000000000000000E+000
  0.000000000000000E+000
  0.000000000000000E+000
  0.000000000000000E+000
  0.000000000000000E+000
  0.000000000000000E+000
  0.000000000000000E+000
  0.000000000000000E+000
  0.000000000000000E+000
  0.000000000000000E+000
  0.000000000000000E+000
  0.000000000000000E+000
  0.000000000000000E+000
  0.000000000000000E+000
  0.000000000000000E+000
  0.000000000000000E+000
  0.000000000000000E+000
  0.000000000000000E+000
  0.000000000000000E+000
  0.000000000000000E+000
  0.000000000000000E+000
  0.000000000000000E+000
  0.000000000000000E+000
  0.000000000000000E+000
  0.000000000000000E+000
  0.000000000000000E+000
  0.000000000000000E+000
  0.000000000000000E+000
  0.000000000000000E+000
  0.000000000000000E+000
  0.000000000000000E+000
  0.000000000000000E+000
  0.000000000000000E+000
  0.000000000000000E+000
  0.000000000000000E+000
  0.000000000000000E+000
  0.000000000000000E+000
  0.000000000000000E+000
  0.000000000000000E+000
  0.000000000000000E+000
  0.000000000000000E+000
  0.000000000000000E+000
  0.000000000000000E+000
  0.000000000000000E+000
  0.000000000000000E+000
  0.000000000000000E+000
  0.000000000000000E+000
  0.000000000000000E+000
  0.000000000000000E+000
  0.000000000000000E+000
  0.000000000000000E+000
  0.000000000000000E+000
  0.000000000000000E+000
  0.000000000000000E+000
  0.000000000000000E+000
  0.000000000000000E+000
  0.000000000000000E+000
  0.000000000000000E+000
  0.000000000000000E+000
  0.000000000000000E+000
  0.000000000000000E+000
  0.000000000000000E+000
  0.000000000000000E+000
  0.000000000000000E+000
  0.000000000000000E+000
  0.000000000000000E+000
  0.000000000000000E+000
  0.000000000000000E+000
  0.000000000000000E+000
  0.000000000000000E+000
  0.000000000000000E+000
  0.000000000000000E+000
  0.000000000000000E+000
  0.000000000000000E+000
  0.000000000000000E+000
  0.000000000000000E+000
  0.000000000000000E+000
  0.000000000000000E+000
  0.000000000000000E+000
  0.000000000000000E+000
  0.000000000000000E+000
  0.000000000000000E+000
  0.000000000000000E+000
  0.000000000000000E+000
  0.000000000000000E+000
  0.000000000000000E+000
  0.000000000000000E+000
  0.000000000000000E+000
  0.000000000000000E+000
  0.000000000000000E+000
  0.000000000000000E+000
  0.000000000000000E+000
  0.000000000000000E+000
  0.000000000000000E+000
  0.000000000000000E+000
  0.000000000000000E+000
  0.000000000000000E+000
  0.000000000000000E+000
  0.000000000000000E+000
  0.000000000000000E+000
  0.000000000000000E+000
  0.000000000000000E+000
  0.000000000000000E+000
  0.000000000000000E+000
  0.000000000000000E+000
  0.000000000000000E+000
  0.000000000000000E+000
  0.000000000000000E+000
  0.000000000000000E+000
  0.000000000000000E+000
  0.000000000000000E+000
  0.000000000000000E+000
  0.000000000000000E+000
  0.000000000000000E+000
  0.000000000000000E+000
  0.000000000000000E+000
  0.000000000000000E+000
  0.000000000000000E+000
  0.000000000000000E+000
  0.000000000000000E+000
  0.000000000000000E+000
  0.000000000000000E+000
  0.000000000000000E+000
  0.000000000000000E+000
  0.000000000000000E+000
  0.000000000000000E+000
  0.000000000000000E+000
  0.000000000000000E+000
  0.000000000000000E+000
  0.000000000000000E+000
  0.000000000000000E+000
  0.000000000000000E+000
  0.000000000000000E+000
  0.000000000000000E+000
  0.000000000000000E+000
  0.000000000000000E+000
  0.000000000000000E+000
  0.000000000000000E+000
  0.000000000000000E+000
  0.000000000000000E+000
  0.000000000000000E+000
  0.000000000000000E+000
  0.000000000000000E+000
  0.000000000000000E+000
  0.000000000000000E+000
  0.000000000000000E+000
  0.000000000000000E+000
  0.000000000000000E+000
  0.000000000000000E+000
  0.000000000000000E+000
  0.000000000000000E+000
  0.000000000000000E+000
  0.000000000000000E+000
  0.000000000000000E+000
  0.000000000000000E+000
  0.000000000000000E+000
  0.000000000000000E+000
  0.000000000000000E+000
  0.000000000000000E+000
  0.000000000000000E+000
  0.000000000000000E+000
  0.000000000000000E+000
  0.000000000000000E+000
  0.000000000000000E+000
  0.000000000000000E+000
  0.000000000000000E+000
  0.000000000000000E+000
  0.000000000000000E+000
  0.000000000000000E+000
  0.000000000000000E+000
  0.000000000000000E+000
  0.000000000000000E+000
  0.000000000000000E+000
  0.000000000000000E+000
  0.000000000000000E+000
  0.000000000000000E+000
  0.000000000000000E+000
  0.000000000000000E+000
  0.000000000000000E+000
  0.000000000000000E+000
  0.000000000000000E+000
  0.000000000000000E+000
  0.000000000000000E+000
  0.000000000000000E+000
  0.000000000000000E+000
  0.000000000000000E+000
  0.000000000000000E+000
  0.000000000000000E+000
  0.000000000000000E+000
  0.000000000000000E+000
  0.000000000000000E+000
  0.000000000000000E+000
  0.000000000000000E+000
  0.000000000000000E+000
  0.000000000000000E+000
  0.000000000000000E+000
  0.000000000000000E+000
  0.000000000000000E+000
  0.000000000000000E+000
  0.000000000000000E+000
  0.000000000000000E+000
  0.000000000000000E+000
  0.000000000000000E+000
  0.000000000000000E+000
  0.000000000000000E+000
  0.000000000000000E+000
  0.000000000000000E+000
  0.000000000000000E+000
  0.000000000000000E+000
  0.000000000000000E+000
  0.000000000000000E+000
  0.000000000000000E+000
  0.000000000000000E+000
  0.000000000000000E+000
  0.000000000000000E+000
  0.000000000000000E+000
  0.000000000000000E+000
  0.000000000000000E+000
  0.000000000000000E+000
  0.000000000000000E+000
  0.000000000000000E+000
  0.000000000000000E+000
  0.000000000000000E+000
  0.000000000000000E+000
  0.000000000000000E+000
  0.000000000000000E+000
  0.000000000000000E+000
  0.000000000000000E+000
  0.000000000000000E+000
  0.000000000000000E+000
  0.000000000000000E+000
  0.000000000000000E+000
  0.000000000000000E+000
  0.000000000000000E+000
  0.000000000000000E+000
  0.000000000000000E+000
  0.000000000000000E+000
  0.000000000000000E+000
  0.000000000000000E+000
  0.000000000000000E+000
  0.000000000000000E+000
  0.000000000000000E+000
  0.000000000000000E+000
  0.000000000000000E+000
  0.000000000000000E+000
  0.000000000000000E+000
  0.000000000000000E+000
  0.000000000000000E+000
  0.000000000000000E+000
  0.000000000000000E+000
  0.000000000000000E+000
  0.000000000000000E+000
  0.000000000000000E+000
  0.000000000000000E+000
  0.000000000000000E+000
  0.000000000000000E+000
  0.000000000000000E+000
  0.000000000000000E+000
  0.000000000000000E+000
  0.000000000000000E+000
  0.000000000000000E+000
  0.000000000000000E+000
  0.000000000000000E+000
  0.000000000000000E+000
  0.000000000000000E+000
  0.000000000000000E+000
  0.000000000000000E+000
  0.000000000000000E+000
  0.000000000000000E+000
  0.000000000000000E+000
  0.000000000000000E+000
  0.000000000000000E+000
  0.000000000000000E+000
  0.000000000000000E+000
  0.000000000000000E+000
  0.000000000000000E+000
  0.000000000000000E+000
  0.000000000000000E+000
  0.000000000000000E+000
  0.000000000000000E+000
  0.000000000000000E+000
  0.000000000000000E+000
  0.000000000000000E+000
  0.000000000000000E+000
  0.000000000000000E+000
  0.000000000000000E+000
  0.000000000000000E+000
  0.000000000000000E+000
  0.000000000000000E+000
  0.000000000000000E+000
  0.000000000000000E+000
  0.000000000000000E+000
  0.000000000000000E+000
  0.000000000000000E+000
  0.000000000000000E+000
  0.000000000000000E+000
  0.000000000000000E+000
  0.000000000000000E+000
  0.000000000000000E+000
  0.000000000000000E+000
  0.000000000000000E+000
  0.000000000000000E+000
  0.000000000000000E+000
  0.000000000000000E+000
  0.000000000000000E+000
  0.000000000000000E+000
  0.000000000000000E+000
  0.000000000000000E+000
  0.000000000000000E+000
  0.000000000000000E+000
  0.000000000000000E+000
  0.000000000000000E+000
  0.000000000000000E+000
  0.000000000000000E+000
  0.000000000000000E+000
  0.000000000000000E+000
  0.000000000000000E+000
  0.000000000000000E+000
  0.000000000000000E+000
  0.000000000000000E+000
  0.000000000000000E+000
  0.000000000000000E+000
  0.000000000000000E+000
  0.000000000000000E+000
  0.000000000000000E+000
  0.000000000000000E+000
  0.000000000000000E+000
  0.000000000000000E+000
  0.000000000000000E+000
  0.000000000000000E+000
  0.000000000000000E+000
  0.000000000000000E+000
  0.000000000000000E+000
  0.000000000000000E+000
  0.000000000000000E+000
  0.000000000000000E+000
  0.000000000000000E+000
  0.000000000000000E+000
  0.000000000000000E+000
  0.000000000000000E+000
  0.000000000000000E+000
  0.000000000000000E+000
  0.000000000000000E+000
  0.000000000000000E+000
  0.000000000000000E+000
  0.000000000000000E+000
  0.000000000000000E+000
  0.000000000000000E+000
  0.000000000000000E+000
  0.000000000000000E+000
  0.000000000000000E+000
  0.000000000000000E+000
  0.000000000000000E+000
  0.000000000000000E+000
  0.000000000000000E+000
  0.000000000000000E+000
  0.000000000000000E+000
  0.000000000000000E+000
  0.000000000000000E+000
  0.000000000000000E+000
  0.000000000000000E+000
  0.000000000000000E+000
  0.000000000000000E+000
  0.000000000000000E+000
  0.000000000000000E+000
  0.000000000000000E+000
  0.000000000000000E+000
  0.000000000000000E+000
  0.000000000000000E+000
  0.000000000000000E+000
  0.000000000000000E+000
  0.000000000000000E+000
  0.000000000000000E+000
  0.000000000000000E+000
  0.000000000000000E+000
  0.000000000000000E+000
  0.000000000000000E+000
  0.000000000000000E+000
  0.000000000000000E+000
  0.000000000000000E+000
  0.000000000000000E+000
  0.000000000000000E+000
  0.000000000000000E+000
  0.000000000000000E+000
  0.000000000000000E+000
  0.000000000000000E+000
  0.000000000000000E+000
  0.000000000000000E+000
  0.000000000000000E+000
  0.000000000000000E+000
  0.000000000000000E+000
  0.000000000000000E+000
  0.000000000000000E+000
  0.000000000000000E+000
  0.000000000000000E+000
  0.000000000000000E+000
  0.000000000000000E+000
  0.000000000000000E+000
  0.000000000000000E+000
  0.000000000000000E+000
  0.000000000000000E+000
  0.000000000000000E+000
  0.000000000000000E+000
  0.000000000000000E+000
  0.000000000000000E+000
  0.000000000000000E+000
  0.000000000000000E+000
  0.000000000000000E+000
  0.000000000000000E+000
  0.000000000000000E+000
  0.000000000000000E+000
  0.000000000000000E+000
  0.000000000000000E+000
  0.000000000000000E+000
  0.000000000000000E+000
  0.000000000000000E+000
  0.000000000000000E+000
  0.000000000000000E+000
  0.000000000000000E+000
  0.000000000000000E+000
  0.000000000000000E+000
  0.000000000000000E+000
  0.000000000000000E+000
  0.000000000000000E+000
  0.000000000000000E+000
  0.000000000000000E+000
  0.000000000000000E+000
  0.000000000000000E+000
  0.000000000000000E+000
  0.000000000000000E+000
  0.000000000000000E+000
  0.000000000000000E+000
  0.000000000000000E+000
  0.000000000000000E+000
  0.000000000000000E+000
  0.000000000000000E+000
  0.000000000000000E+000
  0.000000000000000E+000
  0.000000000000000E+000
  0.000000000000000E+000
  0.000000000000000E+000
  0.000000000000000E+000
  0.000000000000000E+000
  0.000000000000000E+000
  0.000000000000000E+000
  0.000000000000000E+000
  0.000000000000000E+000
  0.000000000000000E+000
  0.000000000000000E+000
  0.000000000000000E+000
  0.000000000000000E+000
  0.000000000000000E+000
  0.000000000000000E+000
  0.000000000000000E+000
  0.000000000000000E+000
  0.000000000000000E+000
  0.000000000000000E+000
  0.000000000000000E+000
  0.000000000000000E+000
  0.000000000000000E+000
  0.000000000000000E+000
  0.000000000000000E+000
  0.000000000000000E+000
  0.000000000000000E+000
  0.000000000000000E+000
  0.000000000000000E+000
  0.000000000000000E+000
  0.000000000000000E+000
  0.000000000000000E+000
  0.000000000000000E+000
  0.000000000000000E+000
  0.000000000000000E+000
  0.000000000000000E+000
  0.000000000000000E+000
  0.000000000000000E+000
  0.000000000000000E+000
  0.000000000000000E+000
  0.000000000000000E+000
  0.000000000000000E+000
  0.000000000000000E+000
  0.000000000000000E+000
  0.000000000000000E+000
  0.000000000000000E+000
  0.000000000000000E+000
  0.000000000000000E+000
  0.000000000000000E+000
  0.000000000000000E+000
  0.000000000000000E+000
  0.000000000000000E+000
  0.000000000000000E+000
  0.000000000000000E+000
  0.000000000000000E+000
  0.000000000000000E+000
  0.000000000000000E+000
  0.000000000000000E+000
  0.000000000000000E+000
  0.000000000000000E+000
  0.000000000000000E+000
  0.000000000000000E+000
  0.000000000000000E+000
  0.000000000000000E+000
  0.000000000000000E+000
  0.000000000000000E+000
  0.000000000000000E+000
  0.000000000000000E+000
  0.000000000000000E+000
  0.000000000000000E+000
  0.000000000000000E+000
  0.000000000000000E+000
  0.000000000000000E+000
  0.000000000000000E+000
  0.000000000000000E+000
  0.000000000000000E+000
  0.000000000000000E+000
  0.000000000000000E+000
  0.000000000000000E+000
  0.000000000000000E+000
  0.000000000000000E+000
  0.000000000000000E+000
  0.000000000000000E+000
  0.000000000000000E+000
  0.000000000000000E+000
  0.000000000000000E+000
  0.000000000000000E+000
  0.000000000000000E+000
  0.000000000000000E+000
  0.000000000000000E+000
  0.000000000000000E+000
  0.000000000000000E+000
  0.000000000000000E+000
  0.000000000000000E+000
  0.000000000000000E+000
  0.000000000000000E+000
  0.000000000000000E+000
  0.000000000000000E+000
  0.000000000000000E+000
  0.000000000000000E+000
  0.000000000000000E+000
  0.000000000000000E+000
  0.000000000000000E+000
  0.000000000000000E+000
  0.000000000000000E+000
  0.000000000000000E+000
  0.000000000000000E+000
  0.000000000000000E+000
  0.000000000000000E+000
  0.000000000000000E+000
  0.000000000000000E+000
  0.000000000000000E+000
  0.000000000000000E+000
  0.000000000000000E+000
  0.000000000000000E+000
  0.000000000000000E+000
  0.000000000000000E+000
  0.000000000000000E+000
  0.000000000000000E+000
  0.000000000000000E+000
  0.000000000000000E+000
  0.000000000000000E+000
  0.000000000000000E+000
  0.000000000000000E+000
  0.000000000000000E+000
  0.000000000000000E+000
  0.000000000000000E+000
  0.000000000000000E+000
  0.000000000000000E+000
  0.000000000000000E+000
  0.000000000000000E+000
  0.000000000000000E+000
  0.000000000000000E+000
  0.000000000000000E+000
  0.000000000000000E+000
  0.000000000000000E+000
  0.000000000000000E+000
  0.000000000000000E+000
  0.000000000000000E+000
  0.000000000000000E+000
  0.000000000000000E+000
  0.000000000000000E+000
  0.000000000000000E+000
  0.000000000000000E+000
  0.000000000000000E+000
  0.000000000000000E+000
  0.000000000000000E+000
  0.000000000000000E+000
  0.000000000000000E+000
  0.000000000000000E+000
  0.000000000000000E+000
  0.000000000000000E+000
  0.000000000000000E+000
  0.000000000000000E+000
  0.000000000000000E+000
  0.000000000000000E+000
  0.000000000000000E+000
  0.000000000000000E+000
  0.000000000000000E+000
  0.000000000000000E+000
  0.000000000000000E+000
  0.000000000000000E+000
  0.000000000000000E+000
  0.000000000000000E+000
  0.000000000000000E+000
  0.000000000000000E+000
  0.000000000000000E+000
  0.000000000000000E+000
  0.000000000000000E+000
  0.000000000000000E+000
  0.000000000000000E+000
  0.000000000000000E+000
  0.000000000000000E+000
  0.000000000000000E+000
  0.000000000000000E+000
  0.000000000000000E+000
  0.000000000000000E+000
  0.000000000000000E+000
  0.000000000000000E+000
  0.000000000000000E+000
  0.000000000000000E+000
  0.000000000000000E+000
  0.000000000000000E+000
  0.000000000000000E+000
  0.000000000000000E+000
  0.000000000000000E+000
  0.000000000000000E+000
  0.000000000000000E+000
  0.000000000000000E+000
  0.000000000000000E+000
  0.000000000000000E+000
  0.000000000000000E+000
  0.000000000000000E+000
  0.000000000000000E+000
  0.000000000000000E+000
  0.000000000000000E+000
  0.000000000000000E+000
  0.000000000000000E+000
  0.000000000000000E+000
  0.000000000000000E+000
  0.000000000000000E+000
  0.000000000000000E+000
  0.000000000000000E+000
  0.000000000000000E+000
  0.000000000000000E+000
  0.000000000000000E+000
  0.000000000000000E+000
  0.000000000000000E+000
  0.000000000000000E+000
  0.000000000000000E+000
  0.000000000000000E+000
  0.000000000000000E+000
  0.000000000000000E+000
  0.000000000000000E+000
  0.000000000000000E+000
  0.000000000000000E+000
  0.000000000000000E+000
  0.000000000000000E+000
  0.000000000000000E+000
  0.000000000000000E+000
  0.000000000000000E+000
  0.000000000000000E+000
  0.000000000000000E+000
  0.000000000000000E+000
  0.000000000000000E+000
  0.000000000000000E+000
  0.000000000000000E+000
  0.000000000000000E+000
  0.000000000000000E+000
  0.000000000000000E+000
  0.000000000000000E+000
  0.000000000000000E+000
  0.000000000000000E+000
  0.000000000000000E+000
  0.000000000000000E+000
  0.000000000000000E+000
  0.000000000000000E+000
  0.000000000000000E+000
  0.000000000000000E+000
  0.000000000000000E+000
  0.000000000000000E+000
  0.000000000000000E+000
  0.000000000000000E+000
  0.000000000000000E+000
  0.000000000000000E+000
  0.000000000000000E+000
  0.000000000000000E+000
  0.000000000000000E+000
  0.000000000000000E+000
  0.000000000000000E+000
  0.000000000000000E+000
  0.000000000000000E+000
  0.000000000000000E+000
  0.000000000000000E+000
  0.000000000000000E+000
  0.000000000000000E+000
  0.000000000000000E+000
  0.000000000000000E+000
  0.000000000000000E+000
  0.000000000000000E+000
  0.000000000000000E+000
  0.000000000000000E+000
  0.000000000000000E+000
  0.000000000000000E+000
  0.000000000000000E+000
  0.000000000000000E+000
  0.000000000000000E+000
  0.000000000000000E+000
  0.000000000000000E+000
  0.000000000000000E+000
  0.000000000000000E+000
  0.000000000000000E+000
  0.000000000000000E+000
  0.000000000000000E+000
  0.000000000000000E+000
  0.000000000000000E+000
  0.000000000000000E+000
  0.000000000000000E+000
  0.000000000000000E+000
  0.000000000000000E+000
  0.000000000000000E+000
  0.000000000000000E+000
  0.000000000000000E+000
  0.000000000000000E+000
  0.000000000000000E+000
  0.000000000000000E+000
  0.000000000000000E+000
  0.000000000000000E+000
  0.000000000000000E+000
  0.000000000000000E+000
  0.000000000000000E+000
  0.000000000000000E+000
  0.000000000000000E+000
  0.000000000000000E+000
  0.000000000000000E+000
  0.000000000000000E+000
  0.000000000000000E+000
  0.000000000000000E+000
  0.000000000000000E+000
  0.000000000000000E+000
  0.000000000000000E+000
  0.000000000000000E+000
  0.000000000000000E+000
  0.000000000000000E+000
  0.000000000000000E+000
  0.000000000000000E+000
  0.000000000000000E+000
  0.000000000000000E+000
  0.000000000000000E+000
  0.000000000000000E+000
  0.000000000000000E+000
  0.000000000000000E+000
  0.000000000000000E+000
  0.000000000000000E+000
  0.000000000000000E+000
  0.000000000000000E+000
  0.000000000000000E+000
  0.000000000000000E+000
  0.000000000000000E+000
  0.000000000000000E+000
  0.000000000000000E+000
  0.000000000000000E+000
  0.000000000000000E+000
  0.000000000000000E+000
  0.000000000000000E+000
  0.000000000000000E+000
  0.000000000000000E+000
  0.000000000000000E+000
  0.000000000000000E+000
  0.000000000000000E+000
  0.000000000000000E+000
  0.000000000000000E+000
  0.000000000000000E+000
  0.000000000000000E+000
  0.000000000000000E+000
  0.000000000000000E+000
  0.000000000000000E+000
  0.000000000000000E+000
  0.000000000000000E+000
  0.000000000000000E+000
  0.000000000000000E+000
  0.000000000000000E+000
  0.000000000000000E+000
  0.000000000000000E+000
  0.000000000000000E+000
  0.000000000000000E+000
  0.000000000000000E+000
  0.000000000000000E+000
  0.000000000000000E+000
  0.000000000000000E+000
  0.000000000000000E+000
  0.000000000000000E+000
  0.000000000000000E+000
  0.000000000000000E+000
  0.000000000000000E+000
  0.000000000000000E+000
  0.000000000000000E+000
  0.000000000000000E+000
  0.000000000000000E+000
  0.000000000000000E+000
  0.000000000000000E+000
  0.000000000000000E+000
  0.000000000000000E+000
  0.000000000000000E+000
  0.000000000000000E+000
  0.000000000000000E+000
  0.000000000000000E+000
  0.000000000000000E+000
  0.000000000000000E+000
  0.000000000000000E+000
  0.000000000000000E+000
  0.000000000000000E+000
  0.000000000000000E+000
  0.000000000000000E+000
  0.000000000000000E+000
  0.000000000000000E+000
  0.000000000000000E+000
  0.000000000000000E+000
  0.000000000000000E+000
  0.000000000000000E+000
  0.000000000000000E+000
  0.000000000000000E+000
  0.000000000000000E+000
  0.000000000000000E+000
  0.000000000000000E+000
  0.000000000000000E+000
  0.000000000000000E+000
  0.000000000000000E+000
  0.000000000000000E+000
  0.000000000000000E+000
  0.000000000000000E+000
  0.000000000000000E+000
  0.000000000000000E+000
  0.000000000000000E+000
  0.000000000000000E+000
  0.000000000000000E+000
  0.000000000000000E+000
  0.000000000000000E+000
  0.000000000000000E+000
  0.000000000000000E+000
  0.000000000000000E+000
  0.000000000000000E+000
  0.000000000000000E+000
  0.000000000000000E+000
  0.000000000000000E+000
  0.000000000000000E+000
  0.000000000000000E+000
  0.000000000000000E+000
  0.000000000000000E+000
  0.000000000000000E+000
  0.000000000000000E+000
  0.000000000000000E+000
  0.000000000000000E+000
  0.000000000000000E+000
  0.000000000000000E+000
  0.000000000000000E+000
  0.000000000000000E+000
  0.000000000000000E+000
  0.000000000000000E+000
  0.000000000000000E+000
  0.000000000000000E+000
  0.000000000000000E+000
  0.000000000000000E+000
  0.000000000000000E+000
  0.000000000000000E+000
  0.000000000000000E+000
  0.000000000000000E+000
  0.000000000000000E+000
  0.000000000000000E+000
  0.000000000000000E+000
  0.000000000000000E+000
  0.000000000000000E+000
  0.000000000000000E+000
  0.000000000000000E+000
  0.000000000000000E+000
  0.000000000000000E+000
  0.000000000000000E+000
  0.000000000000000E+000
  0.000000000000000E+000
  0.000000000000000E+000
  0.000000000000000E+000
  0.000000000000000E+000
  0.000000000000000E+000
  0.000000000000000E+000
  0.000000000000000E+000
  0.000000000000000E+000
  0.000000000000000E+000
  0.000000000000000E+000
  0.000000000000000E+000
  0.000000000000000E+000
  0.000000000000000E+000
  0.000000000000000E+000
  0.000000000000000E+000
  0.000000000000000E+000
  0.000000000000000E+000
  0.000000000000000E+000
  0.000000000000000E+000
  0.000000000000000E+000
  0.000000000000000E+000
  0.000000000000000E+000
  0.000000000000000E+000
  0.000000000000000E+000
  0.000000000000000E+000
  0.000000000000000E+000
  0.000000000000000E+000
  0.000000000000000E+000
  0.000000000000000E+000
  0.000000000000000E+000
  0.000000000000000E+000
  0.000000000000000E+000
  0.000000000000000E+000
  0.000000000000000E+000
  0.000000000000000E+000
  0.000000000000000E+000
  0.000000000000000E+000
  0.000000000000000E+000
  0.000000000000000E+000
  0.000000000000000E+000
  0.000000000000000E+000
  0.000000000000000E+000
  0.000000000000000E+000
  0.000000000000000E+000
  0.000000000000000E+000
  0.000000000000000E+000
  0.000000000000000E+000
  0.000000000000000E+000
  0.000000000000000E+000
  0.000000000000000E+000
  0.000000000000000E+000
  0.000000000000000E+000
  0.000000000000000E+000
  0.000000000000000E+000
  0.000000000000000E+000
  0.000000000000000E+000
  0.000000000000000E+000
  0.000000000000000E+000
  0.000000000000000E+000
  0.000000000000000E+000
  0.000000000000000E+000
  0.000000000000000E+000
  0.000000000000000E+000
  0.000000000000000E+000
  0.000000000000000E+000
  0.000000000000000E+000
  0.000000000000000E+000
  0.000000000000000E+000
  0.000000000000000E+000
  0.000000000000000E+000
  0.000000000000000E+000
  0.000000000000000E+000
  0.000000000000000E+000
  0.000000000000000E+000
  0.000000000000000E+000
  0.000000000000000E+000
  0.000000000000000E+000
  0.000000000000000E+000
  0.000000000000000E+000
  0.000000000000000E+000
  0.000000000000000E+000
  0.000000000000000E+000
  0.000000000000000E+000
  0.000000000000000E+000
  0.000000000000000E+000
  0.000000000000000E+000
  0.000000000000000E+000
  0.000000000000000E+000
  0.000000000000000E+000
  0.000000000000000E+000
  0.000000000000000E+000
  0.000000000000000E+000
  0.000000000000000E+000
  0.000000000000000E+000
  0.000000000000000E+000
  0.000000000000000E+000
  0.000000000000000E+000
  0.000000000000000E+000
  0.000000000000000E+000
  0.000000000000000E+000
  0.000000000000000E+000
  0.000000000000000E+000
  0.000000000000000E+000
  0.000000000000000E+000
  0.000000000000000E+000
  0.000000000000000E+000
  0.000000000000000E+000
  0.000000000000000E+000
  0.000000000000000E+000
  0.000000000000000E+000
  0.000000000000000E+000
  0.000000000000000E+000
  0.000000000000000E+000
  0.000000000000000E+000
  0.000000000000000E+000
  0.000000000000000E+000
  0.000000000000000E+000
  0.000000000000000E+000
  0.000000000000000E+000
  0.000000000000000E+000
  0.000000000000000E+000
  0.000000000000000E+000
  0.000000000000000E+000
  0.000000000000000E+000
  0.000000000000000E+000
  0.000000000000000E+000
  0.000000000000000E+000
  0.000000000000000E+000
  0.000000000000000E+000
  0.000000000000000E+000
  0.000000000000000E+000
  0.000000000000000E+000
  0.000000000000000E+000
  0.000000000000000E+000
  0.000000000000000E+000
  0.000000000000000E+000
  0.000000000000000E+000
  0.000000000000000E+000
  0.000000000000000E+000
  0.000000000000000E+000
  0.000000000000000E+000
  0.000000000000000E+000
  0.000000000000000E+000
  0.000000000000000E+000
  0.000000000000000E+000
  0.000000000000000E+000
  0.000000000000000E+000
  0.000000000000000E+000
  0.000000000000000E+000
  0.000000000000000E+000
  0.000000000000000E+000
  0.000000000000000E+000
  0.000000000000000E+000
  0.000000000000000E+000
  0.000000000000000E+000
  0.000000000000000E+000
  0.000000000000000E+000
  0.000000000000000E+000
  0.000000000000000E+000
  0.000000000000000E+000
  0.000000000000000E+000
  0.000000000000000E+000
  0.000000000000000E+000
  0.000000000000000E+000
  0.000000000000000E+000
  0.000000000000000E+000
  0.000000000000000E+000
  0.000000000000000E+000
  0.000000000000000E+000
  0.000000000000000E+000
  0.000000000000000E+000
  0.000000000000000E+000
  0.000000000000000E+000
  0.000000000000000E+000
  0.000000000000000E+000
  0.000000000000000E+000
  0.000000000000000E+000
  0.000000000000000E+000
  0.000000000000000E+000
  0.000000000000000E+000
  0.000000000000000E+000
  0.000000000000000E+000
  0.000000000000000E+000
  0.000000000000000E+000
  0.000000000000000E+000
  0.000000000000000E+000
  0.000000000000000E+000
  0.000000000000000E+000
  0.000000000000000E+000
  0.000000000000000E+000
  0.000000000000000E+000
  0.000000000000000E+000
  0.000000000000000E+000
  0.000000000000000E+000
  0.000000000000000E+000
  0.000000000000000E+000
  0.000000000000000E+000
  0.000000000000000E+000
  0.000000000000000E+000
  0.000000000000000E+000
  0.000000000000000E+000
  0.000000000000000E+000
  0.000000000000000E+000
  0.000000000000000E+000
  0.000000000000000E+000
  0.000000000000000E+000
  0.000000000000000E+000
  0.000000000000000E+000
  0.000000000000000E+000
  0.000000000000000E+000
  0.000000000000000E+000
  0.000000000000000E+000
  0.000000000000000E+000
  0.000000000000000E+000
  0.000000000000000E+000
  0.000000000000000E+000
  0.000000000000000E+000
  0.000000000000000E+000
  0.000000000000000E+000
  0.000000000000000E+000
  0.000000000000000E+000
  0.000000000000000E+000
  0.000000000000000E+000
  0.000000000000000E+000
  0.000000000000000E+000
  0.000000000000000E+000
  0.000000000000000E+000
  0.000000000000000E+000
  0.000000000000000E+000
  0.000000000000000E+000
  0.000000000000000E+000
  0.000000000000000E+000
  0.000000000000000E+000
  0.000000000000000E+000
  0.000000000000000E+000
  0.000000000000000E+000
  0.000000000000000E+000
  0.000000000000000E+000
  0.000000000000000E+000
  0.000000000000000E+000
  0.000000000000000E+000
  0.000000000000000E+000
  0.000000000000000E+000
  0.000000000000000E+000
  0.000000000000000E+000
  0.000000000000000E+000
  0.000000000000000E+000
  0.000000000000000E+000
  0.000000000000000E+000
  0.000000000000000E+000
  0.000000000000000E+000
  0.000000000000000E+000
  0.000000000000000E+000
  0.000000000000000E+000
  0.000000000000000E+000
  0.000000000000000E+000
  0.000000000000000E+000
  0.000000000000000E+000
  0.000000000000000E+000
  0.000000000000000E+000
  0.000000000000000E+000
  0.000000000000000E+000
  0.000000000000000E+000
  0.000000000000000E+000
  0.000000000000000E+000
  0.000000000000000E+000
  0.000000000000000E+000
  0.000000000000000E+000
  0.000000000000000E+000
  0.000000000000000E+000
  0.000000000000000E+000
  0.000000000000000E+000
  0.000000000000000E+000
  0.000000000000000E+000
  0.000000000000000E+000
  0.000000000000000E+000
  0.000000000000000E+000
  0.000000000000000E+000
  0.000000000000000E+000
  0.000000000000000E+000
  0.000000000000000E+000
  0.000000000000000E+000
  0.000000000000000E+000
  0.000000000000000E+000
  0.000000000000000E+000
  0.000000000000000E+000
  0.000000000000000E+000
  0.000000000000000E+000
  0.000000000000000E+000
  0.000000000000000E+000
  0.000000000000000E+000
  0.000000000000000E+000
  0.000000000000000E+000
  0.000000000000000E+000
  0.000000000000000E+000
  0.000000000000000E+000
  0.000000000000000E+000
  0.000000000000000E+000
  0.000000000000000E+000
  0.000000000000000E+000
  0.000000000000000E+000
  0.000000000000000E+000
  0.000000000000000E+000
  0.000000000000000E+000
  0.000000000000000E+000
  0.000000000000000E+000
  0.000000000000000E+000
  0.000000000000000E+000
  0.000000000000000E+000
  0.000000000000000E+000
  0.000000000000000E+000
  0.000000000000000E+000
  0.000000000000000E+000
  0.000000000000000E+000
  0.000000000000000E+000
  0.000000000000000E+000
  0.000000000000000E+000
  0.000000000000000E+000
  0.000000000000000E+000
  0.000000000000000E+000
  0.000000000000000E+000
  0.000000000000000E+000
  0.000000000000000E+000
  0.000000000000000E+000
  0.000000000000000E+000
  0.000000000000000E+000
  0.000000000000000E+000
  0.000000000000000E+000
  0.000000000000000E+000
  0.000000000000000E+000
  0.000000000000000E+000
  0.000000000000000E+000
  0.000000000000000E+000
  0.000000000000000E+000
  0.000000000000000E+000
  0.000000000000000E+000
  0.000000000000000E+000
  0.000000000000000E+000
  0.000000000000000E+000
  0.000000000000000E+000
  0.000000000000000E+000
  0.000000000000000E+000
  0.000000000000000E+000
  0.000000000000000E+000
  0.000000000000000E+000
  0.000000000000000E+000
  0.000000000000000E+000
  0.000000000000000E+000
  0.000000000000000E+000
  0.000000000000000E+000
  0.000000000000000E+000
  0.000000000000000E+000
  0.000000000000000E+000
  0.000000000000000E+000
  0.000000000000000E+000
  0.000000000000000E+000
  0.000000000000000E+000
  0.000000000000000E+000
  0.000000000000000E+000
  0.000000000000000E+000
  0.000000000000000E+000
  0.000000000000000E+000
  0.000000000000000E+000
  0.000000000000000E+000
  0.000000000000000E+000
  0.000000000000000E+000
  0.000000000000000E+000
  0.000000000000000E+000
  0.000000000000000E+000
  0.000000000000000E+000
  0.000000000000000E+000
  0.000000000000000E+000
  0.000000000000000E+000
  0.000000000000000E+000
  0.000000000000000E+000
  0.000000000000000E+000
  0.000000000000000E+000
  0.000000000000000E+000
  0.000000000000000E+000
  0.000000000000000E+000
  0.000000000000000E+000
  0.000000000000000E+000
  0.000000000000000E+000
  0.000000000000000E+000
  0.000000000000000E+000
  0.000000000000000E+000
  0.000000000000000E+000
  0.000000000000000E+000
  0.000000000000000E+000
  0.000000000000000E+000
  0.000000000000000E+000
  0.000000000000000E+000
  0.000000000000000E+000
  0.000000000000000E+000
  0.000000000000000E+000
  0.000000000000000E+000
  0.000000000000000E+000
  0.000000000000000E+000
  0.000000000000000E+000
  0.000000000000000E+000
  0.000000000000000E+000
  0.000000000000000E+000
  0.000000000000000E+000
  0.000000000000000E+000
  0.000000000000000E+000
  0.000000000000000E+000
  0.000000000000000E+000
  0.000000000000000E+000
  0.000000000000000E+000
  0.000000000000000E+000
  0.000000000000000E+000
  0.000000000000000E+000
  0.000000000000000E+000
  0.000000000000000E+000
  0.000000000000000E+000
  0.000000000000000E+000
  0.000000000000000E+000
  0.000000000000000E+000
  0.000000000000000E+000
  0.000000000000000E+000
  0.000000000000000E+000
  0.000000000000000E+000
  0.000000000000000E+000
  0.000000000000000E+000
  0.000000000000000E+000
  0.000000000000000E+000
  0.000000000000000E+000
  0.000000000000000E+000
  0.000000000000000E+000
  0.000000000000000E+000
  0.000000000000000E+000
  0.000000000000000E+000
  0.000000000000000E+000
  0.000000000000000E+000
  0.000000000000000E+000
  0.000000000000000E+000
  0.000000000000000E+000
  0.000000000000000E+000
  0.000000000000000E+000
  0.000000000000000E+000
  0.000000000000000E+000
  0.000000000000000E+000
  0.000000000000000E+000
  0.000000000000000E+000
  0.000000000000000E+000
  0.000000000000000E+000
  0.000000000000000E+000
  0.000000000000000E+000
  0.000000000000000E+000
  0.000000000000000E+000
  0.000000000000000E+000
  0.000000000000000E+000
  0.000000000000000E+000
  0.000000000000000E+000
  0.000000000000000E+000
  0.000000000000000E+000
  0.000000000000000E+000
  0.000000000000000E+000
  0.000000000000000E+000
  0.000000000000000E+000
  0.000000000000000E+000
  0.000000000000000E+000
  0.000000000000000E+000
  0.000000000000000E+000
  0.000000000000000E+000
  0.000000000000000E+000
  0.000000000000000E+000
  0.000000000000000E+000
  0.000000000000000E+000
  0.000000000000000E+000
  0.000000000000000E+000
  0.000000000000000E+000
  0.000000000000000E+000
  0.000000000000000E+000
  0.000000000000000E+000
  0.000000000000000E+000
  0.000000000000000E+000
  0.000000000000000E+000
  0.000000000000000E+000
  0.000000000000000E+000
  0.000000000000000E+000
  0.000000000000000E+000
  0.000000000000000E+000
  0.000000000000000E+000
  0.000000000000000E+000
  0.000000000000000E+000
  0.000000000000000E+000
  0.000000000000000E+000
  0.000000000000000E+000
  0.000000000000000E+000
  0.000000000000000E+000
  0.000000000000000E+000
  0.000000000000000E+000
  0.000000000000000E+000
  0.000000000000000E+000
  0.000000000000000E+000
  0.000000000000000E+000
  0.000000000000000E+000
  0.000000000000000E+000
  0.000000000000000E+000
  0.000000000000000E+000
  0.000000000000000E+000
  0.000000000000000E+000
  0.000000000000000E+000
  0.000000000000000E+000
  0.000000000000000E+000
  0.000000000000000E+000
  0.000000000000000E+000
  0.000000000000000E+000
  0.000000000000000E+000
  0.000000000000000E+000
  0.000000000000000E+000
  0.000000000000000E+000
  0.000000000000000E+000
  0.000000000000000E+000
  0.000000000000000E+000
  0.000000000000000E+000
  0.000000000000000E+000
  0.000000000000000E+000
  0.000000000000000E+000
  0.000000000000000E+000
  0.000000000000000E+000
  0.000000000000000E+000
  0.000000000000000E+000
  0.000000000000000E+000
  0.000000000000000E+000
  0.000000000000000E+000
  0.000000000000000E+000
  0.000000000000000E+000
  0.000000000000000E+000
  0.000000000000000E+000
  0.000000000000000E+000
  0.000000000000000E+000
  0.000000000000000E+000
  0.000000000000000E+000
  0.000000000000000E+000
  0.000000000000000E+000
  0.000000000000000E+000
  0.000000000000000E+000
  0.000000000000000E+000
  0.000000000000000E+000
  0.000000000000000E+000
  0.000000000000000E+000
  0.000000000000000E+000
  0.000000000000000E+000
  0.000000000000000E+000
  0.000000000000000E+000
  0.000000000000000E+000
  0.000000000000000E+000
  0.000000000000000E+000
  0.000000000000000E+000
  0.000000000000000E+000
  0.000000000000000E+000
  0.000000000000000E+000
  0.000000000000000E+000
  0.000000000000000E+000
  0.000000000000000E+000
  0.000000000000000E+000
  0.000000000000000E+000
  0.000000000000000E+000
  0.000000000000000E+000
  0.000000000000000E+000
  0.000000000000000E+000
  0.000000000000000E+000
  0.000000000000000E+000
  0.000000000000000E+000
  0.000000000000000E+000
  0.000000000000000E+000
  0.000000000000000E+000
  0.000000000000000E+000
  0.000000000000000E+000
  0.000000000000000E+000
  0.000000000000000E+000
  0.000000000000000E+000
  0.000000000000000E+000
  0.000000000000000E+000
  0.000000000000000E+000
  0.000000000000000E+000
  0.000000000000000E+000
  0.000000000000000E+000
  0.000000000000000E+000
  0.000000000000000E+000
  0.000000000000000E+000
  0.000000000000000E+000
  0.000000000000000E+000
  0.000000000000000E+000
  0.000000000000000E+000
  0.000000000000000E+000
  0.000000000000000E+000
  0.000000000000000E+000
  0.000000000000000E+000
  0.000000000000000E+000
  0.000000000000000E+000
  0.000000000000000E+000
  0.000000000000000E+000
  0.000000000000000E+000
  0.000000000000000E+000
  0.000000000000000E+000
  0.000000000000000E+000
  0.000000000000000E+000
  0.000000000000000E+000
  0.000000000000000E+000
  0.000000000000000E+000
  0.000000000000000E+000
  0.000000000000000E+000
  0.000000000000000E+000
  0.000000000000000E+000
  0.000000000000000E+000
  0.000000000000000E+000
  0.000000000000000E+000
  0.000000000000000E+000
  0.000000000000000E+000
  0.000000000000000E+000
  0.000000000000000E+000
  0.000000000000000E+000
  0.000000000000000E+000
  0.000000000000000E+000
  0.000000000000000E+000
  0.000000000000000E+000
  0.000000000000000E+000
  0.000000000000000E+000
  0.000000000000000E+000
  0.000000000000000E+000
  0.000000000000000E+000
  0.000000000000000E+000
  0.000000000000000E+000
  0.000000000000000E+000
  0.000000000000000E+000
  0.000000000000000E+000
  0.000000000000000E+000
  0.000000000000000E+000
  0.000000000000000E+000
  0.000000000000000E+000
  0.000000000000000E+000
  0.000000000000000E+000
  0.000000000000000E+000
  0.000000000000000E+000
  0.000000000000000E+000
  0.000000000000000E+000
  0.000000000000000E+000
  0.000000000000000E+000
  0.000000000000000E+000
  0.000000000000000E+000
  0.000000000000000E+000
  0.000000000000000E+000
  0.000000000000000E+000
  0.000000000000000E+000
  0.000000000000000E+000
  0.000000000000000E+000
  0.000000000000000E+000
  0.000000000000000E+000
  0.000000000000000E+000
  0.000000000000000E+000
  0.000000000000000E+000
  0.000000000000000E+000
  0.000000000000000E+000
  0.000000000000000E+000
  0.000000000000000E+000
  0.000000000000000E+000
  0.000000000000000E+000
  0.000000000000000E+000
  0.000000000000000E+000
  0.000000000000000E+000
  0.000000000000000E+000
  0.000000000000000E+000
  0.000000000000000E+000
  0.000000000000000E+000
  0.000000000000000E+000
  0.000000000000000E+000
  0.000000000000000E+000
  0.000000000000000E+000
  0.000000000000000E+000
  0.000000000000000E+000
  0.000000000000000E+000
  0.000000000000000E+000
  0.000000000000000E+000
  0.000000000000000E+000
  0.000000000000000E+000
  0.000000000000000E+000
  0.000000000000000E+000
  0.000000000000000E+000
  0.000000000000000E+000
  0.000000000000000E+000
  0.000000000000000E+000
  0.000000000000000E+000
  0.000000000000000E+000
  0.000000000000000E+000
  0.000000000000000E+000
  0.000000000000000E+000
  0.000000000000000E+000
  0.000000000000000E+000
  0.000000000000000E+000
  0.000000000000000E+000
  0.000000000000000E+000
  0.000000000000000E+000
  0.000000000000000E+000
  0.000000000000000E+000
  0.000000000000000E+000
  0.000000000000000E+000
  0.000000000000000E+000
  0.000000000000000E+000
  0.000000000000000E+000
  0.000000000000000E+000
  0.000000000000000E+000
  0.000000000000000E+000
  0.000000000000000E+000
  0.000000000000000E+000
  0.000000000000000E+000
  0.000000000000000E+000
  0.000000000000000E+000
  0.000000000000000E+000
  0.000000000000000E+000
  0.000000000000000E+000
  0.000000000000000E+000
  0.000000000000000E+000
  0.000000000000000E+000
  0.000000000000000E+000
  0.000000000000000E+000
  0.000000000000000E+000
  0.000000000000000E+000
  0.000000000000000E+000
  0.000000000000000E+000
  0.000000000000000E+000
  0.000000000000000E+000
  0.000000000000000E+000
  0.000000000000000E+000
  0.000000000000000E+000
  0.000000000000000E+000
  0.000000000000000E+000
  0.000000000000000E+000
  0.000000000000000E+000
  0.000000000000000E+000
  0.000000000000000E+000
  0.000000000000000E+000
  0.000000000000000E+000
  0.000000000000000E+000
  0.000000000000000E+000
  0.000000000000000E+000
  0.000000000000000E+000
  0.000000000000000E+000
  0.000000000000000E+000
  0.000000000000000E+000
  0.000000000000000E+000
  0.000000000000000E+000
  0.000000000000000E+000
  0.000000000000000E+000
  0.000000000000000E+000
  0.000000000000000E+000
  0.000000000000000E+000
  0.000000000000000E+000
  0.000000000000000E+000
  0.000000000000000E+000
  0.000000000000000E+000
  0.000000000000000E+000
  0.000000000000000E+000
  0.000000000000000E+000
  0.000000000000000E+000
  0.000000000000000E+000
  0.000000000000000E+000
  0.000000000000000E+000
  0.000000000000000E+000
  0.000000000000000E+000
  0.000000000000000E+000
  0.000000000000000E+000
  0.000000000000000E+000
  0.000000000000000E+000
  0.000000000000000E+000
  0.000000000000000E+000
  0.000000000000000E+000
  0.000000000000000E+000
  0.000000000000000E+000
  0.000000000000000E+000
  0.000000000000000E+000
  0.000000000000000E+000
  0.000000000000000E+000
  0.000000000000000E+000
  0.000000000000000E+000
  0.000000000000000E+000
  0.000000000000000E+000
  0.000000000000000E+000
  0.000000000000000E+000
  0.000000000000000E+000
  0.000000000000000E+000
  0.000000000000000E+000
  0.000000000000000E+000
  0.000000000000000E+000
  0.000000000000000E+000
  0.000000000000000E+000
  0.000000000000000E+000
  0.000000000000000E+000
  0.000000000000000E+000
  0.000000000000000E+000
  0.000000000000000E+000
  0.000000000000000E+000
  0.000000000000000E+000
  0.000000000000000E+000
  0.000000000000000E+000
  0.000000000000000E+000
  0.000000000000000E+000
  0.000000000000000E+000
  0.000000000000000E+000
  0.000000000000000E+000
  0.000000000000000E+000
  0.000000000000000E+000
  0.000000000000000E+000
  0.000000000000000E+000
  0.000000000000000E+000
  0.000000000000000E+000
  0.000000000000000E+000
  0.000000000000000E+000
  0.000000000000000E+000
  0.000000000000000E+000
  0.000000000000000E+000
  0.000000000000000E+000
  0.000000000000000E+000
  0.000000000000000E+000
  0.000000000000000E+000
  0.000000000000000E+000
  0.000000000000000E+000
  0.000000000000000E+000
  0.000000000000000E+000
  0.000000000000000E+000
  0.000000000000000E+000
  0.000000000000000E+000
  0.000000000000000E+000
  0.000000000000000E+000
  0.000000000000000E+000
  0.000000000000000E+000
  0.000000000000000E+000
  0.000000000000000E+000
  0.000000000000000E+000
  0.000000000000000E+000
  0.000000000000000E+000
  0.000000000000000E+000
  0.000000000000000E+000
  0.000000000000000E+000
  0.000000000000000E+000
  0.000000000000000E+000
  0.000000000000000E+000
  0.000000000000000E+000
  0.000000000000000E+000
  0.000000000000000E+000
  0.000000000000000E+000
  0.000000000000000E+000
  0.000000000000000E+000
  0.000000000000000E+000
  0.000000000000000E+000
  0.000000000000000E+000
  0.000000000000000E+000
  0.000000000000000E+000
  0.000000000000000E+000
  0.000000000000000E+000
  0.000000000000000E+000
  0.000000000000000E+000
  0.000000000000000E+000
  0.000000000000000E+000
  0.000000000000000E+000
  0.000000000000000E+000
  0.000000000000000E+000
  0.000000000000000E+000
  0.000000000000000E+000
  0.000000000000000E+000
  0.000000000000000E+000
  0.000000000000000E+000
  0.000000000000000E+000
  0.000000000000000E+000
  0.000000000000000E+000
  0.000000000000000E+000
  0.000000000000000E+000
  0.000000000000000E+000
  0.000000000000000E+000
  0.000000000000000E+000
  0.000000000000000E+000
  0.000000000000000E+000
  0.000000000000000E+000
  0.000000000000000E+000
  0.000000000000000E+000
  0.000000000000000E+000
  0.000000000000000E+000
  0.000000000000000E+000
  0.000000000000000E+000
  0.000000000000000E+000
  0.000000000000000E+000
  0.000000000000000E+000
  0.000000000000000E+000
  0.000000000000000E+000
  0.000000000000000E+000
  0.000000000000000E+000
  0.000000000000000E+000
  0.000000000000000E+000
  0.000000000000000E+000
  0.000000000000000E+000
  0.000000000000000E+000
  0.000000000000000E+000
  0.000000000000000E+000
  0.000000000000000E+000
  0.000000000000000E+000
  0.000000000000000E+000
  0.000000000000000E+000
  0.000000000000000E+000
  0.000000000000000E+000
  0.000000000000000E+000
  0.000000000000000E+000
  0.000000000000000E+000
  0.000000000000000E+000
  0.000000000000000E+000
  0.000000000000000E+000
  0.000000000000000E+000
  0.000000000000000E+000
  0.000000000000000E+000
  0.000000000000000E+000
  0.000000000000000E+000
  0.000000000000000E+000
  0.000000000000000E+000
  0.000000000000000E+000
  0.000000000000000E+000
  0.000000000000000E+000
  0.000000000000000E+000
  0.000000000000000E+000
  0.000000000000000E+000
  0.000000000000000E+000
  0.000000000000000E+000
  0.000000000000000E+000
  0.000000000000000E+000
  0.000000000000000E+000
  0.000000000000000E+000
  0.000000000000000E+000
  0.000000000000000E+000
  0.000000000000000E+000
  0.000000000000000E+000
  0.000000000000000E+000
  0.000000000000000E+000
  0.000000000000000E+000
  0.000000000000000E+000
  0.000000000000000E+000
  0.000000000000000E+000
  0.000000000000000E+000
  0.000000000000000E+000
  0.000000000000000E+000
  0.000000000000000E+000
  0.000000000000000E+000
  0.000000000000000E+000
  0.000000000000000E+000
  0.000000000000000E+000
  0.000000000000000E+000
  0.000000000000000E+000
  0.000000000000000E+000
  0.000000000000000E+000
  0.000000000000000E+000
  0.000000000000000E+000
  0.000000000000000E+000
  0.000000000000000E+000
  0.000000000000000E+000
  0.000000000000000E+000
  0.000000000000000E+000
  0.000000000000000E+000
  0.000000000000000E+000
  0.000000000000000E+000
  0.000000000000000E+000
  0.000000000000000E+000
  0.000000000000000E+000
  0.000000000000000E+000
  0.000000000000000E+000
  0.000000000000000E+000
  0.000000000000000E+000
  0.000000000000000E+000
  0.000000000000000E+000
  0.000000000000000E+000
  0.000000000000000E+000
  0.000000000000000E+000
  0.000000000000000E+000
  0.000000000000000E+000
  0.000000000000000E+000
  0.000000000000000E+000
  0.000000000000000E+000
  0.000000000000000E+000
  0.000000000000000E+000
  0.000000000000000E+000
  0.000000000000000E+000
  0.000000000000000E+000
  0.000000000000000E+000
  0.000000000000000E+000
  0.000000000000000E+000
  0.000000000000000E+000
  0.000000000000000E+000
  0.000000000000000E+000
  0.000000000000000E+000
  0.000000000000000E+000
  0.000000000000000E+000
  0.000000000000000E+000
  0.000000000000000E+000
  0.000000000000000E+000
  0.000000000000000E+000
  0.000000000000000E+000
  0.000000000000000E+000
  0.000000000000000E+000
  0.000000000000000E+000
  0.000000000000000E+000
  0.000000000000000E+000
  0.000000000000000E+000
  0.000000000000000E+000
  0.000000000000000E+000
  0.000000000000000E+000
  0.000000000000000E+000
  0.000000000000000E+000
  0.000000000000000E+000
  0.000000000000000E+000
  0.000000000000000E+000
  0.000000000000000E+000
  0.000000000000000E+000
  0.000000000000000E+000
  0.000000000000000E+000
  0.000000000000000E+000
  0.000000000000000E+000
  0.000000000000000E+000
  0.000000000000000E+000
  0.000000000000000E+000
  0.000000000000000E+000
  0.000000000000000E+000
  0.000000000000000E+000
  0.000000000000000E+000
  0.000000000000000E+000
  0.000000000000000E+000
  0.000000000000000E+000
  0.000000000000000E+000
  0.000000000000000E+000
  0.000000000000000E+000
  0.000000000000000E+000
  0.000000000000000E+000
  0.000000000000000E+000
  0.000000000000000E+000
  0.000000000000000E+000
  0.000000000000000E+000
  0.000000000000000E+000
  0.000000000000000E+000
  0.000000000000000E+000
  0.000000000000000E+000
  0.000000000000000E+000
  0.000000000000000E+000
  0.000000000000000E+000
  0.000000000000000E+000
  0.000000000000000E+000
  0.000000000000000E+000
  0.000000000000000E+000
  0.000000000000000E+000
  0.000000000000000E+000
  0.000000000000000E+000
  0.000000000000000E+000
  0.000000000000000E+000
  0.000000000000000E+000
  0.000000000000000E+000
  0.000000000000000E+000
  0.000000000000000E+000
  0.000000000000000E+000
  0.000000000000000E+000
  0.000000000000000E+000
  0.000000000000000E+000
  0.000000000000000E+000
  0.000000000000000E+000
  0.000000000000000E+000
  0.000000000000000E+000
  0.000000000000000E+000
  0.000000000000000E+000
  0.000000000000000E+000
  0.000000000000000E+000
  0.000000000000000E+000
  0.000000000000000E+000
  0.000000000000000E+000
  0.000000000000000E+000
  0.000000000000000E+000
  0.000000000000000E+000
  0.000000000000000E+000
  0.000000000000000E+000
  0.000000000000000E+000
  0.000000000000000E+000
  0.000000000000000E+000
  0.000000000000000E+000
  0.000000000000000E+000
  0.000000000000000E+000
  0.000000000000000E+000
  0.000000000000000E+000
  0.000000000000000E+000
  0.000000000000000E+000
  0.000000000000000E+000
  0.000000000000000E+000
  0.000000000000000E+000
  0.000000000000000E+000
  0.000000000000000E+000
  0.000000000000000E+000
  0.000000000000000E+000
  0.000000000000000E+000
  0.000000000000000E+000
  0.000000000000000E+000
  0.000000000000000E+000
  0.000000000000000E+000
  0.000000000000000E+000
  0.000000000000000E+000
  0.000000000000000E+000
  0.000000000000000E+000
  0.000000000000000E+000
  0.000000000000000E+000
  0.000000000000000E+000
  0.000000000000000E+000
  0.000000000000000E+000
  0.000000000000000E+000
  0.000000000000000E+000
  0.000000000000000E+000
  0.000000000000000E+000
  0.000000000000000E+000
  0.000000000000000E+000
  0.000000000000000E+000
  0.000000000000000E+000
  0.000000000000000E+000
  0.000000000000000E+000
  0.000000000000000E+000
  0.000000000000000E+000
  0.000000000000000E+000
  0.000000000000000E+000
  0.000000000000000E+000
  0.000000000000000E+000
  0.000000000000000E+000
  0.000000000000000E+000
  0.000000000000000E+000
  0.000000000000000E+000
  0.000000000000000E+000
  0.000000000000000E+000
  0.000000000000000E+000
  0.000000000000000E+000
  0.000000000000000E+000
  0.000000000000000E+000
  0.000000000000000E+000
  0.000000000000000E+000
  0.000000000000000E+000
  0.000000000000000E+000
  0.000000000000000E+000
  0.000000000000000E+000
  0.000000000000000E+000
  0.000000000000000E+000
  0.000000000000000E+000
  0.000000000000000E+000
  0.000000000000000E+000
  0.000000000000000E+000
  0.000000000000000E+000
  0.000000000000000E+000
  0.000000000000000E+000
  0.000000000000000E+000
  0.000000000000000E+000
  0.000000000000000E+000
  0.000000000000000E+000
  0.000000000000000E+000
  0.000000000000000E+000
  0.000000000000000E+000
  0.000000000000000E+000
  0.000000000000000E+000
  0.000000000000000E+000
  0.000000000000000E+000
  0.000000000000000E+000
  0.000000000000000E+000
  0.000000000000000E+000
  0.000000000000000E+000
  0.000000000000000E+000
  0.000000000000000E+000
  0.000000000000000E+000
  0.000000000000000E+000
  0.000000000000000E+000
  0.000000000000000E+000
  0.000000000000000E+000
  0.000000000000000E+000
  0.000000000000000E+000
  0.000000000000000E+000
  0.000000000000000E+000
  0.000000000000000E+000
  0.000000000000000E+000
  0.000000000000000E+000
  0.000000000000000E+000
  0.000000000000000E+000
  0.000000000000000E+000
  0.000000000000000E+000
  0.000000000000000E+000
  0.000000000000000E+000
  0.000000000000000E+000
  0.000000000000000E+000
  0.000000000000000E+000
  0.000000000000000E+000
  0.000000000000000E+000
  0.000000000000000E+000
  0.000000000000000E+000
  0.000000000000000E+000
  0.000000000000000E+000
  0.000000000000000E+000
  0.000000000000000E+000
  0.000000000000000E+000
  0.000000000000000E+000
  0.000000000000000E+000
  0.000000000000000E+000
  0.000000000000000E+000
  0.000000000000000E+000
  0.000000000000000E+000
  0.000000000000000E+000
  0.000000000000000E+000
  0.000000000000000E+000
  0.000000000000000E+000
  0.000000000000000E+000
  0.000000000000000E+000
  0.000000000000000E+000
  0.000000000000000E+000
  0.000000000000000E+000
  0.000000000000000E+000
  0.000000000000000E+000
  0.000000000000000E+000
  0.000000000000000E+000
  0.000000000000000E+000
  0.000000000000000E+000
  0.000000000000000E+000
  0.000000000000000E+000
  0.000000000000000E+000
  0.000000000000000E+000
  0.000000000000000E+000
  0.000000000000000E+000
  0.000000000000000E+000
  0.000000000000000E+000
  0.000000000000000E+000
  0.000000000000000E+000
  0.000000000000000E+000
  0.000000000000000E+000
  0.000000000000000E+000
  0.000000000000000E+000
  0.000000000000000E+000
  0.000000000000000E+000
  0.000000000000000E+000
  0.000000000000000E+000
  0.000000000000000E+000
  0.000000000000000E+000
  0.000000000000000E+000
  0.000000000000000E+000
  0.000000000000000E+000
  0.000000000000000E+000
  0.000000000000000E+000
  0.000000000000000E+000
  0.000000000000000E+000
  0.000000000000000E+000
  0.000000000000000E+000
  0.000000000000000E+000
  0.000000000000000E+000
  0.000000000000000E+000
  0.000000000000000E+000
  0.000000000000000E+000
  0.000000000000000E+000
  0.000000000000000E+000
  0.000000000000000E+000
  0.000000000000000E+000
  0.000000000000000E+000
  0.000000000000000E+000
  0.000000000000000E+000
  0.000000000000000E+000
  0.000000000000000E+000
  0.000000000000000E+000
  0.000000000000000E+000
  0.000000000000000E+000
  0.000000000000000E+000
  0.000000000000000E+000
  0.000000000000000E+000
  0.000000000000000E+000
  0.000000000000000E+000
  0.000000000000000E+000
  0.000000000000000E+000
  0.000000000000000E+000
  0.000000000000000E+000
  0.000000000000000E+000
  0.000000000000000E+000
  0.000000000000000E+000
  0.000000000000000E+000
  0.000000000000000E+000
  0.000000000000000E+000
  0.000000000000000E+000
  0.000000000000000E+000
  0.000000000000000E+000
  0.000000000000000E+000
  0.000000000000000E+000
  0.000000000000000E+000
  0.000000000000000E+000
  0.000000000000000E+000
  0.000000000000000E+000
  0.000000000000000E+000
  0.000000000000000E+000
  0.000000000000000E+000
  0.000000000000000E+000
  0.000000000000000E+000
  0.000000000000000E+000
  0.000000000000000E+000
  0.000000000000000E+000
  0.000000000000000E+000
  0.000000000000000E+000
  0.000000000000000E+000
  0.000000000000000E+000
  0.000000000000000E+000
  0.000000000000000E+000
  0.000000000000000E+000
  0.000000000000000E+000
  0.000000000000000E+000
  0.000000000000000E+000
  0.000000000000000E+000
  0.000000000000000E+000
  0.000000000000000E+000
  0.000000000000000E+000
  0.000000000000000E+000
  0.000000000000000E+000
  0.000000000000000E+000
  0.000000000000000E+000
  0.000000000000000E+000
  0.000000000000000E+000
  0.000000000000000E+000
  0.000000000000000E+000
  0.000000000000000E+000
  0.000000000000000E+000
  0.000000000000000E+000
  0.000000000000000E+000
  0.000000000000000E+000
  0.000000000000000E+000
  0.000000000000000E+000
  0.000000000000000E+000
  0.000000000000000E+000
  0.000000000000000E+000
  0.000000000000000E+000
  0.000000000000000E+000
  0.000000000000000E+000
  0.000000000000000E+000
  0.000000000000000E+000
  0.000000000000000E+000
  0.000000000000000E+000
  0.000000000000000E+000
  0.000000000000000E+000
  0.000000000000000E+000
  0.000000000000000E+000
  0.000000000000000E+000
  0.000000000000000E+000
  0.000000000000000E+000
  0.000000000000000E+000
  0.000000000000000E+000
  0.000000000000000E+000
  0.000000000000000E+000
  0.000000000000000E+000
  0.000000000000000E+000
  0.000000000000000E+000
  0.000000000000000E+000
  0.000000000000000E+000
  0.000000000000000E+000
  0.000000000000000E+000
  0.000000000000000E+000
  0.000000000000000E+000
  0.000000000000000E+000
  0.000000000000000E+000
  0.000000000000000E+000
  0.000000000000000E+000
  0.000000000000000E+000
  0.000000000000000E+000
  0.000000000000000E+000
  0.000000000000000E+000
  0.000000000000000E+000
  0.000000000000000E+000
  0.000000000000000E+000
  0.000000000000000E+000
  0.000000000000000E+000
  0.000000000000000E+000
  0.000000000000000E+000
  0.000000000000000E+000
  0.000000000000000E+000
  0.000000000000000E+000
  0.000000000000000E+000
  0.000000000000000E+000
  0.000000000000000E+000
  0.000000000000000E+000
  0.000000000000000E+000
  0.000000000000000E+000
  0.000000000000000E+000
  0.000000000000000E+000
  0.000000000000000E+000
  0.000000000000000E+000
  0.000000000000000E+000
  0.000000000000000E+000
  0.000000000000000E+000
  0.000000000000000E+000
  0.000000000000000E+000
  0.000000000000000E+000
  0.000000000000000E+000
  0.000000000000000E+000
  0.000000000000000E+000
  0.000000000000000E+000
  0.000000000000000E+000
  0.000000000000000E+000
  0.000000000000000E+000
  0.000000000000000E+000
  0.000000000000000E+000
  0.000000000000000E+000
  0.000000000000000E+000
  0.000000000000000E+000
  0.000000000000000E+000
  0.000000000000000E+000
  0.000000000000000E+000
  0.000000000000000E+000
  0.000000000000000E+000
  0.000000000000000E+000
  0.000000000000000E+000
  0.000000000000000E+000
  0.000000000000000E+000
  0.000000000000000E+000
  0.000000000000000E+000
  0.000000000000000E+000
  0.000000000000000E+000
  0.000000000000000E+000
  0.000000000000000E+000
  0.000000000000000E+000
  0.000000000000000E+000
  0.000000000000000E+000
  0.000000000000000E+000
  0.000000000000000E+000
  0.000000000000000E+000
  0.000000000000000E+000
  0.000000000000000E+000
  0.000000000000000E+000
  0.000000000000000E+000
  0.000000000000000E+000
  0.000000000000000E+000
  0.000000000000000E+000
  0.000000000000000E+000
  0.000000000000000E+000
  0.000000000000000E+000
  0.000000000000000E+000
  0.000000000000000E+000
  0.000000000000000E+000
  0.000000000000000E+000
  0.000000000000000E+000
  0.000000000000000E+000
  0.000000000000000E+000
  0.000000000000000E+000
  0.000000000000000E+000
  0.000000000000000E+000
  0.000000000000000E+000
  0.000000000000000E+000
  0.000000000000000E+000
  0.000000000000000E+000
  0.000000000000000E+000
  0.000000000000000E+000
  0.000000000000000E+000
  0.000000000000000E+000
  0.000000000000000E+000
  0.000000000000000E+000
  0.000000000000000E+000
  0.000000000000000E+000
  0.000000000000000E+000
  0.000000000000000E+000
  0.000000000000000E+000
  0.000000000000000E+000
  0.000000000000000E+000
  0.000000000000000E+000
  0.000000000000000E+000
  0.000000000000000E+000
  0.000000000000000E+000
  0.000000000000000E+000
  0.000000000000000E+000
  0.000000000000000E+000
  0.000000000000000E+000
  0.000000000000000E+000
  0.000000000000000E+000
  0.000000000000000E+000
  0.000000000000000E+000
  0.000000000000000E+000
  0.000000000000000E+000
  0.000000000000000E+000
  0.000000000000000E+000
  0.000000000000000E+000
  0.000000000000000E+000
  0.000000000000000E+000
  0.000000000000000E+000
  0.000000000000000E+000
  0.000000000000000E+000
  0.000000000000000E+000
  0.000000000000000E+000
  0.000000000000000E+000
  0.000000000000000E+000
  0.000000000000000E+000
  0.000000000000000E+000
  0.000000000000000E+000
  0.000000000000000E+000
  0.000000000000000E+000
  0.000000000000000E+000
  0.000000000000000E+000
  0.000000000000000E+000
  0.000000000000000E+000
  0.000000000000000E+000
  0.000000000000000E+000
  0.000000000000000E+000
  0.000000000000000E+000
  0.000000000000000E+000
  0.000000000000000E+000
  0.000000000000000E+000
  0.000000000000000E+000
  0.000000000000000E+000
  0.000000000000000E+000
  0.000000000000000E+000
  0.000000000000000E+000
  0.000000000000000E+000
  0.000000000000000E+000
  0.000000000000000E+000
  0.000000000000000E+000
  0.000000000000000E+000
  0.000000000000000E+000
  0.000000000000000E+000
  0.000000000000000E+000
  0.000000000000000E+000
  0.000000000000000E+000
  0.000000000000000E+000
  0.000000000000000E+000
  0.000000000000000E+000
  0.000000000000000E+000
  0.000000000000000E+000
  0.000000000000000E+000
  0.000000000000000E+000
  0.000000000000000E+000
  0.000000000000000E+000
  0.000000000000000E+000
  0.000000000000000E+000
  0.000000000000000E+000
  0.000000000000000E+000
  0.000000000000000E+000
  0.000000000000000E+000
  0.000000000000000E+000
  0.000000000000000E+000
  0.000000000000000E+000
  0.000000000000000E+000
  0.000000000000000E+000
  0.000000000000000E+000
  0.000000000000000E+000
  0.000000000000000E+000
  0.000000000000000E+000
  0.000000000000000E+000
  0.000000000000000E+000
  0.000000000000000E+000
  0.000000000000000E+000
  0.000000000000000E+000
  0.000000000000000E+000
  0.000000000000000E+000
  0.000000000000000E+000
  0.000000000000000E+000
  0.000000000000000E+000
  0.000000000000000E+000
  0.000000000000000E+000
  0.000000000000000E+000
  0.000000000000000E+000
  0.000000000000000E+000
  0.000000000000000E+000
  0.000000000000000E+000
  0.000000000000000E+000
  0.000000000000000E+000
  0.000000000000000E+000
  0.000000000000000E+000
  0.000000000000000E+000
  0.000000000000000E+000
  0.000000000000000E+000
  0.000000000000000E+000
  0.000000000000000E+000
  0.000000000000000E+000
  0.000000000000000E+000
  0.000000000000000E+000
  0.000000000000000E+000
  0.000000000000000E+000
  0.000000000000000E+000
  0.000000000000000E+000
  0.000000000000000E+000
  0.000000000000000E+000
  0.000000000000000E+000
  0.000000000000000E+000
  0.000000000000000E+000
  0.000000000000000E+000
  0.000000000000000E+000
  0.000000000000000E+000
  0.000000000000000E+000
  0.000000000000000E+000
  0.000000000000000E+000
  0.000000000000000E+000
  0.000000000000000E+000
  0.000000000000000E+000
  0.000000000000000E+000
  0.000000000000000E+000
  0.000000000000000E+000
  0.000000000000000E+000
  0.000000000000000E+000
  0.000000000000000E+000
  0.000000000000000E+000
  0.000000000000000E+000
  0.000000000000000E+000
  0.000000000000000E+000
  0.000000000000000E+000
  0.000000000000000E+000
  0.000000000000000E+000
  0.000000000000000E+000
  0.000000000000000E+000
  0.000000000000000E+000
  0.000000000000000E+000
  0.000000000000000E+000
  0.000000000000000E+000
  0.000000000000000E+000
  0.000000000000000E+000
  0.000000000000000E+000
  0.000000000000000E+000
  0.000000000000000E+000
  0.000000000000000E+000
  0.000000000000000E+000
  0.000000000000000E+000
  0.000000000000000E+000
  0.000000000000000E+000
  0.000000000000000E+000
  0.000000000000000E+000
  0.000000000000000E+000
  0.000000000000000E+000
  0.000000000000000E+000
  0.000000000000000E+000
  0.000000000000000E+000
  0.000000000000000E+000
  0.000000000000000E+000
  0.000000000000000E+000
  0.000000000000000E+000
  0.000000000000000E+000
  0.000000000000000E+000
  0.000000000000000E+000
  0.000000000000000E+000
  0.000000000000000E+000
  0.000000000000000E+000
  0.000000000000000E+000
  0.000000000000000E+000
  0.000000000000000E+000
  0.000000000000000E+000
  0.000000000000000E+000
  0.000000000000000E+000
  0.000000000000000E+000
  0.000000000000000E+000
  0.000000000000000E+000
  0.000000000000000E+000
  0.000000000000000E+000
  0.000000000000000E+000
  0.000000000000000E+000
  0.000000000000000E+000
  0.000000000000000E+000
  0.000000000000000E+000
  0.000000000000000E+000
  0.000000000000000E+000
  0.000000000000000E+000
  0.000000000000000E+000
  0.000000000000000E+000
  0.000000000000000E+000
  0.000000000000000E+000
  0.000000000000000E+000
  0.000000000000000E+000
  0.000000000000000E+000
  0.000000000000000E+000
  0.000000000000000E+000
  0.000000000000000E+000
  0.000000000000000E+000
  0.000000000000000E+000
  0.000000000000000E+000
  0.000000000000000E+000
  0.000000000000000E+000
  0.000000000000000E+000
  0.000000000000000E+000
  0.000000000000000E+000
  0.000000000000000E+000
  0.000000000000000E+000
  0.000000000000000E+000
  0.000000000000000E+000
  0.000000000000000E+000
  0.000000000000000E+000
  0.000000000000000E+000
  0.000000000000000E+000
  0.000000000000000E+000
  0.000000000000000E+000
  0.000000000000000E+000
  0.000000000000000E+000
  0.000000000000000E+000
  0.000000000000000E+000
  0.000000000000000E+000
  0.000000000000000E+000
  0.000000000000000E+000
  0.000000000000000E+000
  0.000000000000000E+000
  0.000000000000000E+000
  0.000000000000000E+000
  0.000000000000000E+000
  0.000000000000000E+000
  0.000000000000000E+000
  0.000000000000000E+000
  0.000000000000000E+000
  0.000000000000000E+000
  0.000000000000000E+000
  0.000000000000000E+000
  0.000000000000000E+000
  0.000000000000000E+000
  0.000000000000000E+000
  0.000000000000000E+000
  0.000000000000000E+000
  0.000000000000000E+000
  0.000000000000000E+000
  0.000000000000000E+000
  0.000000000000000E+000
  0.000000000000000E+000
  0.000000000000000E+000
  0.000000000000000E+000
  0.000000000000000E+000
  0.000000000000000E+000
  0.000000000000000E+000
  0.000000000000000E+000
  0.000000000000000E+000
  0.000000000000000E+000
  0.000000000000000E+000
  0.000000000000000E+000
  0.000000000000000E+000
  0.000000000000000E+000
  0.000000000000000E+000
  0.000000000000000E+000
  0.000000000000000E+000
  0.000000000000000E+000
  0.000000000000000E+000
  0.000000000000000E+000
  0.000000000000000E+000
  0.000000000000000E+000
  0.000000000000000E+000
  0.000000000000000E+000
  0.000000000000000E+000
  0.000000000000000E+000
  0.000000000000000E+000
  0.000000000000000E+000
  0.000000000000000E+000
  0.000000000000000E+000
  0.000000000000000E+000
  0.000000000000000E+000
  0.000000000000000E+000
  0.000000000000000E+000
  0.000000000000000E+000
  0.000000000000000E+000
  0.000000000000000E+000
  0.000000000000000E+000
  0.000000000000000E+000
  0.000000000000000E+000
  0.000000000000000E+000
  0.000000000000000E+000
  0.000000000000000E+000
  0.000000000000000E+000
  0.000000000000000E+000
  0.000000000000000E+000
  0.000000000000000E+000
  0.000000000000000E+000
  0.000000000000000E+000
  0.000000000000000E+000
  0.000000000000000E+000
  0.000000000000000E+000
  0.000000000000000E+000
  0.000000000000000E+000
  0.000000000000000E+000
  0.000000000000000E+000
  0.000000000000000E+000
  0.000000000000000E+000
  0.000000000000000E+000
  0.000000000000000E+000
  0.000000000000000E+000
  0.000000000000000E+000
  0.000000000000000E+000
  0.000000000000000E+000
  0.000000000000000E+000
  0.000000000000000E+000
  0.000000000000000E+000
  0.000000000000000E+000
  0.000000000000000E+000
  0.000000000000000E+000
  0.000000000000000E+000
  0.000000000000000E+000
  0.000000000000000E+000
  0.000000000000000E+000
  0.000000000000000E+000
  0.000000000000000E+000
  0.000000000000000E+000
  0.000000000000000E+000
  0.000000000000000E+000
  0.000000000000000E+000
  0.000000000000000E+000
  0.000000000000000E+000
  0.000000000000000E+000
  0.000000000000000E+000
  0.000000000000000E+000
  0.000000000000000E+000
  0.000000000000000E+000
  0.000000000000000E+000
  0.000000000000000E+000
  0.000000000000000E+000
  0.000000000000000E+000
  0.000000000000000E+000
  0.000000000000000E+000
  0.000000000000000E+000
  0.000000000000000E+000
  0.000000000000000E+000
  0.000000000000000E+000
  0.000000000000000E+000
  0.000000000000000E+000
  0.000000000000000E+000
  0.000000000000000E+000
  0.000000000000000E+000
  0.000000000000000E+000
  0.000000000000000E+000
  0.000000000000000E+000
  0.000000000000000E+000
  0.000000000000000E+000
  0.000000000000000E+000
  0.000000000000000E+000
  0.000000000000000E+000
  0.000000000000000E+000
  0.000000000000000E+000
  0.000000000000000E+000
  0.000000000000000E+000
  0.000000000000000E+000
  0.000000000000000E+000
  0.000000000000000E+000
  0.000000000000000E+000
  0.000000000000000E+000
  0.000000000000000E+000
  0.000000000000000E+000
  0.000000000000000E+000
  0.000000000000000E+000
  0.000000000000000E+000
  0.000000000000000E+000
  0.000000000000000E+000
  0.000000000000000E+000
  0.000000000000000E+000
  0.000000000000000E+000
  0.000000000000000E+000
  0.000000000000000E+000
  0.000000000000000E+000
  0.000000000000000E+000
  0.000000000000000E+000
  0.000000000000000E+000
  0.000000000000000E+000
  0.000000000000000E+000
  0.000000000000000E+000
  0.000000000000000E+000
  0.000000000000000E+000
  0.000000000000000E+000
  0.000000000000000E+000
  0.000000000000000E+000
  0.000000000000000E+000
  0.000000000000000E+000
  0.000000000000000E+000
  0.000000000000000E+000
  0.000000000000000E+000
  0.000000000000000E+000
  0.000000000000000E+000
  0.000000000000000E+000
  0.000000000000000E+000
  0.000000000000000E+000
  0.000000000000000E+000
  0.000000000000000E+000
  0.000000000000000E+000
  0.000000000000000E+000
  0.000000000000000E+000
  0.000000000000000E+000
  0.000000000000000E+000
  0.000000000000000E+000
  0.000000000000000E+000
  0.000000000000000E+000
  0.000000000000000E+000
  0.000000000000000E+000
  0.000000000000000E+000
  0.000000000000000E+000
  0.000000000000000E+000
  0.000000000000000E+000
  0.000000000000000E+000
  0.000000000000000E+000
  0.000000000000000E+000
  0.000000000000000E+000
  0.000000000000000E+000
  0.000000000000000E+000
  0.000000000000000E+000
  0.000000000000000E+000
  0.000000000000000E+000
  0.000000000000000E+000
  0.000000000000000E+000
  0.000000000000000E+000
  0.000000000000000E+000
  0.000000000000000E+000
  0.000000000000000E+000
  0.000000000000000E+000
  0.000000000000000E+000
  0.000000000000000E+000
  0.000000000000000E+000
  0.000000000000000E+000
  0.000000000000000E+000
  0.000000000000000E+000
  0.000000000000000E+000
  0.000000000000000E+000
  0.000000000000000E+000
  0.000000000000000E+000
  0.000000000000000E+000
  0.000000000000000E+000
  0.000000000000000E+000
  0.000000000000000E+000
  0.000000000000000E+000
  0.000000000000000E+000
  0.000000000000000E+000
  0.000000000000000E+000
  0.000000000000000E+000
  0.000000000000000E+000
  0.000000000000000E+000
  0.000000000000000E+000
  0.000000000000000E+000
  0.000000000000000E+000
  0.000000000000000E+000
  0.000000000000000E+000
  0.000000000000000E+000
  0.000000000000000E+000
  0.000000000000000E+000
  0.000000000000000E+000
  0.000000000000000E+000
  0.000000000000000E+000
  0.000000000000000E+000
  0.000000000000000E+000
  0.000000000000000E+000
  0.000000000000000E+000
  0.000000000000000E+000
  0.000000000000000E+000
  0.000000000000000E+000
  0.000000000000000E+000
  0.000000000000000E+000
  0.000000000000000E+000
  0.000000000000000E+000
  0.000000000000000E+000
  0.000000000000000E+000
  0.000000000000000E+000
  0.000000000000000E+000
  0.000000000000000E+000
  0.000000000000000E+000
  0.000000000000000E+000
  0.000000000000000E+000
  0.000000000000000E+000
  0.000000000000000E+000
  0.000000000000000E+000
  0.000000000000000E+000
  0.000000000000000E+000
  0.000000000000000E+000
  0.000000000000000E+000
  0.000000000000000E+000
  0.000000000000000E+000
  0.000000000000000E+000
  0.000000000000000E+000
  0.000000000000000E+000
  0.000000000000000E+000
  0.000000000000000E+000
  0.000000000000000E+000
  0.000000000000000E+000
  0.000000000000000E+000
  0.000000000000000E+000
  0.000000000000000E+000
  0.000000000000000E+000
  0.000000000000000E+000
  0.000000000000000E+000
  0.000000000000000E+000
  0.000000000000000E+000
  0.000000000000000E+000
  0.000000000000000E+000
  0.000000000000000E+000
  0.000000000000000E+000
  0.000000000000000E+000
  0.000000000000000E+000
  0.000000000000000E+000
  0.000000000000000E+000
  0.000000000000000E+000
  0.000000000000000E+000
  0.000000000000000E+000
  0.000000000000000E+000
  0.000000000000000E+000
  0.000000000000000E+000
  0.000000000000000E+000
  0.000000000000000E+000
  0.000000000000000E+000
  0.000000000000000E+000
  0.000000000000000E+000
  0.000000000000000E+000
  0.000000000000000E+000
  0.000000000000000E+000
  0.000000000000000E+000
  0.000000000000000E+000
  0.000000000000000E+000
  0.000000000000000E+000
  0.000000000000000E+000
  0.000000000000000E+000
  0.000000000000000E+000
  0.000000000000000E+000
  0.000000000000000E+000
  0.000000000000000E+000
  0.000000000000000E+000
  0.000000000000000E+000
  0.000000000000000E+000
  0.000000000000000E+000
  0.000000000000000E+000
  0.000000000000000E+000
  0.000000000000000E+000
  0.000000000000000E+000
  0.000000000000000E+000
  0.000000000000000E+000
  0.000000000000000E+000
  0.000000000000000E+000
  0.000000000000000E+000
  0.000000000000000E+000
  0.000000000000000E+000
  0.000000000000000E+000
  0.000000000000000E+000
  0.000000000000000E+000
  0.000000000000000E+000
  0.000000000000000E+000
  0.000000000000000E+000
  0.000000000000000E+000
  0.000000000000000E+000
  0.000000000000000E+000
  0.000000000000000E+000
  0.000000000000000E+000
  0.000000000000000E+000
  0.000000000000000E+000
  0.000000000000000E+000
  0.000000000000000E+000
  0.000000000000000E+000
  0.000000000000000E+000
  0.000000000000000E+000
  0.000000000000000E+000
  0.000000000000000E+000
  0.000000000000000E+000
  0.000000000000000E+000
  0.000000000000000E+000
  0.000000000000000E+000
  0.000000000000000E+000
  0.000000000000000E+000
  0.000000000000000E+000
  0.000000000000000E+000
  0.000000000000000E+000
  0.000000000000000E+000
  0.000000000000000E+000
  0.000000000000000E+000
  0.000000000000000E+000
  0.000000000000000E+000
  0.000000000000000E+000
  0.000000000000000E+000
  0.000000000000000E+000
  0.000000000000000E+000
  0.000000000000000E+000
  0.000000000000000E+000
  0.000000000000000E+000
  0.000000000000000E+000
  0.000000000000000E+000
  0.000000000000000E+000
  0.000000000000000E+000
  0.000000000000000E+000
  0.000000000000000E+000
  0.000000000000000E+000
  0.000000000000000E+000
  0.000000000000000E+000
  0.000000000000000E+000
  0.000000000000000E+000
  0.000000000000000E+000
  0.000000000000000E+000
  0.000000000000000E+000
  0.000000000000000E+000
  0.000000000000000E+000
  0.000000000000000E+000
  0.000000000000000E+000
  0.000000000000000E+000
  0.000000000000000E+000
  0.000000000000000E+000
  0.000000000000000E+000
  0.000000000000000E+000
  0.000000000000000E+000
  0.000000000000000E+000
  0.000000000000000E+000
  0.000000000000000E+000
  0.000000000000000E+000
  0.000000000000000E+000
  0.000000000000000E+000
  0.000000000000000E+000
  0.000000000000000E+000
  0.000000000000000E+000
  0.000000000000000E+000
  0.000000000000000E+000
  0.000000000000000E+000
  0.000000000000000E+000
  0.000000000000000E+000
  0.000000000000000E+000
  0.000000000000000E+000
  0.000000000000000E+000
  0.000000000000000E+000
  0.000000000000000E+000
  0.000000000000000E+000
  0.000000000000000E+000
  0.000000000000000E+000
  0.000000000000000E+000
  0.000000000000000E+000
  0.000000000000000E+000
  0.000000000000000E+000
  0.000000000000000E+000
  0.000000000000000E+000
  0.000000000000000E+000
  0.000000000000000E+000
  0.000000000000000E+000
  0.000000000000000E+000
  0.000000000000000E+000
  0.000000000000000E+000
  0.000000000000000E+000
  0.000000000000000E+000
  0.000000000000000E+000
  0.000000000000000E+000
  0.000000000000000E+000
  0.000000000000000E+000
  0.000000000000000E+000
  0.000000000000000E+000
  0.000000000000000E+000
  0.000000000000000E+000
  0.000000000000000E+000
  0.000000000000000E+000
  0.000000000000000E+000
  0.000000000000000E+000
  0.000000000000000E+000
  0.000000000000000E+000
  0.000000000000000E+000
  0.000000000000000E+000
  0.000000000000000E+000
  0.000000000000000E+000
  0.000000000000000E+000
  0.000000000000000E+000
  0.000000000000000E+000
  0.000000000000000E+000
  0.000000000000000E+000
  0.000000000000000E+000
  0.000000000000000E+000
  0.000000000000000E+000
  0.000000000000000E+000
  0.000000000000000E+000
  0.000000000000000E+000
  0.000000000000000E+000
  0.000000000000000E+000
  0.000000000000000E+000
  0.000000000000000E+000
  0.000000000000000E+000
  0.000000000000000E+000
  0.000000000000000E+000
  0.000000000000000E+000
  0.000000000000000E+000
  0.000000000000000E+000
  0.000000000000000E+000
  0.000000000000000E+000
  0.000000000000000E+000
  0.000000000000000E+000
  0.000000000000000E+000
  0.000000000000000E+000
  0.000000000000000E+000
  0.000000000000000E+000
  0.000000000000000E+000
  0.000000000000000E+000
  0.000000000000000E+000
  0.000000000000000E+000
  0.000000000000000E+000
  0.000000000000000E+000
  0.000000000000000E+000
  0.000000000000000E+000
  0.000000000000000E+000
  0.000000000000000E+000
  0.000000000000000E+000
  0.000000000000000E+000
  0.000000000000000E+000
  0.000000000000000E+000
  0.000000000000000E+000
  0.000000000000000E+000
  0.000000000000000E+000
  0.000000000000000E+000
  0.000000000000000E+000
  0.000000000000000E+000
  0.000000000000000E+000
  0.000000000000000E+000
  0.000000000000000E+000
  0.000000000000000E+000
  0.000000000000000E+000
  0.000000000000000E+000
  0.000000000000000E+000
  0.000000000000000E+000
  0.000000000000000E+000
  0.000000000000000E+000
  0.000000000000000E+000
  0.000000000000000E+000
  0.000000000000000E+000
  0.000000000000000E+000
  0.000000000000000E+000
  0.000000000000000E+000
  0.000000000000000E+000
  0.000000000000000E+000
  0.000000000000000E+000
  0.000000000000000E+000
  0.000000000000000E+000
  0.000000000000000E+000
  0.000000000000000E+000
  0.000000000000000E+000
  0.000000000000000E+000
  0.000000000000000E+000
  0.000000000000000E+000
  0.000000000000000E+000
  0.000000000000000E+000
  0.000000000000000E+000
  0.000000000000000E+000
  0.000000000000000E+000
  0.000000000000000E+000
  0.000000000000000E+000
  0.000000000000000E+000
  0.000000000000000E+000
  0.000000000000000E+000
  0.000000000000000E+000
  0.000000000000000E+000
  0.000000000000000E+000
  0.000000000000000E+000
  0.000000000000000E+000
  0.000000000000000E+000
  0.000000000000000E+000
  0.000000000000000E+000
  0.000000000000000E+000
  0.000000000000000E+000
  0.000000000000000E+000
  0.000000000000000E+000
  0.000000000000000E+000
  0.000000000000000E+000
  0.000000000000000E+000
  0.000000000000000E+000
  0.000000000000000E+000
  0.000000000000000E+000
  0.000000000000000E+000
  0.000000000000000E+000
  0.000000000000000E+000
  0.000000000000000E+000
  0.000000000000000E+000
  0.000000000000000E+000
  0.000000000000000E+000
  0.000000000000000E+000
  0.000000000000000E+000
  0.000000000000000E+000
  0.000000000000000E+000
  0.000000000000000E+000
  0.000000000000000E+000
  0.000000000000000E+000
  0.000000000000000E+000
  0.000000000000000E+000
  0.000000000000000E+000
  0.000000000000000E+000
  0.000000000000000E+000
  0.000000000000000E+000
  0.000000000000000E+000
  0.000000000000000E+000
  0.000000000000000E+000
  0.000000000000000E+000
  0.000000000000000E+000
  0.000000000000000E+000
  0.000000000000000E+000
  0.000000000000000E+000
  0.000000000000000E+000
  0.000000000000000E+000
  0.000000000000000E+000
  0.000000000000000E+000
  0.000000000000000E+000
  0.000000000000000E+000
  0.000000000000000E+000
  0.000000000000000E+000
  0.000000000000000E+000
  0.000000000000000E+000
  0.000000000000000E+000
  0.000000000000000E+000
  0.000000000000000E+000
  0.000000000000000E+000
  0.000000000000000E+000
  0.000000000000000E+000
  0.000000000000000E+000
  0.000000000000000E+000
  0.000000000000000E+000
  0.000000000000000E+000
  0.000000000000000E+000
  0.000000000000000E+000
  0.000000000000000E+000
  0.000000000000000E+000
  0.000000000000000E+000
  0.000000000000000E+000
  0.000000000000000E+000
  0.000000000000000E+000
  0.000000000000000E+000
  0.000000000000000E+000
  0.000000000000000E+000
  0.000000000000000E+000
  0.000000000000000E+000
  0.000000000000000E+000
  0.000000000000000E+000
  0.000000000000000E+000
  0.000000000000000E+000
  0.000000000000000E+000
  0.000000000000000E+000
  0.000000000000000E+000
  0.000000000000000E+000
  0.000000000000000E+000
  0.000000000000000E+000
  0.000000000000000E+000
  0.000000000000000E+000
  0.000000000000000E+000
  0.000000000000000E+000
  0.000000000000000E+000
  0.000000000000000E+000
  0.000000000000000E+000
  0.000000000000000E+000
  0.000000000000000E+000
  0.000000000000000E+000
  0.000000000000000E+000
  0.000000000000000E+000
  0.000000000000000E+000
  0.000000000000000E+000
  0.000000000000000E+000
  0.000000000000000E+000
  0.000000000000000E+000
  0.000000000000000E+000
  0.000000000000000E+000
  0.000000000000000E+000
  0.000000000000000E+000
  0.000000000000000E+000
  0.000000000000000E+000
  0.000000000000000E+000
  0.000000000000000E+000
  0.000000000000000E+000
  0.000000000000000E+000
  0.000000000000000E+000
  0.000000000000000E+000
  0.000000000000000E+000
  0.000000000000000E+000
  0.000000000000000E+000
  0.000000000000000E+000
  0.000000000000000E+000
  0.000000000000000E+000
  0.000000000000000E+000
  0.000000000000000E+000
  0.000000000000000E+000
  0.000000000000000E+000
  0.000000000000000E+000
  0.000000000000000E+000
  0.000000000000000E+000
  0.000000000000000E+000
  0.000000000000000E+000
  0.000000000000000E+000
  0.000000000000000E+000
  0.000000000000000E+000
  0.000000000000000E+000
  0.000000000000000E+000
  0.000000000000000E+000
  0.000000000000000E+000
  0.000000000000000E+000
  0.000000000000000E+000
  0.000000000000000E+000
  0.000000000000000E+000
  0.000000000000000E+000
  0.000000000000000E+000
  0.000000000000000E+000
  0.000000000000000E+000
  0.000000000000000E+000
  0.000000000000000E+000
  0.000000000000000E+000
  0.000000000000000E+000
  0.000000000000000E+000
  0.000000000000000E+000
  0.000000000000000E+000
  0.000000000000000E+000
  0.000000000000000E+000
  0.000000000000000E+000
  0.000000000000000E+000
  0.000000000000000E+000
  0.000000000000000E+000
  0.000000000000000E+000
  0.000000000000000E+000
  0.000000000000000E+000
  0.000000000000000E+000
  0.000000000000000E+000
  0.000000000000000E+000
  0.000000000000000E+000
  0.000000000000000E+000
  0.000000000000000E+000
  0.000000000000000E+000
  0.000000000000000E+000
  0.000000000000000E+000
  0.000000000000000E+000
  0.000000000000000E+000
  0.000000000000000E+000
  0.000000000000000E+000
  0.000000000000000E+000
  0.000000000000000E+000
  0.000000000000000E+000
  0.000000000000000E+000
  0.000000000000000E+000
  0.000000000000000E+000
  0.000000000000000E+000
  0.000000000000000E+000
  0.000000000000000E+000
  0.000000000000000E+000
  0.000000000000000E+000
  0.000000000000000E+000
  0.000000000000000E+000
  0.000000000000000E+000
  0.000000000000000E+000
  0.000000000000000E+000
  0.000000000000000E+000
  0.000000000000000E+000
  0.000000000000000E+000
  0.000000000000000E+000
  0.000000000000000E+000
  0.000000000000000E+000
  0.000000000000000E+000
  0.000000000000000E+000
  0.000000000000000E+000
  0.000000000000000E+000
  0.000000000000000E+000
  0.000000000000000E+000
  0.000000000000000E+000
  0.000000000000000E+000
  0.000000000000000E+000
  0.000000000000000E+000
  0.000000000000000E+000
  0.000000000000000E+000
  0.000000000000000E+000
  0.000000000000000E+000
  0.000000000000000E+000
  0.000000000000000E+000
  0.000000000000000E+000
  0.000000000000000E+000
  0.000000000000000E+000
  0.000000000000000E+000
  0.000000000000000E+000
  0.000000000000000E+000
  0.000000000000000E+000
  0.000000000000000E+000
  0.000000000000000E+000
  0.000000000000000E+000
  0.000000000000000E+000
  0.000000000000000E+000
  0.000000000000000E+000
  0.000000000000000E+000
  0.000000000000000E+000
  0.000000000000000E+000
  0.000000000000000E+000
  0.000000000000000E+000
  0.000000000000000E+000
  0.000000000000000E+000
  0.000000000000000E+000
  0.000000000000000E+000
  0.000000000000000E+000
  0.000000000000000E+000
  0.000000000000000E+000
  0.000000000000000E+000
  0.000000000000000E+000
  0.000000000000000E+000
  0.000000000000000E+000
  0.000000000000000E+000
  0.000000000000000E+000
  0.000000000000000E+000
  0.000000000000000E+000
  0.000000000000000E+000
  0.000000000000000E+000
  0.000000000000000E+000
  0.000000000000000E+000
  0.000000000000000E+000
  0.000000000000000E+000
  0.000000000000000E+000
  0.000000000000000E+000
  0.000000000000000E+000
  0.000000000000000E+000
  0.000000000000000E+000
  0.000000000000000E+000
  0.000000000000000E+000
  0.000000000000000E+000
  0.000000000000000E+000
  0.000000000000000E+000
  0.000000000000000E+000
  0.000000000000000E+000
  0.000000000000000E+000
  0.000000000000000E+000
  0.000000000000000E+000
  0.000000000000000E+000
  0.000000000000000E+000
  0.000000000000000E+000
  0.000000000000000E+000
  0.000000000000000E+000
  0.000000000000000E+000
  0.000000000000000E+000
  0.000000000000000E+000
  0.000000000000000E+000
  0.000000000000000E+000
  0.000000000000000E+000
  0.000000000000000E+000
  0.000000000000000E+000
  0.000000000000000E+000
  0.000000000000000E+000
  0.000000000000000E+000
  0.000000000000000E+000
  0.000000000000000E+000
  0.000000000000000E+000
  0.000000000000000E+000
  0.000000000000000E+000
  0.000000000000000E+000
  0.000000000000000E+000
  0.000000000000000E+000
  0.000000000000000E+000
  0.000000000000000E+000
  0.000000000000000E+000
  0.000000000000000E+000
  0.000000000000000E+000
  0.000000000000000E+000
  0.000000000000000E+000
  0.000000000000000E+000
  0.000000000000000E+000
  0.000000000000000E+000
  0.000000000000000E+000
  0.000000000000000E+000
  0.000000000000000E+000
  0.000000000000000E+000
  0.000000000000000E+000
  0.000000000000000E+000
  0.000000000000000E+000
  0.000000000000000E+000
  0.000000000000000E+000
  0.000000000000000E+000
  0.000000000000000E+000
  0.000000000000000E+000
  0.000000000000000E+000
  0.000000000000000E+000
  0.000000000000000E+000
  0.000000000000000E+000
  0.000000000000000E+000
  0.000000000000000E+000
  0.000000000000000E+000
  0.000000000000000E+000
  0.000000000000000E+000
  0.000000000000000E+000
  0.000000000000000E+000
  0.000000000000000E+000
  0.000000000000000E+000
  0.000000000000000E+000
  0.000000000000000E+000
  0.000000000000000E+000
  0.000000000000000E+000
  0.000000000000000E+000
  0.000000000000000E+000
  0.000000000000000E+000
  0.000000000000000E+000
  0.000000000000000E+000
  0.000000000000000E+000
  0.000000000000000E+000
  0.000000000000000E+000
  0.000000000000000E+000
  0.000000000000000E+000
  0.000000000000000E+000
  0.000000000000000E+000
  0.000000000000000E+000
  0.000000000000000E+000
  0.000000000000000E+000
  0.000000000000000E+000
  0.000000000000000E+000
  0.000000000000000E+000
  0.000000000000000E+000
  0.000000000000000E+000
  0.000000000000000E+000
  0.000000000000000E+000
  0.000000000000000E+000
  0.000000000000000E+000
  0.000000000000000E+000
  0.000000000000000E+000
  0.000000000000000E+000
  0.000000000000000E+000
  0.000000000000000E+000
  0.000000000000000E+000
  0.000000000000000E+000
  0.000000000000000E+000
  0.000000000000000E+000
  0.000000000000000E+000
  0.000000000000000E+000
  0.000000000000000E+000
  0.000000000000000E+000
  0.000000000000000E+000
  0.000000000000000E+000
  0.000000000000000E+000
  0.000000000000000E+000
  0.000000000000000E+000
  0.000000000000000E+000
  0.000000000000000E+000
  0.000000000000000E+000
  0.000000000000000E+000
  0.000000000000000E+000
  0.000000000000000E+000
  0.000000000000000E+000
  0.000000000000000E+000
  0.000000000000000E+000
  0.000000000000000E+000
  0.000000000000000E+000
  0.000000000000000E+000
  0.000000000000000E+000
  0.000000000000000E+000
  0.000000000000000E+000
  0.000000000000000E+000
  0.000000000000000E+000
  0.000000000000000E+000
  0.000000000000000E+000
  0.000000000000000E+000
  0.000000000000000E+000
  0.000000000000000E+000
  0.000000000000000E+000
  0.000000000000000E+000
  0.000000000000000E+000
  0.000000000000000E+000
  0.000000000000000E+000
  0.000000000000000E+000
  0.000000000000000E+000
  0.000000000000000E+000
  0.000000000000000E+000
  0.000000000000000E+000
  0.000000000000000E+000
  0.000000000000000E+000
  0.000000000000000E+000
  0.000000000000000E+000
  0.000000000000000E+000
  0.000000000000000E+000
  0.000000000000000E+000
  0.000000000000000E+000
  0.000000000000000E+000
  0.000000000000000E+000
  0.000000000000000E+000
  0.000000000000000E+000
  0.000000000000000E+000
  0.000000000000000E+000
  0.000000000000000E+000
  0.000000000000000E+000
  0.000000000000000E+000
  0.000000000000000E+000
  0.000000000000000E+000
  0.000000000000000E+000
  0.000000000000000E+000
  0.000000000000000E+000
  0.000000000000000E+000
  0.000000000000000E+000
  0.000000000000000E+000
  0.000000000000000E+000
  0.000000000000000E+000
  0.000000000000000E+000
  0.000000000000000E+000
  0.000000000000000E+000
  0.000000000000000E+000
  0.000000000000000E+000
  0.000000000000000E+000
  0.000000000000000E+000
  0.000000000000000E+000
  0.000000000000000E+000
  0.000000000000000E+000
  0.000000000000000E+000
  0.000000000000000E+000
  0.000000000000000E+000
  0.000000000000000E+000
  0.000000000000000E+000
  0.000000000000000E+000
  0.000000000000000E+000
  0.000000000000000E+000
  0.000000000000000E+000
  0.000000000000000E+000
  0.000000000000000E+000
  0.000000000000000E+000
  0.000000000000000E+000
  0.000000000000000E+000
  0.000000000000000E+000
  0.000000000000000E+000
  0.000000000000000E+000
  0.000000000000000E+000
  0.000000000000000E+000
  0.000000000000000E+000
  0.000000000000000E+000
  0.000000000000000E+000
  0.000000000000000E+000
  0.000000000000000E+000
  0.000000000000000E+000
  0.000000000000000E+000
  0.000000000000000E+000
  0.000000000000000E+000
  0.000000000000000E+000
  0.000000000000000E+000
  0.000000000000000E+000
  0.000000000000000E+000
  0.000000000000000E+000
  0.000000000000000E+000
  0.000000000000000E+000
  0.000000000000000E+000
  0.000000000000000E+000
  0.000000000000000E+000
  0.000000000000000E+000
  0.000000000000000E+000
  0.000000000000000E+000
  0.000000000000000E+000
  0.000000000000000E+000
  0.000000000000000E+000
  0.000000000000000E+000
  0.000000000000000E+000
  0.000000000000000E+000
  0.000000000000000E+000
  0.000000000000000E+000
  0.000000000000000E+000
  0.000000000000000E+000
  0.000000000000000E+000
  0.000000000000000E+000
  0.000000000000000E+000
  0.000000000000000E+000
  0.000000000000000E+000
  0.000000000000000E+000
  0.000000000000000E+000
  0.000000000000000E+000
  0.000000000000000E+000
  0.000000000000000E+000
  0.000000000000000E+000
  0.000000000000000E+000
  0.000000000000000E+000
  0.000000000000000E+000
  0.000000000000000E+000
  0.000000000000000E+000
  0.000000000000000E+000
  0.000000000000000E+000
  0.000000000000000E+000
  0.000000000000000E+000
  0.000000000000000E+000
  0.000000000000000E+000
  0.000000000000000E+000
  0.000000000000000E+000
  0.000000000000000E+000
  0.000000000000000E+000
  0.000000000000000E+000
  0.000000000000000E+000
  0.000000000000000E+000
  0.000000000000000E+000
  0.000000000000000E+000
  0.000000000000000E+000
  0.000000000000000E+000
  0.000000000000000E+000
  0.000000000000000E+000
  0.000000000000000E+000
  0.000000000000000E+000
  0.000000000000000E+000
  0.000000000000000E+000
  0.000000000000000E+000
  0.000000000000000E+000
  0.000000000000000E+000
  0.000000000000000E+000
  0.000000000000000E+000
  0.000000000000000E+000
  0.000000000000000E+000
  0.000000000000000E+000
