# vtk DataFile Version 3.0
vtk output
ASCII
DATASET UNSTRUCTURED_GRID
POINTS      5151 double 
  0.00000000E+00  1.00000000E+02  0.00000000E+00
  0.00000000E+00  9.80000000E+01  0.00000000E+00
  0.00000000E+00  9.60000000E+01  0.00000000E+00
  0.00000000E+00  9.40000000E+01  0.00000000E+00
  0.00000000E+00  9.20000000E+01  0.00000000E+00
  0.00000000E+00  9.00000000E+01  0.00000000E+00
  0.00000000E+00  8.80000000E+01  0.00000000E+00
  0.00000000E+00  8.60000000E+01  0.00000000E+00
  0.00000000E+00  8.40000000E+01  0.00000000E+00
  0.00000000E+00  8.20000000E+01  0.00000000E+00
  0.00000000E+00  8.00000000E+01  0.00000000E+00
  0.00000000E+00  7.80000000E+01  0.00000000E+00
  0.00000000E+00  7.60000000E+01  0.00000000E+00
  0.00000000E+00  7.40000000E+01  0.00000000E+00
  0.00000000E+00  7.20000000E+01  0.00000000E+00
  0.00000000E+00  7.00000000E+01  0.00000000E+00
  0.00000000E+00  6.80000000E+01  0.00000000E+00
  0.00000000E+00  6.60000000E+01  0.00000000E+00
  0.00000000E+00  6.40000000E+01  0.00000000E+00
  0.00000000E+00  6.20000000E+01  0.00000000E+00
  0.00000000E+00  6.00000000E+01  0.00000000E+00
  0.00000000E+00  5.80000000E+01  0.00000000E+00
  0.00000000E+00  5.60000000E+01  0.00000000E+00
  0.00000000E+00  5.40000000E+01  0.00000000E+00
  0.00000000E+00  5.20000000E+01  0.00000000E+00
  0.00000000E+00  5.00000000E+01  0.00000000E+00
  0.00000000E+00  4.80000000E+01  0.00000000E+00
  0.00000000E+00  4.60000000E+01  0.00000000E+00
  0.00000000E+00  4.40000000E+01  0.00000000E+00
  0.00000000E+00  4.20000000E+01  0.00000000E+00
  0.00000000E+00  4.00000000E+01  0.00000000E+00
  0.00000000E+00  3.80000000E+01  0.00000000E+00
  0.00000000E+00  3.60000000E+01  0.00000000E+00
  0.00000000E+00  3.40000000E+01  0.00000000E+00
  0.00000000E+00  3.20000000E+01  0.00000000E+00
  0.00000000E+00  3.00000000E+01  0.00000000E+00
  0.00000000E+00  2.80000000E+01  0.00000000E+00
  0.00000000E+00  2.60000000E+01  0.00000000E+00
  0.00000000E+00  2.40000000E+01  0.00000000E+00
  0.00000000E+00  2.20000000E+01  0.00000000E+00
  0.00000000E+00  2.00000000E+01  0.00000000E+00
  0.00000000E+00  1.80000000E+01  0.00000000E+00
  0.00000000E+00  1.60000000E+01  0.00000000E+00
  0.00000000E+00  1.40000000E+01  0.00000000E+00
  0.00000000E+00  1.20000000E+01  0.00000000E+00
  0.00000000E+00  1.00000000E+01  0.00000000E+00
  0.00000000E+00  8.00000000E+00  0.00000000E+00
  0.00000000E+00  6.00000000E+00  0.00000000E+00
  0.00000000E+00  4.00000000E+00  0.00000000E+00
  0.00000000E+00  2.00000000E+00  0.00000000E+00
  0.00000000E+00 -3.33066907E-14  0.00000000E+00
  1.00000000E+01  1.00000000E+02  0.00000000E+00
  1.00000000E+01  9.80000000E+01  0.00000000E+00
  1.00000000E+01  9.60000000E+01  0.00000000E+00
  1.00000000E+01  9.40000000E+01  0.00000000E+00
  1.00000000E+01  9.20000000E+01  0.00000000E+00
  1.00000000E+01  9.00000000E+01  0.00000000E+00
  1.00000000E+01  8.80000000E+01  0.00000000E+00
  1.00000000E+01  8.60000000E+01  0.00000000E+00
  1.00000000E+01  8.40000000E+01  0.00000000E+00
  1.00000000E+01  8.20000000E+01  0.00000000E+00
  1.00000000E+01  8.00000000E+01  0.00000000E+00
  1.00000000E+01  7.80000000E+01  0.00000000E+00
  1.00000000E+01  7.60000000E+01  0.00000000E+00
  1.00000000E+01  7.40000000E+01  0.00000000E+00
  1.00000000E+01  7.20000000E+01  0.00000000E+00
  1.00000000E+01  7.00000000E+01  0.00000000E+00
  1.00000000E+01  6.80000000E+01  0.00000000E+00
  1.00000000E+01  6.60000000E+01  0.00000000E+00
  1.00000000E+01  6.40000000E+01  0.00000000E+00
  1.00000000E+01  6.20000000E+01  0.00000000E+00
  1.00000000E+01  6.00000000E+01  0.00000000E+00
  1.00000000E+01  5.80000000E+01  0.00000000E+00
  1.00000000E+01  5.60000000E+01  0.00000000E+00
  1.00000000E+01  5.40000000E+01  0.00000000E+00
  1.00000000E+01  5.20000000E+01  0.00000000E+00
  1.00000000E+01  5.00000000E+01  0.00000000E+00
  1.00000000E+01  4.80000000E+01  0.00000000E+00
  1.00000000E+01  4.60000000E+01  0.00000000E+00
  1.00000000E+01  4.40000000E+01  0.00000000E+00
  1.00000000E+01  4.20000000E+01  0.00000000E+00
  1.00000000E+01  4.00000000E+01  0.00000000E+00
  1.00000000E+01  3.80000000E+01  0.00000000E+00
  1.00000000E+01  3.60000000E+01  0.00000000E+00
  1.00000000E+01  3.40000000E+01  0.00000000E+00
  1.00000000E+01  3.20000000E+01  0.00000000E+00
  1.00000000E+01  3.00000000E+01  0.00000000E+00
  1.00000000E+01  2.80000000E+01  0.00000000E+00
  1.00000000E+01  2.60000000E+01  0.00000000E+00
  1.00000000E+01  2.40000000E+01  0.00000000E+00
  1.00000000E+01  2.20000000E+01  0.00000000E+00
  1.00000000E+01  2.00000000E+01  0.00000000E+00
  1.00000000E+01  1.80000000E+01  0.00000000E+00
  1.00000000E+01  1.60000000E+01  0.00000000E+00
  1.00000000E+01  1.40000000E+01  0.00000000E+00
  1.00000000E+01  1.20000000E+01  0.00000000E+00
  1.00000000E+01  1.00000000E+01  0.00000000E+00
  1.00000000E+01  8.00000000E+00  0.00000000E+00
  1.00000000E+01  6.00000000E+00  0.00000000E+00
  1.00000000E+01  4.00000000E+00  0.00000000E+00
  1.00000000E+01  2.00000000E+00  0.00000000E+00
  1.00000000E+01 -3.33066907E-14  0.00000000E+00
  2.00000000E+01  1.00000000E+02  0.00000000E+00
  2.00000000E+01  9.80000000E+01  0.00000000E+00
  2.00000000E+01  9.60000000E+01  0.00000000E+00
  2.00000000E+01  9.40000000E+01  0.00000000E+00
  2.00000000E+01  9.20000000E+01  0.00000000E+00
  2.00000000E+01  9.00000000E+01  0.00000000E+00
  2.00000000E+01  8.80000000E+01  0.00000000E+00
  2.00000000E+01  8.60000000E+01  0.00000000E+00
  2.00000000E+01  8.40000000E+01  0.00000000E+00
  2.00000000E+01  8.20000000E+01  0.00000000E+00
  2.00000000E+01  8.00000000E+01  0.00000000E+00
  2.00000000E+01  7.80000000E+01  0.00000000E+00
  2.00000000E+01  7.60000000E+01  0.00000000E+00
  2.00000000E+01  7.40000000E+01  0.00000000E+00
  2.00000000E+01  7.20000000E+01  0.00000000E+00
  2.00000000E+01  7.00000000E+01  0.00000000E+00
  2.00000000E+01  6.80000000E+01  0.00000000E+00
  2.00000000E+01  6.60000000E+01  0.00000000E+00
  2.00000000E+01  6.40000000E+01  0.00000000E+00
  2.00000000E+01  6.20000000E+01  0.00000000E+00
  2.00000000E+01  6.00000000E+01  0.00000000E+00
  2.00000000E+01  5.80000000E+01  0.00000000E+00
  2.00000000E+01  5.60000000E+01  0.00000000E+00
  2.00000000E+01  5.40000000E+01  0.00000000E+00
  2.00000000E+01  5.20000000E+01  0.00000000E+00
  2.00000000E+01  5.00000000E+01  0.00000000E+00
  2.00000000E+01  4.80000000E+01  0.00000000E+00
  2.00000000E+01  4.60000000E+01  0.00000000E+00
  2.00000000E+01  4.40000000E+01  0.00000000E+00
  2.00000000E+01  4.20000000E+01  0.00000000E+00
  2.00000000E+01  4.00000000E+01  0.00000000E+00
  2.00000000E+01  3.80000000E+01  0.00000000E+00
  2.00000000E+01  3.60000000E+01  0.00000000E+00
  2.00000000E+01  3.40000000E+01  0.00000000E+00
  2.00000000E+01  3.20000000E+01  0.00000000E+00
  2.00000000E+01  3.00000000E+01  0.00000000E+00
  2.00000000E+01  2.80000000E+01  0.00000000E+00
  2.00000000E+01  2.60000000E+01  0.00000000E+00
  2.00000000E+01  2.40000000E+01  0.00000000E+00
  2.00000000E+01  2.20000000E+01  0.00000000E+00
  2.00000000E+01  2.00000000E+01  0.00000000E+00
  2.00000000E+01  1.80000000E+01  0.00000000E+00
  2.00000000E+01  1.60000000E+01  0.00000000E+00
  2.00000000E+01  1.40000000E+01  0.00000000E+00
  2.00000000E+01  1.20000000E+01  0.00000000E+00
  2.00000000E+01  1.00000000E+01  0.00000000E+00
  2.00000000E+01  8.00000000E+00  0.00000000E+00
  2.00000000E+01  6.00000000E+00  0.00000000E+00
  2.00000000E+01  4.00000000E+00  0.00000000E+00
  2.00000000E+01  2.00000000E+00  0.00000000E+00
  2.00000000E+01 -3.33066907E-14  0.00000000E+00
  3.00000000E+01  1.00000000E+02  0.00000000E+00
  3.00000000E+01  9.80000000E+01  0.00000000E+00
  3.00000000E+01  9.60000000E+01  0.00000000E+00
  3.00000000E+01  9.40000000E+01  0.00000000E+00
  3.00000000E+01  9.20000000E+01  0.00000000E+00
  3.00000000E+01  9.00000000E+01  0.00000000E+00
  3.00000000E+01  8.80000000E+01  0.00000000E+00
  3.00000000E+01  8.60000000E+01  0.00000000E+00
  3.00000000E+01  8.40000000E+01  0.00000000E+00
  3.00000000E+01  8.20000000E+01  0.00000000E+00
  3.00000000E+01  8.00000000E+01  0.00000000E+00
  3.00000000E+01  7.80000000E+01  0.00000000E+00
  3.00000000E+01  7.60000000E+01  0.00000000E+00
  3.00000000E+01  7.40000000E+01  0.00000000E+00
  3.00000000E+01  7.20000000E+01  0.00000000E+00
  3.00000000E+01  7.00000000E+01  0.00000000E+00
  3.00000000E+01  6.80000000E+01  0.00000000E+00
  3.00000000E+01  6.60000000E+01  0.00000000E+00
  3.00000000E+01  6.40000000E+01  0.00000000E+00
  3.00000000E+01  6.20000000E+01  0.00000000E+00
  3.00000000E+01  6.00000000E+01  0.00000000E+00
  3.00000000E+01  5.80000000E+01  0.00000000E+00
  3.00000000E+01  5.60000000E+01  0.00000000E+00
  3.00000000E+01  5.40000000E+01  0.00000000E+00
  3.00000000E+01  5.20000000E+01  0.00000000E+00
  3.00000000E+01  5.00000000E+01  0.00000000E+00
  3.00000000E+01  4.80000000E+01  0.00000000E+00
  3.00000000E+01  4.60000000E+01  0.00000000E+00
  3.00000000E+01  4.40000000E+01  0.00000000E+00
  3.00000000E+01  4.20000000E+01  0.00000000E+00
  3.00000000E+01  4.00000000E+01  0.00000000E+00
  3.00000000E+01  3.80000000E+01  0.00000000E+00
  3.00000000E+01  3.60000000E+01  0.00000000E+00
  3.00000000E+01  3.40000000E+01  0.00000000E+00
  3.00000000E+01  3.20000000E+01  0.00000000E+00
  3.00000000E+01  3.00000000E+01  0.00000000E+00
  3.00000000E+01  2.80000000E+01  0.00000000E+00
  3.00000000E+01  2.60000000E+01  0.00000000E+00
  3.00000000E+01  2.40000000E+01  0.00000000E+00
  3.00000000E+01  2.20000000E+01  0.00000000E+00
  3.00000000E+01  2.00000000E+01  0.00000000E+00
  3.00000000E+01  1.80000000E+01  0.00000000E+00
  3.00000000E+01  1.60000000E+01  0.00000000E+00
  3.00000000E+01  1.40000000E+01  0.00000000E+00
  3.00000000E+01  1.20000000E+01  0.00000000E+00
  3.00000000E+01  1.00000000E+01  0.00000000E+00
  3.00000000E+01  8.00000000E+00  0.00000000E+00
  3.00000000E+01  6.00000000E+00  0.00000000E+00
  3.00000000E+01  4.00000000E+00  0.00000000E+00
  3.00000000E+01  2.00000000E+00  0.00000000E+00
  3.00000000E+01 -3.33066907E-14  0.00000000E+00
  4.00000000E+01  1.00000000E+02  0.00000000E+00
  4.00000000E+01  9.80000000E+01  0.00000000E+00
  4.00000000E+01  9.60000000E+01  0.00000000E+00
  4.00000000E+01  9.40000000E+01  0.00000000E+00
  4.00000000E+01  9.20000000E+01  0.00000000E+00
  4.00000000E+01  9.00000000E+01  0.00000000E+00
  4.00000000E+01  8.80000000E+01  0.00000000E+00
  4.00000000E+01  8.60000000E+01  0.00000000E+00
  4.00000000E+01  8.40000000E+01  0.00000000E+00
  4.00000000E+01  8.20000000E+01  0.00000000E+00
  4.00000000E+01  8.00000000E+01  0.00000000E+00
  4.00000000E+01  7.80000000E+01  0.00000000E+00
  4.00000000E+01  7.60000000E+01  0.00000000E+00
  4.00000000E+01  7.40000000E+01  0.00000000E+00
  4.00000000E+01  7.20000000E+01  0.00000000E+00
  4.00000000E+01  7.00000000E+01  0.00000000E+00
  4.00000000E+01  6.80000000E+01  0.00000000E+00
  4.00000000E+01  6.60000000E+01  0.00000000E+00
  4.00000000E+01  6.40000000E+01  0.00000000E+00
  4.00000000E+01  6.20000000E+01  0.00000000E+00
  4.00000000E+01  6.00000000E+01  0.00000000E+00
  4.00000000E+01  5.80000000E+01  0.00000000E+00
  4.00000000E+01  5.60000000E+01  0.00000000E+00
  4.00000000E+01  5.40000000E+01  0.00000000E+00
  4.00000000E+01  5.20000000E+01  0.00000000E+00
  4.00000000E+01  5.00000000E+01  0.00000000E+00
  4.00000000E+01  4.80000000E+01  0.00000000E+00
  4.00000000E+01  4.60000000E+01  0.00000000E+00
  4.00000000E+01  4.40000000E+01  0.00000000E+00
  4.00000000E+01  4.20000000E+01  0.00000000E+00
  4.00000000E+01  4.00000000E+01  0.00000000E+00
  4.00000000E+01  3.80000000E+01  0.00000000E+00
  4.00000000E+01  3.60000000E+01  0.00000000E+00
  4.00000000E+01  3.40000000E+01  0.00000000E+00
  4.00000000E+01  3.20000000E+01  0.00000000E+00
  4.00000000E+01  3.00000000E+01  0.00000000E+00
  4.00000000E+01  2.80000000E+01  0.00000000E+00
  4.00000000E+01  2.60000000E+01  0.00000000E+00
  4.00000000E+01  2.40000000E+01  0.00000000E+00
  4.00000000E+01  2.20000000E+01  0.00000000E+00
  4.00000000E+01  2.00000000E+01  0.00000000E+00
  4.00000000E+01  1.80000000E+01  0.00000000E+00
  4.00000000E+01  1.60000000E+01  0.00000000E+00
  4.00000000E+01  1.40000000E+01  0.00000000E+00
  4.00000000E+01  1.20000000E+01  0.00000000E+00
  4.00000000E+01  1.00000000E+01  0.00000000E+00
  4.00000000E+01  8.00000000E+00  0.00000000E+00
  4.00000000E+01  6.00000000E+00  0.00000000E+00
  4.00000000E+01  4.00000000E+00  0.00000000E+00
  4.00000000E+01  2.00000000E+00  0.00000000E+00
  4.00000000E+01 -3.33066907E-14  0.00000000E+00
  5.00000000E+01  1.00000000E+02  0.00000000E+00
  5.00000000E+01  9.80000000E+01  0.00000000E+00
  5.00000000E+01  9.60000000E+01  0.00000000E+00
  5.00000000E+01  9.40000000E+01  0.00000000E+00
  5.00000000E+01  9.20000000E+01  0.00000000E+00
  5.00000000E+01  9.00000000E+01  0.00000000E+00
  5.00000000E+01  8.80000000E+01  0.00000000E+00
  5.00000000E+01  8.60000000E+01  0.00000000E+00
  5.00000000E+01  8.40000000E+01  0.00000000E+00
  5.00000000E+01  8.20000000E+01  0.00000000E+00
  5.00000000E+01  8.00000000E+01  0.00000000E+00
  5.00000000E+01  7.80000000E+01  0.00000000E+00
  5.00000000E+01  7.60000000E+01  0.00000000E+00
  5.00000000E+01  7.40000000E+01  0.00000000E+00
  5.00000000E+01  7.20000000E+01  0.00000000E+00
  5.00000000E+01  7.00000000E+01  0.00000000E+00
  5.00000000E+01  6.80000000E+01  0.00000000E+00
  5.00000000E+01  6.60000000E+01  0.00000000E+00
  5.00000000E+01  6.40000000E+01  0.00000000E+00
  5.00000000E+01  6.20000000E+01  0.00000000E+00
  5.00000000E+01  6.00000000E+01  0.00000000E+00
  5.00000000E+01  5.80000000E+01  0.00000000E+00
  5.00000000E+01  5.60000000E+01  0.00000000E+00
  5.00000000E+01  5.40000000E+01  0.00000000E+00
  5.00000000E+01  5.20000000E+01  0.00000000E+00
  5.00000000E+01  5.00000000E+01  0.00000000E+00
  5.00000000E+01  4.80000000E+01  0.00000000E+00
  5.00000000E+01  4.60000000E+01  0.00000000E+00
  5.00000000E+01  4.40000000E+01  0.00000000E+00
  5.00000000E+01  4.20000000E+01  0.00000000E+00
  5.00000000E+01  4.00000000E+01  0.00000000E+00
  5.00000000E+01  3.80000000E+01  0.00000000E+00
  5.00000000E+01  3.60000000E+01  0.00000000E+00
  5.00000000E+01  3.40000000E+01  0.00000000E+00
  5.00000000E+01  3.20000000E+01  0.00000000E+00
  5.00000000E+01  3.00000000E+01  0.00000000E+00
  5.00000000E+01  2.80000000E+01  0.00000000E+00
  5.00000000E+01  2.60000000E+01  0.00000000E+00
  5.00000000E+01  2.40000000E+01  0.00000000E+00
  5.00000000E+01  2.20000000E+01  0.00000000E+00
  5.00000000E+01  2.00000000E+01  0.00000000E+00
  5.00000000E+01  1.80000000E+01  0.00000000E+00
  5.00000000E+01  1.60000000E+01  0.00000000E+00
  5.00000000E+01  1.40000000E+01  0.00000000E+00
  5.00000000E+01  1.20000000E+01  0.00000000E+00
  5.00000000E+01  1.00000000E+01  0.00000000E+00
  5.00000000E+01  8.00000000E+00  0.00000000E+00
  5.00000000E+01  6.00000000E+00  0.00000000E+00
  5.00000000E+01  4.00000000E+00  0.00000000E+00
  5.00000000E+01  2.00000000E+00  0.00000000E+00
  5.00000000E+01 -3.33066907E-14  0.00000000E+00
  6.00000000E+01  1.00000000E+02  0.00000000E+00
  6.00000000E+01  9.80000000E+01  0.00000000E+00
  6.00000000E+01  9.60000000E+01  0.00000000E+00
  6.00000000E+01  9.40000000E+01  0.00000000E+00
  6.00000000E+01  9.20000000E+01  0.00000000E+00
  6.00000000E+01  9.00000000E+01  0.00000000E+00
  6.00000000E+01  8.80000000E+01  0.00000000E+00
  6.00000000E+01  8.60000000E+01  0.00000000E+00
  6.00000000E+01  8.40000000E+01  0.00000000E+00
  6.00000000E+01  8.20000000E+01  0.00000000E+00
  6.00000000E+01  8.00000000E+01  0.00000000E+00
  6.00000000E+01  7.80000000E+01  0.00000000E+00
  6.00000000E+01  7.60000000E+01  0.00000000E+00
  6.00000000E+01  7.40000000E+01  0.00000000E+00
  6.00000000E+01  7.20000000E+01  0.00000000E+00
  6.00000000E+01  7.00000000E+01  0.00000000E+00
  6.00000000E+01  6.80000000E+01  0.00000000E+00
  6.00000000E+01  6.60000000E+01  0.00000000E+00
  6.00000000E+01  6.40000000E+01  0.00000000E+00
  6.00000000E+01  6.20000000E+01  0.00000000E+00
  6.00000000E+01  6.00000000E+01  0.00000000E+00
  6.00000000E+01  5.80000000E+01  0.00000000E+00
  6.00000000E+01  5.60000000E+01  0.00000000E+00
  6.00000000E+01  5.40000000E+01  0.00000000E+00
  6.00000000E+01  5.20000000E+01  0.00000000E+00
  6.00000000E+01  5.00000000E+01  0.00000000E+00
  6.00000000E+01  4.80000000E+01  0.00000000E+00
  6.00000000E+01  4.60000000E+01  0.00000000E+00
  6.00000000E+01  4.40000000E+01  0.00000000E+00
  6.00000000E+01  4.20000000E+01  0.00000000E+00
  6.00000000E+01  4.00000000E+01  0.00000000E+00
  6.00000000E+01  3.80000000E+01  0.00000000E+00
  6.00000000E+01  3.60000000E+01  0.00000000E+00
  6.00000000E+01  3.40000000E+01  0.00000000E+00
  6.00000000E+01  3.20000000E+01  0.00000000E+00
  6.00000000E+01  3.00000000E+01  0.00000000E+00
  6.00000000E+01  2.80000000E+01  0.00000000E+00
  6.00000000E+01  2.60000000E+01  0.00000000E+00
  6.00000000E+01  2.40000000E+01  0.00000000E+00
  6.00000000E+01  2.20000000E+01  0.00000000E+00
  6.00000000E+01  2.00000000E+01  0.00000000E+00
  6.00000000E+01  1.80000000E+01  0.00000000E+00
  6.00000000E+01  1.60000000E+01  0.00000000E+00
  6.00000000E+01  1.40000000E+01  0.00000000E+00
  6.00000000E+01  1.20000000E+01  0.00000000E+00
  6.00000000E+01  1.00000000E+01  0.00000000E+00
  6.00000000E+01  8.00000000E+00  0.00000000E+00
  6.00000000E+01  6.00000000E+00  0.00000000E+00
  6.00000000E+01  4.00000000E+00  0.00000000E+00
  6.00000000E+01  2.00000000E+00  0.00000000E+00
  6.00000000E+01 -3.33066907E-14  0.00000000E+00
  7.00000000E+01  1.00000000E+02  0.00000000E+00
  7.00000000E+01  9.80000000E+01  0.00000000E+00
  7.00000000E+01  9.60000000E+01  0.00000000E+00
  7.00000000E+01  9.40000000E+01  0.00000000E+00
  7.00000000E+01  9.20000000E+01  0.00000000E+00
  7.00000000E+01  9.00000000E+01  0.00000000E+00
  7.00000000E+01  8.80000000E+01  0.00000000E+00
  7.00000000E+01  8.60000000E+01  0.00000000E+00
  7.00000000E+01  8.40000000E+01  0.00000000E+00
  7.00000000E+01  8.20000000E+01  0.00000000E+00
  7.00000000E+01  8.00000000E+01  0.00000000E+00
  7.00000000E+01  7.80000000E+01  0.00000000E+00
  7.00000000E+01  7.60000000E+01  0.00000000E+00
  7.00000000E+01  7.40000000E+01  0.00000000E+00
  7.00000000E+01  7.20000000E+01  0.00000000E+00
  7.00000000E+01  7.00000000E+01  0.00000000E+00
  7.00000000E+01  6.80000000E+01  0.00000000E+00
  7.00000000E+01  6.60000000E+01  0.00000000E+00
  7.00000000E+01  6.40000000E+01  0.00000000E+00
  7.00000000E+01  6.20000000E+01  0.00000000E+00
  7.00000000E+01  6.00000000E+01  0.00000000E+00
  7.00000000E+01  5.80000000E+01  0.00000000E+00
  7.00000000E+01  5.60000000E+01  0.00000000E+00
  7.00000000E+01  5.40000000E+01  0.00000000E+00
  7.00000000E+01  5.20000000E+01  0.00000000E+00
  7.00000000E+01  5.00000000E+01  0.00000000E+00
  7.00000000E+01  4.80000000E+01  0.00000000E+00
  7.00000000E+01  4.60000000E+01  0.00000000E+00
  7.00000000E+01  4.40000000E+01  0.00000000E+00
  7.00000000E+01  4.20000000E+01  0.00000000E+00
  7.00000000E+01  4.00000000E+01  0.00000000E+00
  7.00000000E+01  3.80000000E+01  0.00000000E+00
  7.00000000E+01  3.60000000E+01  0.00000000E+00
  7.00000000E+01  3.40000000E+01  0.00000000E+00
  7.00000000E+01  3.20000000E+01  0.00000000E+00
  7.00000000E+01  3.00000000E+01  0.00000000E+00
  7.00000000E+01  2.80000000E+01  0.00000000E+00
  7.00000000E+01  2.60000000E+01  0.00000000E+00
  7.00000000E+01  2.40000000E+01  0.00000000E+00
  7.00000000E+01  2.20000000E+01  0.00000000E+00
  7.00000000E+01  2.00000000E+01  0.00000000E+00
  7.00000000E+01  1.80000000E+01  0.00000000E+00
  7.00000000E+01  1.60000000E+01  0.00000000E+00
  7.00000000E+01  1.40000000E+01  0.00000000E+00
  7.00000000E+01  1.20000000E+01  0.00000000E+00
  7.00000000E+01  1.00000000E+01  0.00000000E+00
  7.00000000E+01  8.00000000E+00  0.00000000E+00
  7.00000000E+01  6.00000000E+00  0.00000000E+00
  7.00000000E+01  4.00000000E+00  0.00000000E+00
  7.00000000E+01  2.00000000E+00  0.00000000E+00
  7.00000000E+01 -3.33066907E-14  0.00000000E+00
  8.00000000E+01  1.00000000E+02  0.00000000E+00
  8.00000000E+01  9.80000000E+01  0.00000000E+00
  8.00000000E+01  9.60000000E+01  0.00000000E+00
  8.00000000E+01  9.40000000E+01  0.00000000E+00
  8.00000000E+01  9.20000000E+01  0.00000000E+00
  8.00000000E+01  9.00000000E+01  0.00000000E+00
  8.00000000E+01  8.80000000E+01  0.00000000E+00
  8.00000000E+01  8.60000000E+01  0.00000000E+00
  8.00000000E+01  8.40000000E+01  0.00000000E+00
  8.00000000E+01  8.20000000E+01  0.00000000E+00
  8.00000000E+01  8.00000000E+01  0.00000000E+00
  8.00000000E+01  7.80000000E+01  0.00000000E+00
  8.00000000E+01  7.60000000E+01  0.00000000E+00
  8.00000000E+01  7.40000000E+01  0.00000000E+00
  8.00000000E+01  7.20000000E+01  0.00000000E+00
  8.00000000E+01  7.00000000E+01  0.00000000E+00
  8.00000000E+01  6.80000000E+01  0.00000000E+00
  8.00000000E+01  6.60000000E+01  0.00000000E+00
  8.00000000E+01  6.40000000E+01  0.00000000E+00
  8.00000000E+01  6.20000000E+01  0.00000000E+00
  8.00000000E+01  6.00000000E+01  0.00000000E+00
  8.00000000E+01  5.80000000E+01  0.00000000E+00
  8.00000000E+01  5.60000000E+01  0.00000000E+00
  8.00000000E+01  5.40000000E+01  0.00000000E+00
  8.00000000E+01  5.20000000E+01  0.00000000E+00
  8.00000000E+01  5.00000000E+01  0.00000000E+00
  8.00000000E+01  4.80000000E+01  0.00000000E+00
  8.00000000E+01  4.60000000E+01  0.00000000E+00
  8.00000000E+01  4.40000000E+01  0.00000000E+00
  8.00000000E+01  4.20000000E+01  0.00000000E+00
  8.00000000E+01  4.00000000E+01  0.00000000E+00
  8.00000000E+01  3.80000000E+01  0.00000000E+00
  8.00000000E+01  3.60000000E+01  0.00000000E+00
  8.00000000E+01  3.40000000E+01  0.00000000E+00
  8.00000000E+01  3.20000000E+01  0.00000000E+00
  8.00000000E+01  3.00000000E+01  0.00000000E+00
  8.00000000E+01  2.80000000E+01  0.00000000E+00
  8.00000000E+01  2.60000000E+01  0.00000000E+00
  8.00000000E+01  2.40000000E+01  0.00000000E+00
  8.00000000E+01  2.20000000E+01  0.00000000E+00
  8.00000000E+01  2.00000000E+01  0.00000000E+00
  8.00000000E+01  1.80000000E+01  0.00000000E+00
  8.00000000E+01  1.60000000E+01  0.00000000E+00
  8.00000000E+01  1.40000000E+01  0.00000000E+00
  8.00000000E+01  1.20000000E+01  0.00000000E+00
  8.00000000E+01  1.00000000E+01  0.00000000E+00
  8.00000000E+01  8.00000000E+00  0.00000000E+00
  8.00000000E+01  6.00000000E+00  0.00000000E+00
  8.00000000E+01  4.00000000E+00  0.00000000E+00
  8.00000000E+01  2.00000000E+00  0.00000000E+00
  8.00000000E+01 -3.33066907E-14  0.00000000E+00
  9.00000000E+01  1.00000000E+02  0.00000000E+00
  9.00000000E+01  9.80000000E+01  0.00000000E+00
  9.00000000E+01  9.60000000E+01  0.00000000E+00
  9.00000000E+01  9.40000000E+01  0.00000000E+00
  9.00000000E+01  9.20000000E+01  0.00000000E+00
  9.00000000E+01  9.00000000E+01  0.00000000E+00
  9.00000000E+01  8.80000000E+01  0.00000000E+00
  9.00000000E+01  8.60000000E+01  0.00000000E+00
  9.00000000E+01  8.40000000E+01  0.00000000E+00
  9.00000000E+01  8.20000000E+01  0.00000000E+00
  9.00000000E+01  8.00000000E+01  0.00000000E+00
  9.00000000E+01  7.80000000E+01  0.00000000E+00
  9.00000000E+01  7.60000000E+01  0.00000000E+00
  9.00000000E+01  7.40000000E+01  0.00000000E+00
  9.00000000E+01  7.20000000E+01  0.00000000E+00
  9.00000000E+01  7.00000000E+01  0.00000000E+00
  9.00000000E+01  6.80000000E+01  0.00000000E+00
  9.00000000E+01  6.60000000E+01  0.00000000E+00
  9.00000000E+01  6.40000000E+01  0.00000000E+00
  9.00000000E+01  6.20000000E+01  0.00000000E+00
  9.00000000E+01  6.00000000E+01  0.00000000E+00
  9.00000000E+01  5.80000000E+01  0.00000000E+00
  9.00000000E+01  5.60000000E+01  0.00000000E+00
  9.00000000E+01  5.40000000E+01  0.00000000E+00
  9.00000000E+01  5.20000000E+01  0.00000000E+00
  9.00000000E+01  5.00000000E+01  0.00000000E+00
  9.00000000E+01  4.80000000E+01  0.00000000E+00
  9.00000000E+01  4.60000000E+01  0.00000000E+00
  9.00000000E+01  4.40000000E+01  0.00000000E+00
  9.00000000E+01  4.20000000E+01  0.00000000E+00
  9.00000000E+01  4.00000000E+01  0.00000000E+00
  9.00000000E+01  3.80000000E+01  0.00000000E+00
  9.00000000E+01  3.60000000E+01  0.00000000E+00
  9.00000000E+01  3.40000000E+01  0.00000000E+00
  9.00000000E+01  3.20000000E+01  0.00000000E+00
  9.00000000E+01  3.00000000E+01  0.00000000E+00
  9.00000000E+01  2.80000000E+01  0.00000000E+00
  9.00000000E+01  2.60000000E+01  0.00000000E+00
  9.00000000E+01  2.40000000E+01  0.00000000E+00
  9.00000000E+01  2.20000000E+01  0.00000000E+00
  9.00000000E+01  2.00000000E+01  0.00000000E+00
  9.00000000E+01  1.80000000E+01  0.00000000E+00
  9.00000000E+01  1.60000000E+01  0.00000000E+00
  9.00000000E+01  1.40000000E+01  0.00000000E+00
  9.00000000E+01  1.20000000E+01  0.00000000E+00
  9.00000000E+01  1.00000000E+01  0.00000000E+00
  9.00000000E+01  8.00000000E+00  0.00000000E+00
  9.00000000E+01  6.00000000E+00  0.00000000E+00
  9.00000000E+01  4.00000000E+00  0.00000000E+00
  9.00000000E+01  2.00000000E+00  0.00000000E+00
  9.00000000E+01 -3.33066907E-14  0.00000000E+00
  1.00000000E+02  1.00000000E+02  0.00000000E+00
  1.00000000E+02  9.80000000E+01  0.00000000E+00
  1.00000000E+02  9.60000000E+01  0.00000000E+00
  1.00000000E+02  9.40000000E+01  0.00000000E+00
  1.00000000E+02  9.20000000E+01  0.00000000E+00
  1.00000000E+02  9.00000000E+01  0.00000000E+00
  1.00000000E+02  8.80000000E+01  0.00000000E+00
  1.00000000E+02  8.60000000E+01  0.00000000E+00
  1.00000000E+02  8.40000000E+01  0.00000000E+00
  1.00000000E+02  8.20000000E+01  0.00000000E+00
  1.00000000E+02  8.00000000E+01  0.00000000E+00
  1.00000000E+02  7.80000000E+01  0.00000000E+00
  1.00000000E+02  7.60000000E+01  0.00000000E+00
  1.00000000E+02  7.40000000E+01  0.00000000E+00
  1.00000000E+02  7.20000000E+01  0.00000000E+00
  1.00000000E+02  7.00000000E+01  0.00000000E+00
  1.00000000E+02  6.80000000E+01  0.00000000E+00
  1.00000000E+02  6.60000000E+01  0.00000000E+00
  1.00000000E+02  6.40000000E+01  0.00000000E+00
  1.00000000E+02  6.20000000E+01  0.00000000E+00
  1.00000000E+02  6.00000000E+01  0.00000000E+00
  1.00000000E+02  5.80000000E+01  0.00000000E+00
  1.00000000E+02  5.60000000E+01  0.00000000E+00
  1.00000000E+02  5.40000000E+01  0.00000000E+00
  1.00000000E+02  5.20000000E+01  0.00000000E+00
  1.00000000E+02  5.00000000E+01  0.00000000E+00
  1.00000000E+02  4.80000000E+01  0.00000000E+00
  1.00000000E+02  4.60000000E+01  0.00000000E+00
  1.00000000E+02  4.40000000E+01  0.00000000E+00
  1.00000000E+02  4.20000000E+01  0.00000000E+00
  1.00000000E+02  4.00000000E+01  0.00000000E+00
  1.00000000E+02  3.80000000E+01  0.00000000E+00
  1.00000000E+02  3.60000000E+01  0.00000000E+00
  1.00000000E+02  3.40000000E+01  0.00000000E+00
  1.00000000E+02  3.20000000E+01  0.00000000E+00
  1.00000000E+02  3.00000000E+01  0.00000000E+00
  1.00000000E+02  2.80000000E+01  0.00000000E+00
  1.00000000E+02  2.60000000E+01  0.00000000E+00
  1.00000000E+02  2.40000000E+01  0.00000000E+00
  1.00000000E+02  2.20000000E+01  0.00000000E+00
  1.00000000E+02  2.00000000E+01  0.00000000E+00
  1.00000000E+02  1.80000000E+01  0.00000000E+00
  1.00000000E+02  1.60000000E+01  0.00000000E+00
  1.00000000E+02  1.40000000E+01  0.00000000E+00
  1.00000000E+02  1.20000000E+01  0.00000000E+00
  1.00000000E+02  1.00000000E+01  0.00000000E+00
  1.00000000E+02  8.00000000E+00  0.00000000E+00
  1.00000000E+02  6.00000000E+00  0.00000000E+00
  1.00000000E+02  4.00000000E+00  0.00000000E+00
  1.00000000E+02  2.00000000E+00  0.00000000E+00
  1.00000000E+02 -3.33066907E-14  0.00000000E+00
  1.10000000E+02  1.00000000E+02  0.00000000E+00
  1.10000000E+02  9.80000000E+01  0.00000000E+00
  1.10000000E+02  9.60000000E+01  0.00000000E+00
  1.10000000E+02  9.40000000E+01  0.00000000E+00
  1.10000000E+02  9.20000000E+01  0.00000000E+00
  1.10000000E+02  9.00000000E+01  0.00000000E+00
  1.10000000E+02  8.80000000E+01  0.00000000E+00
  1.10000000E+02  8.60000000E+01  0.00000000E+00
  1.10000000E+02  8.40000000E+01  0.00000000E+00
  1.10000000E+02  8.20000000E+01  0.00000000E+00
  1.10000000E+02  8.00000000E+01  0.00000000E+00
  1.10000000E+02  7.80000000E+01  0.00000000E+00
  1.10000000E+02  7.60000000E+01  0.00000000E+00
  1.10000000E+02  7.40000000E+01  0.00000000E+00
  1.10000000E+02  7.20000000E+01  0.00000000E+00
  1.10000000E+02  7.00000000E+01  0.00000000E+00
  1.10000000E+02  6.80000000E+01  0.00000000E+00
  1.10000000E+02  6.60000000E+01  0.00000000E+00
  1.10000000E+02  6.40000000E+01  0.00000000E+00
  1.10000000E+02  6.20000000E+01  0.00000000E+00
  1.10000000E+02  6.00000000E+01  0.00000000E+00
  1.10000000E+02  5.80000000E+01  0.00000000E+00
  1.10000000E+02  5.60000000E+01  0.00000000E+00
  1.10000000E+02  5.40000000E+01  0.00000000E+00
  1.10000000E+02  5.20000000E+01  0.00000000E+00
  1.10000000E+02  5.00000000E+01  0.00000000E+00
  1.10000000E+02  4.80000000E+01  0.00000000E+00
  1.10000000E+02  4.60000000E+01  0.00000000E+00
  1.10000000E+02  4.40000000E+01  0.00000000E+00
  1.10000000E+02  4.20000000E+01  0.00000000E+00
  1.10000000E+02  4.00000000E+01  0.00000000E+00
  1.10000000E+02  3.80000000E+01  0.00000000E+00
  1.10000000E+02  3.60000000E+01  0.00000000E+00
  1.10000000E+02  3.40000000E+01  0.00000000E+00
  1.10000000E+02  3.20000000E+01  0.00000000E+00
  1.10000000E+02  3.00000000E+01  0.00000000E+00
  1.10000000E+02  2.80000000E+01  0.00000000E+00
  1.10000000E+02  2.60000000E+01  0.00000000E+00
  1.10000000E+02  2.40000000E+01  0.00000000E+00
  1.10000000E+02  2.20000000E+01  0.00000000E+00
  1.10000000E+02  2.00000000E+01  0.00000000E+00
  1.10000000E+02  1.80000000E+01  0.00000000E+00
  1.10000000E+02  1.60000000E+01  0.00000000E+00
  1.10000000E+02  1.40000000E+01  0.00000000E+00
  1.10000000E+02  1.20000000E+01  0.00000000E+00
  1.10000000E+02  1.00000000E+01  0.00000000E+00
  1.10000000E+02  8.00000000E+00  0.00000000E+00
  1.10000000E+02  6.00000000E+00  0.00000000E+00
  1.10000000E+02  4.00000000E+00  0.00000000E+00
  1.10000000E+02  2.00000000E+00  0.00000000E+00
  1.10000000E+02 -3.33066907E-14  0.00000000E+00
  1.20000000E+02  1.00000000E+02  0.00000000E+00
  1.20000000E+02  9.80000000E+01  0.00000000E+00
  1.20000000E+02  9.60000000E+01  0.00000000E+00
  1.20000000E+02  9.40000000E+01  0.00000000E+00
  1.20000000E+02  9.20000000E+01  0.00000000E+00
  1.20000000E+02  9.00000000E+01  0.00000000E+00
  1.20000000E+02  8.80000000E+01  0.00000000E+00
  1.20000000E+02  8.60000000E+01  0.00000000E+00
  1.20000000E+02  8.40000000E+01  0.00000000E+00
  1.20000000E+02  8.20000000E+01  0.00000000E+00
  1.20000000E+02  8.00000000E+01  0.00000000E+00
  1.20000000E+02  7.80000000E+01  0.00000000E+00
  1.20000000E+02  7.60000000E+01  0.00000000E+00
  1.20000000E+02  7.40000000E+01  0.00000000E+00
  1.20000000E+02  7.20000000E+01  0.00000000E+00
  1.20000000E+02  7.00000000E+01  0.00000000E+00
  1.20000000E+02  6.80000000E+01  0.00000000E+00
  1.20000000E+02  6.60000000E+01  0.00000000E+00
  1.20000000E+02  6.40000000E+01  0.00000000E+00
  1.20000000E+02  6.20000000E+01  0.00000000E+00
  1.20000000E+02  6.00000000E+01  0.00000000E+00
  1.20000000E+02  5.80000000E+01  0.00000000E+00
  1.20000000E+02  5.60000000E+01  0.00000000E+00
  1.20000000E+02  5.40000000E+01  0.00000000E+00
  1.20000000E+02  5.20000000E+01  0.00000000E+00
  1.20000000E+02  5.00000000E+01  0.00000000E+00
  1.20000000E+02  4.80000000E+01  0.00000000E+00
  1.20000000E+02  4.60000000E+01  0.00000000E+00
  1.20000000E+02  4.40000000E+01  0.00000000E+00
  1.20000000E+02  4.20000000E+01  0.00000000E+00
  1.20000000E+02  4.00000000E+01  0.00000000E+00
  1.20000000E+02  3.80000000E+01  0.00000000E+00
  1.20000000E+02  3.60000000E+01  0.00000000E+00
  1.20000000E+02  3.40000000E+01  0.00000000E+00
  1.20000000E+02  3.20000000E+01  0.00000000E+00
  1.20000000E+02  3.00000000E+01  0.00000000E+00
  1.20000000E+02  2.80000000E+01  0.00000000E+00
  1.20000000E+02  2.60000000E+01  0.00000000E+00
  1.20000000E+02  2.40000000E+01  0.00000000E+00
  1.20000000E+02  2.20000000E+01  0.00000000E+00
  1.20000000E+02  2.00000000E+01  0.00000000E+00
  1.20000000E+02  1.80000000E+01  0.00000000E+00
  1.20000000E+02  1.60000000E+01  0.00000000E+00
  1.20000000E+02  1.40000000E+01  0.00000000E+00
  1.20000000E+02  1.20000000E+01  0.00000000E+00
  1.20000000E+02  1.00000000E+01  0.00000000E+00
  1.20000000E+02  8.00000000E+00  0.00000000E+00
  1.20000000E+02  6.00000000E+00  0.00000000E+00
  1.20000000E+02  4.00000000E+00  0.00000000E+00
  1.20000000E+02  2.00000000E+00  0.00000000E+00
  1.20000000E+02 -3.33066907E-14  0.00000000E+00
  1.30000000E+02  1.00000000E+02  0.00000000E+00
  1.30000000E+02  9.80000000E+01  0.00000000E+00
  1.30000000E+02  9.60000000E+01  0.00000000E+00
  1.30000000E+02  9.40000000E+01  0.00000000E+00
  1.30000000E+02  9.20000000E+01  0.00000000E+00
  1.30000000E+02  9.00000000E+01  0.00000000E+00
  1.30000000E+02  8.80000000E+01  0.00000000E+00
  1.30000000E+02  8.60000000E+01  0.00000000E+00
  1.30000000E+02  8.40000000E+01  0.00000000E+00
  1.30000000E+02  8.20000000E+01  0.00000000E+00
  1.30000000E+02  8.00000000E+01  0.00000000E+00
  1.30000000E+02  7.80000000E+01  0.00000000E+00
  1.30000000E+02  7.60000000E+01  0.00000000E+00
  1.30000000E+02  7.40000000E+01  0.00000000E+00
  1.30000000E+02  7.20000000E+01  0.00000000E+00
  1.30000000E+02  7.00000000E+01  0.00000000E+00
  1.30000000E+02  6.80000000E+01  0.00000000E+00
  1.30000000E+02  6.60000000E+01  0.00000000E+00
  1.30000000E+02  6.40000000E+01  0.00000000E+00
  1.30000000E+02  6.20000000E+01  0.00000000E+00
  1.30000000E+02  6.00000000E+01  0.00000000E+00
  1.30000000E+02  5.80000000E+01  0.00000000E+00
  1.30000000E+02  5.60000000E+01  0.00000000E+00
  1.30000000E+02  5.40000000E+01  0.00000000E+00
  1.30000000E+02  5.20000000E+01  0.00000000E+00
  1.30000000E+02  5.00000000E+01  0.00000000E+00
  1.30000000E+02  4.80000000E+01  0.00000000E+00
  1.30000000E+02  4.60000000E+01  0.00000000E+00
  1.30000000E+02  4.40000000E+01  0.00000000E+00
  1.30000000E+02  4.20000000E+01  0.00000000E+00
  1.30000000E+02  4.00000000E+01  0.00000000E+00
  1.30000000E+02  3.80000000E+01  0.00000000E+00
  1.30000000E+02  3.60000000E+01  0.00000000E+00
  1.30000000E+02  3.40000000E+01  0.00000000E+00
  1.30000000E+02  3.20000000E+01  0.00000000E+00
  1.30000000E+02  3.00000000E+01  0.00000000E+00
  1.30000000E+02  2.80000000E+01  0.00000000E+00
  1.30000000E+02  2.60000000E+01  0.00000000E+00
  1.30000000E+02  2.40000000E+01  0.00000000E+00
  1.30000000E+02  2.20000000E+01  0.00000000E+00
  1.30000000E+02  2.00000000E+01  0.00000000E+00
  1.30000000E+02  1.80000000E+01  0.00000000E+00
  1.30000000E+02  1.60000000E+01  0.00000000E+00
  1.30000000E+02  1.40000000E+01  0.00000000E+00
  1.30000000E+02  1.20000000E+01  0.00000000E+00
  1.30000000E+02  1.00000000E+01  0.00000000E+00
  1.30000000E+02  8.00000000E+00  0.00000000E+00
  1.30000000E+02  6.00000000E+00  0.00000000E+00
  1.30000000E+02  4.00000000E+00  0.00000000E+00
  1.30000000E+02  2.00000000E+00  0.00000000E+00
  1.30000000E+02 -3.33066907E-14  0.00000000E+00
  1.40000000E+02  1.00000000E+02  0.00000000E+00
  1.40000000E+02  9.80000000E+01  0.00000000E+00
  1.40000000E+02  9.60000000E+01  0.00000000E+00
  1.40000000E+02  9.40000000E+01  0.00000000E+00
  1.40000000E+02  9.20000000E+01  0.00000000E+00
  1.40000000E+02  9.00000000E+01  0.00000000E+00
  1.40000000E+02  8.80000000E+01  0.00000000E+00
  1.40000000E+02  8.60000000E+01  0.00000000E+00
  1.40000000E+02  8.40000000E+01  0.00000000E+00
  1.40000000E+02  8.20000000E+01  0.00000000E+00
  1.40000000E+02  8.00000000E+01  0.00000000E+00
  1.40000000E+02  7.80000000E+01  0.00000000E+00
  1.40000000E+02  7.60000000E+01  0.00000000E+00
  1.40000000E+02  7.40000000E+01  0.00000000E+00
  1.40000000E+02  7.20000000E+01  0.00000000E+00
  1.40000000E+02  7.00000000E+01  0.00000000E+00
  1.40000000E+02  6.80000000E+01  0.00000000E+00
  1.40000000E+02  6.60000000E+01  0.00000000E+00
  1.40000000E+02  6.40000000E+01  0.00000000E+00
  1.40000000E+02  6.20000000E+01  0.00000000E+00
  1.40000000E+02  6.00000000E+01  0.00000000E+00
  1.40000000E+02  5.80000000E+01  0.00000000E+00
  1.40000000E+02  5.60000000E+01  0.00000000E+00
  1.40000000E+02  5.40000000E+01  0.00000000E+00
  1.40000000E+02  5.20000000E+01  0.00000000E+00
  1.40000000E+02  5.00000000E+01  0.00000000E+00
  1.40000000E+02  4.80000000E+01  0.00000000E+00
  1.40000000E+02  4.60000000E+01  0.00000000E+00
  1.40000000E+02  4.40000000E+01  0.00000000E+00
  1.40000000E+02  4.20000000E+01  0.00000000E+00
  1.40000000E+02  4.00000000E+01  0.00000000E+00
  1.40000000E+02  3.80000000E+01  0.00000000E+00
  1.40000000E+02  3.60000000E+01  0.00000000E+00
  1.40000000E+02  3.40000000E+01  0.00000000E+00
  1.40000000E+02  3.20000000E+01  0.00000000E+00
  1.40000000E+02  3.00000000E+01  0.00000000E+00
  1.40000000E+02  2.80000000E+01  0.00000000E+00
  1.40000000E+02  2.60000000E+01  0.00000000E+00
  1.40000000E+02  2.40000000E+01  0.00000000E+00
  1.40000000E+02  2.20000000E+01  0.00000000E+00
  1.40000000E+02  2.00000000E+01  0.00000000E+00
  1.40000000E+02  1.80000000E+01  0.00000000E+00
  1.40000000E+02  1.60000000E+01  0.00000000E+00
  1.40000000E+02  1.40000000E+01  0.00000000E+00
  1.40000000E+02  1.20000000E+01  0.00000000E+00
  1.40000000E+02  1.00000000E+01  0.00000000E+00
  1.40000000E+02  8.00000000E+00  0.00000000E+00
  1.40000000E+02  6.00000000E+00  0.00000000E+00
  1.40000000E+02  4.00000000E+00  0.00000000E+00
  1.40000000E+02  2.00000000E+00  0.00000000E+00
  1.40000000E+02 -3.33066907E-14  0.00000000E+00
  1.50000000E+02  1.00000000E+02  0.00000000E+00
  1.50000000E+02  9.80000000E+01  0.00000000E+00
  1.50000000E+02  9.60000000E+01  0.00000000E+00
  1.50000000E+02  9.40000000E+01  0.00000000E+00
  1.50000000E+02  9.20000000E+01  0.00000000E+00
  1.50000000E+02  9.00000000E+01  0.00000000E+00
  1.50000000E+02  8.80000000E+01  0.00000000E+00
  1.50000000E+02  8.60000000E+01  0.00000000E+00
  1.50000000E+02  8.40000000E+01  0.00000000E+00
  1.50000000E+02  8.20000000E+01  0.00000000E+00
  1.50000000E+02  8.00000000E+01  0.00000000E+00
  1.50000000E+02  7.80000000E+01  0.00000000E+00
  1.50000000E+02  7.60000000E+01  0.00000000E+00
  1.50000000E+02  7.40000000E+01  0.00000000E+00
  1.50000000E+02  7.20000000E+01  0.00000000E+00
  1.50000000E+02  7.00000000E+01  0.00000000E+00
  1.50000000E+02  6.80000000E+01  0.00000000E+00
  1.50000000E+02  6.60000000E+01  0.00000000E+00
  1.50000000E+02  6.40000000E+01  0.00000000E+00
  1.50000000E+02  6.20000000E+01  0.00000000E+00
  1.50000000E+02  6.00000000E+01  0.00000000E+00
  1.50000000E+02  5.80000000E+01  0.00000000E+00
  1.50000000E+02  5.60000000E+01  0.00000000E+00
  1.50000000E+02  5.40000000E+01  0.00000000E+00
  1.50000000E+02  5.20000000E+01  0.00000000E+00
  1.50000000E+02  5.00000000E+01  0.00000000E+00
  1.50000000E+02  4.80000000E+01  0.00000000E+00
  1.50000000E+02  4.60000000E+01  0.00000000E+00
  1.50000000E+02  4.40000000E+01  0.00000000E+00
  1.50000000E+02  4.20000000E+01  0.00000000E+00
  1.50000000E+02  4.00000000E+01  0.00000000E+00
  1.50000000E+02  3.80000000E+01  0.00000000E+00
  1.50000000E+02  3.60000000E+01  0.00000000E+00
  1.50000000E+02  3.40000000E+01  0.00000000E+00
  1.50000000E+02  3.20000000E+01  0.00000000E+00
  1.50000000E+02  3.00000000E+01  0.00000000E+00
  1.50000000E+02  2.80000000E+01  0.00000000E+00
  1.50000000E+02  2.60000000E+01  0.00000000E+00
  1.50000000E+02  2.40000000E+01  0.00000000E+00
  1.50000000E+02  2.20000000E+01  0.00000000E+00
  1.50000000E+02  2.00000000E+01  0.00000000E+00
  1.50000000E+02  1.80000000E+01  0.00000000E+00
  1.50000000E+02  1.60000000E+01  0.00000000E+00
  1.50000000E+02  1.40000000E+01  0.00000000E+00
  1.50000000E+02  1.20000000E+01  0.00000000E+00
  1.50000000E+02  1.00000000E+01  0.00000000E+00
  1.50000000E+02  8.00000000E+00  0.00000000E+00
  1.50000000E+02  6.00000000E+00  0.00000000E+00
  1.50000000E+02  4.00000000E+00  0.00000000E+00
  1.50000000E+02  2.00000000E+00  0.00000000E+00
  1.50000000E+02 -3.33066907E-14  0.00000000E+00
  1.60000000E+02  1.00000000E+02  0.00000000E+00
  1.60000000E+02  9.80000000E+01  0.00000000E+00
  1.60000000E+02  9.60000000E+01  0.00000000E+00
  1.60000000E+02  9.40000000E+01  0.00000000E+00
  1.60000000E+02  9.20000000E+01  0.00000000E+00
  1.60000000E+02  9.00000000E+01  0.00000000E+00
  1.60000000E+02  8.80000000E+01  0.00000000E+00
  1.60000000E+02  8.60000000E+01  0.00000000E+00
  1.60000000E+02  8.40000000E+01  0.00000000E+00
  1.60000000E+02  8.20000000E+01  0.00000000E+00
  1.60000000E+02  8.00000000E+01  0.00000000E+00
  1.60000000E+02  7.80000000E+01  0.00000000E+00
  1.60000000E+02  7.60000000E+01  0.00000000E+00
  1.60000000E+02  7.40000000E+01  0.00000000E+00
  1.60000000E+02  7.20000000E+01  0.00000000E+00
  1.60000000E+02  7.00000000E+01  0.00000000E+00
  1.60000000E+02  6.80000000E+01  0.00000000E+00
  1.60000000E+02  6.60000000E+01  0.00000000E+00
  1.60000000E+02  6.40000000E+01  0.00000000E+00
  1.60000000E+02  6.20000000E+01  0.00000000E+00
  1.60000000E+02  6.00000000E+01  0.00000000E+00
  1.60000000E+02  5.80000000E+01  0.00000000E+00
  1.60000000E+02  5.60000000E+01  0.00000000E+00
  1.60000000E+02  5.40000000E+01  0.00000000E+00
  1.60000000E+02  5.20000000E+01  0.00000000E+00
  1.60000000E+02  5.00000000E+01  0.00000000E+00
  1.60000000E+02  4.80000000E+01  0.00000000E+00
  1.60000000E+02  4.60000000E+01  0.00000000E+00
  1.60000000E+02  4.40000000E+01  0.00000000E+00
  1.60000000E+02  4.20000000E+01  0.00000000E+00
  1.60000000E+02  4.00000000E+01  0.00000000E+00
  1.60000000E+02  3.80000000E+01  0.00000000E+00
  1.60000000E+02  3.60000000E+01  0.00000000E+00
  1.60000000E+02  3.40000000E+01  0.00000000E+00
  1.60000000E+02  3.20000000E+01  0.00000000E+00
  1.60000000E+02  3.00000000E+01  0.00000000E+00
  1.60000000E+02  2.80000000E+01  0.00000000E+00
  1.60000000E+02  2.60000000E+01  0.00000000E+00
  1.60000000E+02  2.40000000E+01  0.00000000E+00
  1.60000000E+02  2.20000000E+01  0.00000000E+00
  1.60000000E+02  2.00000000E+01  0.00000000E+00
  1.60000000E+02  1.80000000E+01  0.00000000E+00
  1.60000000E+02  1.60000000E+01  0.00000000E+00
  1.60000000E+02  1.40000000E+01  0.00000000E+00
  1.60000000E+02  1.20000000E+01  0.00000000E+00
  1.60000000E+02  1.00000000E+01  0.00000000E+00
  1.60000000E+02  8.00000000E+00  0.00000000E+00
  1.60000000E+02  6.00000000E+00  0.00000000E+00
  1.60000000E+02  4.00000000E+00  0.00000000E+00
  1.60000000E+02  2.00000000E+00  0.00000000E+00
  1.60000000E+02 -3.33066907E-14  0.00000000E+00
  1.70000000E+02  1.00000000E+02  0.00000000E+00
  1.70000000E+02  9.80000000E+01  0.00000000E+00
  1.70000000E+02  9.60000000E+01  0.00000000E+00
  1.70000000E+02  9.40000000E+01  0.00000000E+00
  1.70000000E+02  9.20000000E+01  0.00000000E+00
  1.70000000E+02  9.00000000E+01  0.00000000E+00
  1.70000000E+02  8.80000000E+01  0.00000000E+00
  1.70000000E+02  8.60000000E+01  0.00000000E+00
  1.70000000E+02  8.40000000E+01  0.00000000E+00
  1.70000000E+02  8.20000000E+01  0.00000000E+00
  1.70000000E+02  8.00000000E+01  0.00000000E+00
  1.70000000E+02  7.80000000E+01  0.00000000E+00
  1.70000000E+02  7.60000000E+01  0.00000000E+00
  1.70000000E+02  7.40000000E+01  0.00000000E+00
  1.70000000E+02  7.20000000E+01  0.00000000E+00
  1.70000000E+02  7.00000000E+01  0.00000000E+00
  1.70000000E+02  6.80000000E+01  0.00000000E+00
  1.70000000E+02  6.60000000E+01  0.00000000E+00
  1.70000000E+02  6.40000000E+01  0.00000000E+00
  1.70000000E+02  6.20000000E+01  0.00000000E+00
  1.70000000E+02  6.00000000E+01  0.00000000E+00
  1.70000000E+02  5.80000000E+01  0.00000000E+00
  1.70000000E+02  5.60000000E+01  0.00000000E+00
  1.70000000E+02  5.40000000E+01  0.00000000E+00
  1.70000000E+02  5.20000000E+01  0.00000000E+00
  1.70000000E+02  5.00000000E+01  0.00000000E+00
  1.70000000E+02  4.80000000E+01  0.00000000E+00
  1.70000000E+02  4.60000000E+01  0.00000000E+00
  1.70000000E+02  4.40000000E+01  0.00000000E+00
  1.70000000E+02  4.20000000E+01  0.00000000E+00
  1.70000000E+02  4.00000000E+01  0.00000000E+00
  1.70000000E+02  3.80000000E+01  0.00000000E+00
  1.70000000E+02  3.60000000E+01  0.00000000E+00
  1.70000000E+02  3.40000000E+01  0.00000000E+00
  1.70000000E+02  3.20000000E+01  0.00000000E+00
  1.70000000E+02  3.00000000E+01  0.00000000E+00
  1.70000000E+02  2.80000000E+01  0.00000000E+00
  1.70000000E+02  2.60000000E+01  0.00000000E+00
  1.70000000E+02  2.40000000E+01  0.00000000E+00
  1.70000000E+02  2.20000000E+01  0.00000000E+00
  1.70000000E+02  2.00000000E+01  0.00000000E+00
  1.70000000E+02  1.80000000E+01  0.00000000E+00
  1.70000000E+02  1.60000000E+01  0.00000000E+00
  1.70000000E+02  1.40000000E+01  0.00000000E+00
  1.70000000E+02  1.20000000E+01  0.00000000E+00
  1.70000000E+02  1.00000000E+01  0.00000000E+00
  1.70000000E+02  8.00000000E+00  0.00000000E+00
  1.70000000E+02  6.00000000E+00  0.00000000E+00
  1.70000000E+02  4.00000000E+00  0.00000000E+00
  1.70000000E+02  2.00000000E+00  0.00000000E+00
  1.70000000E+02 -3.33066907E-14  0.00000000E+00
  1.80000000E+02  1.00000000E+02  0.00000000E+00
  1.80000000E+02  9.80000000E+01  0.00000000E+00
  1.80000000E+02  9.60000000E+01  0.00000000E+00
  1.80000000E+02  9.40000000E+01  0.00000000E+00
  1.80000000E+02  9.20000000E+01  0.00000000E+00
  1.80000000E+02  9.00000000E+01  0.00000000E+00
  1.80000000E+02  8.80000000E+01  0.00000000E+00
  1.80000000E+02  8.60000000E+01  0.00000000E+00
  1.80000000E+02  8.40000000E+01  0.00000000E+00
  1.80000000E+02  8.20000000E+01  0.00000000E+00
  1.80000000E+02  8.00000000E+01  0.00000000E+00
  1.80000000E+02  7.80000000E+01  0.00000000E+00
  1.80000000E+02  7.60000000E+01  0.00000000E+00
  1.80000000E+02  7.40000000E+01  0.00000000E+00
  1.80000000E+02  7.20000000E+01  0.00000000E+00
  1.80000000E+02  7.00000000E+01  0.00000000E+00
  1.80000000E+02  6.80000000E+01  0.00000000E+00
  1.80000000E+02  6.60000000E+01  0.00000000E+00
  1.80000000E+02  6.40000000E+01  0.00000000E+00
  1.80000000E+02  6.20000000E+01  0.00000000E+00
  1.80000000E+02  6.00000000E+01  0.00000000E+00
  1.80000000E+02  5.80000000E+01  0.00000000E+00
  1.80000000E+02  5.60000000E+01  0.00000000E+00
  1.80000000E+02  5.40000000E+01  0.00000000E+00
  1.80000000E+02  5.20000000E+01  0.00000000E+00
  1.80000000E+02  5.00000000E+01  0.00000000E+00
  1.80000000E+02  4.80000000E+01  0.00000000E+00
  1.80000000E+02  4.60000000E+01  0.00000000E+00
  1.80000000E+02  4.40000000E+01  0.00000000E+00
  1.80000000E+02  4.20000000E+01  0.00000000E+00
  1.80000000E+02  4.00000000E+01  0.00000000E+00
  1.80000000E+02  3.80000000E+01  0.00000000E+00
  1.80000000E+02  3.60000000E+01  0.00000000E+00
  1.80000000E+02  3.40000000E+01  0.00000000E+00
  1.80000000E+02  3.20000000E+01  0.00000000E+00
  1.80000000E+02  3.00000000E+01  0.00000000E+00
  1.80000000E+02  2.80000000E+01  0.00000000E+00
  1.80000000E+02  2.60000000E+01  0.00000000E+00
  1.80000000E+02  2.40000000E+01  0.00000000E+00
  1.80000000E+02  2.20000000E+01  0.00000000E+00
  1.80000000E+02  2.00000000E+01  0.00000000E+00
  1.80000000E+02  1.80000000E+01  0.00000000E+00
  1.80000000E+02  1.60000000E+01  0.00000000E+00
  1.80000000E+02  1.40000000E+01  0.00000000E+00
  1.80000000E+02  1.20000000E+01  0.00000000E+00
  1.80000000E+02  1.00000000E+01  0.00000000E+00
  1.80000000E+02  8.00000000E+00  0.00000000E+00
  1.80000000E+02  6.00000000E+00  0.00000000E+00
  1.80000000E+02  4.00000000E+00  0.00000000E+00
  1.80000000E+02  2.00000000E+00  0.00000000E+00
  1.80000000E+02 -3.33066907E-14  0.00000000E+00
  1.90000000E+02  1.00000000E+02  0.00000000E+00
  1.90000000E+02  9.80000000E+01  0.00000000E+00
  1.90000000E+02  9.60000000E+01  0.00000000E+00
  1.90000000E+02  9.40000000E+01  0.00000000E+00
  1.90000000E+02  9.20000000E+01  0.00000000E+00
  1.90000000E+02  9.00000000E+01  0.00000000E+00
  1.90000000E+02  8.80000000E+01  0.00000000E+00
  1.90000000E+02  8.60000000E+01  0.00000000E+00
  1.90000000E+02  8.40000000E+01  0.00000000E+00
  1.90000000E+02  8.20000000E+01  0.00000000E+00
  1.90000000E+02  8.00000000E+01  0.00000000E+00
  1.90000000E+02  7.80000000E+01  0.00000000E+00
  1.90000000E+02  7.60000000E+01  0.00000000E+00
  1.90000000E+02  7.40000000E+01  0.00000000E+00
  1.90000000E+02  7.20000000E+01  0.00000000E+00
  1.90000000E+02  7.00000000E+01  0.00000000E+00
  1.90000000E+02  6.80000000E+01  0.00000000E+00
  1.90000000E+02  6.60000000E+01  0.00000000E+00
  1.90000000E+02  6.40000000E+01  0.00000000E+00
  1.90000000E+02  6.20000000E+01  0.00000000E+00
  1.90000000E+02  6.00000000E+01  0.00000000E+00
  1.90000000E+02  5.80000000E+01  0.00000000E+00
  1.90000000E+02  5.60000000E+01  0.00000000E+00
  1.90000000E+02  5.40000000E+01  0.00000000E+00
  1.90000000E+02  5.20000000E+01  0.00000000E+00
  1.90000000E+02  5.00000000E+01  0.00000000E+00
  1.90000000E+02  4.80000000E+01  0.00000000E+00
  1.90000000E+02  4.60000000E+01  0.00000000E+00
  1.90000000E+02  4.40000000E+01  0.00000000E+00
  1.90000000E+02  4.20000000E+01  0.00000000E+00
  1.90000000E+02  4.00000000E+01  0.00000000E+00
  1.90000000E+02  3.80000000E+01  0.00000000E+00
  1.90000000E+02  3.60000000E+01  0.00000000E+00
  1.90000000E+02  3.40000000E+01  0.00000000E+00
  1.90000000E+02  3.20000000E+01  0.00000000E+00
  1.90000000E+02  3.00000000E+01  0.00000000E+00
  1.90000000E+02  2.80000000E+01  0.00000000E+00
  1.90000000E+02  2.60000000E+01  0.00000000E+00
  1.90000000E+02  2.40000000E+01  0.00000000E+00
  1.90000000E+02  2.20000000E+01  0.00000000E+00
  1.90000000E+02  2.00000000E+01  0.00000000E+00
  1.90000000E+02  1.80000000E+01  0.00000000E+00
  1.90000000E+02  1.60000000E+01  0.00000000E+00
  1.90000000E+02  1.40000000E+01  0.00000000E+00
  1.90000000E+02  1.20000000E+01  0.00000000E+00
  1.90000000E+02  1.00000000E+01  0.00000000E+00
  1.90000000E+02  8.00000000E+00  0.00000000E+00
  1.90000000E+02  6.00000000E+00  0.00000000E+00
  1.90000000E+02  4.00000000E+00  0.00000000E+00
  1.90000000E+02  2.00000000E+00  0.00000000E+00
  1.90000000E+02 -3.33066907E-14  0.00000000E+00
  2.00000000E+02  1.00000000E+02  0.00000000E+00
  2.00000000E+02  9.80000000E+01  0.00000000E+00
  2.00000000E+02  9.60000000E+01  0.00000000E+00
  2.00000000E+02  9.40000000E+01  0.00000000E+00
  2.00000000E+02  9.20000000E+01  0.00000000E+00
  2.00000000E+02  9.00000000E+01  0.00000000E+00
  2.00000000E+02  8.80000000E+01  0.00000000E+00
  2.00000000E+02  8.60000000E+01  0.00000000E+00
  2.00000000E+02  8.40000000E+01  0.00000000E+00
  2.00000000E+02  8.20000000E+01  0.00000000E+00
  2.00000000E+02  8.00000000E+01  0.00000000E+00
  2.00000000E+02  7.80000000E+01  0.00000000E+00
  2.00000000E+02  7.60000000E+01  0.00000000E+00
  2.00000000E+02  7.40000000E+01  0.00000000E+00
  2.00000000E+02  7.20000000E+01  0.00000000E+00
  2.00000000E+02  7.00000000E+01  0.00000000E+00
  2.00000000E+02  6.80000000E+01  0.00000000E+00
  2.00000000E+02  6.60000000E+01  0.00000000E+00
  2.00000000E+02  6.40000000E+01  0.00000000E+00
  2.00000000E+02  6.20000000E+01  0.00000000E+00
  2.00000000E+02  6.00000000E+01  0.00000000E+00
  2.00000000E+02  5.80000000E+01  0.00000000E+00
  2.00000000E+02  5.60000000E+01  0.00000000E+00
  2.00000000E+02  5.40000000E+01  0.00000000E+00
  2.00000000E+02  5.20000000E+01  0.00000000E+00
  2.00000000E+02  5.00000000E+01  0.00000000E+00
  2.00000000E+02  4.80000000E+01  0.00000000E+00
  2.00000000E+02  4.60000000E+01  0.00000000E+00
  2.00000000E+02  4.40000000E+01  0.00000000E+00
  2.00000000E+02  4.20000000E+01  0.00000000E+00
  2.00000000E+02  4.00000000E+01  0.00000000E+00
  2.00000000E+02  3.80000000E+01  0.00000000E+00
  2.00000000E+02  3.60000000E+01  0.00000000E+00
  2.00000000E+02  3.40000000E+01  0.00000000E+00
  2.00000000E+02  3.20000000E+01  0.00000000E+00
  2.00000000E+02  3.00000000E+01  0.00000000E+00
  2.00000000E+02  2.80000000E+01  0.00000000E+00
  2.00000000E+02  2.60000000E+01  0.00000000E+00
  2.00000000E+02  2.40000000E+01  0.00000000E+00
  2.00000000E+02  2.20000000E+01  0.00000000E+00
  2.00000000E+02  2.00000000E+01  0.00000000E+00
  2.00000000E+02  1.80000000E+01  0.00000000E+00
  2.00000000E+02  1.60000000E+01  0.00000000E+00
  2.00000000E+02  1.40000000E+01  0.00000000E+00
  2.00000000E+02  1.20000000E+01  0.00000000E+00
  2.00000000E+02  1.00000000E+01  0.00000000E+00
  2.00000000E+02  8.00000000E+00  0.00000000E+00
  2.00000000E+02  6.00000000E+00  0.00000000E+00
  2.00000000E+02  4.00000000E+00  0.00000000E+00
  2.00000000E+02  2.00000000E+00  0.00000000E+00
  2.00000000E+02 -3.33066907E-14  0.00000000E+00
  2.10000000E+02  1.00000000E+02  0.00000000E+00
  2.10000000E+02  9.80000000E+01  0.00000000E+00
  2.10000000E+02  9.60000000E+01  0.00000000E+00
  2.10000000E+02  9.40000000E+01  0.00000000E+00
  2.10000000E+02  9.20000000E+01  0.00000000E+00
  2.10000000E+02  9.00000000E+01  0.00000000E+00
  2.10000000E+02  8.80000000E+01  0.00000000E+00
  2.10000000E+02  8.60000000E+01  0.00000000E+00
  2.10000000E+02  8.40000000E+01  0.00000000E+00
  2.10000000E+02  8.20000000E+01  0.00000000E+00
  2.10000000E+02  8.00000000E+01  0.00000000E+00
  2.10000000E+02  7.80000000E+01  0.00000000E+00
  2.10000000E+02  7.60000000E+01  0.00000000E+00
  2.10000000E+02  7.40000000E+01  0.00000000E+00
  2.10000000E+02  7.20000000E+01  0.00000000E+00
  2.10000000E+02  7.00000000E+01  0.00000000E+00
  2.10000000E+02  6.80000000E+01  0.00000000E+00
  2.10000000E+02  6.60000000E+01  0.00000000E+00
  2.10000000E+02  6.40000000E+01  0.00000000E+00
  2.10000000E+02  6.20000000E+01  0.00000000E+00
  2.10000000E+02  6.00000000E+01  0.00000000E+00
  2.10000000E+02  5.80000000E+01  0.00000000E+00
  2.10000000E+02  5.60000000E+01  0.00000000E+00
  2.10000000E+02  5.40000000E+01  0.00000000E+00
  2.10000000E+02  5.20000000E+01  0.00000000E+00
  2.10000000E+02  5.00000000E+01  0.00000000E+00
  2.10000000E+02  4.80000000E+01  0.00000000E+00
  2.10000000E+02  4.60000000E+01  0.00000000E+00
  2.10000000E+02  4.40000000E+01  0.00000000E+00
  2.10000000E+02  4.20000000E+01  0.00000000E+00
  2.10000000E+02  4.00000000E+01  0.00000000E+00
  2.10000000E+02  3.80000000E+01  0.00000000E+00
  2.10000000E+02  3.60000000E+01  0.00000000E+00
  2.10000000E+02  3.40000000E+01  0.00000000E+00
  2.10000000E+02  3.20000000E+01  0.00000000E+00
  2.10000000E+02  3.00000000E+01  0.00000000E+00
  2.10000000E+02  2.80000000E+01  0.00000000E+00
  2.10000000E+02  2.60000000E+01  0.00000000E+00
  2.10000000E+02  2.40000000E+01  0.00000000E+00
  2.10000000E+02  2.20000000E+01  0.00000000E+00
  2.10000000E+02  2.00000000E+01  0.00000000E+00
  2.10000000E+02  1.80000000E+01  0.00000000E+00
  2.10000000E+02  1.60000000E+01  0.00000000E+00
  2.10000000E+02  1.40000000E+01  0.00000000E+00
  2.10000000E+02  1.20000000E+01  0.00000000E+00
  2.10000000E+02  1.00000000E+01  0.00000000E+00
  2.10000000E+02  8.00000000E+00  0.00000000E+00
  2.10000000E+02  6.00000000E+00  0.00000000E+00
  2.10000000E+02  4.00000000E+00  0.00000000E+00
  2.10000000E+02  2.00000000E+00  0.00000000E+00
  2.10000000E+02 -3.33066907E-14  0.00000000E+00
  2.20000000E+02  1.00000000E+02  0.00000000E+00
  2.20000000E+02  9.80000000E+01  0.00000000E+00
  2.20000000E+02  9.60000000E+01  0.00000000E+00
  2.20000000E+02  9.40000000E+01  0.00000000E+00
  2.20000000E+02  9.20000000E+01  0.00000000E+00
  2.20000000E+02  9.00000000E+01  0.00000000E+00
  2.20000000E+02  8.80000000E+01  0.00000000E+00
  2.20000000E+02  8.60000000E+01  0.00000000E+00
  2.20000000E+02  8.40000000E+01  0.00000000E+00
  2.20000000E+02  8.20000000E+01  0.00000000E+00
  2.20000000E+02  8.00000000E+01  0.00000000E+00
  2.20000000E+02  7.80000000E+01  0.00000000E+00
  2.20000000E+02  7.60000000E+01  0.00000000E+00
  2.20000000E+02  7.40000000E+01  0.00000000E+00
  2.20000000E+02  7.20000000E+01  0.00000000E+00
  2.20000000E+02  7.00000000E+01  0.00000000E+00
  2.20000000E+02  6.80000000E+01  0.00000000E+00
  2.20000000E+02  6.60000000E+01  0.00000000E+00
  2.20000000E+02  6.40000000E+01  0.00000000E+00
  2.20000000E+02  6.20000000E+01  0.00000000E+00
  2.20000000E+02  6.00000000E+01  0.00000000E+00
  2.20000000E+02  5.80000000E+01  0.00000000E+00
  2.20000000E+02  5.60000000E+01  0.00000000E+00
  2.20000000E+02  5.40000000E+01  0.00000000E+00
  2.20000000E+02  5.20000000E+01  0.00000000E+00
  2.20000000E+02  5.00000000E+01  0.00000000E+00
  2.20000000E+02  4.80000000E+01  0.00000000E+00
  2.20000000E+02  4.60000000E+01  0.00000000E+00
  2.20000000E+02  4.40000000E+01  0.00000000E+00
  2.20000000E+02  4.20000000E+01  0.00000000E+00
  2.20000000E+02  4.00000000E+01  0.00000000E+00
  2.20000000E+02  3.80000000E+01  0.00000000E+00
  2.20000000E+02  3.60000000E+01  0.00000000E+00
  2.20000000E+02  3.40000000E+01  0.00000000E+00
  2.20000000E+02  3.20000000E+01  0.00000000E+00
  2.20000000E+02  3.00000000E+01  0.00000000E+00
  2.20000000E+02  2.80000000E+01  0.00000000E+00
  2.20000000E+02  2.60000000E+01  0.00000000E+00
  2.20000000E+02  2.40000000E+01  0.00000000E+00
  2.20000000E+02  2.20000000E+01  0.00000000E+00
  2.20000000E+02  2.00000000E+01  0.00000000E+00
  2.20000000E+02  1.80000000E+01  0.00000000E+00
  2.20000000E+02  1.60000000E+01  0.00000000E+00
  2.20000000E+02  1.40000000E+01  0.00000000E+00
  2.20000000E+02  1.20000000E+01  0.00000000E+00
  2.20000000E+02  1.00000000E+01  0.00000000E+00
  2.20000000E+02  8.00000000E+00  0.00000000E+00
  2.20000000E+02  6.00000000E+00  0.00000000E+00
  2.20000000E+02  4.00000000E+00  0.00000000E+00
  2.20000000E+02  2.00000000E+00  0.00000000E+00
  2.20000000E+02 -3.33066907E-14  0.00000000E+00
  2.30000000E+02  1.00000000E+02  0.00000000E+00
  2.30000000E+02  9.80000000E+01  0.00000000E+00
  2.30000000E+02  9.60000000E+01  0.00000000E+00
  2.30000000E+02  9.40000000E+01  0.00000000E+00
  2.30000000E+02  9.20000000E+01  0.00000000E+00
  2.30000000E+02  9.00000000E+01  0.00000000E+00
  2.30000000E+02  8.80000000E+01  0.00000000E+00
  2.30000000E+02  8.60000000E+01  0.00000000E+00
  2.30000000E+02  8.40000000E+01  0.00000000E+00
  2.30000000E+02  8.20000000E+01  0.00000000E+00
  2.30000000E+02  8.00000000E+01  0.00000000E+00
  2.30000000E+02  7.80000000E+01  0.00000000E+00
  2.30000000E+02  7.60000000E+01  0.00000000E+00
  2.30000000E+02  7.40000000E+01  0.00000000E+00
  2.30000000E+02  7.20000000E+01  0.00000000E+00
  2.30000000E+02  7.00000000E+01  0.00000000E+00
  2.30000000E+02  6.80000000E+01  0.00000000E+00
  2.30000000E+02  6.60000000E+01  0.00000000E+00
  2.30000000E+02  6.40000000E+01  0.00000000E+00
  2.30000000E+02  6.20000000E+01  0.00000000E+00
  2.30000000E+02  6.00000000E+01  0.00000000E+00
  2.30000000E+02  5.80000000E+01  0.00000000E+00
  2.30000000E+02  5.60000000E+01  0.00000000E+00
  2.30000000E+02  5.40000000E+01  0.00000000E+00
  2.30000000E+02  5.20000000E+01  0.00000000E+00
  2.30000000E+02  5.00000000E+01  0.00000000E+00
  2.30000000E+02  4.80000000E+01  0.00000000E+00
  2.30000000E+02  4.60000000E+01  0.00000000E+00
  2.30000000E+02  4.40000000E+01  0.00000000E+00
  2.30000000E+02  4.20000000E+01  0.00000000E+00
  2.30000000E+02  4.00000000E+01  0.00000000E+00
  2.30000000E+02  3.80000000E+01  0.00000000E+00
  2.30000000E+02  3.60000000E+01  0.00000000E+00
  2.30000000E+02  3.40000000E+01  0.00000000E+00
  2.30000000E+02  3.20000000E+01  0.00000000E+00
  2.30000000E+02  3.00000000E+01  0.00000000E+00
  2.30000000E+02  2.80000000E+01  0.00000000E+00
  2.30000000E+02  2.60000000E+01  0.00000000E+00
  2.30000000E+02  2.40000000E+01  0.00000000E+00
  2.30000000E+02  2.20000000E+01  0.00000000E+00
  2.30000000E+02  2.00000000E+01  0.00000000E+00
  2.30000000E+02  1.80000000E+01  0.00000000E+00
  2.30000000E+02  1.60000000E+01  0.00000000E+00
  2.30000000E+02  1.40000000E+01  0.00000000E+00
  2.30000000E+02  1.20000000E+01  0.00000000E+00
  2.30000000E+02  1.00000000E+01  0.00000000E+00
  2.30000000E+02  8.00000000E+00  0.00000000E+00
  2.30000000E+02  6.00000000E+00  0.00000000E+00
  2.30000000E+02  4.00000000E+00  0.00000000E+00
  2.30000000E+02  2.00000000E+00  0.00000000E+00
  2.30000000E+02 -3.33066907E-14  0.00000000E+00
  2.40000000E+02  1.00000000E+02  0.00000000E+00
  2.40000000E+02  9.80000000E+01  0.00000000E+00
  2.40000000E+02  9.60000000E+01  0.00000000E+00
  2.40000000E+02  9.40000000E+01  0.00000000E+00
  2.40000000E+02  9.20000000E+01  0.00000000E+00
  2.40000000E+02  9.00000000E+01  0.00000000E+00
  2.40000000E+02  8.80000000E+01  0.00000000E+00
  2.40000000E+02  8.60000000E+01  0.00000000E+00
  2.40000000E+02  8.40000000E+01  0.00000000E+00
  2.40000000E+02  8.20000000E+01  0.00000000E+00
  2.40000000E+02  8.00000000E+01  0.00000000E+00
  2.40000000E+02  7.80000000E+01  0.00000000E+00
  2.40000000E+02  7.60000000E+01  0.00000000E+00
  2.40000000E+02  7.40000000E+01  0.00000000E+00
  2.40000000E+02  7.20000000E+01  0.00000000E+00
  2.40000000E+02  7.00000000E+01  0.00000000E+00
  2.40000000E+02  6.80000000E+01  0.00000000E+00
  2.40000000E+02  6.60000000E+01  0.00000000E+00
  2.40000000E+02  6.40000000E+01  0.00000000E+00
  2.40000000E+02  6.20000000E+01  0.00000000E+00
  2.40000000E+02  6.00000000E+01  0.00000000E+00
  2.40000000E+02  5.80000000E+01  0.00000000E+00
  2.40000000E+02  5.60000000E+01  0.00000000E+00
  2.40000000E+02  5.40000000E+01  0.00000000E+00
  2.40000000E+02  5.20000000E+01  0.00000000E+00
  2.40000000E+02  5.00000000E+01  0.00000000E+00
  2.40000000E+02  4.80000000E+01  0.00000000E+00
  2.40000000E+02  4.60000000E+01  0.00000000E+00
  2.40000000E+02  4.40000000E+01  0.00000000E+00
  2.40000000E+02  4.20000000E+01  0.00000000E+00
  2.40000000E+02  4.00000000E+01  0.00000000E+00
  2.40000000E+02  3.80000000E+01  0.00000000E+00
  2.40000000E+02  3.60000000E+01  0.00000000E+00
  2.40000000E+02  3.40000000E+01  0.00000000E+00
  2.40000000E+02  3.20000000E+01  0.00000000E+00
  2.40000000E+02  3.00000000E+01  0.00000000E+00
  2.40000000E+02  2.80000000E+01  0.00000000E+00
  2.40000000E+02  2.60000000E+01  0.00000000E+00
  2.40000000E+02  2.40000000E+01  0.00000000E+00
  2.40000000E+02  2.20000000E+01  0.00000000E+00
  2.40000000E+02  2.00000000E+01  0.00000000E+00
  2.40000000E+02  1.80000000E+01  0.00000000E+00
  2.40000000E+02  1.60000000E+01  0.00000000E+00
  2.40000000E+02  1.40000000E+01  0.00000000E+00
  2.40000000E+02  1.20000000E+01  0.00000000E+00
  2.40000000E+02  1.00000000E+01  0.00000000E+00
  2.40000000E+02  8.00000000E+00  0.00000000E+00
  2.40000000E+02  6.00000000E+00  0.00000000E+00
  2.40000000E+02  4.00000000E+00  0.00000000E+00
  2.40000000E+02  2.00000000E+00  0.00000000E+00
  2.40000000E+02 -3.33066907E-14  0.00000000E+00
  2.50000000E+02  1.00000000E+02  0.00000000E+00
  2.50000000E+02  9.80000000E+01  0.00000000E+00
  2.50000000E+02  9.60000000E+01  0.00000000E+00
  2.50000000E+02  9.40000000E+01  0.00000000E+00
  2.50000000E+02  9.20000000E+01  0.00000000E+00
  2.50000000E+02  9.00000000E+01  0.00000000E+00
  2.50000000E+02  8.80000000E+01  0.00000000E+00
  2.50000000E+02  8.60000000E+01  0.00000000E+00
  2.50000000E+02  8.40000000E+01  0.00000000E+00
  2.50000000E+02  8.20000000E+01  0.00000000E+00
  2.50000000E+02  8.00000000E+01  0.00000000E+00
  2.50000000E+02  7.80000000E+01  0.00000000E+00
  2.50000000E+02  7.60000000E+01  0.00000000E+00
  2.50000000E+02  7.40000000E+01  0.00000000E+00
  2.50000000E+02  7.20000000E+01  0.00000000E+00
  2.50000000E+02  7.00000000E+01  0.00000000E+00
  2.50000000E+02  6.80000000E+01  0.00000000E+00
  2.50000000E+02  6.60000000E+01  0.00000000E+00
  2.50000000E+02  6.40000000E+01  0.00000000E+00
  2.50000000E+02  6.20000000E+01  0.00000000E+00
  2.50000000E+02  6.00000000E+01  0.00000000E+00
  2.50000000E+02  5.80000000E+01  0.00000000E+00
  2.50000000E+02  5.60000000E+01  0.00000000E+00
  2.50000000E+02  5.40000000E+01  0.00000000E+00
  2.50000000E+02  5.20000000E+01  0.00000000E+00
  2.50000000E+02  5.00000000E+01  0.00000000E+00
  2.50000000E+02  4.80000000E+01  0.00000000E+00
  2.50000000E+02  4.60000000E+01  0.00000000E+00
  2.50000000E+02  4.40000000E+01  0.00000000E+00
  2.50000000E+02  4.20000000E+01  0.00000000E+00
  2.50000000E+02  4.00000000E+01  0.00000000E+00
  2.50000000E+02  3.80000000E+01  0.00000000E+00
  2.50000000E+02  3.60000000E+01  0.00000000E+00
  2.50000000E+02  3.40000000E+01  0.00000000E+00
  2.50000000E+02  3.20000000E+01  0.00000000E+00
  2.50000000E+02  3.00000000E+01  0.00000000E+00
  2.50000000E+02  2.80000000E+01  0.00000000E+00
  2.50000000E+02  2.60000000E+01  0.00000000E+00
  2.50000000E+02  2.40000000E+01  0.00000000E+00
  2.50000000E+02  2.20000000E+01  0.00000000E+00
  2.50000000E+02  2.00000000E+01  0.00000000E+00
  2.50000000E+02  1.80000000E+01  0.00000000E+00
  2.50000000E+02  1.60000000E+01  0.00000000E+00
  2.50000000E+02  1.40000000E+01  0.00000000E+00
  2.50000000E+02  1.20000000E+01  0.00000000E+00
  2.50000000E+02  1.00000000E+01  0.00000000E+00
  2.50000000E+02  8.00000000E+00  0.00000000E+00
  2.50000000E+02  6.00000000E+00  0.00000000E+00
  2.50000000E+02  4.00000000E+00  0.00000000E+00
  2.50000000E+02  2.00000000E+00  0.00000000E+00
  2.50000000E+02 -3.33066907E-14  0.00000000E+00
  2.60000000E+02  1.00000000E+02  0.00000000E+00
  2.60000000E+02  9.80000000E+01  0.00000000E+00
  2.60000000E+02  9.60000000E+01  0.00000000E+00
  2.60000000E+02  9.40000000E+01  0.00000000E+00
  2.60000000E+02  9.20000000E+01  0.00000000E+00
  2.60000000E+02  9.00000000E+01  0.00000000E+00
  2.60000000E+02  8.80000000E+01  0.00000000E+00
  2.60000000E+02  8.60000000E+01  0.00000000E+00
  2.60000000E+02  8.40000000E+01  0.00000000E+00
  2.60000000E+02  8.20000000E+01  0.00000000E+00
  2.60000000E+02  8.00000000E+01  0.00000000E+00
  2.60000000E+02  7.80000000E+01  0.00000000E+00
  2.60000000E+02  7.60000000E+01  0.00000000E+00
  2.60000000E+02  7.40000000E+01  0.00000000E+00
  2.60000000E+02  7.20000000E+01  0.00000000E+00
  2.60000000E+02  7.00000000E+01  0.00000000E+00
  2.60000000E+02  6.80000000E+01  0.00000000E+00
  2.60000000E+02  6.60000000E+01  0.00000000E+00
  2.60000000E+02  6.40000000E+01  0.00000000E+00
  2.60000000E+02  6.20000000E+01  0.00000000E+00
  2.60000000E+02  6.00000000E+01  0.00000000E+00
  2.60000000E+02  5.80000000E+01  0.00000000E+00
  2.60000000E+02  5.60000000E+01  0.00000000E+00
  2.60000000E+02  5.40000000E+01  0.00000000E+00
  2.60000000E+02  5.20000000E+01  0.00000000E+00
  2.60000000E+02  5.00000000E+01  0.00000000E+00
  2.60000000E+02  4.80000000E+01  0.00000000E+00
  2.60000000E+02  4.60000000E+01  0.00000000E+00
  2.60000000E+02  4.40000000E+01  0.00000000E+00
  2.60000000E+02  4.20000000E+01  0.00000000E+00
  2.60000000E+02  4.00000000E+01  0.00000000E+00
  2.60000000E+02  3.80000000E+01  0.00000000E+00
  2.60000000E+02  3.60000000E+01  0.00000000E+00
  2.60000000E+02  3.40000000E+01  0.00000000E+00
  2.60000000E+02  3.20000000E+01  0.00000000E+00
  2.60000000E+02  3.00000000E+01  0.00000000E+00
  2.60000000E+02  2.80000000E+01  0.00000000E+00
  2.60000000E+02  2.60000000E+01  0.00000000E+00
  2.60000000E+02  2.40000000E+01  0.00000000E+00
  2.60000000E+02  2.20000000E+01  0.00000000E+00
  2.60000000E+02  2.00000000E+01  0.00000000E+00
  2.60000000E+02  1.80000000E+01  0.00000000E+00
  2.60000000E+02  1.60000000E+01  0.00000000E+00
  2.60000000E+02  1.40000000E+01  0.00000000E+00
  2.60000000E+02  1.20000000E+01  0.00000000E+00
  2.60000000E+02  1.00000000E+01  0.00000000E+00
  2.60000000E+02  8.00000000E+00  0.00000000E+00
  2.60000000E+02  6.00000000E+00  0.00000000E+00
  2.60000000E+02  4.00000000E+00  0.00000000E+00
  2.60000000E+02  2.00000000E+00  0.00000000E+00
  2.60000000E+02 -3.33066907E-14  0.00000000E+00
  2.70000000E+02  1.00000000E+02  0.00000000E+00
  2.70000000E+02  9.80000000E+01  0.00000000E+00
  2.70000000E+02  9.60000000E+01  0.00000000E+00
  2.70000000E+02  9.40000000E+01  0.00000000E+00
  2.70000000E+02  9.20000000E+01  0.00000000E+00
  2.70000000E+02  9.00000000E+01  0.00000000E+00
  2.70000000E+02  8.80000000E+01  0.00000000E+00
  2.70000000E+02  8.60000000E+01  0.00000000E+00
  2.70000000E+02  8.40000000E+01  0.00000000E+00
  2.70000000E+02  8.20000000E+01  0.00000000E+00
  2.70000000E+02  8.00000000E+01  0.00000000E+00
  2.70000000E+02  7.80000000E+01  0.00000000E+00
  2.70000000E+02  7.60000000E+01  0.00000000E+00
  2.70000000E+02  7.40000000E+01  0.00000000E+00
  2.70000000E+02  7.20000000E+01  0.00000000E+00
  2.70000000E+02  7.00000000E+01  0.00000000E+00
  2.70000000E+02  6.80000000E+01  0.00000000E+00
  2.70000000E+02  6.60000000E+01  0.00000000E+00
  2.70000000E+02  6.40000000E+01  0.00000000E+00
  2.70000000E+02  6.20000000E+01  0.00000000E+00
  2.70000000E+02  6.00000000E+01  0.00000000E+00
  2.70000000E+02  5.80000000E+01  0.00000000E+00
  2.70000000E+02  5.60000000E+01  0.00000000E+00
  2.70000000E+02  5.40000000E+01  0.00000000E+00
  2.70000000E+02  5.20000000E+01  0.00000000E+00
  2.70000000E+02  5.00000000E+01  0.00000000E+00
  2.70000000E+02  4.80000000E+01  0.00000000E+00
  2.70000000E+02  4.60000000E+01  0.00000000E+00
  2.70000000E+02  4.40000000E+01  0.00000000E+00
  2.70000000E+02  4.20000000E+01  0.00000000E+00
  2.70000000E+02  4.00000000E+01  0.00000000E+00
  2.70000000E+02  3.80000000E+01  0.00000000E+00
  2.70000000E+02  3.60000000E+01  0.00000000E+00
  2.70000000E+02  3.40000000E+01  0.00000000E+00
  2.70000000E+02  3.20000000E+01  0.00000000E+00
  2.70000000E+02  3.00000000E+01  0.00000000E+00
  2.70000000E+02  2.80000000E+01  0.00000000E+00
  2.70000000E+02  2.60000000E+01  0.00000000E+00
  2.70000000E+02  2.40000000E+01  0.00000000E+00
  2.70000000E+02  2.20000000E+01  0.00000000E+00
  2.70000000E+02  2.00000000E+01  0.00000000E+00
  2.70000000E+02  1.80000000E+01  0.00000000E+00
  2.70000000E+02  1.60000000E+01  0.00000000E+00
  2.70000000E+02  1.40000000E+01  0.00000000E+00
  2.70000000E+02  1.20000000E+01  0.00000000E+00
  2.70000000E+02  1.00000000E+01  0.00000000E+00
  2.70000000E+02  8.00000000E+00  0.00000000E+00
  2.70000000E+02  6.00000000E+00  0.00000000E+00
  2.70000000E+02  4.00000000E+00  0.00000000E+00
  2.70000000E+02  2.00000000E+00  0.00000000E+00
  2.70000000E+02 -3.33066907E-14  0.00000000E+00
  2.80000000E+02  1.00000000E+02  0.00000000E+00
  2.80000000E+02  9.80000000E+01  0.00000000E+00
  2.80000000E+02  9.60000000E+01  0.00000000E+00
  2.80000000E+02  9.40000000E+01  0.00000000E+00
  2.80000000E+02  9.20000000E+01  0.00000000E+00
  2.80000000E+02  9.00000000E+01  0.00000000E+00
  2.80000000E+02  8.80000000E+01  0.00000000E+00
  2.80000000E+02  8.60000000E+01  0.00000000E+00
  2.80000000E+02  8.40000000E+01  0.00000000E+00
  2.80000000E+02  8.20000000E+01  0.00000000E+00
  2.80000000E+02  8.00000000E+01  0.00000000E+00
  2.80000000E+02  7.80000000E+01  0.00000000E+00
  2.80000000E+02  7.60000000E+01  0.00000000E+00
  2.80000000E+02  7.40000000E+01  0.00000000E+00
  2.80000000E+02  7.20000000E+01  0.00000000E+00
  2.80000000E+02  7.00000000E+01  0.00000000E+00
  2.80000000E+02  6.80000000E+01  0.00000000E+00
  2.80000000E+02  6.60000000E+01  0.00000000E+00
  2.80000000E+02  6.40000000E+01  0.00000000E+00
  2.80000000E+02  6.20000000E+01  0.00000000E+00
  2.80000000E+02  6.00000000E+01  0.00000000E+00
  2.80000000E+02  5.80000000E+01  0.00000000E+00
  2.80000000E+02  5.60000000E+01  0.00000000E+00
  2.80000000E+02  5.40000000E+01  0.00000000E+00
  2.80000000E+02  5.20000000E+01  0.00000000E+00
  2.80000000E+02  5.00000000E+01  0.00000000E+00
  2.80000000E+02  4.80000000E+01  0.00000000E+00
  2.80000000E+02  4.60000000E+01  0.00000000E+00
  2.80000000E+02  4.40000000E+01  0.00000000E+00
  2.80000000E+02  4.20000000E+01  0.00000000E+00
  2.80000000E+02  4.00000000E+01  0.00000000E+00
  2.80000000E+02  3.80000000E+01  0.00000000E+00
  2.80000000E+02  3.60000000E+01  0.00000000E+00
  2.80000000E+02  3.40000000E+01  0.00000000E+00
  2.80000000E+02  3.20000000E+01  0.00000000E+00
  2.80000000E+02  3.00000000E+01  0.00000000E+00
  2.80000000E+02  2.80000000E+01  0.00000000E+00
  2.80000000E+02  2.60000000E+01  0.00000000E+00
  2.80000000E+02  2.40000000E+01  0.00000000E+00
  2.80000000E+02  2.20000000E+01  0.00000000E+00
  2.80000000E+02  2.00000000E+01  0.00000000E+00
  2.80000000E+02  1.80000000E+01  0.00000000E+00
  2.80000000E+02  1.60000000E+01  0.00000000E+00
  2.80000000E+02  1.40000000E+01  0.00000000E+00
  2.80000000E+02  1.20000000E+01  0.00000000E+00
  2.80000000E+02  1.00000000E+01  0.00000000E+00
  2.80000000E+02  8.00000000E+00  0.00000000E+00
  2.80000000E+02  6.00000000E+00  0.00000000E+00
  2.80000000E+02  4.00000000E+00  0.00000000E+00
  2.80000000E+02  2.00000000E+00  0.00000000E+00
  2.80000000E+02 -3.33066907E-14  0.00000000E+00
  2.90000000E+02  1.00000000E+02  0.00000000E+00
  2.90000000E+02  9.80000000E+01  0.00000000E+00
  2.90000000E+02  9.60000000E+01  0.00000000E+00
  2.90000000E+02  9.40000000E+01  0.00000000E+00
  2.90000000E+02  9.20000000E+01  0.00000000E+00
  2.90000000E+02  9.00000000E+01  0.00000000E+00
  2.90000000E+02  8.80000000E+01  0.00000000E+00
  2.90000000E+02  8.60000000E+01  0.00000000E+00
  2.90000000E+02  8.40000000E+01  0.00000000E+00
  2.90000000E+02  8.20000000E+01  0.00000000E+00
  2.90000000E+02  8.00000000E+01  0.00000000E+00
  2.90000000E+02  7.80000000E+01  0.00000000E+00
  2.90000000E+02  7.60000000E+01  0.00000000E+00
  2.90000000E+02  7.40000000E+01  0.00000000E+00
  2.90000000E+02  7.20000000E+01  0.00000000E+00
  2.90000000E+02  7.00000000E+01  0.00000000E+00
  2.90000000E+02  6.80000000E+01  0.00000000E+00
  2.90000000E+02  6.60000000E+01  0.00000000E+00
  2.90000000E+02  6.40000000E+01  0.00000000E+00
  2.90000000E+02  6.20000000E+01  0.00000000E+00
  2.90000000E+02  6.00000000E+01  0.00000000E+00
  2.90000000E+02  5.80000000E+01  0.00000000E+00
  2.90000000E+02  5.60000000E+01  0.00000000E+00
  2.90000000E+02  5.40000000E+01  0.00000000E+00
  2.90000000E+02  5.20000000E+01  0.00000000E+00
  2.90000000E+02  5.00000000E+01  0.00000000E+00
  2.90000000E+02  4.80000000E+01  0.00000000E+00
  2.90000000E+02  4.60000000E+01  0.00000000E+00
  2.90000000E+02  4.40000000E+01  0.00000000E+00
  2.90000000E+02  4.20000000E+01  0.00000000E+00
  2.90000000E+02  4.00000000E+01  0.00000000E+00
  2.90000000E+02  3.80000000E+01  0.00000000E+00
  2.90000000E+02  3.60000000E+01  0.00000000E+00
  2.90000000E+02  3.40000000E+01  0.00000000E+00
  2.90000000E+02  3.20000000E+01  0.00000000E+00
  2.90000000E+02  3.00000000E+01  0.00000000E+00
  2.90000000E+02  2.80000000E+01  0.00000000E+00
  2.90000000E+02  2.60000000E+01  0.00000000E+00
  2.90000000E+02  2.40000000E+01  0.00000000E+00
  2.90000000E+02  2.20000000E+01  0.00000000E+00
  2.90000000E+02  2.00000000E+01  0.00000000E+00
  2.90000000E+02  1.80000000E+01  0.00000000E+00
  2.90000000E+02  1.60000000E+01  0.00000000E+00
  2.90000000E+02  1.40000000E+01  0.00000000E+00
  2.90000000E+02  1.20000000E+01  0.00000000E+00
  2.90000000E+02  1.00000000E+01  0.00000000E+00
  2.90000000E+02  8.00000000E+00  0.00000000E+00
  2.90000000E+02  6.00000000E+00  0.00000000E+00
  2.90000000E+02  4.00000000E+00  0.00000000E+00
  2.90000000E+02  2.00000000E+00  0.00000000E+00
  2.90000000E+02 -3.33066907E-14  0.00000000E+00
  3.00000000E+02  1.00000000E+02  0.00000000E+00
  3.00000000E+02  9.80000000E+01  0.00000000E+00
  3.00000000E+02  9.60000000E+01  0.00000000E+00
  3.00000000E+02  9.40000000E+01  0.00000000E+00
  3.00000000E+02  9.20000000E+01  0.00000000E+00
  3.00000000E+02  9.00000000E+01  0.00000000E+00
  3.00000000E+02  8.80000000E+01  0.00000000E+00
  3.00000000E+02  8.60000000E+01  0.00000000E+00
  3.00000000E+02  8.40000000E+01  0.00000000E+00
  3.00000000E+02  8.20000000E+01  0.00000000E+00
  3.00000000E+02  8.00000000E+01  0.00000000E+00
  3.00000000E+02  7.80000000E+01  0.00000000E+00
  3.00000000E+02  7.60000000E+01  0.00000000E+00
  3.00000000E+02  7.40000000E+01  0.00000000E+00
  3.00000000E+02  7.20000000E+01  0.00000000E+00
  3.00000000E+02  7.00000000E+01  0.00000000E+00
  3.00000000E+02  6.80000000E+01  0.00000000E+00
  3.00000000E+02  6.60000000E+01  0.00000000E+00
  3.00000000E+02  6.40000000E+01  0.00000000E+00
  3.00000000E+02  6.20000000E+01  0.00000000E+00
  3.00000000E+02  6.00000000E+01  0.00000000E+00
  3.00000000E+02  5.80000000E+01  0.00000000E+00
  3.00000000E+02  5.60000000E+01  0.00000000E+00
  3.00000000E+02  5.40000000E+01  0.00000000E+00
  3.00000000E+02  5.20000000E+01  0.00000000E+00
  3.00000000E+02  5.00000000E+01  0.00000000E+00
  3.00000000E+02  4.80000000E+01  0.00000000E+00
  3.00000000E+02  4.60000000E+01  0.00000000E+00
  3.00000000E+02  4.40000000E+01  0.00000000E+00
  3.00000000E+02  4.20000000E+01  0.00000000E+00
  3.00000000E+02  4.00000000E+01  0.00000000E+00
  3.00000000E+02  3.80000000E+01  0.00000000E+00
  3.00000000E+02  3.60000000E+01  0.00000000E+00
  3.00000000E+02  3.40000000E+01  0.00000000E+00
  3.00000000E+02  3.20000000E+01  0.00000000E+00
  3.00000000E+02  3.00000000E+01  0.00000000E+00
  3.00000000E+02  2.80000000E+01  0.00000000E+00
  3.00000000E+02  2.60000000E+01  0.00000000E+00
  3.00000000E+02  2.40000000E+01  0.00000000E+00
  3.00000000E+02  2.20000000E+01  0.00000000E+00
  3.00000000E+02  2.00000000E+01  0.00000000E+00
  3.00000000E+02  1.80000000E+01  0.00000000E+00
  3.00000000E+02  1.60000000E+01  0.00000000E+00
  3.00000000E+02  1.40000000E+01  0.00000000E+00
  3.00000000E+02  1.20000000E+01  0.00000000E+00
  3.00000000E+02  1.00000000E+01  0.00000000E+00
  3.00000000E+02  8.00000000E+00  0.00000000E+00
  3.00000000E+02  6.00000000E+00  0.00000000E+00
  3.00000000E+02  4.00000000E+00  0.00000000E+00
  3.00000000E+02  2.00000000E+00  0.00000000E+00
  3.00000000E+02 -3.33066907E-14  0.00000000E+00
  3.10000000E+02  1.00000000E+02  0.00000000E+00
  3.10000000E+02  9.80000000E+01  0.00000000E+00
  3.10000000E+02  9.60000000E+01  0.00000000E+00
  3.10000000E+02  9.40000000E+01  0.00000000E+00
  3.10000000E+02  9.20000000E+01  0.00000000E+00
  3.10000000E+02  9.00000000E+01  0.00000000E+00
  3.10000000E+02  8.80000000E+01  0.00000000E+00
  3.10000000E+02  8.60000000E+01  0.00000000E+00
  3.10000000E+02  8.40000000E+01  0.00000000E+00
  3.10000000E+02  8.20000000E+01  0.00000000E+00
  3.10000000E+02  8.00000000E+01  0.00000000E+00
  3.10000000E+02  7.80000000E+01  0.00000000E+00
  3.10000000E+02  7.60000000E+01  0.00000000E+00
  3.10000000E+02  7.40000000E+01  0.00000000E+00
  3.10000000E+02  7.20000000E+01  0.00000000E+00
  3.10000000E+02  7.00000000E+01  0.00000000E+00
  3.10000000E+02  6.80000000E+01  0.00000000E+00
  3.10000000E+02  6.60000000E+01  0.00000000E+00
  3.10000000E+02  6.40000000E+01  0.00000000E+00
  3.10000000E+02  6.20000000E+01  0.00000000E+00
  3.10000000E+02  6.00000000E+01  0.00000000E+00
  3.10000000E+02  5.80000000E+01  0.00000000E+00
  3.10000000E+02  5.60000000E+01  0.00000000E+00
  3.10000000E+02  5.40000000E+01  0.00000000E+00
  3.10000000E+02  5.20000000E+01  0.00000000E+00
  3.10000000E+02  5.00000000E+01  0.00000000E+00
  3.10000000E+02  4.80000000E+01  0.00000000E+00
  3.10000000E+02  4.60000000E+01  0.00000000E+00
  3.10000000E+02  4.40000000E+01  0.00000000E+00
  3.10000000E+02  4.20000000E+01  0.00000000E+00
  3.10000000E+02  4.00000000E+01  0.00000000E+00
  3.10000000E+02  3.80000000E+01  0.00000000E+00
  3.10000000E+02  3.60000000E+01  0.00000000E+00
  3.10000000E+02  3.40000000E+01  0.00000000E+00
  3.10000000E+02  3.20000000E+01  0.00000000E+00
  3.10000000E+02  3.00000000E+01  0.00000000E+00
  3.10000000E+02  2.80000000E+01  0.00000000E+00
  3.10000000E+02  2.60000000E+01  0.00000000E+00
  3.10000000E+02  2.40000000E+01  0.00000000E+00
  3.10000000E+02  2.20000000E+01  0.00000000E+00
  3.10000000E+02  2.00000000E+01  0.00000000E+00
  3.10000000E+02  1.80000000E+01  0.00000000E+00
  3.10000000E+02  1.60000000E+01  0.00000000E+00
  3.10000000E+02  1.40000000E+01  0.00000000E+00
  3.10000000E+02  1.20000000E+01  0.00000000E+00
  3.10000000E+02  1.00000000E+01  0.00000000E+00
  3.10000000E+02  8.00000000E+00  0.00000000E+00
  3.10000000E+02  6.00000000E+00  0.00000000E+00
  3.10000000E+02  4.00000000E+00  0.00000000E+00
  3.10000000E+02  2.00000000E+00  0.00000000E+00
  3.10000000E+02 -3.33066907E-14  0.00000000E+00
  3.20000000E+02  1.00000000E+02  0.00000000E+00
  3.20000000E+02  9.80000000E+01  0.00000000E+00
  3.20000000E+02  9.60000000E+01  0.00000000E+00
  3.20000000E+02  9.40000000E+01  0.00000000E+00
  3.20000000E+02  9.20000000E+01  0.00000000E+00
  3.20000000E+02  9.00000000E+01  0.00000000E+00
  3.20000000E+02  8.80000000E+01  0.00000000E+00
  3.20000000E+02  8.60000000E+01  0.00000000E+00
  3.20000000E+02  8.40000000E+01  0.00000000E+00
  3.20000000E+02  8.20000000E+01  0.00000000E+00
  3.20000000E+02  8.00000000E+01  0.00000000E+00
  3.20000000E+02  7.80000000E+01  0.00000000E+00
  3.20000000E+02  7.60000000E+01  0.00000000E+00
  3.20000000E+02  7.40000000E+01  0.00000000E+00
  3.20000000E+02  7.20000000E+01  0.00000000E+00
  3.20000000E+02  7.00000000E+01  0.00000000E+00
  3.20000000E+02  6.80000000E+01  0.00000000E+00
  3.20000000E+02  6.60000000E+01  0.00000000E+00
  3.20000000E+02  6.40000000E+01  0.00000000E+00
  3.20000000E+02  6.20000000E+01  0.00000000E+00
  3.20000000E+02  6.00000000E+01  0.00000000E+00
  3.20000000E+02  5.80000000E+01  0.00000000E+00
  3.20000000E+02  5.60000000E+01  0.00000000E+00
  3.20000000E+02  5.40000000E+01  0.00000000E+00
  3.20000000E+02  5.20000000E+01  0.00000000E+00
  3.20000000E+02  5.00000000E+01  0.00000000E+00
  3.20000000E+02  4.80000000E+01  0.00000000E+00
  3.20000000E+02  4.60000000E+01  0.00000000E+00
  3.20000000E+02  4.40000000E+01  0.00000000E+00
  3.20000000E+02  4.20000000E+01  0.00000000E+00
  3.20000000E+02  4.00000000E+01  0.00000000E+00
  3.20000000E+02  3.80000000E+01  0.00000000E+00
  3.20000000E+02  3.60000000E+01  0.00000000E+00
  3.20000000E+02  3.40000000E+01  0.00000000E+00
  3.20000000E+02  3.20000000E+01  0.00000000E+00
  3.20000000E+02  3.00000000E+01  0.00000000E+00
  3.20000000E+02  2.80000000E+01  0.00000000E+00
  3.20000000E+02  2.60000000E+01  0.00000000E+00
  3.20000000E+02  2.40000000E+01  0.00000000E+00
  3.20000000E+02  2.20000000E+01  0.00000000E+00
  3.20000000E+02  2.00000000E+01  0.00000000E+00
  3.20000000E+02  1.80000000E+01  0.00000000E+00
  3.20000000E+02  1.60000000E+01  0.00000000E+00
  3.20000000E+02  1.40000000E+01  0.00000000E+00
  3.20000000E+02  1.20000000E+01  0.00000000E+00
  3.20000000E+02  1.00000000E+01  0.00000000E+00
  3.20000000E+02  8.00000000E+00  0.00000000E+00
  3.20000000E+02  6.00000000E+00  0.00000000E+00
  3.20000000E+02  4.00000000E+00  0.00000000E+00
  3.20000000E+02  2.00000000E+00  0.00000000E+00
  3.20000000E+02 -3.33066907E-14  0.00000000E+00
  3.30000000E+02  1.00000000E+02  0.00000000E+00
  3.30000000E+02  9.80000000E+01  0.00000000E+00
  3.30000000E+02  9.60000000E+01  0.00000000E+00
  3.30000000E+02  9.40000000E+01  0.00000000E+00
  3.30000000E+02  9.20000000E+01  0.00000000E+00
  3.30000000E+02  9.00000000E+01  0.00000000E+00
  3.30000000E+02  8.80000000E+01  0.00000000E+00
  3.30000000E+02  8.60000000E+01  0.00000000E+00
  3.30000000E+02  8.40000000E+01  0.00000000E+00
  3.30000000E+02  8.20000000E+01  0.00000000E+00
  3.30000000E+02  8.00000000E+01  0.00000000E+00
  3.30000000E+02  7.80000000E+01  0.00000000E+00
  3.30000000E+02  7.60000000E+01  0.00000000E+00
  3.30000000E+02  7.40000000E+01  0.00000000E+00
  3.30000000E+02  7.20000000E+01  0.00000000E+00
  3.30000000E+02  7.00000000E+01  0.00000000E+00
  3.30000000E+02  6.80000000E+01  0.00000000E+00
  3.30000000E+02  6.60000000E+01  0.00000000E+00
  3.30000000E+02  6.40000000E+01  0.00000000E+00
  3.30000000E+02  6.20000000E+01  0.00000000E+00
  3.30000000E+02  6.00000000E+01  0.00000000E+00
  3.30000000E+02  5.80000000E+01  0.00000000E+00
  3.30000000E+02  5.60000000E+01  0.00000000E+00
  3.30000000E+02  5.40000000E+01  0.00000000E+00
  3.30000000E+02  5.20000000E+01  0.00000000E+00
  3.30000000E+02  5.00000000E+01  0.00000000E+00
  3.30000000E+02  4.80000000E+01  0.00000000E+00
  3.30000000E+02  4.60000000E+01  0.00000000E+00
  3.30000000E+02  4.40000000E+01  0.00000000E+00
  3.30000000E+02  4.20000000E+01  0.00000000E+00
  3.30000000E+02  4.00000000E+01  0.00000000E+00
  3.30000000E+02  3.80000000E+01  0.00000000E+00
  3.30000000E+02  3.60000000E+01  0.00000000E+00
  3.30000000E+02  3.40000000E+01  0.00000000E+00
  3.30000000E+02  3.20000000E+01  0.00000000E+00
  3.30000000E+02  3.00000000E+01  0.00000000E+00
  3.30000000E+02  2.80000000E+01  0.00000000E+00
  3.30000000E+02  2.60000000E+01  0.00000000E+00
  3.30000000E+02  2.40000000E+01  0.00000000E+00
  3.30000000E+02  2.20000000E+01  0.00000000E+00
  3.30000000E+02  2.00000000E+01  0.00000000E+00
  3.30000000E+02  1.80000000E+01  0.00000000E+00
  3.30000000E+02  1.60000000E+01  0.00000000E+00
  3.30000000E+02  1.40000000E+01  0.00000000E+00
  3.30000000E+02  1.20000000E+01  0.00000000E+00
  3.30000000E+02  1.00000000E+01  0.00000000E+00
  3.30000000E+02  8.00000000E+00  0.00000000E+00
  3.30000000E+02  6.00000000E+00  0.00000000E+00
  3.30000000E+02  4.00000000E+00  0.00000000E+00
  3.30000000E+02  2.00000000E+00  0.00000000E+00
  3.30000000E+02 -3.33066907E-14  0.00000000E+00
  3.40000000E+02  1.00000000E+02  0.00000000E+00
  3.40000000E+02  9.80000000E+01  0.00000000E+00
  3.40000000E+02  9.60000000E+01  0.00000000E+00
  3.40000000E+02  9.40000000E+01  0.00000000E+00
  3.40000000E+02  9.20000000E+01  0.00000000E+00
  3.40000000E+02  9.00000000E+01  0.00000000E+00
  3.40000000E+02  8.80000000E+01  0.00000000E+00
  3.40000000E+02  8.60000000E+01  0.00000000E+00
  3.40000000E+02  8.40000000E+01  0.00000000E+00
  3.40000000E+02  8.20000000E+01  0.00000000E+00
  3.40000000E+02  8.00000000E+01  0.00000000E+00
  3.40000000E+02  7.80000000E+01  0.00000000E+00
  3.40000000E+02  7.60000000E+01  0.00000000E+00
  3.40000000E+02  7.40000000E+01  0.00000000E+00
  3.40000000E+02  7.20000000E+01  0.00000000E+00
  3.40000000E+02  7.00000000E+01  0.00000000E+00
  3.40000000E+02  6.80000000E+01  0.00000000E+00
  3.40000000E+02  6.60000000E+01  0.00000000E+00
  3.40000000E+02  6.40000000E+01  0.00000000E+00
  3.40000000E+02  6.20000000E+01  0.00000000E+00
  3.40000000E+02  6.00000000E+01  0.00000000E+00
  3.40000000E+02  5.80000000E+01  0.00000000E+00
  3.40000000E+02  5.60000000E+01  0.00000000E+00
  3.40000000E+02  5.40000000E+01  0.00000000E+00
  3.40000000E+02  5.20000000E+01  0.00000000E+00
  3.40000000E+02  5.00000000E+01  0.00000000E+00
  3.40000000E+02  4.80000000E+01  0.00000000E+00
  3.40000000E+02  4.60000000E+01  0.00000000E+00
  3.40000000E+02  4.40000000E+01  0.00000000E+00
  3.40000000E+02  4.20000000E+01  0.00000000E+00
  3.40000000E+02  4.00000000E+01  0.00000000E+00
  3.40000000E+02  3.80000000E+01  0.00000000E+00
  3.40000000E+02  3.60000000E+01  0.00000000E+00
  3.40000000E+02  3.40000000E+01  0.00000000E+00
  3.40000000E+02  3.20000000E+01  0.00000000E+00
  3.40000000E+02  3.00000000E+01  0.00000000E+00
  3.40000000E+02  2.80000000E+01  0.00000000E+00
  3.40000000E+02  2.60000000E+01  0.00000000E+00
  3.40000000E+02  2.40000000E+01  0.00000000E+00
  3.40000000E+02  2.20000000E+01  0.00000000E+00
  3.40000000E+02  2.00000000E+01  0.00000000E+00
  3.40000000E+02  1.80000000E+01  0.00000000E+00
  3.40000000E+02  1.60000000E+01  0.00000000E+00
  3.40000000E+02  1.40000000E+01  0.00000000E+00
  3.40000000E+02  1.20000000E+01  0.00000000E+00
  3.40000000E+02  1.00000000E+01  0.00000000E+00
  3.40000000E+02  8.00000000E+00  0.00000000E+00
  3.40000000E+02  6.00000000E+00  0.00000000E+00
  3.40000000E+02  4.00000000E+00  0.00000000E+00
  3.40000000E+02  2.00000000E+00  0.00000000E+00
  3.40000000E+02 -3.33066907E-14  0.00000000E+00
  3.50000000E+02  1.00000000E+02  0.00000000E+00
  3.50000000E+02  9.80000000E+01  0.00000000E+00
  3.50000000E+02  9.60000000E+01  0.00000000E+00
  3.50000000E+02  9.40000000E+01  0.00000000E+00
  3.50000000E+02  9.20000000E+01  0.00000000E+00
  3.50000000E+02  9.00000000E+01  0.00000000E+00
  3.50000000E+02  8.80000000E+01  0.00000000E+00
  3.50000000E+02  8.60000000E+01  0.00000000E+00
  3.50000000E+02  8.40000000E+01  0.00000000E+00
  3.50000000E+02  8.20000000E+01  0.00000000E+00
  3.50000000E+02  8.00000000E+01  0.00000000E+00
  3.50000000E+02  7.80000000E+01  0.00000000E+00
  3.50000000E+02  7.60000000E+01  0.00000000E+00
  3.50000000E+02  7.40000000E+01  0.00000000E+00
  3.50000000E+02  7.20000000E+01  0.00000000E+00
  3.50000000E+02  7.00000000E+01  0.00000000E+00
  3.50000000E+02  6.80000000E+01  0.00000000E+00
  3.50000000E+02  6.60000000E+01  0.00000000E+00
  3.50000000E+02  6.40000000E+01  0.00000000E+00
  3.50000000E+02  6.20000000E+01  0.00000000E+00
  3.50000000E+02  6.00000000E+01  0.00000000E+00
  3.50000000E+02  5.80000000E+01  0.00000000E+00
  3.50000000E+02  5.60000000E+01  0.00000000E+00
  3.50000000E+02  5.40000000E+01  0.00000000E+00
  3.50000000E+02  5.20000000E+01  0.00000000E+00
  3.50000000E+02  5.00000000E+01  0.00000000E+00
  3.50000000E+02  4.80000000E+01  0.00000000E+00
  3.50000000E+02  4.60000000E+01  0.00000000E+00
  3.50000000E+02  4.40000000E+01  0.00000000E+00
  3.50000000E+02  4.20000000E+01  0.00000000E+00
  3.50000000E+02  4.00000000E+01  0.00000000E+00
  3.50000000E+02  3.80000000E+01  0.00000000E+00
  3.50000000E+02  3.60000000E+01  0.00000000E+00
  3.50000000E+02  3.40000000E+01  0.00000000E+00
  3.50000000E+02  3.20000000E+01  0.00000000E+00
  3.50000000E+02  3.00000000E+01  0.00000000E+00
  3.50000000E+02  2.80000000E+01  0.00000000E+00
  3.50000000E+02  2.60000000E+01  0.00000000E+00
  3.50000000E+02  2.40000000E+01  0.00000000E+00
  3.50000000E+02  2.20000000E+01  0.00000000E+00
  3.50000000E+02  2.00000000E+01  0.00000000E+00
  3.50000000E+02  1.80000000E+01  0.00000000E+00
  3.50000000E+02  1.60000000E+01  0.00000000E+00
  3.50000000E+02  1.40000000E+01  0.00000000E+00
  3.50000000E+02  1.20000000E+01  0.00000000E+00
  3.50000000E+02  1.00000000E+01  0.00000000E+00
  3.50000000E+02  8.00000000E+00  0.00000000E+00
  3.50000000E+02  6.00000000E+00  0.00000000E+00
  3.50000000E+02  4.00000000E+00  0.00000000E+00
  3.50000000E+02  2.00000000E+00  0.00000000E+00
  3.50000000E+02 -3.33066907E-14  0.00000000E+00
  3.60000000E+02  1.00000000E+02  0.00000000E+00
  3.60000000E+02  9.80000000E+01  0.00000000E+00
  3.60000000E+02  9.60000000E+01  0.00000000E+00
  3.60000000E+02  9.40000000E+01  0.00000000E+00
  3.60000000E+02  9.20000000E+01  0.00000000E+00
  3.60000000E+02  9.00000000E+01  0.00000000E+00
  3.60000000E+02  8.80000000E+01  0.00000000E+00
  3.60000000E+02  8.60000000E+01  0.00000000E+00
  3.60000000E+02  8.40000000E+01  0.00000000E+00
  3.60000000E+02  8.20000000E+01  0.00000000E+00
  3.60000000E+02  8.00000000E+01  0.00000000E+00
  3.60000000E+02  7.80000000E+01  0.00000000E+00
  3.60000000E+02  7.60000000E+01  0.00000000E+00
  3.60000000E+02  7.40000000E+01  0.00000000E+00
  3.60000000E+02  7.20000000E+01  0.00000000E+00
  3.60000000E+02  7.00000000E+01  0.00000000E+00
  3.60000000E+02  6.80000000E+01  0.00000000E+00
  3.60000000E+02  6.60000000E+01  0.00000000E+00
  3.60000000E+02  6.40000000E+01  0.00000000E+00
  3.60000000E+02  6.20000000E+01  0.00000000E+00
  3.60000000E+02  6.00000000E+01  0.00000000E+00
  3.60000000E+02  5.80000000E+01  0.00000000E+00
  3.60000000E+02  5.60000000E+01  0.00000000E+00
  3.60000000E+02  5.40000000E+01  0.00000000E+00
  3.60000000E+02  5.20000000E+01  0.00000000E+00
  3.60000000E+02  5.00000000E+01  0.00000000E+00
  3.60000000E+02  4.80000000E+01  0.00000000E+00
  3.60000000E+02  4.60000000E+01  0.00000000E+00
  3.60000000E+02  4.40000000E+01  0.00000000E+00
  3.60000000E+02  4.20000000E+01  0.00000000E+00
  3.60000000E+02  4.00000000E+01  0.00000000E+00
  3.60000000E+02  3.80000000E+01  0.00000000E+00
  3.60000000E+02  3.60000000E+01  0.00000000E+00
  3.60000000E+02  3.40000000E+01  0.00000000E+00
  3.60000000E+02  3.20000000E+01  0.00000000E+00
  3.60000000E+02  3.00000000E+01  0.00000000E+00
  3.60000000E+02  2.80000000E+01  0.00000000E+00
  3.60000000E+02  2.60000000E+01  0.00000000E+00
  3.60000000E+02  2.40000000E+01  0.00000000E+00
  3.60000000E+02  2.20000000E+01  0.00000000E+00
  3.60000000E+02  2.00000000E+01  0.00000000E+00
  3.60000000E+02  1.80000000E+01  0.00000000E+00
  3.60000000E+02  1.60000000E+01  0.00000000E+00
  3.60000000E+02  1.40000000E+01  0.00000000E+00
  3.60000000E+02  1.20000000E+01  0.00000000E+00
  3.60000000E+02  1.00000000E+01  0.00000000E+00
  3.60000000E+02  8.00000000E+00  0.00000000E+00
  3.60000000E+02  6.00000000E+00  0.00000000E+00
  3.60000000E+02  4.00000000E+00  0.00000000E+00
  3.60000000E+02  2.00000000E+00  0.00000000E+00
  3.60000000E+02 -3.33066907E-14  0.00000000E+00
  3.70000000E+02  1.00000000E+02  0.00000000E+00
  3.70000000E+02  9.80000000E+01  0.00000000E+00
  3.70000000E+02  9.60000000E+01  0.00000000E+00
  3.70000000E+02  9.40000000E+01  0.00000000E+00
  3.70000000E+02  9.20000000E+01  0.00000000E+00
  3.70000000E+02  9.00000000E+01  0.00000000E+00
  3.70000000E+02  8.80000000E+01  0.00000000E+00
  3.70000000E+02  8.60000000E+01  0.00000000E+00
  3.70000000E+02  8.40000000E+01  0.00000000E+00
  3.70000000E+02  8.20000000E+01  0.00000000E+00
  3.70000000E+02  8.00000000E+01  0.00000000E+00
  3.70000000E+02  7.80000000E+01  0.00000000E+00
  3.70000000E+02  7.60000000E+01  0.00000000E+00
  3.70000000E+02  7.40000000E+01  0.00000000E+00
  3.70000000E+02  7.20000000E+01  0.00000000E+00
  3.70000000E+02  7.00000000E+01  0.00000000E+00
  3.70000000E+02  6.80000000E+01  0.00000000E+00
  3.70000000E+02  6.60000000E+01  0.00000000E+00
  3.70000000E+02  6.40000000E+01  0.00000000E+00
  3.70000000E+02  6.20000000E+01  0.00000000E+00
  3.70000000E+02  6.00000000E+01  0.00000000E+00
  3.70000000E+02  5.80000000E+01  0.00000000E+00
  3.70000000E+02  5.60000000E+01  0.00000000E+00
  3.70000000E+02  5.40000000E+01  0.00000000E+00
  3.70000000E+02  5.20000000E+01  0.00000000E+00
  3.70000000E+02  5.00000000E+01  0.00000000E+00
  3.70000000E+02  4.80000000E+01  0.00000000E+00
  3.70000000E+02  4.60000000E+01  0.00000000E+00
  3.70000000E+02  4.40000000E+01  0.00000000E+00
  3.70000000E+02  4.20000000E+01  0.00000000E+00
  3.70000000E+02  4.00000000E+01  0.00000000E+00
  3.70000000E+02  3.80000000E+01  0.00000000E+00
  3.70000000E+02  3.60000000E+01  0.00000000E+00
  3.70000000E+02  3.40000000E+01  0.00000000E+00
  3.70000000E+02  3.20000000E+01  0.00000000E+00
  3.70000000E+02  3.00000000E+01  0.00000000E+00
  3.70000000E+02  2.80000000E+01  0.00000000E+00
  3.70000000E+02  2.60000000E+01  0.00000000E+00
  3.70000000E+02  2.40000000E+01  0.00000000E+00
  3.70000000E+02  2.20000000E+01  0.00000000E+00
  3.70000000E+02  2.00000000E+01  0.00000000E+00
  3.70000000E+02  1.80000000E+01  0.00000000E+00
  3.70000000E+02  1.60000000E+01  0.00000000E+00
  3.70000000E+02  1.40000000E+01  0.00000000E+00
  3.70000000E+02  1.20000000E+01  0.00000000E+00
  3.70000000E+02  1.00000000E+01  0.00000000E+00
  3.70000000E+02  8.00000000E+00  0.00000000E+00
  3.70000000E+02  6.00000000E+00  0.00000000E+00
  3.70000000E+02  4.00000000E+00  0.00000000E+00
  3.70000000E+02  2.00000000E+00  0.00000000E+00
  3.70000000E+02 -3.33066907E-14  0.00000000E+00
  3.80000000E+02  1.00000000E+02  0.00000000E+00
  3.80000000E+02  9.80000000E+01  0.00000000E+00
  3.80000000E+02  9.60000000E+01  0.00000000E+00
  3.80000000E+02  9.40000000E+01  0.00000000E+00
  3.80000000E+02  9.20000000E+01  0.00000000E+00
  3.80000000E+02  9.00000000E+01  0.00000000E+00
  3.80000000E+02  8.80000000E+01  0.00000000E+00
  3.80000000E+02  8.60000000E+01  0.00000000E+00
  3.80000000E+02  8.40000000E+01  0.00000000E+00
  3.80000000E+02  8.20000000E+01  0.00000000E+00
  3.80000000E+02  8.00000000E+01  0.00000000E+00
  3.80000000E+02  7.80000000E+01  0.00000000E+00
  3.80000000E+02  7.60000000E+01  0.00000000E+00
  3.80000000E+02  7.40000000E+01  0.00000000E+00
  3.80000000E+02  7.20000000E+01  0.00000000E+00
  3.80000000E+02  7.00000000E+01  0.00000000E+00
  3.80000000E+02  6.80000000E+01  0.00000000E+00
  3.80000000E+02  6.60000000E+01  0.00000000E+00
  3.80000000E+02  6.40000000E+01  0.00000000E+00
  3.80000000E+02  6.20000000E+01  0.00000000E+00
  3.80000000E+02  6.00000000E+01  0.00000000E+00
  3.80000000E+02  5.80000000E+01  0.00000000E+00
  3.80000000E+02  5.60000000E+01  0.00000000E+00
  3.80000000E+02  5.40000000E+01  0.00000000E+00
  3.80000000E+02  5.20000000E+01  0.00000000E+00
  3.80000000E+02  5.00000000E+01  0.00000000E+00
  3.80000000E+02  4.80000000E+01  0.00000000E+00
  3.80000000E+02  4.60000000E+01  0.00000000E+00
  3.80000000E+02  4.40000000E+01  0.00000000E+00
  3.80000000E+02  4.20000000E+01  0.00000000E+00
  3.80000000E+02  4.00000000E+01  0.00000000E+00
  3.80000000E+02  3.80000000E+01  0.00000000E+00
  3.80000000E+02  3.60000000E+01  0.00000000E+00
  3.80000000E+02  3.40000000E+01  0.00000000E+00
  3.80000000E+02  3.20000000E+01  0.00000000E+00
  3.80000000E+02  3.00000000E+01  0.00000000E+00
  3.80000000E+02  2.80000000E+01  0.00000000E+00
  3.80000000E+02  2.60000000E+01  0.00000000E+00
  3.80000000E+02  2.40000000E+01  0.00000000E+00
  3.80000000E+02  2.20000000E+01  0.00000000E+00
  3.80000000E+02  2.00000000E+01  0.00000000E+00
  3.80000000E+02  1.80000000E+01  0.00000000E+00
  3.80000000E+02  1.60000000E+01  0.00000000E+00
  3.80000000E+02  1.40000000E+01  0.00000000E+00
  3.80000000E+02  1.20000000E+01  0.00000000E+00
  3.80000000E+02  1.00000000E+01  0.00000000E+00
  3.80000000E+02  8.00000000E+00  0.00000000E+00
  3.80000000E+02  6.00000000E+00  0.00000000E+00
  3.80000000E+02  4.00000000E+00  0.00000000E+00
  3.80000000E+02  2.00000000E+00  0.00000000E+00
  3.80000000E+02 -3.33066907E-14  0.00000000E+00
  3.90000000E+02  1.00000000E+02  0.00000000E+00
  3.90000000E+02  9.80000000E+01  0.00000000E+00
  3.90000000E+02  9.60000000E+01  0.00000000E+00
  3.90000000E+02  9.40000000E+01  0.00000000E+00
  3.90000000E+02  9.20000000E+01  0.00000000E+00
  3.90000000E+02  9.00000000E+01  0.00000000E+00
  3.90000000E+02  8.80000000E+01  0.00000000E+00
  3.90000000E+02  8.60000000E+01  0.00000000E+00
  3.90000000E+02  8.40000000E+01  0.00000000E+00
  3.90000000E+02  8.20000000E+01  0.00000000E+00
  3.90000000E+02  8.00000000E+01  0.00000000E+00
  3.90000000E+02  7.80000000E+01  0.00000000E+00
  3.90000000E+02  7.60000000E+01  0.00000000E+00
  3.90000000E+02  7.40000000E+01  0.00000000E+00
  3.90000000E+02  7.20000000E+01  0.00000000E+00
  3.90000000E+02  7.00000000E+01  0.00000000E+00
  3.90000000E+02  6.80000000E+01  0.00000000E+00
  3.90000000E+02  6.60000000E+01  0.00000000E+00
  3.90000000E+02  6.40000000E+01  0.00000000E+00
  3.90000000E+02  6.20000000E+01  0.00000000E+00
  3.90000000E+02  6.00000000E+01  0.00000000E+00
  3.90000000E+02  5.80000000E+01  0.00000000E+00
  3.90000000E+02  5.60000000E+01  0.00000000E+00
  3.90000000E+02  5.40000000E+01  0.00000000E+00
  3.90000000E+02  5.20000000E+01  0.00000000E+00
  3.90000000E+02  5.00000000E+01  0.00000000E+00
  3.90000000E+02  4.80000000E+01  0.00000000E+00
  3.90000000E+02  4.60000000E+01  0.00000000E+00
  3.90000000E+02  4.40000000E+01  0.00000000E+00
  3.90000000E+02  4.20000000E+01  0.00000000E+00
  3.90000000E+02  4.00000000E+01  0.00000000E+00
  3.90000000E+02  3.80000000E+01  0.00000000E+00
  3.90000000E+02  3.60000000E+01  0.00000000E+00
  3.90000000E+02  3.40000000E+01  0.00000000E+00
  3.90000000E+02  3.20000000E+01  0.00000000E+00
  3.90000000E+02  3.00000000E+01  0.00000000E+00
  3.90000000E+02  2.80000000E+01  0.00000000E+00
  3.90000000E+02  2.60000000E+01  0.00000000E+00
  3.90000000E+02  2.40000000E+01  0.00000000E+00
  3.90000000E+02  2.20000000E+01  0.00000000E+00
  3.90000000E+02  2.00000000E+01  0.00000000E+00
  3.90000000E+02  1.80000000E+01  0.00000000E+00
  3.90000000E+02  1.60000000E+01  0.00000000E+00
  3.90000000E+02  1.40000000E+01  0.00000000E+00
  3.90000000E+02  1.20000000E+01  0.00000000E+00
  3.90000000E+02  1.00000000E+01  0.00000000E+00
  3.90000000E+02  8.00000000E+00  0.00000000E+00
  3.90000000E+02  6.00000000E+00  0.00000000E+00
  3.90000000E+02  4.00000000E+00  0.00000000E+00
  3.90000000E+02  2.00000000E+00  0.00000000E+00
  3.90000000E+02 -3.33066907E-14  0.00000000E+00
  4.00000000E+02  1.00000000E+02  0.00000000E+00
  4.00000000E+02  9.80000000E+01  0.00000000E+00
  4.00000000E+02  9.60000000E+01  0.00000000E+00
  4.00000000E+02  9.40000000E+01  0.00000000E+00
  4.00000000E+02  9.20000000E+01  0.00000000E+00
  4.00000000E+02  9.00000000E+01  0.00000000E+00
  4.00000000E+02  8.80000000E+01  0.00000000E+00
  4.00000000E+02  8.60000000E+01  0.00000000E+00
  4.00000000E+02  8.40000000E+01  0.00000000E+00
  4.00000000E+02  8.20000000E+01  0.00000000E+00
  4.00000000E+02  8.00000000E+01  0.00000000E+00
  4.00000000E+02  7.80000000E+01  0.00000000E+00
  4.00000000E+02  7.60000000E+01  0.00000000E+00
  4.00000000E+02  7.40000000E+01  0.00000000E+00
  4.00000000E+02  7.20000000E+01  0.00000000E+00
  4.00000000E+02  7.00000000E+01  0.00000000E+00
  4.00000000E+02  6.80000000E+01  0.00000000E+00
  4.00000000E+02  6.60000000E+01  0.00000000E+00
  4.00000000E+02  6.40000000E+01  0.00000000E+00
  4.00000000E+02  6.20000000E+01  0.00000000E+00
  4.00000000E+02  6.00000000E+01  0.00000000E+00
  4.00000000E+02  5.80000000E+01  0.00000000E+00
  4.00000000E+02  5.60000000E+01  0.00000000E+00
  4.00000000E+02  5.40000000E+01  0.00000000E+00
  4.00000000E+02  5.20000000E+01  0.00000000E+00
  4.00000000E+02  5.00000000E+01  0.00000000E+00
  4.00000000E+02  4.80000000E+01  0.00000000E+00
  4.00000000E+02  4.60000000E+01  0.00000000E+00
  4.00000000E+02  4.40000000E+01  0.00000000E+00
  4.00000000E+02  4.20000000E+01  0.00000000E+00
  4.00000000E+02  4.00000000E+01  0.00000000E+00
  4.00000000E+02  3.80000000E+01  0.00000000E+00
  4.00000000E+02  3.60000000E+01  0.00000000E+00
  4.00000000E+02  3.40000000E+01  0.00000000E+00
  4.00000000E+02  3.20000000E+01  0.00000000E+00
  4.00000000E+02  3.00000000E+01  0.00000000E+00
  4.00000000E+02  2.80000000E+01  0.00000000E+00
  4.00000000E+02  2.60000000E+01  0.00000000E+00
  4.00000000E+02  2.40000000E+01  0.00000000E+00
  4.00000000E+02  2.20000000E+01  0.00000000E+00
  4.00000000E+02  2.00000000E+01  0.00000000E+00
  4.00000000E+02  1.80000000E+01  0.00000000E+00
  4.00000000E+02  1.60000000E+01  0.00000000E+00
  4.00000000E+02  1.40000000E+01  0.00000000E+00
  4.00000000E+02  1.20000000E+01  0.00000000E+00
  4.00000000E+02  1.00000000E+01  0.00000000E+00
  4.00000000E+02  8.00000000E+00  0.00000000E+00
  4.00000000E+02  6.00000000E+00  0.00000000E+00
  4.00000000E+02  4.00000000E+00  0.00000000E+00
  4.00000000E+02  2.00000000E+00  0.00000000E+00
  4.00000000E+02 -3.33066907E-14  0.00000000E+00
  4.10000000E+02  1.00000000E+02  0.00000000E+00
  4.10000000E+02  9.80000000E+01  0.00000000E+00
  4.10000000E+02  9.60000000E+01  0.00000000E+00
  4.10000000E+02  9.40000000E+01  0.00000000E+00
  4.10000000E+02  9.20000000E+01  0.00000000E+00
  4.10000000E+02  9.00000000E+01  0.00000000E+00
  4.10000000E+02  8.80000000E+01  0.00000000E+00
  4.10000000E+02  8.60000000E+01  0.00000000E+00
  4.10000000E+02  8.40000000E+01  0.00000000E+00
  4.10000000E+02  8.20000000E+01  0.00000000E+00
  4.10000000E+02  8.00000000E+01  0.00000000E+00
  4.10000000E+02  7.80000000E+01  0.00000000E+00
  4.10000000E+02  7.60000000E+01  0.00000000E+00
  4.10000000E+02  7.40000000E+01  0.00000000E+00
  4.10000000E+02  7.20000000E+01  0.00000000E+00
  4.10000000E+02  7.00000000E+01  0.00000000E+00
  4.10000000E+02  6.80000000E+01  0.00000000E+00
  4.10000000E+02  6.60000000E+01  0.00000000E+00
  4.10000000E+02  6.40000000E+01  0.00000000E+00
  4.10000000E+02  6.20000000E+01  0.00000000E+00
  4.10000000E+02  6.00000000E+01  0.00000000E+00
  4.10000000E+02  5.80000000E+01  0.00000000E+00
  4.10000000E+02  5.60000000E+01  0.00000000E+00
  4.10000000E+02  5.40000000E+01  0.00000000E+00
  4.10000000E+02  5.20000000E+01  0.00000000E+00
  4.10000000E+02  5.00000000E+01  0.00000000E+00
  4.10000000E+02  4.80000000E+01  0.00000000E+00
  4.10000000E+02  4.60000000E+01  0.00000000E+00
  4.10000000E+02  4.40000000E+01  0.00000000E+00
  4.10000000E+02  4.20000000E+01  0.00000000E+00
  4.10000000E+02  4.00000000E+01  0.00000000E+00
  4.10000000E+02  3.80000000E+01  0.00000000E+00
  4.10000000E+02  3.60000000E+01  0.00000000E+00
  4.10000000E+02  3.40000000E+01  0.00000000E+00
  4.10000000E+02  3.20000000E+01  0.00000000E+00
  4.10000000E+02  3.00000000E+01  0.00000000E+00
  4.10000000E+02  2.80000000E+01  0.00000000E+00
  4.10000000E+02  2.60000000E+01  0.00000000E+00
  4.10000000E+02  2.40000000E+01  0.00000000E+00
  4.10000000E+02  2.20000000E+01  0.00000000E+00
  4.10000000E+02  2.00000000E+01  0.00000000E+00
  4.10000000E+02  1.80000000E+01  0.00000000E+00
  4.10000000E+02  1.60000000E+01  0.00000000E+00
  4.10000000E+02  1.40000000E+01  0.00000000E+00
  4.10000000E+02  1.20000000E+01  0.00000000E+00
  4.10000000E+02  1.00000000E+01  0.00000000E+00
  4.10000000E+02  8.00000000E+00  0.00000000E+00
  4.10000000E+02  6.00000000E+00  0.00000000E+00
  4.10000000E+02  4.00000000E+00  0.00000000E+00
  4.10000000E+02  2.00000000E+00  0.00000000E+00
  4.10000000E+02 -3.33066907E-14  0.00000000E+00
  4.20000000E+02  1.00000000E+02  0.00000000E+00
  4.20000000E+02  9.80000000E+01  0.00000000E+00
  4.20000000E+02  9.60000000E+01  0.00000000E+00
  4.20000000E+02  9.40000000E+01  0.00000000E+00
  4.20000000E+02  9.20000000E+01  0.00000000E+00
  4.20000000E+02  9.00000000E+01  0.00000000E+00
  4.20000000E+02  8.80000000E+01  0.00000000E+00
  4.20000000E+02  8.60000000E+01  0.00000000E+00
  4.20000000E+02  8.40000000E+01  0.00000000E+00
  4.20000000E+02  8.20000000E+01  0.00000000E+00
  4.20000000E+02  8.00000000E+01  0.00000000E+00
  4.20000000E+02  7.80000000E+01  0.00000000E+00
  4.20000000E+02  7.60000000E+01  0.00000000E+00
  4.20000000E+02  7.40000000E+01  0.00000000E+00
  4.20000000E+02  7.20000000E+01  0.00000000E+00
  4.20000000E+02  7.00000000E+01  0.00000000E+00
  4.20000000E+02  6.80000000E+01  0.00000000E+00
  4.20000000E+02  6.60000000E+01  0.00000000E+00
  4.20000000E+02  6.40000000E+01  0.00000000E+00
  4.20000000E+02  6.20000000E+01  0.00000000E+00
  4.20000000E+02  6.00000000E+01  0.00000000E+00
  4.20000000E+02  5.80000000E+01  0.00000000E+00
  4.20000000E+02  5.60000000E+01  0.00000000E+00
  4.20000000E+02  5.40000000E+01  0.00000000E+00
  4.20000000E+02  5.20000000E+01  0.00000000E+00
  4.20000000E+02  5.00000000E+01  0.00000000E+00
  4.20000000E+02  4.80000000E+01  0.00000000E+00
  4.20000000E+02  4.60000000E+01  0.00000000E+00
  4.20000000E+02  4.40000000E+01  0.00000000E+00
  4.20000000E+02  4.20000000E+01  0.00000000E+00
  4.20000000E+02  4.00000000E+01  0.00000000E+00
  4.20000000E+02  3.80000000E+01  0.00000000E+00
  4.20000000E+02  3.60000000E+01  0.00000000E+00
  4.20000000E+02  3.40000000E+01  0.00000000E+00
  4.20000000E+02  3.20000000E+01  0.00000000E+00
  4.20000000E+02  3.00000000E+01  0.00000000E+00
  4.20000000E+02  2.80000000E+01  0.00000000E+00
  4.20000000E+02  2.60000000E+01  0.00000000E+00
  4.20000000E+02  2.40000000E+01  0.00000000E+00
  4.20000000E+02  2.20000000E+01  0.00000000E+00
  4.20000000E+02  2.00000000E+01  0.00000000E+00
  4.20000000E+02  1.80000000E+01  0.00000000E+00
  4.20000000E+02  1.60000000E+01  0.00000000E+00
  4.20000000E+02  1.40000000E+01  0.00000000E+00
  4.20000000E+02  1.20000000E+01  0.00000000E+00
  4.20000000E+02  1.00000000E+01  0.00000000E+00
  4.20000000E+02  8.00000000E+00  0.00000000E+00
  4.20000000E+02  6.00000000E+00  0.00000000E+00
  4.20000000E+02  4.00000000E+00  0.00000000E+00
  4.20000000E+02  2.00000000E+00  0.00000000E+00
  4.20000000E+02 -3.33066907E-14  0.00000000E+00
  4.30000000E+02  1.00000000E+02  0.00000000E+00
  4.30000000E+02  9.80000000E+01  0.00000000E+00
  4.30000000E+02  9.60000000E+01  0.00000000E+00
  4.30000000E+02  9.40000000E+01  0.00000000E+00
  4.30000000E+02  9.20000000E+01  0.00000000E+00
  4.30000000E+02  9.00000000E+01  0.00000000E+00
  4.30000000E+02  8.80000000E+01  0.00000000E+00
  4.30000000E+02  8.60000000E+01  0.00000000E+00
  4.30000000E+02  8.40000000E+01  0.00000000E+00
  4.30000000E+02  8.20000000E+01  0.00000000E+00
  4.30000000E+02  8.00000000E+01  0.00000000E+00
  4.30000000E+02  7.80000000E+01  0.00000000E+00
  4.30000000E+02  7.60000000E+01  0.00000000E+00
  4.30000000E+02  7.40000000E+01  0.00000000E+00
  4.30000000E+02  7.20000000E+01  0.00000000E+00
  4.30000000E+02  7.00000000E+01  0.00000000E+00
  4.30000000E+02  6.80000000E+01  0.00000000E+00
  4.30000000E+02  6.60000000E+01  0.00000000E+00
  4.30000000E+02  6.40000000E+01  0.00000000E+00
  4.30000000E+02  6.20000000E+01  0.00000000E+00
  4.30000000E+02  6.00000000E+01  0.00000000E+00
  4.30000000E+02  5.80000000E+01  0.00000000E+00
  4.30000000E+02  5.60000000E+01  0.00000000E+00
  4.30000000E+02  5.40000000E+01  0.00000000E+00
  4.30000000E+02  5.20000000E+01  0.00000000E+00
  4.30000000E+02  5.00000000E+01  0.00000000E+00
  4.30000000E+02  4.80000000E+01  0.00000000E+00
  4.30000000E+02  4.60000000E+01  0.00000000E+00
  4.30000000E+02  4.40000000E+01  0.00000000E+00
  4.30000000E+02  4.20000000E+01  0.00000000E+00
  4.30000000E+02  4.00000000E+01  0.00000000E+00
  4.30000000E+02  3.80000000E+01  0.00000000E+00
  4.30000000E+02  3.60000000E+01  0.00000000E+00
  4.30000000E+02  3.40000000E+01  0.00000000E+00
  4.30000000E+02  3.20000000E+01  0.00000000E+00
  4.30000000E+02  3.00000000E+01  0.00000000E+00
  4.30000000E+02  2.80000000E+01  0.00000000E+00
  4.30000000E+02  2.60000000E+01  0.00000000E+00
  4.30000000E+02  2.40000000E+01  0.00000000E+00
  4.30000000E+02  2.20000000E+01  0.00000000E+00
  4.30000000E+02  2.00000000E+01  0.00000000E+00
  4.30000000E+02  1.80000000E+01  0.00000000E+00
  4.30000000E+02  1.60000000E+01  0.00000000E+00
  4.30000000E+02  1.40000000E+01  0.00000000E+00
  4.30000000E+02  1.20000000E+01  0.00000000E+00
  4.30000000E+02  1.00000000E+01  0.00000000E+00
  4.30000000E+02  8.00000000E+00  0.00000000E+00
  4.30000000E+02  6.00000000E+00  0.00000000E+00
  4.30000000E+02  4.00000000E+00  0.00000000E+00
  4.30000000E+02  2.00000000E+00  0.00000000E+00
  4.30000000E+02 -3.33066907E-14  0.00000000E+00
  4.40000000E+02  1.00000000E+02  0.00000000E+00
  4.40000000E+02  9.80000000E+01  0.00000000E+00
  4.40000000E+02  9.60000000E+01  0.00000000E+00
  4.40000000E+02  9.40000000E+01  0.00000000E+00
  4.40000000E+02  9.20000000E+01  0.00000000E+00
  4.40000000E+02  9.00000000E+01  0.00000000E+00
  4.40000000E+02  8.80000000E+01  0.00000000E+00
  4.40000000E+02  8.60000000E+01  0.00000000E+00
  4.40000000E+02  8.40000000E+01  0.00000000E+00
  4.40000000E+02  8.20000000E+01  0.00000000E+00
  4.40000000E+02  8.00000000E+01  0.00000000E+00
  4.40000000E+02  7.80000000E+01  0.00000000E+00
  4.40000000E+02  7.60000000E+01  0.00000000E+00
  4.40000000E+02  7.40000000E+01  0.00000000E+00
  4.40000000E+02  7.20000000E+01  0.00000000E+00
  4.40000000E+02  7.00000000E+01  0.00000000E+00
  4.40000000E+02  6.80000000E+01  0.00000000E+00
  4.40000000E+02  6.60000000E+01  0.00000000E+00
  4.40000000E+02  6.40000000E+01  0.00000000E+00
  4.40000000E+02  6.20000000E+01  0.00000000E+00
  4.40000000E+02  6.00000000E+01  0.00000000E+00
  4.40000000E+02  5.80000000E+01  0.00000000E+00
  4.40000000E+02  5.60000000E+01  0.00000000E+00
  4.40000000E+02  5.40000000E+01  0.00000000E+00
  4.40000000E+02  5.20000000E+01  0.00000000E+00
  4.40000000E+02  5.00000000E+01  0.00000000E+00
  4.40000000E+02  4.80000000E+01  0.00000000E+00
  4.40000000E+02  4.60000000E+01  0.00000000E+00
  4.40000000E+02  4.40000000E+01  0.00000000E+00
  4.40000000E+02  4.20000000E+01  0.00000000E+00
  4.40000000E+02  4.00000000E+01  0.00000000E+00
  4.40000000E+02  3.80000000E+01  0.00000000E+00
  4.40000000E+02  3.60000000E+01  0.00000000E+00
  4.40000000E+02  3.40000000E+01  0.00000000E+00
  4.40000000E+02  3.20000000E+01  0.00000000E+00
  4.40000000E+02  3.00000000E+01  0.00000000E+00
  4.40000000E+02  2.80000000E+01  0.00000000E+00
  4.40000000E+02  2.60000000E+01  0.00000000E+00
  4.40000000E+02  2.40000000E+01  0.00000000E+00
  4.40000000E+02  2.20000000E+01  0.00000000E+00
  4.40000000E+02  2.00000000E+01  0.00000000E+00
  4.40000000E+02  1.80000000E+01  0.00000000E+00
  4.40000000E+02  1.60000000E+01  0.00000000E+00
  4.40000000E+02  1.40000000E+01  0.00000000E+00
  4.40000000E+02  1.20000000E+01  0.00000000E+00
  4.40000000E+02  1.00000000E+01  0.00000000E+00
  4.40000000E+02  8.00000000E+00  0.00000000E+00
  4.40000000E+02  6.00000000E+00  0.00000000E+00
  4.40000000E+02  4.00000000E+00  0.00000000E+00
  4.40000000E+02  2.00000000E+00  0.00000000E+00
  4.40000000E+02 -3.33066907E-14  0.00000000E+00
  4.50000000E+02  1.00000000E+02  0.00000000E+00
  4.50000000E+02  9.80000000E+01  0.00000000E+00
  4.50000000E+02  9.60000000E+01  0.00000000E+00
  4.50000000E+02  9.40000000E+01  0.00000000E+00
  4.50000000E+02  9.20000000E+01  0.00000000E+00
  4.50000000E+02  9.00000000E+01  0.00000000E+00
  4.50000000E+02  8.80000000E+01  0.00000000E+00
  4.50000000E+02  8.60000000E+01  0.00000000E+00
  4.50000000E+02  8.40000000E+01  0.00000000E+00
  4.50000000E+02  8.20000000E+01  0.00000000E+00
  4.50000000E+02  8.00000000E+01  0.00000000E+00
  4.50000000E+02  7.80000000E+01  0.00000000E+00
  4.50000000E+02  7.60000000E+01  0.00000000E+00
  4.50000000E+02  7.40000000E+01  0.00000000E+00
  4.50000000E+02  7.20000000E+01  0.00000000E+00
  4.50000000E+02  7.00000000E+01  0.00000000E+00
  4.50000000E+02  6.80000000E+01  0.00000000E+00
  4.50000000E+02  6.60000000E+01  0.00000000E+00
  4.50000000E+02  6.40000000E+01  0.00000000E+00
  4.50000000E+02  6.20000000E+01  0.00000000E+00
  4.50000000E+02  6.00000000E+01  0.00000000E+00
  4.50000000E+02  5.80000000E+01  0.00000000E+00
  4.50000000E+02  5.60000000E+01  0.00000000E+00
  4.50000000E+02  5.40000000E+01  0.00000000E+00
  4.50000000E+02  5.20000000E+01  0.00000000E+00
  4.50000000E+02  5.00000000E+01  0.00000000E+00
  4.50000000E+02  4.80000000E+01  0.00000000E+00
  4.50000000E+02  4.60000000E+01  0.00000000E+00
  4.50000000E+02  4.40000000E+01  0.00000000E+00
  4.50000000E+02  4.20000000E+01  0.00000000E+00
  4.50000000E+02  4.00000000E+01  0.00000000E+00
  4.50000000E+02  3.80000000E+01  0.00000000E+00
  4.50000000E+02  3.60000000E+01  0.00000000E+00
  4.50000000E+02  3.40000000E+01  0.00000000E+00
  4.50000000E+02  3.20000000E+01  0.00000000E+00
  4.50000000E+02  3.00000000E+01  0.00000000E+00
  4.50000000E+02  2.80000000E+01  0.00000000E+00
  4.50000000E+02  2.60000000E+01  0.00000000E+00
  4.50000000E+02  2.40000000E+01  0.00000000E+00
  4.50000000E+02  2.20000000E+01  0.00000000E+00
  4.50000000E+02  2.00000000E+01  0.00000000E+00
  4.50000000E+02  1.80000000E+01  0.00000000E+00
  4.50000000E+02  1.60000000E+01  0.00000000E+00
  4.50000000E+02  1.40000000E+01  0.00000000E+00
  4.50000000E+02  1.20000000E+01  0.00000000E+00
  4.50000000E+02  1.00000000E+01  0.00000000E+00
  4.50000000E+02  8.00000000E+00  0.00000000E+00
  4.50000000E+02  6.00000000E+00  0.00000000E+00
  4.50000000E+02  4.00000000E+00  0.00000000E+00
  4.50000000E+02  2.00000000E+00  0.00000000E+00
  4.50000000E+02 -3.33066907E-14  0.00000000E+00
  4.60000000E+02  1.00000000E+02  0.00000000E+00
  4.60000000E+02  9.80000000E+01  0.00000000E+00
  4.60000000E+02  9.60000000E+01  0.00000000E+00
  4.60000000E+02  9.40000000E+01  0.00000000E+00
  4.60000000E+02  9.20000000E+01  0.00000000E+00
  4.60000000E+02  9.00000000E+01  0.00000000E+00
  4.60000000E+02  8.80000000E+01  0.00000000E+00
  4.60000000E+02  8.60000000E+01  0.00000000E+00
  4.60000000E+02  8.40000000E+01  0.00000000E+00
  4.60000000E+02  8.20000000E+01  0.00000000E+00
  4.60000000E+02  8.00000000E+01  0.00000000E+00
  4.60000000E+02  7.80000000E+01  0.00000000E+00
  4.60000000E+02  7.60000000E+01  0.00000000E+00
  4.60000000E+02  7.40000000E+01  0.00000000E+00
  4.60000000E+02  7.20000000E+01  0.00000000E+00
  4.60000000E+02  7.00000000E+01  0.00000000E+00
  4.60000000E+02  6.80000000E+01  0.00000000E+00
  4.60000000E+02  6.60000000E+01  0.00000000E+00
  4.60000000E+02  6.40000000E+01  0.00000000E+00
  4.60000000E+02  6.20000000E+01  0.00000000E+00
  4.60000000E+02  6.00000000E+01  0.00000000E+00
  4.60000000E+02  5.80000000E+01  0.00000000E+00
  4.60000000E+02  5.60000000E+01  0.00000000E+00
  4.60000000E+02  5.40000000E+01  0.00000000E+00
  4.60000000E+02  5.20000000E+01  0.00000000E+00
  4.60000000E+02  5.00000000E+01  0.00000000E+00
  4.60000000E+02  4.80000000E+01  0.00000000E+00
  4.60000000E+02  4.60000000E+01  0.00000000E+00
  4.60000000E+02  4.40000000E+01  0.00000000E+00
  4.60000000E+02  4.20000000E+01  0.00000000E+00
  4.60000000E+02  4.00000000E+01  0.00000000E+00
  4.60000000E+02  3.80000000E+01  0.00000000E+00
  4.60000000E+02  3.60000000E+01  0.00000000E+00
  4.60000000E+02  3.40000000E+01  0.00000000E+00
  4.60000000E+02  3.20000000E+01  0.00000000E+00
  4.60000000E+02  3.00000000E+01  0.00000000E+00
  4.60000000E+02  2.80000000E+01  0.00000000E+00
  4.60000000E+02  2.60000000E+01  0.00000000E+00
  4.60000000E+02  2.40000000E+01  0.00000000E+00
  4.60000000E+02  2.20000000E+01  0.00000000E+00
  4.60000000E+02  2.00000000E+01  0.00000000E+00
  4.60000000E+02  1.80000000E+01  0.00000000E+00
  4.60000000E+02  1.60000000E+01  0.00000000E+00
  4.60000000E+02  1.40000000E+01  0.00000000E+00
  4.60000000E+02  1.20000000E+01  0.00000000E+00
  4.60000000E+02  1.00000000E+01  0.00000000E+00
  4.60000000E+02  8.00000000E+00  0.00000000E+00
  4.60000000E+02  6.00000000E+00  0.00000000E+00
  4.60000000E+02  4.00000000E+00  0.00000000E+00
  4.60000000E+02  2.00000000E+00  0.00000000E+00
  4.60000000E+02 -3.33066907E-14  0.00000000E+00
  4.70000000E+02  1.00000000E+02  0.00000000E+00
  4.70000000E+02  9.80000000E+01  0.00000000E+00
  4.70000000E+02  9.60000000E+01  0.00000000E+00
  4.70000000E+02  9.40000000E+01  0.00000000E+00
  4.70000000E+02  9.20000000E+01  0.00000000E+00
  4.70000000E+02  9.00000000E+01  0.00000000E+00
  4.70000000E+02  8.80000000E+01  0.00000000E+00
  4.70000000E+02  8.60000000E+01  0.00000000E+00
  4.70000000E+02  8.40000000E+01  0.00000000E+00
  4.70000000E+02  8.20000000E+01  0.00000000E+00
  4.70000000E+02  8.00000000E+01  0.00000000E+00
  4.70000000E+02  7.80000000E+01  0.00000000E+00
  4.70000000E+02  7.60000000E+01  0.00000000E+00
  4.70000000E+02  7.40000000E+01  0.00000000E+00
  4.70000000E+02  7.20000000E+01  0.00000000E+00
  4.70000000E+02  7.00000000E+01  0.00000000E+00
  4.70000000E+02  6.80000000E+01  0.00000000E+00
  4.70000000E+02  6.60000000E+01  0.00000000E+00
  4.70000000E+02  6.40000000E+01  0.00000000E+00
  4.70000000E+02  6.20000000E+01  0.00000000E+00
  4.70000000E+02  6.00000000E+01  0.00000000E+00
  4.70000000E+02  5.80000000E+01  0.00000000E+00
  4.70000000E+02  5.60000000E+01  0.00000000E+00
  4.70000000E+02  5.40000000E+01  0.00000000E+00
  4.70000000E+02  5.20000000E+01  0.00000000E+00
  4.70000000E+02  5.00000000E+01  0.00000000E+00
  4.70000000E+02  4.80000000E+01  0.00000000E+00
  4.70000000E+02  4.60000000E+01  0.00000000E+00
  4.70000000E+02  4.40000000E+01  0.00000000E+00
  4.70000000E+02  4.20000000E+01  0.00000000E+00
  4.70000000E+02  4.00000000E+01  0.00000000E+00
  4.70000000E+02  3.80000000E+01  0.00000000E+00
  4.70000000E+02  3.60000000E+01  0.00000000E+00
  4.70000000E+02  3.40000000E+01  0.00000000E+00
  4.70000000E+02  3.20000000E+01  0.00000000E+00
  4.70000000E+02  3.00000000E+01  0.00000000E+00
  4.70000000E+02  2.80000000E+01  0.00000000E+00
  4.70000000E+02  2.60000000E+01  0.00000000E+00
  4.70000000E+02  2.40000000E+01  0.00000000E+00
  4.70000000E+02  2.20000000E+01  0.00000000E+00
  4.70000000E+02  2.00000000E+01  0.00000000E+00
  4.70000000E+02  1.80000000E+01  0.00000000E+00
  4.70000000E+02  1.60000000E+01  0.00000000E+00
  4.70000000E+02  1.40000000E+01  0.00000000E+00
  4.70000000E+02  1.20000000E+01  0.00000000E+00
  4.70000000E+02  1.00000000E+01  0.00000000E+00
  4.70000000E+02  8.00000000E+00  0.00000000E+00
  4.70000000E+02  6.00000000E+00  0.00000000E+00
  4.70000000E+02  4.00000000E+00  0.00000000E+00
  4.70000000E+02  2.00000000E+00  0.00000000E+00
  4.70000000E+02 -3.33066907E-14  0.00000000E+00
  4.80000000E+02  1.00000000E+02  0.00000000E+00
  4.80000000E+02  9.80000000E+01  0.00000000E+00
  4.80000000E+02  9.60000000E+01  0.00000000E+00
  4.80000000E+02  9.40000000E+01  0.00000000E+00
  4.80000000E+02  9.20000000E+01  0.00000000E+00
  4.80000000E+02  9.00000000E+01  0.00000000E+00
  4.80000000E+02  8.80000000E+01  0.00000000E+00
  4.80000000E+02  8.60000000E+01  0.00000000E+00
  4.80000000E+02  8.40000000E+01  0.00000000E+00
  4.80000000E+02  8.20000000E+01  0.00000000E+00
  4.80000000E+02  8.00000000E+01  0.00000000E+00
  4.80000000E+02  7.80000000E+01  0.00000000E+00
  4.80000000E+02  7.60000000E+01  0.00000000E+00
  4.80000000E+02  7.40000000E+01  0.00000000E+00
  4.80000000E+02  7.20000000E+01  0.00000000E+00
  4.80000000E+02  7.00000000E+01  0.00000000E+00
  4.80000000E+02  6.80000000E+01  0.00000000E+00
  4.80000000E+02  6.60000000E+01  0.00000000E+00
  4.80000000E+02  6.40000000E+01  0.00000000E+00
  4.80000000E+02  6.20000000E+01  0.00000000E+00
  4.80000000E+02  6.00000000E+01  0.00000000E+00
  4.80000000E+02  5.80000000E+01  0.00000000E+00
  4.80000000E+02  5.60000000E+01  0.00000000E+00
  4.80000000E+02  5.40000000E+01  0.00000000E+00
  4.80000000E+02  5.20000000E+01  0.00000000E+00
  4.80000000E+02  5.00000000E+01  0.00000000E+00
  4.80000000E+02  4.80000000E+01  0.00000000E+00
  4.80000000E+02  4.60000000E+01  0.00000000E+00
  4.80000000E+02  4.40000000E+01  0.00000000E+00
  4.80000000E+02  4.20000000E+01  0.00000000E+00
  4.80000000E+02  4.00000000E+01  0.00000000E+00
  4.80000000E+02  3.80000000E+01  0.00000000E+00
  4.80000000E+02  3.60000000E+01  0.00000000E+00
  4.80000000E+02  3.40000000E+01  0.00000000E+00
  4.80000000E+02  3.20000000E+01  0.00000000E+00
  4.80000000E+02  3.00000000E+01  0.00000000E+00
  4.80000000E+02  2.80000000E+01  0.00000000E+00
  4.80000000E+02  2.60000000E+01  0.00000000E+00
  4.80000000E+02  2.40000000E+01  0.00000000E+00
  4.80000000E+02  2.20000000E+01  0.00000000E+00
  4.80000000E+02  2.00000000E+01  0.00000000E+00
  4.80000000E+02  1.80000000E+01  0.00000000E+00
  4.80000000E+02  1.60000000E+01  0.00000000E+00
  4.80000000E+02  1.40000000E+01  0.00000000E+00
  4.80000000E+02  1.20000000E+01  0.00000000E+00
  4.80000000E+02  1.00000000E+01  0.00000000E+00
  4.80000000E+02  8.00000000E+00  0.00000000E+00
  4.80000000E+02  6.00000000E+00  0.00000000E+00
  4.80000000E+02  4.00000000E+00  0.00000000E+00
  4.80000000E+02  2.00000000E+00  0.00000000E+00
  4.80000000E+02 -3.33066907E-14  0.00000000E+00
  4.90000000E+02  1.00000000E+02  0.00000000E+00
  4.90000000E+02  9.80000000E+01  0.00000000E+00
  4.90000000E+02  9.60000000E+01  0.00000000E+00
  4.90000000E+02  9.40000000E+01  0.00000000E+00
  4.90000000E+02  9.20000000E+01  0.00000000E+00
  4.90000000E+02  9.00000000E+01  0.00000000E+00
  4.90000000E+02  8.80000000E+01  0.00000000E+00
  4.90000000E+02  8.60000000E+01  0.00000000E+00
  4.90000000E+02  8.40000000E+01  0.00000000E+00
  4.90000000E+02  8.20000000E+01  0.00000000E+00
  4.90000000E+02  8.00000000E+01  0.00000000E+00
  4.90000000E+02  7.80000000E+01  0.00000000E+00
  4.90000000E+02  7.60000000E+01  0.00000000E+00
  4.90000000E+02  7.40000000E+01  0.00000000E+00
  4.90000000E+02  7.20000000E+01  0.00000000E+00
  4.90000000E+02  7.00000000E+01  0.00000000E+00
  4.90000000E+02  6.80000000E+01  0.00000000E+00
  4.90000000E+02  6.60000000E+01  0.00000000E+00
  4.90000000E+02  6.40000000E+01  0.00000000E+00
  4.90000000E+02  6.20000000E+01  0.00000000E+00
  4.90000000E+02  6.00000000E+01  0.00000000E+00
  4.90000000E+02  5.80000000E+01  0.00000000E+00
  4.90000000E+02  5.60000000E+01  0.00000000E+00
  4.90000000E+02  5.40000000E+01  0.00000000E+00
  4.90000000E+02  5.20000000E+01  0.00000000E+00
  4.90000000E+02  5.00000000E+01  0.00000000E+00
  4.90000000E+02  4.80000000E+01  0.00000000E+00
  4.90000000E+02  4.60000000E+01  0.00000000E+00
  4.90000000E+02  4.40000000E+01  0.00000000E+00
  4.90000000E+02  4.20000000E+01  0.00000000E+00
  4.90000000E+02  4.00000000E+01  0.00000000E+00
  4.90000000E+02  3.80000000E+01  0.00000000E+00
  4.90000000E+02  3.60000000E+01  0.00000000E+00
  4.90000000E+02  3.40000000E+01  0.00000000E+00
  4.90000000E+02  3.20000000E+01  0.00000000E+00
  4.90000000E+02  3.00000000E+01  0.00000000E+00
  4.90000000E+02  2.80000000E+01  0.00000000E+00
  4.90000000E+02  2.60000000E+01  0.00000000E+00
  4.90000000E+02  2.40000000E+01  0.00000000E+00
  4.90000000E+02  2.20000000E+01  0.00000000E+00
  4.90000000E+02  2.00000000E+01  0.00000000E+00
  4.90000000E+02  1.80000000E+01  0.00000000E+00
  4.90000000E+02  1.60000000E+01  0.00000000E+00
  4.90000000E+02  1.40000000E+01  0.00000000E+00
  4.90000000E+02  1.20000000E+01  0.00000000E+00
  4.90000000E+02  1.00000000E+01  0.00000000E+00
  4.90000000E+02  8.00000000E+00  0.00000000E+00
  4.90000000E+02  6.00000000E+00  0.00000000E+00
  4.90000000E+02  4.00000000E+00  0.00000000E+00
  4.90000000E+02  2.00000000E+00  0.00000000E+00
  4.90000000E+02 -3.33066907E-14  0.00000000E+00
  5.00000000E+02  1.00000000E+02  0.00000000E+00
  5.00000000E+02  9.80000000E+01  0.00000000E+00
  5.00000000E+02  9.60000000E+01  0.00000000E+00
  5.00000000E+02  9.40000000E+01  0.00000000E+00
  5.00000000E+02  9.20000000E+01  0.00000000E+00
  5.00000000E+02  9.00000000E+01  0.00000000E+00
  5.00000000E+02  8.80000000E+01  0.00000000E+00
  5.00000000E+02  8.60000000E+01  0.00000000E+00
  5.00000000E+02  8.40000000E+01  0.00000000E+00
  5.00000000E+02  8.20000000E+01  0.00000000E+00
  5.00000000E+02  8.00000000E+01  0.00000000E+00
  5.00000000E+02  7.80000000E+01  0.00000000E+00
  5.00000000E+02  7.60000000E+01  0.00000000E+00
  5.00000000E+02  7.40000000E+01  0.00000000E+00
  5.00000000E+02  7.20000000E+01  0.00000000E+00
  5.00000000E+02  7.00000000E+01  0.00000000E+00
  5.00000000E+02  6.80000000E+01  0.00000000E+00
  5.00000000E+02  6.60000000E+01  0.00000000E+00
  5.00000000E+02  6.40000000E+01  0.00000000E+00
  5.00000000E+02  6.20000000E+01  0.00000000E+00
  5.00000000E+02  6.00000000E+01  0.00000000E+00
  5.00000000E+02  5.80000000E+01  0.00000000E+00
  5.00000000E+02  5.60000000E+01  0.00000000E+00
  5.00000000E+02  5.40000000E+01  0.00000000E+00
  5.00000000E+02  5.20000000E+01  0.00000000E+00
  5.00000000E+02  5.00000000E+01  0.00000000E+00
  5.00000000E+02  4.80000000E+01  0.00000000E+00
  5.00000000E+02  4.60000000E+01  0.00000000E+00
  5.00000000E+02  4.40000000E+01  0.00000000E+00
  5.00000000E+02  4.20000000E+01  0.00000000E+00
  5.00000000E+02  4.00000000E+01  0.00000000E+00
  5.00000000E+02  3.80000000E+01  0.00000000E+00
  5.00000000E+02  3.60000000E+01  0.00000000E+00
  5.00000000E+02  3.40000000E+01  0.00000000E+00
  5.00000000E+02  3.20000000E+01  0.00000000E+00
  5.00000000E+02  3.00000000E+01  0.00000000E+00
  5.00000000E+02  2.80000000E+01  0.00000000E+00
  5.00000000E+02  2.60000000E+01  0.00000000E+00
  5.00000000E+02  2.40000000E+01  0.00000000E+00
  5.00000000E+02  2.20000000E+01  0.00000000E+00
  5.00000000E+02  2.00000000E+01  0.00000000E+00
  5.00000000E+02  1.80000000E+01  0.00000000E+00
  5.00000000E+02  1.60000000E+01  0.00000000E+00
  5.00000000E+02  1.40000000E+01  0.00000000E+00
  5.00000000E+02  1.20000000E+01  0.00000000E+00
  5.00000000E+02  1.00000000E+01  0.00000000E+00
  5.00000000E+02  8.00000000E+00  0.00000000E+00
  5.00000000E+02  6.00000000E+00  0.00000000E+00
  5.00000000E+02  4.00000000E+00  0.00000000E+00
  5.00000000E+02  2.00000000E+00  0.00000000E+00
  5.00000000E+02 -3.33066907E-14  0.00000000E+00
  5.10000000E+02  1.00000000E+02  0.00000000E+00
  5.10000000E+02  9.80000000E+01  0.00000000E+00
  5.10000000E+02  9.60000000E+01  0.00000000E+00
  5.10000000E+02  9.40000000E+01  0.00000000E+00
  5.10000000E+02  9.20000000E+01  0.00000000E+00
  5.10000000E+02  9.00000000E+01  0.00000000E+00
  5.10000000E+02  8.80000000E+01  0.00000000E+00
  5.10000000E+02  8.60000000E+01  0.00000000E+00
  5.10000000E+02  8.40000000E+01  0.00000000E+00
  5.10000000E+02  8.20000000E+01  0.00000000E+00
  5.10000000E+02  8.00000000E+01  0.00000000E+00
  5.10000000E+02  7.80000000E+01  0.00000000E+00
  5.10000000E+02  7.60000000E+01  0.00000000E+00
  5.10000000E+02  7.40000000E+01  0.00000000E+00
  5.10000000E+02  7.20000000E+01  0.00000000E+00
  5.10000000E+02  7.00000000E+01  0.00000000E+00
  5.10000000E+02  6.80000000E+01  0.00000000E+00
  5.10000000E+02  6.60000000E+01  0.00000000E+00
  5.10000000E+02  6.40000000E+01  0.00000000E+00
  5.10000000E+02  6.20000000E+01  0.00000000E+00
  5.10000000E+02  6.00000000E+01  0.00000000E+00
  5.10000000E+02  5.80000000E+01  0.00000000E+00
  5.10000000E+02  5.60000000E+01  0.00000000E+00
  5.10000000E+02  5.40000000E+01  0.00000000E+00
  5.10000000E+02  5.20000000E+01  0.00000000E+00
  5.10000000E+02  5.00000000E+01  0.00000000E+00
  5.10000000E+02  4.80000000E+01  0.00000000E+00
  5.10000000E+02  4.60000000E+01  0.00000000E+00
  5.10000000E+02  4.40000000E+01  0.00000000E+00
  5.10000000E+02  4.20000000E+01  0.00000000E+00
  5.10000000E+02  4.00000000E+01  0.00000000E+00
  5.10000000E+02  3.80000000E+01  0.00000000E+00
  5.10000000E+02  3.60000000E+01  0.00000000E+00
  5.10000000E+02  3.40000000E+01  0.00000000E+00
  5.10000000E+02  3.20000000E+01  0.00000000E+00
  5.10000000E+02  3.00000000E+01  0.00000000E+00
  5.10000000E+02  2.80000000E+01  0.00000000E+00
  5.10000000E+02  2.60000000E+01  0.00000000E+00
  5.10000000E+02  2.40000000E+01  0.00000000E+00
  5.10000000E+02  2.20000000E+01  0.00000000E+00
  5.10000000E+02  2.00000000E+01  0.00000000E+00
  5.10000000E+02  1.80000000E+01  0.00000000E+00
  5.10000000E+02  1.60000000E+01  0.00000000E+00
  5.10000000E+02  1.40000000E+01  0.00000000E+00
  5.10000000E+02  1.20000000E+01  0.00000000E+00
  5.10000000E+02  1.00000000E+01  0.00000000E+00
  5.10000000E+02  8.00000000E+00  0.00000000E+00
  5.10000000E+02  6.00000000E+00  0.00000000E+00
  5.10000000E+02  4.00000000E+00  0.00000000E+00
  5.10000000E+02  2.00000000E+00  0.00000000E+00
  5.10000000E+02 -3.33066907E-14  0.00000000E+00
  5.20000000E+02  1.00000000E+02  0.00000000E+00
  5.20000000E+02  9.80000000E+01  0.00000000E+00
  5.20000000E+02  9.60000000E+01  0.00000000E+00
  5.20000000E+02  9.40000000E+01  0.00000000E+00
  5.20000000E+02  9.20000000E+01  0.00000000E+00
  5.20000000E+02  9.00000000E+01  0.00000000E+00
  5.20000000E+02  8.80000000E+01  0.00000000E+00
  5.20000000E+02  8.60000000E+01  0.00000000E+00
  5.20000000E+02  8.40000000E+01  0.00000000E+00
  5.20000000E+02  8.20000000E+01  0.00000000E+00
  5.20000000E+02  8.00000000E+01  0.00000000E+00
  5.20000000E+02  7.80000000E+01  0.00000000E+00
  5.20000000E+02  7.60000000E+01  0.00000000E+00
  5.20000000E+02  7.40000000E+01  0.00000000E+00
  5.20000000E+02  7.20000000E+01  0.00000000E+00
  5.20000000E+02  7.00000000E+01  0.00000000E+00
  5.20000000E+02  6.80000000E+01  0.00000000E+00
  5.20000000E+02  6.60000000E+01  0.00000000E+00
  5.20000000E+02  6.40000000E+01  0.00000000E+00
  5.20000000E+02  6.20000000E+01  0.00000000E+00
  5.20000000E+02  6.00000000E+01  0.00000000E+00
  5.20000000E+02  5.80000000E+01  0.00000000E+00
  5.20000000E+02  5.60000000E+01  0.00000000E+00
  5.20000000E+02  5.40000000E+01  0.00000000E+00
  5.20000000E+02  5.20000000E+01  0.00000000E+00
  5.20000000E+02  5.00000000E+01  0.00000000E+00
  5.20000000E+02  4.80000000E+01  0.00000000E+00
  5.20000000E+02  4.60000000E+01  0.00000000E+00
  5.20000000E+02  4.40000000E+01  0.00000000E+00
  5.20000000E+02  4.20000000E+01  0.00000000E+00
  5.20000000E+02  4.00000000E+01  0.00000000E+00
  5.20000000E+02  3.80000000E+01  0.00000000E+00
  5.20000000E+02  3.60000000E+01  0.00000000E+00
  5.20000000E+02  3.40000000E+01  0.00000000E+00
  5.20000000E+02  3.20000000E+01  0.00000000E+00
  5.20000000E+02  3.00000000E+01  0.00000000E+00
  5.20000000E+02  2.80000000E+01  0.00000000E+00
  5.20000000E+02  2.60000000E+01  0.00000000E+00
  5.20000000E+02  2.40000000E+01  0.00000000E+00
  5.20000000E+02  2.20000000E+01  0.00000000E+00
  5.20000000E+02  2.00000000E+01  0.00000000E+00
  5.20000000E+02  1.80000000E+01  0.00000000E+00
  5.20000000E+02  1.60000000E+01  0.00000000E+00
  5.20000000E+02  1.40000000E+01  0.00000000E+00
  5.20000000E+02  1.20000000E+01  0.00000000E+00
  5.20000000E+02  1.00000000E+01  0.00000000E+00
  5.20000000E+02  8.00000000E+00  0.00000000E+00
  5.20000000E+02  6.00000000E+00  0.00000000E+00
  5.20000000E+02  4.00000000E+00  0.00000000E+00
  5.20000000E+02  2.00000000E+00  0.00000000E+00
  5.20000000E+02 -3.33066907E-14  0.00000000E+00
  5.30000000E+02  1.00000000E+02  0.00000000E+00
  5.30000000E+02  9.80000000E+01  0.00000000E+00
  5.30000000E+02  9.60000000E+01  0.00000000E+00
  5.30000000E+02  9.40000000E+01  0.00000000E+00
  5.30000000E+02  9.20000000E+01  0.00000000E+00
  5.30000000E+02  9.00000000E+01  0.00000000E+00
  5.30000000E+02  8.80000000E+01  0.00000000E+00
  5.30000000E+02  8.60000000E+01  0.00000000E+00
  5.30000000E+02  8.40000000E+01  0.00000000E+00
  5.30000000E+02  8.20000000E+01  0.00000000E+00
  5.30000000E+02  8.00000000E+01  0.00000000E+00
  5.30000000E+02  7.80000000E+01  0.00000000E+00
  5.30000000E+02  7.60000000E+01  0.00000000E+00
  5.30000000E+02  7.40000000E+01  0.00000000E+00
  5.30000000E+02  7.20000000E+01  0.00000000E+00
  5.30000000E+02  7.00000000E+01  0.00000000E+00
  5.30000000E+02  6.80000000E+01  0.00000000E+00
  5.30000000E+02  6.60000000E+01  0.00000000E+00
  5.30000000E+02  6.40000000E+01  0.00000000E+00
  5.30000000E+02  6.20000000E+01  0.00000000E+00
  5.30000000E+02  6.00000000E+01  0.00000000E+00
  5.30000000E+02  5.80000000E+01  0.00000000E+00
  5.30000000E+02  5.60000000E+01  0.00000000E+00
  5.30000000E+02  5.40000000E+01  0.00000000E+00
  5.30000000E+02  5.20000000E+01  0.00000000E+00
  5.30000000E+02  5.00000000E+01  0.00000000E+00
  5.30000000E+02  4.80000000E+01  0.00000000E+00
  5.30000000E+02  4.60000000E+01  0.00000000E+00
  5.30000000E+02  4.40000000E+01  0.00000000E+00
  5.30000000E+02  4.20000000E+01  0.00000000E+00
  5.30000000E+02  4.00000000E+01  0.00000000E+00
  5.30000000E+02  3.80000000E+01  0.00000000E+00
  5.30000000E+02  3.60000000E+01  0.00000000E+00
  5.30000000E+02  3.40000000E+01  0.00000000E+00
  5.30000000E+02  3.20000000E+01  0.00000000E+00
  5.30000000E+02  3.00000000E+01  0.00000000E+00
  5.30000000E+02  2.80000000E+01  0.00000000E+00
  5.30000000E+02  2.60000000E+01  0.00000000E+00
  5.30000000E+02  2.40000000E+01  0.00000000E+00
  5.30000000E+02  2.20000000E+01  0.00000000E+00
  5.30000000E+02  2.00000000E+01  0.00000000E+00
  5.30000000E+02  1.80000000E+01  0.00000000E+00
  5.30000000E+02  1.60000000E+01  0.00000000E+00
  5.30000000E+02  1.40000000E+01  0.00000000E+00
  5.30000000E+02  1.20000000E+01  0.00000000E+00
  5.30000000E+02  1.00000000E+01  0.00000000E+00
  5.30000000E+02  8.00000000E+00  0.00000000E+00
  5.30000000E+02  6.00000000E+00  0.00000000E+00
  5.30000000E+02  4.00000000E+00  0.00000000E+00
  5.30000000E+02  2.00000000E+00  0.00000000E+00
  5.30000000E+02 -3.33066907E-14  0.00000000E+00
  5.40000000E+02  1.00000000E+02  0.00000000E+00
  5.40000000E+02  9.80000000E+01  0.00000000E+00
  5.40000000E+02  9.60000000E+01  0.00000000E+00
  5.40000000E+02  9.40000000E+01  0.00000000E+00
  5.40000000E+02  9.20000000E+01  0.00000000E+00
  5.40000000E+02  9.00000000E+01  0.00000000E+00
  5.40000000E+02  8.80000000E+01  0.00000000E+00
  5.40000000E+02  8.60000000E+01  0.00000000E+00
  5.40000000E+02  8.40000000E+01  0.00000000E+00
  5.40000000E+02  8.20000000E+01  0.00000000E+00
  5.40000000E+02  8.00000000E+01  0.00000000E+00
  5.40000000E+02  7.80000000E+01  0.00000000E+00
  5.40000000E+02  7.60000000E+01  0.00000000E+00
  5.40000000E+02  7.40000000E+01  0.00000000E+00
  5.40000000E+02  7.20000000E+01  0.00000000E+00
  5.40000000E+02  7.00000000E+01  0.00000000E+00
  5.40000000E+02  6.80000000E+01  0.00000000E+00
  5.40000000E+02  6.60000000E+01  0.00000000E+00
  5.40000000E+02  6.40000000E+01  0.00000000E+00
  5.40000000E+02  6.20000000E+01  0.00000000E+00
  5.40000000E+02  6.00000000E+01  0.00000000E+00
  5.40000000E+02  5.80000000E+01  0.00000000E+00
  5.40000000E+02  5.60000000E+01  0.00000000E+00
  5.40000000E+02  5.40000000E+01  0.00000000E+00
  5.40000000E+02  5.20000000E+01  0.00000000E+00
  5.40000000E+02  5.00000000E+01  0.00000000E+00
  5.40000000E+02  4.80000000E+01  0.00000000E+00
  5.40000000E+02  4.60000000E+01  0.00000000E+00
  5.40000000E+02  4.40000000E+01  0.00000000E+00
  5.40000000E+02  4.20000000E+01  0.00000000E+00
  5.40000000E+02  4.00000000E+01  0.00000000E+00
  5.40000000E+02  3.80000000E+01  0.00000000E+00
  5.40000000E+02  3.60000000E+01  0.00000000E+00
  5.40000000E+02  3.40000000E+01  0.00000000E+00
  5.40000000E+02  3.20000000E+01  0.00000000E+00
  5.40000000E+02  3.00000000E+01  0.00000000E+00
  5.40000000E+02  2.80000000E+01  0.00000000E+00
  5.40000000E+02  2.60000000E+01  0.00000000E+00
  5.40000000E+02  2.40000000E+01  0.00000000E+00
  5.40000000E+02  2.20000000E+01  0.00000000E+00
  5.40000000E+02  2.00000000E+01  0.00000000E+00
  5.40000000E+02  1.80000000E+01  0.00000000E+00
  5.40000000E+02  1.60000000E+01  0.00000000E+00
  5.40000000E+02  1.40000000E+01  0.00000000E+00
  5.40000000E+02  1.20000000E+01  0.00000000E+00
  5.40000000E+02  1.00000000E+01  0.00000000E+00
  5.40000000E+02  8.00000000E+00  0.00000000E+00
  5.40000000E+02  6.00000000E+00  0.00000000E+00
  5.40000000E+02  4.00000000E+00  0.00000000E+00
  5.40000000E+02  2.00000000E+00  0.00000000E+00
  5.40000000E+02 -3.33066907E-14  0.00000000E+00
  5.50000000E+02  1.00000000E+02  0.00000000E+00
  5.50000000E+02  9.80000000E+01  0.00000000E+00
  5.50000000E+02  9.60000000E+01  0.00000000E+00
  5.50000000E+02  9.40000000E+01  0.00000000E+00
  5.50000000E+02  9.20000000E+01  0.00000000E+00
  5.50000000E+02  9.00000000E+01  0.00000000E+00
  5.50000000E+02  8.80000000E+01  0.00000000E+00
  5.50000000E+02  8.60000000E+01  0.00000000E+00
  5.50000000E+02  8.40000000E+01  0.00000000E+00
  5.50000000E+02  8.20000000E+01  0.00000000E+00
  5.50000000E+02  8.00000000E+01  0.00000000E+00
  5.50000000E+02  7.80000000E+01  0.00000000E+00
  5.50000000E+02  7.60000000E+01  0.00000000E+00
  5.50000000E+02  7.40000000E+01  0.00000000E+00
  5.50000000E+02  7.20000000E+01  0.00000000E+00
  5.50000000E+02  7.00000000E+01  0.00000000E+00
  5.50000000E+02  6.80000000E+01  0.00000000E+00
  5.50000000E+02  6.60000000E+01  0.00000000E+00
  5.50000000E+02  6.40000000E+01  0.00000000E+00
  5.50000000E+02  6.20000000E+01  0.00000000E+00
  5.50000000E+02  6.00000000E+01  0.00000000E+00
  5.50000000E+02  5.80000000E+01  0.00000000E+00
  5.50000000E+02  5.60000000E+01  0.00000000E+00
  5.50000000E+02  5.40000000E+01  0.00000000E+00
  5.50000000E+02  5.20000000E+01  0.00000000E+00
  5.50000000E+02  5.00000000E+01  0.00000000E+00
  5.50000000E+02  4.80000000E+01  0.00000000E+00
  5.50000000E+02  4.60000000E+01  0.00000000E+00
  5.50000000E+02  4.40000000E+01  0.00000000E+00
  5.50000000E+02  4.20000000E+01  0.00000000E+00
  5.50000000E+02  4.00000000E+01  0.00000000E+00
  5.50000000E+02  3.80000000E+01  0.00000000E+00
  5.50000000E+02  3.60000000E+01  0.00000000E+00
  5.50000000E+02  3.40000000E+01  0.00000000E+00
  5.50000000E+02  3.20000000E+01  0.00000000E+00
  5.50000000E+02  3.00000000E+01  0.00000000E+00
  5.50000000E+02  2.80000000E+01  0.00000000E+00
  5.50000000E+02  2.60000000E+01  0.00000000E+00
  5.50000000E+02  2.40000000E+01  0.00000000E+00
  5.50000000E+02  2.20000000E+01  0.00000000E+00
  5.50000000E+02  2.00000000E+01  0.00000000E+00
  5.50000000E+02  1.80000000E+01  0.00000000E+00
  5.50000000E+02  1.60000000E+01  0.00000000E+00
  5.50000000E+02  1.40000000E+01  0.00000000E+00
  5.50000000E+02  1.20000000E+01  0.00000000E+00
  5.50000000E+02  1.00000000E+01  0.00000000E+00
  5.50000000E+02  8.00000000E+00  0.00000000E+00
  5.50000000E+02  6.00000000E+00  0.00000000E+00
  5.50000000E+02  4.00000000E+00  0.00000000E+00
  5.50000000E+02  2.00000000E+00  0.00000000E+00
  5.50000000E+02 -3.33066907E-14  0.00000000E+00
  5.60000000E+02  1.00000000E+02  0.00000000E+00
  5.60000000E+02  9.80000000E+01  0.00000000E+00
  5.60000000E+02  9.60000000E+01  0.00000000E+00
  5.60000000E+02  9.40000000E+01  0.00000000E+00
  5.60000000E+02  9.20000000E+01  0.00000000E+00
  5.60000000E+02  9.00000000E+01  0.00000000E+00
  5.60000000E+02  8.80000000E+01  0.00000000E+00
  5.60000000E+02  8.60000000E+01  0.00000000E+00
  5.60000000E+02  8.40000000E+01  0.00000000E+00
  5.60000000E+02  8.20000000E+01  0.00000000E+00
  5.60000000E+02  8.00000000E+01  0.00000000E+00
  5.60000000E+02  7.80000000E+01  0.00000000E+00
  5.60000000E+02  7.60000000E+01  0.00000000E+00
  5.60000000E+02  7.40000000E+01  0.00000000E+00
  5.60000000E+02  7.20000000E+01  0.00000000E+00
  5.60000000E+02  7.00000000E+01  0.00000000E+00
  5.60000000E+02  6.80000000E+01  0.00000000E+00
  5.60000000E+02  6.60000000E+01  0.00000000E+00
  5.60000000E+02  6.40000000E+01  0.00000000E+00
  5.60000000E+02  6.20000000E+01  0.00000000E+00
  5.60000000E+02  6.00000000E+01  0.00000000E+00
  5.60000000E+02  5.80000000E+01  0.00000000E+00
  5.60000000E+02  5.60000000E+01  0.00000000E+00
  5.60000000E+02  5.40000000E+01  0.00000000E+00
  5.60000000E+02  5.20000000E+01  0.00000000E+00
  5.60000000E+02  5.00000000E+01  0.00000000E+00
  5.60000000E+02  4.80000000E+01  0.00000000E+00
  5.60000000E+02  4.60000000E+01  0.00000000E+00
  5.60000000E+02  4.40000000E+01  0.00000000E+00
  5.60000000E+02  4.20000000E+01  0.00000000E+00
  5.60000000E+02  4.00000000E+01  0.00000000E+00
  5.60000000E+02  3.80000000E+01  0.00000000E+00
  5.60000000E+02  3.60000000E+01  0.00000000E+00
  5.60000000E+02  3.40000000E+01  0.00000000E+00
  5.60000000E+02  3.20000000E+01  0.00000000E+00
  5.60000000E+02  3.00000000E+01  0.00000000E+00
  5.60000000E+02  2.80000000E+01  0.00000000E+00
  5.60000000E+02  2.60000000E+01  0.00000000E+00
  5.60000000E+02  2.40000000E+01  0.00000000E+00
  5.60000000E+02  2.20000000E+01  0.00000000E+00
  5.60000000E+02  2.00000000E+01  0.00000000E+00
  5.60000000E+02  1.80000000E+01  0.00000000E+00
  5.60000000E+02  1.60000000E+01  0.00000000E+00
  5.60000000E+02  1.40000000E+01  0.00000000E+00
  5.60000000E+02  1.20000000E+01  0.00000000E+00
  5.60000000E+02  1.00000000E+01  0.00000000E+00
  5.60000000E+02  8.00000000E+00  0.00000000E+00
  5.60000000E+02  6.00000000E+00  0.00000000E+00
  5.60000000E+02  4.00000000E+00  0.00000000E+00
  5.60000000E+02  2.00000000E+00  0.00000000E+00
  5.60000000E+02 -3.33066907E-14  0.00000000E+00
  5.70000000E+02  1.00000000E+02  0.00000000E+00
  5.70000000E+02  9.80000000E+01  0.00000000E+00
  5.70000000E+02  9.60000000E+01  0.00000000E+00
  5.70000000E+02  9.40000000E+01  0.00000000E+00
  5.70000000E+02  9.20000000E+01  0.00000000E+00
  5.70000000E+02  9.00000000E+01  0.00000000E+00
  5.70000000E+02  8.80000000E+01  0.00000000E+00
  5.70000000E+02  8.60000000E+01  0.00000000E+00
  5.70000000E+02  8.40000000E+01  0.00000000E+00
  5.70000000E+02  8.20000000E+01  0.00000000E+00
  5.70000000E+02  8.00000000E+01  0.00000000E+00
  5.70000000E+02  7.80000000E+01  0.00000000E+00
  5.70000000E+02  7.60000000E+01  0.00000000E+00
  5.70000000E+02  7.40000000E+01  0.00000000E+00
  5.70000000E+02  7.20000000E+01  0.00000000E+00
  5.70000000E+02  7.00000000E+01  0.00000000E+00
  5.70000000E+02  6.80000000E+01  0.00000000E+00
  5.70000000E+02  6.60000000E+01  0.00000000E+00
  5.70000000E+02  6.40000000E+01  0.00000000E+00
  5.70000000E+02  6.20000000E+01  0.00000000E+00
  5.70000000E+02  6.00000000E+01  0.00000000E+00
  5.70000000E+02  5.80000000E+01  0.00000000E+00
  5.70000000E+02  5.60000000E+01  0.00000000E+00
  5.70000000E+02  5.40000000E+01  0.00000000E+00
  5.70000000E+02  5.20000000E+01  0.00000000E+00
  5.70000000E+02  5.00000000E+01  0.00000000E+00
  5.70000000E+02  4.80000000E+01  0.00000000E+00
  5.70000000E+02  4.60000000E+01  0.00000000E+00
  5.70000000E+02  4.40000000E+01  0.00000000E+00
  5.70000000E+02  4.20000000E+01  0.00000000E+00
  5.70000000E+02  4.00000000E+01  0.00000000E+00
  5.70000000E+02  3.80000000E+01  0.00000000E+00
  5.70000000E+02  3.60000000E+01  0.00000000E+00
  5.70000000E+02  3.40000000E+01  0.00000000E+00
  5.70000000E+02  3.20000000E+01  0.00000000E+00
  5.70000000E+02  3.00000000E+01  0.00000000E+00
  5.70000000E+02  2.80000000E+01  0.00000000E+00
  5.70000000E+02  2.60000000E+01  0.00000000E+00
  5.70000000E+02  2.40000000E+01  0.00000000E+00
  5.70000000E+02  2.20000000E+01  0.00000000E+00
  5.70000000E+02  2.00000000E+01  0.00000000E+00
  5.70000000E+02  1.80000000E+01  0.00000000E+00
  5.70000000E+02  1.60000000E+01  0.00000000E+00
  5.70000000E+02  1.40000000E+01  0.00000000E+00
  5.70000000E+02  1.20000000E+01  0.00000000E+00
  5.70000000E+02  1.00000000E+01  0.00000000E+00
  5.70000000E+02  8.00000000E+00  0.00000000E+00
  5.70000000E+02  6.00000000E+00  0.00000000E+00
  5.70000000E+02  4.00000000E+00  0.00000000E+00
  5.70000000E+02  2.00000000E+00  0.00000000E+00
  5.70000000E+02 -3.33066907E-14  0.00000000E+00
  5.80000000E+02  1.00000000E+02  0.00000000E+00
  5.80000000E+02  9.80000000E+01  0.00000000E+00
  5.80000000E+02  9.60000000E+01  0.00000000E+00
  5.80000000E+02  9.40000000E+01  0.00000000E+00
  5.80000000E+02  9.20000000E+01  0.00000000E+00
  5.80000000E+02  9.00000000E+01  0.00000000E+00
  5.80000000E+02  8.80000000E+01  0.00000000E+00
  5.80000000E+02  8.60000000E+01  0.00000000E+00
  5.80000000E+02  8.40000000E+01  0.00000000E+00
  5.80000000E+02  8.20000000E+01  0.00000000E+00
  5.80000000E+02  8.00000000E+01  0.00000000E+00
  5.80000000E+02  7.80000000E+01  0.00000000E+00
  5.80000000E+02  7.60000000E+01  0.00000000E+00
  5.80000000E+02  7.40000000E+01  0.00000000E+00
  5.80000000E+02  7.20000000E+01  0.00000000E+00
  5.80000000E+02  7.00000000E+01  0.00000000E+00
  5.80000000E+02  6.80000000E+01  0.00000000E+00
  5.80000000E+02  6.60000000E+01  0.00000000E+00
  5.80000000E+02  6.40000000E+01  0.00000000E+00
  5.80000000E+02  6.20000000E+01  0.00000000E+00
  5.80000000E+02  6.00000000E+01  0.00000000E+00
  5.80000000E+02  5.80000000E+01  0.00000000E+00
  5.80000000E+02  5.60000000E+01  0.00000000E+00
  5.80000000E+02  5.40000000E+01  0.00000000E+00
  5.80000000E+02  5.20000000E+01  0.00000000E+00
  5.80000000E+02  5.00000000E+01  0.00000000E+00
  5.80000000E+02  4.80000000E+01  0.00000000E+00
  5.80000000E+02  4.60000000E+01  0.00000000E+00
  5.80000000E+02  4.40000000E+01  0.00000000E+00
  5.80000000E+02  4.20000000E+01  0.00000000E+00
  5.80000000E+02  4.00000000E+01  0.00000000E+00
  5.80000000E+02  3.80000000E+01  0.00000000E+00
  5.80000000E+02  3.60000000E+01  0.00000000E+00
  5.80000000E+02  3.40000000E+01  0.00000000E+00
  5.80000000E+02  3.20000000E+01  0.00000000E+00
  5.80000000E+02  3.00000000E+01  0.00000000E+00
  5.80000000E+02  2.80000000E+01  0.00000000E+00
  5.80000000E+02  2.60000000E+01  0.00000000E+00
  5.80000000E+02  2.40000000E+01  0.00000000E+00
  5.80000000E+02  2.20000000E+01  0.00000000E+00
  5.80000000E+02  2.00000000E+01  0.00000000E+00
  5.80000000E+02  1.80000000E+01  0.00000000E+00
  5.80000000E+02  1.60000000E+01  0.00000000E+00
  5.80000000E+02  1.40000000E+01  0.00000000E+00
  5.80000000E+02  1.20000000E+01  0.00000000E+00
  5.80000000E+02  1.00000000E+01  0.00000000E+00
  5.80000000E+02  8.00000000E+00  0.00000000E+00
  5.80000000E+02  6.00000000E+00  0.00000000E+00
  5.80000000E+02  4.00000000E+00  0.00000000E+00
  5.80000000E+02  2.00000000E+00  0.00000000E+00
  5.80000000E+02 -3.33066907E-14  0.00000000E+00
  5.90000000E+02  1.00000000E+02  0.00000000E+00
  5.90000000E+02  9.80000000E+01  0.00000000E+00
  5.90000000E+02  9.60000000E+01  0.00000000E+00
  5.90000000E+02  9.40000000E+01  0.00000000E+00
  5.90000000E+02  9.20000000E+01  0.00000000E+00
  5.90000000E+02  9.00000000E+01  0.00000000E+00
  5.90000000E+02  8.80000000E+01  0.00000000E+00
  5.90000000E+02  8.60000000E+01  0.00000000E+00
  5.90000000E+02  8.40000000E+01  0.00000000E+00
  5.90000000E+02  8.20000000E+01  0.00000000E+00
  5.90000000E+02  8.00000000E+01  0.00000000E+00
  5.90000000E+02  7.80000000E+01  0.00000000E+00
  5.90000000E+02  7.60000000E+01  0.00000000E+00
  5.90000000E+02  7.40000000E+01  0.00000000E+00
  5.90000000E+02  7.20000000E+01  0.00000000E+00
  5.90000000E+02  7.00000000E+01  0.00000000E+00
  5.90000000E+02  6.80000000E+01  0.00000000E+00
  5.90000000E+02  6.60000000E+01  0.00000000E+00
  5.90000000E+02  6.40000000E+01  0.00000000E+00
  5.90000000E+02  6.20000000E+01  0.00000000E+00
  5.90000000E+02  6.00000000E+01  0.00000000E+00
  5.90000000E+02  5.80000000E+01  0.00000000E+00
  5.90000000E+02  5.60000000E+01  0.00000000E+00
  5.90000000E+02  5.40000000E+01  0.00000000E+00
  5.90000000E+02  5.20000000E+01  0.00000000E+00
  5.90000000E+02  5.00000000E+01  0.00000000E+00
  5.90000000E+02  4.80000000E+01  0.00000000E+00
  5.90000000E+02  4.60000000E+01  0.00000000E+00
  5.90000000E+02  4.40000000E+01  0.00000000E+00
  5.90000000E+02  4.20000000E+01  0.00000000E+00
  5.90000000E+02  4.00000000E+01  0.00000000E+00
  5.90000000E+02  3.80000000E+01  0.00000000E+00
  5.90000000E+02  3.60000000E+01  0.00000000E+00
  5.90000000E+02  3.40000000E+01  0.00000000E+00
  5.90000000E+02  3.20000000E+01  0.00000000E+00
  5.90000000E+02  3.00000000E+01  0.00000000E+00
  5.90000000E+02  2.80000000E+01  0.00000000E+00
  5.90000000E+02  2.60000000E+01  0.00000000E+00
  5.90000000E+02  2.40000000E+01  0.00000000E+00
  5.90000000E+02  2.20000000E+01  0.00000000E+00
  5.90000000E+02  2.00000000E+01  0.00000000E+00
  5.90000000E+02  1.80000000E+01  0.00000000E+00
  5.90000000E+02  1.60000000E+01  0.00000000E+00
  5.90000000E+02  1.40000000E+01  0.00000000E+00
  5.90000000E+02  1.20000000E+01  0.00000000E+00
  5.90000000E+02  1.00000000E+01  0.00000000E+00
  5.90000000E+02  8.00000000E+00  0.00000000E+00
  5.90000000E+02  6.00000000E+00  0.00000000E+00
  5.90000000E+02  4.00000000E+00  0.00000000E+00
  5.90000000E+02  2.00000000E+00  0.00000000E+00
  5.90000000E+02 -3.33066907E-14  0.00000000E+00
  6.00000000E+02  1.00000000E+02  0.00000000E+00
  6.00000000E+02  9.80000000E+01  0.00000000E+00
  6.00000000E+02  9.60000000E+01  0.00000000E+00
  6.00000000E+02  9.40000000E+01  0.00000000E+00
  6.00000000E+02  9.20000000E+01  0.00000000E+00
  6.00000000E+02  9.00000000E+01  0.00000000E+00
  6.00000000E+02  8.80000000E+01  0.00000000E+00
  6.00000000E+02  8.60000000E+01  0.00000000E+00
  6.00000000E+02  8.40000000E+01  0.00000000E+00
  6.00000000E+02  8.20000000E+01  0.00000000E+00
  6.00000000E+02  8.00000000E+01  0.00000000E+00
  6.00000000E+02  7.80000000E+01  0.00000000E+00
  6.00000000E+02  7.60000000E+01  0.00000000E+00
  6.00000000E+02  7.40000000E+01  0.00000000E+00
  6.00000000E+02  7.20000000E+01  0.00000000E+00
  6.00000000E+02  7.00000000E+01  0.00000000E+00
  6.00000000E+02  6.80000000E+01  0.00000000E+00
  6.00000000E+02  6.60000000E+01  0.00000000E+00
  6.00000000E+02  6.40000000E+01  0.00000000E+00
  6.00000000E+02  6.20000000E+01  0.00000000E+00
  6.00000000E+02  6.00000000E+01  0.00000000E+00
  6.00000000E+02  5.80000000E+01  0.00000000E+00
  6.00000000E+02  5.60000000E+01  0.00000000E+00
  6.00000000E+02  5.40000000E+01  0.00000000E+00
  6.00000000E+02  5.20000000E+01  0.00000000E+00
  6.00000000E+02  5.00000000E+01  0.00000000E+00
  6.00000000E+02  4.80000000E+01  0.00000000E+00
  6.00000000E+02  4.60000000E+01  0.00000000E+00
  6.00000000E+02  4.40000000E+01  0.00000000E+00
  6.00000000E+02  4.20000000E+01  0.00000000E+00
  6.00000000E+02  4.00000000E+01  0.00000000E+00
  6.00000000E+02  3.80000000E+01  0.00000000E+00
  6.00000000E+02  3.60000000E+01  0.00000000E+00
  6.00000000E+02  3.40000000E+01  0.00000000E+00
  6.00000000E+02  3.20000000E+01  0.00000000E+00
  6.00000000E+02  3.00000000E+01  0.00000000E+00
  6.00000000E+02  2.80000000E+01  0.00000000E+00
  6.00000000E+02  2.60000000E+01  0.00000000E+00
  6.00000000E+02  2.40000000E+01  0.00000000E+00
  6.00000000E+02  2.20000000E+01  0.00000000E+00
  6.00000000E+02  2.00000000E+01  0.00000000E+00
  6.00000000E+02  1.80000000E+01  0.00000000E+00
  6.00000000E+02  1.60000000E+01  0.00000000E+00
  6.00000000E+02  1.40000000E+01  0.00000000E+00
  6.00000000E+02  1.20000000E+01  0.00000000E+00
  6.00000000E+02  1.00000000E+01  0.00000000E+00
  6.00000000E+02  8.00000000E+00  0.00000000E+00
  6.00000000E+02  6.00000000E+00  0.00000000E+00
  6.00000000E+02  4.00000000E+00  0.00000000E+00
  6.00000000E+02  2.00000000E+00  0.00000000E+00
  6.00000000E+02 -3.33066907E-14  0.00000000E+00
  6.10000000E+02  1.00000000E+02  0.00000000E+00
  6.10000000E+02  9.80000000E+01  0.00000000E+00
  6.10000000E+02  9.60000000E+01  0.00000000E+00
  6.10000000E+02  9.40000000E+01  0.00000000E+00
  6.10000000E+02  9.20000000E+01  0.00000000E+00
  6.10000000E+02  9.00000000E+01  0.00000000E+00
  6.10000000E+02  8.80000000E+01  0.00000000E+00
  6.10000000E+02  8.60000000E+01  0.00000000E+00
  6.10000000E+02  8.40000000E+01  0.00000000E+00
  6.10000000E+02  8.20000000E+01  0.00000000E+00
  6.10000000E+02  8.00000000E+01  0.00000000E+00
  6.10000000E+02  7.80000000E+01  0.00000000E+00
  6.10000000E+02  7.60000000E+01  0.00000000E+00
  6.10000000E+02  7.40000000E+01  0.00000000E+00
  6.10000000E+02  7.20000000E+01  0.00000000E+00
  6.10000000E+02  7.00000000E+01  0.00000000E+00
  6.10000000E+02  6.80000000E+01  0.00000000E+00
  6.10000000E+02  6.60000000E+01  0.00000000E+00
  6.10000000E+02  6.40000000E+01  0.00000000E+00
  6.10000000E+02  6.20000000E+01  0.00000000E+00
  6.10000000E+02  6.00000000E+01  0.00000000E+00
  6.10000000E+02  5.80000000E+01  0.00000000E+00
  6.10000000E+02  5.60000000E+01  0.00000000E+00
  6.10000000E+02  5.40000000E+01  0.00000000E+00
  6.10000000E+02  5.20000000E+01  0.00000000E+00
  6.10000000E+02  5.00000000E+01  0.00000000E+00
  6.10000000E+02  4.80000000E+01  0.00000000E+00
  6.10000000E+02  4.60000000E+01  0.00000000E+00
  6.10000000E+02  4.40000000E+01  0.00000000E+00
  6.10000000E+02  4.20000000E+01  0.00000000E+00
  6.10000000E+02  4.00000000E+01  0.00000000E+00
  6.10000000E+02  3.80000000E+01  0.00000000E+00
  6.10000000E+02  3.60000000E+01  0.00000000E+00
  6.10000000E+02  3.40000000E+01  0.00000000E+00
  6.10000000E+02  3.20000000E+01  0.00000000E+00
  6.10000000E+02  3.00000000E+01  0.00000000E+00
  6.10000000E+02  2.80000000E+01  0.00000000E+00
  6.10000000E+02  2.60000000E+01  0.00000000E+00
  6.10000000E+02  2.40000000E+01  0.00000000E+00
  6.10000000E+02  2.20000000E+01  0.00000000E+00
  6.10000000E+02  2.00000000E+01  0.00000000E+00
  6.10000000E+02  1.80000000E+01  0.00000000E+00
  6.10000000E+02  1.60000000E+01  0.00000000E+00
  6.10000000E+02  1.40000000E+01  0.00000000E+00
  6.10000000E+02  1.20000000E+01  0.00000000E+00
  6.10000000E+02  1.00000000E+01  0.00000000E+00
  6.10000000E+02  8.00000000E+00  0.00000000E+00
  6.10000000E+02  6.00000000E+00  0.00000000E+00
  6.10000000E+02  4.00000000E+00  0.00000000E+00
  6.10000000E+02  2.00000000E+00  0.00000000E+00
  6.10000000E+02 -3.33066907E-14  0.00000000E+00
  6.20000000E+02  1.00000000E+02  0.00000000E+00
  6.20000000E+02  9.80000000E+01  0.00000000E+00
  6.20000000E+02  9.60000000E+01  0.00000000E+00
  6.20000000E+02  9.40000000E+01  0.00000000E+00
  6.20000000E+02  9.20000000E+01  0.00000000E+00
  6.20000000E+02  9.00000000E+01  0.00000000E+00
  6.20000000E+02  8.80000000E+01  0.00000000E+00
  6.20000000E+02  8.60000000E+01  0.00000000E+00
  6.20000000E+02  8.40000000E+01  0.00000000E+00
  6.20000000E+02  8.20000000E+01  0.00000000E+00
  6.20000000E+02  8.00000000E+01  0.00000000E+00
  6.20000000E+02  7.80000000E+01  0.00000000E+00
  6.20000000E+02  7.60000000E+01  0.00000000E+00
  6.20000000E+02  7.40000000E+01  0.00000000E+00
  6.20000000E+02  7.20000000E+01  0.00000000E+00
  6.20000000E+02  7.00000000E+01  0.00000000E+00
  6.20000000E+02  6.80000000E+01  0.00000000E+00
  6.20000000E+02  6.60000000E+01  0.00000000E+00
  6.20000000E+02  6.40000000E+01  0.00000000E+00
  6.20000000E+02  6.20000000E+01  0.00000000E+00
  6.20000000E+02  6.00000000E+01  0.00000000E+00
  6.20000000E+02  5.80000000E+01  0.00000000E+00
  6.20000000E+02  5.60000000E+01  0.00000000E+00
  6.20000000E+02  5.40000000E+01  0.00000000E+00
  6.20000000E+02  5.20000000E+01  0.00000000E+00
  6.20000000E+02  5.00000000E+01  0.00000000E+00
  6.20000000E+02  4.80000000E+01  0.00000000E+00
  6.20000000E+02  4.60000000E+01  0.00000000E+00
  6.20000000E+02  4.40000000E+01  0.00000000E+00
  6.20000000E+02  4.20000000E+01  0.00000000E+00
  6.20000000E+02  4.00000000E+01  0.00000000E+00
  6.20000000E+02  3.80000000E+01  0.00000000E+00
  6.20000000E+02  3.60000000E+01  0.00000000E+00
  6.20000000E+02  3.40000000E+01  0.00000000E+00
  6.20000000E+02  3.20000000E+01  0.00000000E+00
  6.20000000E+02  3.00000000E+01  0.00000000E+00
  6.20000000E+02  2.80000000E+01  0.00000000E+00
  6.20000000E+02  2.60000000E+01  0.00000000E+00
  6.20000000E+02  2.40000000E+01  0.00000000E+00
  6.20000000E+02  2.20000000E+01  0.00000000E+00
  6.20000000E+02  2.00000000E+01  0.00000000E+00
  6.20000000E+02  1.80000000E+01  0.00000000E+00
  6.20000000E+02  1.60000000E+01  0.00000000E+00
  6.20000000E+02  1.40000000E+01  0.00000000E+00
  6.20000000E+02  1.20000000E+01  0.00000000E+00
  6.20000000E+02  1.00000000E+01  0.00000000E+00
  6.20000000E+02  8.00000000E+00  0.00000000E+00
  6.20000000E+02  6.00000000E+00  0.00000000E+00
  6.20000000E+02  4.00000000E+00  0.00000000E+00
  6.20000000E+02  2.00000000E+00  0.00000000E+00
  6.20000000E+02 -3.33066907E-14  0.00000000E+00
  6.30000000E+02  1.00000000E+02  0.00000000E+00
  6.30000000E+02  9.80000000E+01  0.00000000E+00
  6.30000000E+02  9.60000000E+01  0.00000000E+00
  6.30000000E+02  9.40000000E+01  0.00000000E+00
  6.30000000E+02  9.20000000E+01  0.00000000E+00
  6.30000000E+02  9.00000000E+01  0.00000000E+00
  6.30000000E+02  8.80000000E+01  0.00000000E+00
  6.30000000E+02  8.60000000E+01  0.00000000E+00
  6.30000000E+02  8.40000000E+01  0.00000000E+00
  6.30000000E+02  8.20000000E+01  0.00000000E+00
  6.30000000E+02  8.00000000E+01  0.00000000E+00
  6.30000000E+02  7.80000000E+01  0.00000000E+00
  6.30000000E+02  7.60000000E+01  0.00000000E+00
  6.30000000E+02  7.40000000E+01  0.00000000E+00
  6.30000000E+02  7.20000000E+01  0.00000000E+00
  6.30000000E+02  7.00000000E+01  0.00000000E+00
  6.30000000E+02  6.80000000E+01  0.00000000E+00
  6.30000000E+02  6.60000000E+01  0.00000000E+00
  6.30000000E+02  6.40000000E+01  0.00000000E+00
  6.30000000E+02  6.20000000E+01  0.00000000E+00
  6.30000000E+02  6.00000000E+01  0.00000000E+00
  6.30000000E+02  5.80000000E+01  0.00000000E+00
  6.30000000E+02  5.60000000E+01  0.00000000E+00
  6.30000000E+02  5.40000000E+01  0.00000000E+00
  6.30000000E+02  5.20000000E+01  0.00000000E+00
  6.30000000E+02  5.00000000E+01  0.00000000E+00
  6.30000000E+02  4.80000000E+01  0.00000000E+00
  6.30000000E+02  4.60000000E+01  0.00000000E+00
  6.30000000E+02  4.40000000E+01  0.00000000E+00
  6.30000000E+02  4.20000000E+01  0.00000000E+00
  6.30000000E+02  4.00000000E+01  0.00000000E+00
  6.30000000E+02  3.80000000E+01  0.00000000E+00
  6.30000000E+02  3.60000000E+01  0.00000000E+00
  6.30000000E+02  3.40000000E+01  0.00000000E+00
  6.30000000E+02  3.20000000E+01  0.00000000E+00
  6.30000000E+02  3.00000000E+01  0.00000000E+00
  6.30000000E+02  2.80000000E+01  0.00000000E+00
  6.30000000E+02  2.60000000E+01  0.00000000E+00
  6.30000000E+02  2.40000000E+01  0.00000000E+00
  6.30000000E+02  2.20000000E+01  0.00000000E+00
  6.30000000E+02  2.00000000E+01  0.00000000E+00
  6.30000000E+02  1.80000000E+01  0.00000000E+00
  6.30000000E+02  1.60000000E+01  0.00000000E+00
  6.30000000E+02  1.40000000E+01  0.00000000E+00
  6.30000000E+02  1.20000000E+01  0.00000000E+00
  6.30000000E+02  1.00000000E+01  0.00000000E+00
  6.30000000E+02  8.00000000E+00  0.00000000E+00
  6.30000000E+02  6.00000000E+00  0.00000000E+00
  6.30000000E+02  4.00000000E+00  0.00000000E+00
  6.30000000E+02  2.00000000E+00  0.00000000E+00
  6.30000000E+02 -3.33066907E-14  0.00000000E+00
  6.40000000E+02  1.00000000E+02  0.00000000E+00
  6.40000000E+02  9.80000000E+01  0.00000000E+00
  6.40000000E+02  9.60000000E+01  0.00000000E+00
  6.40000000E+02  9.40000000E+01  0.00000000E+00
  6.40000000E+02  9.20000000E+01  0.00000000E+00
  6.40000000E+02  9.00000000E+01  0.00000000E+00
  6.40000000E+02  8.80000000E+01  0.00000000E+00
  6.40000000E+02  8.60000000E+01  0.00000000E+00
  6.40000000E+02  8.40000000E+01  0.00000000E+00
  6.40000000E+02  8.20000000E+01  0.00000000E+00
  6.40000000E+02  8.00000000E+01  0.00000000E+00
  6.40000000E+02  7.80000000E+01  0.00000000E+00
  6.40000000E+02  7.60000000E+01  0.00000000E+00
  6.40000000E+02  7.40000000E+01  0.00000000E+00
  6.40000000E+02  7.20000000E+01  0.00000000E+00
  6.40000000E+02  7.00000000E+01  0.00000000E+00
  6.40000000E+02  6.80000000E+01  0.00000000E+00
  6.40000000E+02  6.60000000E+01  0.00000000E+00
  6.40000000E+02  6.40000000E+01  0.00000000E+00
  6.40000000E+02  6.20000000E+01  0.00000000E+00
  6.40000000E+02  6.00000000E+01  0.00000000E+00
  6.40000000E+02  5.80000000E+01  0.00000000E+00
  6.40000000E+02  5.60000000E+01  0.00000000E+00
  6.40000000E+02  5.40000000E+01  0.00000000E+00
  6.40000000E+02  5.20000000E+01  0.00000000E+00
  6.40000000E+02  5.00000000E+01  0.00000000E+00
  6.40000000E+02  4.80000000E+01  0.00000000E+00
  6.40000000E+02  4.60000000E+01  0.00000000E+00
  6.40000000E+02  4.40000000E+01  0.00000000E+00
  6.40000000E+02  4.20000000E+01  0.00000000E+00
  6.40000000E+02  4.00000000E+01  0.00000000E+00
  6.40000000E+02  3.80000000E+01  0.00000000E+00
  6.40000000E+02  3.60000000E+01  0.00000000E+00
  6.40000000E+02  3.40000000E+01  0.00000000E+00
  6.40000000E+02  3.20000000E+01  0.00000000E+00
  6.40000000E+02  3.00000000E+01  0.00000000E+00
  6.40000000E+02  2.80000000E+01  0.00000000E+00
  6.40000000E+02  2.60000000E+01  0.00000000E+00
  6.40000000E+02  2.40000000E+01  0.00000000E+00
  6.40000000E+02  2.20000000E+01  0.00000000E+00
  6.40000000E+02  2.00000000E+01  0.00000000E+00
  6.40000000E+02  1.80000000E+01  0.00000000E+00
  6.40000000E+02  1.60000000E+01  0.00000000E+00
  6.40000000E+02  1.40000000E+01  0.00000000E+00
  6.40000000E+02  1.20000000E+01  0.00000000E+00
  6.40000000E+02  1.00000000E+01  0.00000000E+00
  6.40000000E+02  8.00000000E+00  0.00000000E+00
  6.40000000E+02  6.00000000E+00  0.00000000E+00
  6.40000000E+02  4.00000000E+00  0.00000000E+00
  6.40000000E+02  2.00000000E+00  0.00000000E+00
  6.40000000E+02 -3.33066907E-14  0.00000000E+00
  6.50000000E+02  1.00000000E+02  0.00000000E+00
  6.50000000E+02  9.80000000E+01  0.00000000E+00
  6.50000000E+02  9.60000000E+01  0.00000000E+00
  6.50000000E+02  9.40000000E+01  0.00000000E+00
  6.50000000E+02  9.20000000E+01  0.00000000E+00
  6.50000000E+02  9.00000000E+01  0.00000000E+00
  6.50000000E+02  8.80000000E+01  0.00000000E+00
  6.50000000E+02  8.60000000E+01  0.00000000E+00
  6.50000000E+02  8.40000000E+01  0.00000000E+00
  6.50000000E+02  8.20000000E+01  0.00000000E+00
  6.50000000E+02  8.00000000E+01  0.00000000E+00
  6.50000000E+02  7.80000000E+01  0.00000000E+00
  6.50000000E+02  7.60000000E+01  0.00000000E+00
  6.50000000E+02  7.40000000E+01  0.00000000E+00
  6.50000000E+02  7.20000000E+01  0.00000000E+00
  6.50000000E+02  7.00000000E+01  0.00000000E+00
  6.50000000E+02  6.80000000E+01  0.00000000E+00
  6.50000000E+02  6.60000000E+01  0.00000000E+00
  6.50000000E+02  6.40000000E+01  0.00000000E+00
  6.50000000E+02  6.20000000E+01  0.00000000E+00
  6.50000000E+02  6.00000000E+01  0.00000000E+00
  6.50000000E+02  5.80000000E+01  0.00000000E+00
  6.50000000E+02  5.60000000E+01  0.00000000E+00
  6.50000000E+02  5.40000000E+01  0.00000000E+00
  6.50000000E+02  5.20000000E+01  0.00000000E+00
  6.50000000E+02  5.00000000E+01  0.00000000E+00
  6.50000000E+02  4.80000000E+01  0.00000000E+00
  6.50000000E+02  4.60000000E+01  0.00000000E+00
  6.50000000E+02  4.40000000E+01  0.00000000E+00
  6.50000000E+02  4.20000000E+01  0.00000000E+00
  6.50000000E+02  4.00000000E+01  0.00000000E+00
  6.50000000E+02  3.80000000E+01  0.00000000E+00
  6.50000000E+02  3.60000000E+01  0.00000000E+00
  6.50000000E+02  3.40000000E+01  0.00000000E+00
  6.50000000E+02  3.20000000E+01  0.00000000E+00
  6.50000000E+02  3.00000000E+01  0.00000000E+00
  6.50000000E+02  2.80000000E+01  0.00000000E+00
  6.50000000E+02  2.60000000E+01  0.00000000E+00
  6.50000000E+02  2.40000000E+01  0.00000000E+00
  6.50000000E+02  2.20000000E+01  0.00000000E+00
  6.50000000E+02  2.00000000E+01  0.00000000E+00
  6.50000000E+02  1.80000000E+01  0.00000000E+00
  6.50000000E+02  1.60000000E+01  0.00000000E+00
  6.50000000E+02  1.40000000E+01  0.00000000E+00
  6.50000000E+02  1.20000000E+01  0.00000000E+00
  6.50000000E+02  1.00000000E+01  0.00000000E+00
  6.50000000E+02  8.00000000E+00  0.00000000E+00
  6.50000000E+02  6.00000000E+00  0.00000000E+00
  6.50000000E+02  4.00000000E+00  0.00000000E+00
  6.50000000E+02  2.00000000E+00  0.00000000E+00
  6.50000000E+02 -3.33066907E-14  0.00000000E+00
  6.60000000E+02  1.00000000E+02  0.00000000E+00
  6.60000000E+02  9.80000000E+01  0.00000000E+00
  6.60000000E+02  9.60000000E+01  0.00000000E+00
  6.60000000E+02  9.40000000E+01  0.00000000E+00
  6.60000000E+02  9.20000000E+01  0.00000000E+00
  6.60000000E+02  9.00000000E+01  0.00000000E+00
  6.60000000E+02  8.80000000E+01  0.00000000E+00
  6.60000000E+02  8.60000000E+01  0.00000000E+00
  6.60000000E+02  8.40000000E+01  0.00000000E+00
  6.60000000E+02  8.20000000E+01  0.00000000E+00
  6.60000000E+02  8.00000000E+01  0.00000000E+00
  6.60000000E+02  7.80000000E+01  0.00000000E+00
  6.60000000E+02  7.60000000E+01  0.00000000E+00
  6.60000000E+02  7.40000000E+01  0.00000000E+00
  6.60000000E+02  7.20000000E+01  0.00000000E+00
  6.60000000E+02  7.00000000E+01  0.00000000E+00
  6.60000000E+02  6.80000000E+01  0.00000000E+00
  6.60000000E+02  6.60000000E+01  0.00000000E+00
  6.60000000E+02  6.40000000E+01  0.00000000E+00
  6.60000000E+02  6.20000000E+01  0.00000000E+00
  6.60000000E+02  6.00000000E+01  0.00000000E+00
  6.60000000E+02  5.80000000E+01  0.00000000E+00
  6.60000000E+02  5.60000000E+01  0.00000000E+00
  6.60000000E+02  5.40000000E+01  0.00000000E+00
  6.60000000E+02  5.20000000E+01  0.00000000E+00
  6.60000000E+02  5.00000000E+01  0.00000000E+00
  6.60000000E+02  4.80000000E+01  0.00000000E+00
  6.60000000E+02  4.60000000E+01  0.00000000E+00
  6.60000000E+02  4.40000000E+01  0.00000000E+00
  6.60000000E+02  4.20000000E+01  0.00000000E+00
  6.60000000E+02  4.00000000E+01  0.00000000E+00
  6.60000000E+02  3.80000000E+01  0.00000000E+00
  6.60000000E+02  3.60000000E+01  0.00000000E+00
  6.60000000E+02  3.40000000E+01  0.00000000E+00
  6.60000000E+02  3.20000000E+01  0.00000000E+00
  6.60000000E+02  3.00000000E+01  0.00000000E+00
  6.60000000E+02  2.80000000E+01  0.00000000E+00
  6.60000000E+02  2.60000000E+01  0.00000000E+00
  6.60000000E+02  2.40000000E+01  0.00000000E+00
  6.60000000E+02  2.20000000E+01  0.00000000E+00
  6.60000000E+02  2.00000000E+01  0.00000000E+00
  6.60000000E+02  1.80000000E+01  0.00000000E+00
  6.60000000E+02  1.60000000E+01  0.00000000E+00
  6.60000000E+02  1.40000000E+01  0.00000000E+00
  6.60000000E+02  1.20000000E+01  0.00000000E+00
  6.60000000E+02  1.00000000E+01  0.00000000E+00
  6.60000000E+02  8.00000000E+00  0.00000000E+00
  6.60000000E+02  6.00000000E+00  0.00000000E+00
  6.60000000E+02  4.00000000E+00  0.00000000E+00
  6.60000000E+02  2.00000000E+00  0.00000000E+00
  6.60000000E+02 -3.33066907E-14  0.00000000E+00
  6.70000000E+02  1.00000000E+02  0.00000000E+00
  6.70000000E+02  9.80000000E+01  0.00000000E+00
  6.70000000E+02  9.60000000E+01  0.00000000E+00
  6.70000000E+02  9.40000000E+01  0.00000000E+00
  6.70000000E+02  9.20000000E+01  0.00000000E+00
  6.70000000E+02  9.00000000E+01  0.00000000E+00
  6.70000000E+02  8.80000000E+01  0.00000000E+00
  6.70000000E+02  8.60000000E+01  0.00000000E+00
  6.70000000E+02  8.40000000E+01  0.00000000E+00
  6.70000000E+02  8.20000000E+01  0.00000000E+00
  6.70000000E+02  8.00000000E+01  0.00000000E+00
  6.70000000E+02  7.80000000E+01  0.00000000E+00
  6.70000000E+02  7.60000000E+01  0.00000000E+00
  6.70000000E+02  7.40000000E+01  0.00000000E+00
  6.70000000E+02  7.20000000E+01  0.00000000E+00
  6.70000000E+02  7.00000000E+01  0.00000000E+00
  6.70000000E+02  6.80000000E+01  0.00000000E+00
  6.70000000E+02  6.60000000E+01  0.00000000E+00
  6.70000000E+02  6.40000000E+01  0.00000000E+00
  6.70000000E+02  6.20000000E+01  0.00000000E+00
  6.70000000E+02  6.00000000E+01  0.00000000E+00
  6.70000000E+02  5.80000000E+01  0.00000000E+00
  6.70000000E+02  5.60000000E+01  0.00000000E+00
  6.70000000E+02  5.40000000E+01  0.00000000E+00
  6.70000000E+02  5.20000000E+01  0.00000000E+00
  6.70000000E+02  5.00000000E+01  0.00000000E+00
  6.70000000E+02  4.80000000E+01  0.00000000E+00
  6.70000000E+02  4.60000000E+01  0.00000000E+00
  6.70000000E+02  4.40000000E+01  0.00000000E+00
  6.70000000E+02  4.20000000E+01  0.00000000E+00
  6.70000000E+02  4.00000000E+01  0.00000000E+00
  6.70000000E+02  3.80000000E+01  0.00000000E+00
  6.70000000E+02  3.60000000E+01  0.00000000E+00
  6.70000000E+02  3.40000000E+01  0.00000000E+00
  6.70000000E+02  3.20000000E+01  0.00000000E+00
  6.70000000E+02  3.00000000E+01  0.00000000E+00
  6.70000000E+02  2.80000000E+01  0.00000000E+00
  6.70000000E+02  2.60000000E+01  0.00000000E+00
  6.70000000E+02  2.40000000E+01  0.00000000E+00
  6.70000000E+02  2.20000000E+01  0.00000000E+00
  6.70000000E+02  2.00000000E+01  0.00000000E+00
  6.70000000E+02  1.80000000E+01  0.00000000E+00
  6.70000000E+02  1.60000000E+01  0.00000000E+00
  6.70000000E+02  1.40000000E+01  0.00000000E+00
  6.70000000E+02  1.20000000E+01  0.00000000E+00
  6.70000000E+02  1.00000000E+01  0.00000000E+00
  6.70000000E+02  8.00000000E+00  0.00000000E+00
  6.70000000E+02  6.00000000E+00  0.00000000E+00
  6.70000000E+02  4.00000000E+00  0.00000000E+00
  6.70000000E+02  2.00000000E+00  0.00000000E+00
  6.70000000E+02 -3.33066907E-14  0.00000000E+00
  6.80000000E+02  1.00000000E+02  0.00000000E+00
  6.80000000E+02  9.80000000E+01  0.00000000E+00
  6.80000000E+02  9.60000000E+01  0.00000000E+00
  6.80000000E+02  9.40000000E+01  0.00000000E+00
  6.80000000E+02  9.20000000E+01  0.00000000E+00
  6.80000000E+02  9.00000000E+01  0.00000000E+00
  6.80000000E+02  8.80000000E+01  0.00000000E+00
  6.80000000E+02  8.60000000E+01  0.00000000E+00
  6.80000000E+02  8.40000000E+01  0.00000000E+00
  6.80000000E+02  8.20000000E+01  0.00000000E+00
  6.80000000E+02  8.00000000E+01  0.00000000E+00
  6.80000000E+02  7.80000000E+01  0.00000000E+00
  6.80000000E+02  7.60000000E+01  0.00000000E+00
  6.80000000E+02  7.40000000E+01  0.00000000E+00
  6.80000000E+02  7.20000000E+01  0.00000000E+00
  6.80000000E+02  7.00000000E+01  0.00000000E+00
  6.80000000E+02  6.80000000E+01  0.00000000E+00
  6.80000000E+02  6.60000000E+01  0.00000000E+00
  6.80000000E+02  6.40000000E+01  0.00000000E+00
  6.80000000E+02  6.20000000E+01  0.00000000E+00
  6.80000000E+02  6.00000000E+01  0.00000000E+00
  6.80000000E+02  5.80000000E+01  0.00000000E+00
  6.80000000E+02  5.60000000E+01  0.00000000E+00
  6.80000000E+02  5.40000000E+01  0.00000000E+00
  6.80000000E+02  5.20000000E+01  0.00000000E+00
  6.80000000E+02  5.00000000E+01  0.00000000E+00
  6.80000000E+02  4.80000000E+01  0.00000000E+00
  6.80000000E+02  4.60000000E+01  0.00000000E+00
  6.80000000E+02  4.40000000E+01  0.00000000E+00
  6.80000000E+02  4.20000000E+01  0.00000000E+00
  6.80000000E+02  4.00000000E+01  0.00000000E+00
  6.80000000E+02  3.80000000E+01  0.00000000E+00
  6.80000000E+02  3.60000000E+01  0.00000000E+00
  6.80000000E+02  3.40000000E+01  0.00000000E+00
  6.80000000E+02  3.20000000E+01  0.00000000E+00
  6.80000000E+02  3.00000000E+01  0.00000000E+00
  6.80000000E+02  2.80000000E+01  0.00000000E+00
  6.80000000E+02  2.60000000E+01  0.00000000E+00
  6.80000000E+02  2.40000000E+01  0.00000000E+00
  6.80000000E+02  2.20000000E+01  0.00000000E+00
  6.80000000E+02  2.00000000E+01  0.00000000E+00
  6.80000000E+02  1.80000000E+01  0.00000000E+00
  6.80000000E+02  1.60000000E+01  0.00000000E+00
  6.80000000E+02  1.40000000E+01  0.00000000E+00
  6.80000000E+02  1.20000000E+01  0.00000000E+00
  6.80000000E+02  1.00000000E+01  0.00000000E+00
  6.80000000E+02  8.00000000E+00  0.00000000E+00
  6.80000000E+02  6.00000000E+00  0.00000000E+00
  6.80000000E+02  4.00000000E+00  0.00000000E+00
  6.80000000E+02  2.00000000E+00  0.00000000E+00
  6.80000000E+02 -3.33066907E-14  0.00000000E+00
  6.90000000E+02  1.00000000E+02  0.00000000E+00
  6.90000000E+02  9.80000000E+01  0.00000000E+00
  6.90000000E+02  9.60000000E+01  0.00000000E+00
  6.90000000E+02  9.40000000E+01  0.00000000E+00
  6.90000000E+02  9.20000000E+01  0.00000000E+00
  6.90000000E+02  9.00000000E+01  0.00000000E+00
  6.90000000E+02  8.80000000E+01  0.00000000E+00
  6.90000000E+02  8.60000000E+01  0.00000000E+00
  6.90000000E+02  8.40000000E+01  0.00000000E+00
  6.90000000E+02  8.20000000E+01  0.00000000E+00
  6.90000000E+02  8.00000000E+01  0.00000000E+00
  6.90000000E+02  7.80000000E+01  0.00000000E+00
  6.90000000E+02  7.60000000E+01  0.00000000E+00
  6.90000000E+02  7.40000000E+01  0.00000000E+00
  6.90000000E+02  7.20000000E+01  0.00000000E+00
  6.90000000E+02  7.00000000E+01  0.00000000E+00
  6.90000000E+02  6.80000000E+01  0.00000000E+00
  6.90000000E+02  6.60000000E+01  0.00000000E+00
  6.90000000E+02  6.40000000E+01  0.00000000E+00
  6.90000000E+02  6.20000000E+01  0.00000000E+00
  6.90000000E+02  6.00000000E+01  0.00000000E+00
  6.90000000E+02  5.80000000E+01  0.00000000E+00
  6.90000000E+02  5.60000000E+01  0.00000000E+00
  6.90000000E+02  5.40000000E+01  0.00000000E+00
  6.90000000E+02  5.20000000E+01  0.00000000E+00
  6.90000000E+02  5.00000000E+01  0.00000000E+00
  6.90000000E+02  4.80000000E+01  0.00000000E+00
  6.90000000E+02  4.60000000E+01  0.00000000E+00
  6.90000000E+02  4.40000000E+01  0.00000000E+00
  6.90000000E+02  4.20000000E+01  0.00000000E+00
  6.90000000E+02  4.00000000E+01  0.00000000E+00
  6.90000000E+02  3.80000000E+01  0.00000000E+00
  6.90000000E+02  3.60000000E+01  0.00000000E+00
  6.90000000E+02  3.40000000E+01  0.00000000E+00
  6.90000000E+02  3.20000000E+01  0.00000000E+00
  6.90000000E+02  3.00000000E+01  0.00000000E+00
  6.90000000E+02  2.80000000E+01  0.00000000E+00
  6.90000000E+02  2.60000000E+01  0.00000000E+00
  6.90000000E+02  2.40000000E+01  0.00000000E+00
  6.90000000E+02  2.20000000E+01  0.00000000E+00
  6.90000000E+02  2.00000000E+01  0.00000000E+00
  6.90000000E+02  1.80000000E+01  0.00000000E+00
  6.90000000E+02  1.60000000E+01  0.00000000E+00
  6.90000000E+02  1.40000000E+01  0.00000000E+00
  6.90000000E+02  1.20000000E+01  0.00000000E+00
  6.90000000E+02  1.00000000E+01  0.00000000E+00
  6.90000000E+02  8.00000000E+00  0.00000000E+00
  6.90000000E+02  6.00000000E+00  0.00000000E+00
  6.90000000E+02  4.00000000E+00  0.00000000E+00
  6.90000000E+02  2.00000000E+00  0.00000000E+00
  6.90000000E+02 -3.33066907E-14  0.00000000E+00
  7.00000000E+02  1.00000000E+02  0.00000000E+00
  7.00000000E+02  9.80000000E+01  0.00000000E+00
  7.00000000E+02  9.60000000E+01  0.00000000E+00
  7.00000000E+02  9.40000000E+01  0.00000000E+00
  7.00000000E+02  9.20000000E+01  0.00000000E+00
  7.00000000E+02  9.00000000E+01  0.00000000E+00
  7.00000000E+02  8.80000000E+01  0.00000000E+00
  7.00000000E+02  8.60000000E+01  0.00000000E+00
  7.00000000E+02  8.40000000E+01  0.00000000E+00
  7.00000000E+02  8.20000000E+01  0.00000000E+00
  7.00000000E+02  8.00000000E+01  0.00000000E+00
  7.00000000E+02  7.80000000E+01  0.00000000E+00
  7.00000000E+02  7.60000000E+01  0.00000000E+00
  7.00000000E+02  7.40000000E+01  0.00000000E+00
  7.00000000E+02  7.20000000E+01  0.00000000E+00
  7.00000000E+02  7.00000000E+01  0.00000000E+00
  7.00000000E+02  6.80000000E+01  0.00000000E+00
  7.00000000E+02  6.60000000E+01  0.00000000E+00
  7.00000000E+02  6.40000000E+01  0.00000000E+00
  7.00000000E+02  6.20000000E+01  0.00000000E+00
  7.00000000E+02  6.00000000E+01  0.00000000E+00
  7.00000000E+02  5.80000000E+01  0.00000000E+00
  7.00000000E+02  5.60000000E+01  0.00000000E+00
  7.00000000E+02  5.40000000E+01  0.00000000E+00
  7.00000000E+02  5.20000000E+01  0.00000000E+00
  7.00000000E+02  5.00000000E+01  0.00000000E+00
  7.00000000E+02  4.80000000E+01  0.00000000E+00
  7.00000000E+02  4.60000000E+01  0.00000000E+00
  7.00000000E+02  4.40000000E+01  0.00000000E+00
  7.00000000E+02  4.20000000E+01  0.00000000E+00
  7.00000000E+02  4.00000000E+01  0.00000000E+00
  7.00000000E+02  3.80000000E+01  0.00000000E+00
  7.00000000E+02  3.60000000E+01  0.00000000E+00
  7.00000000E+02  3.40000000E+01  0.00000000E+00
  7.00000000E+02  3.20000000E+01  0.00000000E+00
  7.00000000E+02  3.00000000E+01  0.00000000E+00
  7.00000000E+02  2.80000000E+01  0.00000000E+00
  7.00000000E+02  2.60000000E+01  0.00000000E+00
  7.00000000E+02  2.40000000E+01  0.00000000E+00
  7.00000000E+02  2.20000000E+01  0.00000000E+00
  7.00000000E+02  2.00000000E+01  0.00000000E+00
  7.00000000E+02  1.80000000E+01  0.00000000E+00
  7.00000000E+02  1.60000000E+01  0.00000000E+00
  7.00000000E+02  1.40000000E+01  0.00000000E+00
  7.00000000E+02  1.20000000E+01  0.00000000E+00
  7.00000000E+02  1.00000000E+01  0.00000000E+00
  7.00000000E+02  8.00000000E+00  0.00000000E+00
  7.00000000E+02  6.00000000E+00  0.00000000E+00
  7.00000000E+02  4.00000000E+00  0.00000000E+00
  7.00000000E+02  2.00000000E+00  0.00000000E+00
  7.00000000E+02 -3.33066907E-14  0.00000000E+00
  7.10000000E+02  1.00000000E+02  0.00000000E+00
  7.10000000E+02  9.80000000E+01  0.00000000E+00
  7.10000000E+02  9.60000000E+01  0.00000000E+00
  7.10000000E+02  9.40000000E+01  0.00000000E+00
  7.10000000E+02  9.20000000E+01  0.00000000E+00
  7.10000000E+02  9.00000000E+01  0.00000000E+00
  7.10000000E+02  8.80000000E+01  0.00000000E+00
  7.10000000E+02  8.60000000E+01  0.00000000E+00
  7.10000000E+02  8.40000000E+01  0.00000000E+00
  7.10000000E+02  8.20000000E+01  0.00000000E+00
  7.10000000E+02  8.00000000E+01  0.00000000E+00
  7.10000000E+02  7.80000000E+01  0.00000000E+00
  7.10000000E+02  7.60000000E+01  0.00000000E+00
  7.10000000E+02  7.40000000E+01  0.00000000E+00
  7.10000000E+02  7.20000000E+01  0.00000000E+00
  7.10000000E+02  7.00000000E+01  0.00000000E+00
  7.10000000E+02  6.80000000E+01  0.00000000E+00
  7.10000000E+02  6.60000000E+01  0.00000000E+00
  7.10000000E+02  6.40000000E+01  0.00000000E+00
  7.10000000E+02  6.20000000E+01  0.00000000E+00
  7.10000000E+02  6.00000000E+01  0.00000000E+00
  7.10000000E+02  5.80000000E+01  0.00000000E+00
  7.10000000E+02  5.60000000E+01  0.00000000E+00
  7.10000000E+02  5.40000000E+01  0.00000000E+00
  7.10000000E+02  5.20000000E+01  0.00000000E+00
  7.10000000E+02  5.00000000E+01  0.00000000E+00
  7.10000000E+02  4.80000000E+01  0.00000000E+00
  7.10000000E+02  4.60000000E+01  0.00000000E+00
  7.10000000E+02  4.40000000E+01  0.00000000E+00
  7.10000000E+02  4.20000000E+01  0.00000000E+00
  7.10000000E+02  4.00000000E+01  0.00000000E+00
  7.10000000E+02  3.80000000E+01  0.00000000E+00
  7.10000000E+02  3.60000000E+01  0.00000000E+00
  7.10000000E+02  3.40000000E+01  0.00000000E+00
  7.10000000E+02  3.20000000E+01  0.00000000E+00
  7.10000000E+02  3.00000000E+01  0.00000000E+00
  7.10000000E+02  2.80000000E+01  0.00000000E+00
  7.10000000E+02  2.60000000E+01  0.00000000E+00
  7.10000000E+02  2.40000000E+01  0.00000000E+00
  7.10000000E+02  2.20000000E+01  0.00000000E+00
  7.10000000E+02  2.00000000E+01  0.00000000E+00
  7.10000000E+02  1.80000000E+01  0.00000000E+00
  7.10000000E+02  1.60000000E+01  0.00000000E+00
  7.10000000E+02  1.40000000E+01  0.00000000E+00
  7.10000000E+02  1.20000000E+01  0.00000000E+00
  7.10000000E+02  1.00000000E+01  0.00000000E+00
  7.10000000E+02  8.00000000E+00  0.00000000E+00
  7.10000000E+02  6.00000000E+00  0.00000000E+00
  7.10000000E+02  4.00000000E+00  0.00000000E+00
  7.10000000E+02  2.00000000E+00  0.00000000E+00
  7.10000000E+02 -3.33066907E-14  0.00000000E+00
  7.20000000E+02  1.00000000E+02  0.00000000E+00
  7.20000000E+02  9.80000000E+01  0.00000000E+00
  7.20000000E+02  9.60000000E+01  0.00000000E+00
  7.20000000E+02  9.40000000E+01  0.00000000E+00
  7.20000000E+02  9.20000000E+01  0.00000000E+00
  7.20000000E+02  9.00000000E+01  0.00000000E+00
  7.20000000E+02  8.80000000E+01  0.00000000E+00
  7.20000000E+02  8.60000000E+01  0.00000000E+00
  7.20000000E+02  8.40000000E+01  0.00000000E+00
  7.20000000E+02  8.20000000E+01  0.00000000E+00
  7.20000000E+02  8.00000000E+01  0.00000000E+00
  7.20000000E+02  7.80000000E+01  0.00000000E+00
  7.20000000E+02  7.60000000E+01  0.00000000E+00
  7.20000000E+02  7.40000000E+01  0.00000000E+00
  7.20000000E+02  7.20000000E+01  0.00000000E+00
  7.20000000E+02  7.00000000E+01  0.00000000E+00
  7.20000000E+02  6.80000000E+01  0.00000000E+00
  7.20000000E+02  6.60000000E+01  0.00000000E+00
  7.20000000E+02  6.40000000E+01  0.00000000E+00
  7.20000000E+02  6.20000000E+01  0.00000000E+00
  7.20000000E+02  6.00000000E+01  0.00000000E+00
  7.20000000E+02  5.80000000E+01  0.00000000E+00
  7.20000000E+02  5.60000000E+01  0.00000000E+00
  7.20000000E+02  5.40000000E+01  0.00000000E+00
  7.20000000E+02  5.20000000E+01  0.00000000E+00
  7.20000000E+02  5.00000000E+01  0.00000000E+00
  7.20000000E+02  4.80000000E+01  0.00000000E+00
  7.20000000E+02  4.60000000E+01  0.00000000E+00
  7.20000000E+02  4.40000000E+01  0.00000000E+00
  7.20000000E+02  4.20000000E+01  0.00000000E+00
  7.20000000E+02  4.00000000E+01  0.00000000E+00
  7.20000000E+02  3.80000000E+01  0.00000000E+00
  7.20000000E+02  3.60000000E+01  0.00000000E+00
  7.20000000E+02  3.40000000E+01  0.00000000E+00
  7.20000000E+02  3.20000000E+01  0.00000000E+00
  7.20000000E+02  3.00000000E+01  0.00000000E+00
  7.20000000E+02  2.80000000E+01  0.00000000E+00
  7.20000000E+02  2.60000000E+01  0.00000000E+00
  7.20000000E+02  2.40000000E+01  0.00000000E+00
  7.20000000E+02  2.20000000E+01  0.00000000E+00
  7.20000000E+02  2.00000000E+01  0.00000000E+00
  7.20000000E+02  1.80000000E+01  0.00000000E+00
  7.20000000E+02  1.60000000E+01  0.00000000E+00
  7.20000000E+02  1.40000000E+01  0.00000000E+00
  7.20000000E+02  1.20000000E+01  0.00000000E+00
  7.20000000E+02  1.00000000E+01  0.00000000E+00
  7.20000000E+02  8.00000000E+00  0.00000000E+00
  7.20000000E+02  6.00000000E+00  0.00000000E+00
  7.20000000E+02  4.00000000E+00  0.00000000E+00
  7.20000000E+02  2.00000000E+00  0.00000000E+00
  7.20000000E+02 -3.33066907E-14  0.00000000E+00
  7.30000000E+02  1.00000000E+02  0.00000000E+00
  7.30000000E+02  9.80000000E+01  0.00000000E+00
  7.30000000E+02  9.60000000E+01  0.00000000E+00
  7.30000000E+02  9.40000000E+01  0.00000000E+00
  7.30000000E+02  9.20000000E+01  0.00000000E+00
  7.30000000E+02  9.00000000E+01  0.00000000E+00
  7.30000000E+02  8.80000000E+01  0.00000000E+00
  7.30000000E+02  8.60000000E+01  0.00000000E+00
  7.30000000E+02  8.40000000E+01  0.00000000E+00
  7.30000000E+02  8.20000000E+01  0.00000000E+00
  7.30000000E+02  8.00000000E+01  0.00000000E+00
  7.30000000E+02  7.80000000E+01  0.00000000E+00
  7.30000000E+02  7.60000000E+01  0.00000000E+00
  7.30000000E+02  7.40000000E+01  0.00000000E+00
  7.30000000E+02  7.20000000E+01  0.00000000E+00
  7.30000000E+02  7.00000000E+01  0.00000000E+00
  7.30000000E+02  6.80000000E+01  0.00000000E+00
  7.30000000E+02  6.60000000E+01  0.00000000E+00
  7.30000000E+02  6.40000000E+01  0.00000000E+00
  7.30000000E+02  6.20000000E+01  0.00000000E+00
  7.30000000E+02  6.00000000E+01  0.00000000E+00
  7.30000000E+02  5.80000000E+01  0.00000000E+00
  7.30000000E+02  5.60000000E+01  0.00000000E+00
  7.30000000E+02  5.40000000E+01  0.00000000E+00
  7.30000000E+02  5.20000000E+01  0.00000000E+00
  7.30000000E+02  5.00000000E+01  0.00000000E+00
  7.30000000E+02  4.80000000E+01  0.00000000E+00
  7.30000000E+02  4.60000000E+01  0.00000000E+00
  7.30000000E+02  4.40000000E+01  0.00000000E+00
  7.30000000E+02  4.20000000E+01  0.00000000E+00
  7.30000000E+02  4.00000000E+01  0.00000000E+00
  7.30000000E+02  3.80000000E+01  0.00000000E+00
  7.30000000E+02  3.60000000E+01  0.00000000E+00
  7.30000000E+02  3.40000000E+01  0.00000000E+00
  7.30000000E+02  3.20000000E+01  0.00000000E+00
  7.30000000E+02  3.00000000E+01  0.00000000E+00
  7.30000000E+02  2.80000000E+01  0.00000000E+00
  7.30000000E+02  2.60000000E+01  0.00000000E+00
  7.30000000E+02  2.40000000E+01  0.00000000E+00
  7.30000000E+02  2.20000000E+01  0.00000000E+00
  7.30000000E+02  2.00000000E+01  0.00000000E+00
  7.30000000E+02  1.80000000E+01  0.00000000E+00
  7.30000000E+02  1.60000000E+01  0.00000000E+00
  7.30000000E+02  1.40000000E+01  0.00000000E+00
  7.30000000E+02  1.20000000E+01  0.00000000E+00
  7.30000000E+02  1.00000000E+01  0.00000000E+00
  7.30000000E+02  8.00000000E+00  0.00000000E+00
  7.30000000E+02  6.00000000E+00  0.00000000E+00
  7.30000000E+02  4.00000000E+00  0.00000000E+00
  7.30000000E+02  2.00000000E+00  0.00000000E+00
  7.30000000E+02 -3.33066907E-14  0.00000000E+00
  7.40000000E+02  1.00000000E+02  0.00000000E+00
  7.40000000E+02  9.80000000E+01  0.00000000E+00
  7.40000000E+02  9.60000000E+01  0.00000000E+00
  7.40000000E+02  9.40000000E+01  0.00000000E+00
  7.40000000E+02  9.20000000E+01  0.00000000E+00
  7.40000000E+02  9.00000000E+01  0.00000000E+00
  7.40000000E+02  8.80000000E+01  0.00000000E+00
  7.40000000E+02  8.60000000E+01  0.00000000E+00
  7.40000000E+02  8.40000000E+01  0.00000000E+00
  7.40000000E+02  8.20000000E+01  0.00000000E+00
  7.40000000E+02  8.00000000E+01  0.00000000E+00
  7.40000000E+02  7.80000000E+01  0.00000000E+00
  7.40000000E+02  7.60000000E+01  0.00000000E+00
  7.40000000E+02  7.40000000E+01  0.00000000E+00
  7.40000000E+02  7.20000000E+01  0.00000000E+00
  7.40000000E+02  7.00000000E+01  0.00000000E+00
  7.40000000E+02  6.80000000E+01  0.00000000E+00
  7.40000000E+02  6.60000000E+01  0.00000000E+00
  7.40000000E+02  6.40000000E+01  0.00000000E+00
  7.40000000E+02  6.20000000E+01  0.00000000E+00
  7.40000000E+02  6.00000000E+01  0.00000000E+00
  7.40000000E+02  5.80000000E+01  0.00000000E+00
  7.40000000E+02  5.60000000E+01  0.00000000E+00
  7.40000000E+02  5.40000000E+01  0.00000000E+00
  7.40000000E+02  5.20000000E+01  0.00000000E+00
  7.40000000E+02  5.00000000E+01  0.00000000E+00
  7.40000000E+02  4.80000000E+01  0.00000000E+00
  7.40000000E+02  4.60000000E+01  0.00000000E+00
  7.40000000E+02  4.40000000E+01  0.00000000E+00
  7.40000000E+02  4.20000000E+01  0.00000000E+00
  7.40000000E+02  4.00000000E+01  0.00000000E+00
  7.40000000E+02  3.80000000E+01  0.00000000E+00
  7.40000000E+02  3.60000000E+01  0.00000000E+00
  7.40000000E+02  3.40000000E+01  0.00000000E+00
  7.40000000E+02  3.20000000E+01  0.00000000E+00
  7.40000000E+02  3.00000000E+01  0.00000000E+00
  7.40000000E+02  2.80000000E+01  0.00000000E+00
  7.40000000E+02  2.60000000E+01  0.00000000E+00
  7.40000000E+02  2.40000000E+01  0.00000000E+00
  7.40000000E+02  2.20000000E+01  0.00000000E+00
  7.40000000E+02  2.00000000E+01  0.00000000E+00
  7.40000000E+02  1.80000000E+01  0.00000000E+00
  7.40000000E+02  1.60000000E+01  0.00000000E+00
  7.40000000E+02  1.40000000E+01  0.00000000E+00
  7.40000000E+02  1.20000000E+01  0.00000000E+00
  7.40000000E+02  1.00000000E+01  0.00000000E+00
  7.40000000E+02  8.00000000E+00  0.00000000E+00
  7.40000000E+02  6.00000000E+00  0.00000000E+00
  7.40000000E+02  4.00000000E+00  0.00000000E+00
  7.40000000E+02  2.00000000E+00  0.00000000E+00
  7.40000000E+02 -3.33066907E-14  0.00000000E+00
  7.50000000E+02  1.00000000E+02  0.00000000E+00
  7.50000000E+02  9.80000000E+01  0.00000000E+00
  7.50000000E+02  9.60000000E+01  0.00000000E+00
  7.50000000E+02  9.40000000E+01  0.00000000E+00
  7.50000000E+02  9.20000000E+01  0.00000000E+00
  7.50000000E+02  9.00000000E+01  0.00000000E+00
  7.50000000E+02  8.80000000E+01  0.00000000E+00
  7.50000000E+02  8.60000000E+01  0.00000000E+00
  7.50000000E+02  8.40000000E+01  0.00000000E+00
  7.50000000E+02  8.20000000E+01  0.00000000E+00
  7.50000000E+02  8.00000000E+01  0.00000000E+00
  7.50000000E+02  7.80000000E+01  0.00000000E+00
  7.50000000E+02  7.60000000E+01  0.00000000E+00
  7.50000000E+02  7.40000000E+01  0.00000000E+00
  7.50000000E+02  7.20000000E+01  0.00000000E+00
  7.50000000E+02  7.00000000E+01  0.00000000E+00
  7.50000000E+02  6.80000000E+01  0.00000000E+00
  7.50000000E+02  6.60000000E+01  0.00000000E+00
  7.50000000E+02  6.40000000E+01  0.00000000E+00
  7.50000000E+02  6.20000000E+01  0.00000000E+00
  7.50000000E+02  6.00000000E+01  0.00000000E+00
  7.50000000E+02  5.80000000E+01  0.00000000E+00
  7.50000000E+02  5.60000000E+01  0.00000000E+00
  7.50000000E+02  5.40000000E+01  0.00000000E+00
  7.50000000E+02  5.20000000E+01  0.00000000E+00
  7.50000000E+02  5.00000000E+01  0.00000000E+00
  7.50000000E+02  4.80000000E+01  0.00000000E+00
  7.50000000E+02  4.60000000E+01  0.00000000E+00
  7.50000000E+02  4.40000000E+01  0.00000000E+00
  7.50000000E+02  4.20000000E+01  0.00000000E+00
  7.50000000E+02  4.00000000E+01  0.00000000E+00
  7.50000000E+02  3.80000000E+01  0.00000000E+00
  7.50000000E+02  3.60000000E+01  0.00000000E+00
  7.50000000E+02  3.40000000E+01  0.00000000E+00
  7.50000000E+02  3.20000000E+01  0.00000000E+00
  7.50000000E+02  3.00000000E+01  0.00000000E+00
  7.50000000E+02  2.80000000E+01  0.00000000E+00
  7.50000000E+02  2.60000000E+01  0.00000000E+00
  7.50000000E+02  2.40000000E+01  0.00000000E+00
  7.50000000E+02  2.20000000E+01  0.00000000E+00
  7.50000000E+02  2.00000000E+01  0.00000000E+00
  7.50000000E+02  1.80000000E+01  0.00000000E+00
  7.50000000E+02  1.60000000E+01  0.00000000E+00
  7.50000000E+02  1.40000000E+01  0.00000000E+00
  7.50000000E+02  1.20000000E+01  0.00000000E+00
  7.50000000E+02  1.00000000E+01  0.00000000E+00
  7.50000000E+02  8.00000000E+00  0.00000000E+00
  7.50000000E+02  6.00000000E+00  0.00000000E+00
  7.50000000E+02  4.00000000E+00  0.00000000E+00
  7.50000000E+02  2.00000000E+00  0.00000000E+00
  7.50000000E+02 -3.33066907E-14  0.00000000E+00
  7.60000000E+02  1.00000000E+02  0.00000000E+00
  7.60000000E+02  9.80000000E+01  0.00000000E+00
  7.60000000E+02  9.60000000E+01  0.00000000E+00
  7.60000000E+02  9.40000000E+01  0.00000000E+00
  7.60000000E+02  9.20000000E+01  0.00000000E+00
  7.60000000E+02  9.00000000E+01  0.00000000E+00
  7.60000000E+02  8.80000000E+01  0.00000000E+00
  7.60000000E+02  8.60000000E+01  0.00000000E+00
  7.60000000E+02  8.40000000E+01  0.00000000E+00
  7.60000000E+02  8.20000000E+01  0.00000000E+00
  7.60000000E+02  8.00000000E+01  0.00000000E+00
  7.60000000E+02  7.80000000E+01  0.00000000E+00
  7.60000000E+02  7.60000000E+01  0.00000000E+00
  7.60000000E+02  7.40000000E+01  0.00000000E+00
  7.60000000E+02  7.20000000E+01  0.00000000E+00
  7.60000000E+02  7.00000000E+01  0.00000000E+00
  7.60000000E+02  6.80000000E+01  0.00000000E+00
  7.60000000E+02  6.60000000E+01  0.00000000E+00
  7.60000000E+02  6.40000000E+01  0.00000000E+00
  7.60000000E+02  6.20000000E+01  0.00000000E+00
  7.60000000E+02  6.00000000E+01  0.00000000E+00
  7.60000000E+02  5.80000000E+01  0.00000000E+00
  7.60000000E+02  5.60000000E+01  0.00000000E+00
  7.60000000E+02  5.40000000E+01  0.00000000E+00
  7.60000000E+02  5.20000000E+01  0.00000000E+00
  7.60000000E+02  5.00000000E+01  0.00000000E+00
  7.60000000E+02  4.80000000E+01  0.00000000E+00
  7.60000000E+02  4.60000000E+01  0.00000000E+00
  7.60000000E+02  4.40000000E+01  0.00000000E+00
  7.60000000E+02  4.20000000E+01  0.00000000E+00
  7.60000000E+02  4.00000000E+01  0.00000000E+00
  7.60000000E+02  3.80000000E+01  0.00000000E+00
  7.60000000E+02  3.60000000E+01  0.00000000E+00
  7.60000000E+02  3.40000000E+01  0.00000000E+00
  7.60000000E+02  3.20000000E+01  0.00000000E+00
  7.60000000E+02  3.00000000E+01  0.00000000E+00
  7.60000000E+02  2.80000000E+01  0.00000000E+00
  7.60000000E+02  2.60000000E+01  0.00000000E+00
  7.60000000E+02  2.40000000E+01  0.00000000E+00
  7.60000000E+02  2.20000000E+01  0.00000000E+00
  7.60000000E+02  2.00000000E+01  0.00000000E+00
  7.60000000E+02  1.80000000E+01  0.00000000E+00
  7.60000000E+02  1.60000000E+01  0.00000000E+00
  7.60000000E+02  1.40000000E+01  0.00000000E+00
  7.60000000E+02  1.20000000E+01  0.00000000E+00
  7.60000000E+02  1.00000000E+01  0.00000000E+00
  7.60000000E+02  8.00000000E+00  0.00000000E+00
  7.60000000E+02  6.00000000E+00  0.00000000E+00
  7.60000000E+02  4.00000000E+00  0.00000000E+00
  7.60000000E+02  2.00000000E+00  0.00000000E+00
  7.60000000E+02 -3.33066907E-14  0.00000000E+00
  7.70000000E+02  1.00000000E+02  0.00000000E+00
  7.70000000E+02  9.80000000E+01  0.00000000E+00
  7.70000000E+02  9.60000000E+01  0.00000000E+00
  7.70000000E+02  9.40000000E+01  0.00000000E+00
  7.70000000E+02  9.20000000E+01  0.00000000E+00
  7.70000000E+02  9.00000000E+01  0.00000000E+00
  7.70000000E+02  8.80000000E+01  0.00000000E+00
  7.70000000E+02  8.60000000E+01  0.00000000E+00
  7.70000000E+02  8.40000000E+01  0.00000000E+00
  7.70000000E+02  8.20000000E+01  0.00000000E+00
  7.70000000E+02  8.00000000E+01  0.00000000E+00
  7.70000000E+02  7.80000000E+01  0.00000000E+00
  7.70000000E+02  7.60000000E+01  0.00000000E+00
  7.70000000E+02  7.40000000E+01  0.00000000E+00
  7.70000000E+02  7.20000000E+01  0.00000000E+00
  7.70000000E+02  7.00000000E+01  0.00000000E+00
  7.70000000E+02  6.80000000E+01  0.00000000E+00
  7.70000000E+02  6.60000000E+01  0.00000000E+00
  7.70000000E+02  6.40000000E+01  0.00000000E+00
  7.70000000E+02  6.20000000E+01  0.00000000E+00
  7.70000000E+02  6.00000000E+01  0.00000000E+00
  7.70000000E+02  5.80000000E+01  0.00000000E+00
  7.70000000E+02  5.60000000E+01  0.00000000E+00
  7.70000000E+02  5.40000000E+01  0.00000000E+00
  7.70000000E+02  5.20000000E+01  0.00000000E+00
  7.70000000E+02  5.00000000E+01  0.00000000E+00
  7.70000000E+02  4.80000000E+01  0.00000000E+00
  7.70000000E+02  4.60000000E+01  0.00000000E+00
  7.70000000E+02  4.40000000E+01  0.00000000E+00
  7.70000000E+02  4.20000000E+01  0.00000000E+00
  7.70000000E+02  4.00000000E+01  0.00000000E+00
  7.70000000E+02  3.80000000E+01  0.00000000E+00
  7.70000000E+02  3.60000000E+01  0.00000000E+00
  7.70000000E+02  3.40000000E+01  0.00000000E+00
  7.70000000E+02  3.20000000E+01  0.00000000E+00
  7.70000000E+02  3.00000000E+01  0.00000000E+00
  7.70000000E+02  2.80000000E+01  0.00000000E+00
  7.70000000E+02  2.60000000E+01  0.00000000E+00
  7.70000000E+02  2.40000000E+01  0.00000000E+00
  7.70000000E+02  2.20000000E+01  0.00000000E+00
  7.70000000E+02  2.00000000E+01  0.00000000E+00
  7.70000000E+02  1.80000000E+01  0.00000000E+00
  7.70000000E+02  1.60000000E+01  0.00000000E+00
  7.70000000E+02  1.40000000E+01  0.00000000E+00
  7.70000000E+02  1.20000000E+01  0.00000000E+00
  7.70000000E+02  1.00000000E+01  0.00000000E+00
  7.70000000E+02  8.00000000E+00  0.00000000E+00
  7.70000000E+02  6.00000000E+00  0.00000000E+00
  7.70000000E+02  4.00000000E+00  0.00000000E+00
  7.70000000E+02  2.00000000E+00  0.00000000E+00
  7.70000000E+02 -3.33066907E-14  0.00000000E+00
  7.80000000E+02  1.00000000E+02  0.00000000E+00
  7.80000000E+02  9.80000000E+01  0.00000000E+00
  7.80000000E+02  9.60000000E+01  0.00000000E+00
  7.80000000E+02  9.40000000E+01  0.00000000E+00
  7.80000000E+02  9.20000000E+01  0.00000000E+00
  7.80000000E+02  9.00000000E+01  0.00000000E+00
  7.80000000E+02  8.80000000E+01  0.00000000E+00
  7.80000000E+02  8.60000000E+01  0.00000000E+00
  7.80000000E+02  8.40000000E+01  0.00000000E+00
  7.80000000E+02  8.20000000E+01  0.00000000E+00
  7.80000000E+02  8.00000000E+01  0.00000000E+00
  7.80000000E+02  7.80000000E+01  0.00000000E+00
  7.80000000E+02  7.60000000E+01  0.00000000E+00
  7.80000000E+02  7.40000000E+01  0.00000000E+00
  7.80000000E+02  7.20000000E+01  0.00000000E+00
  7.80000000E+02  7.00000000E+01  0.00000000E+00
  7.80000000E+02  6.80000000E+01  0.00000000E+00
  7.80000000E+02  6.60000000E+01  0.00000000E+00
  7.80000000E+02  6.40000000E+01  0.00000000E+00
  7.80000000E+02  6.20000000E+01  0.00000000E+00
  7.80000000E+02  6.00000000E+01  0.00000000E+00
  7.80000000E+02  5.80000000E+01  0.00000000E+00
  7.80000000E+02  5.60000000E+01  0.00000000E+00
  7.80000000E+02  5.40000000E+01  0.00000000E+00
  7.80000000E+02  5.20000000E+01  0.00000000E+00
  7.80000000E+02  5.00000000E+01  0.00000000E+00
  7.80000000E+02  4.80000000E+01  0.00000000E+00
  7.80000000E+02  4.60000000E+01  0.00000000E+00
  7.80000000E+02  4.40000000E+01  0.00000000E+00
  7.80000000E+02  4.20000000E+01  0.00000000E+00
  7.80000000E+02  4.00000000E+01  0.00000000E+00
  7.80000000E+02  3.80000000E+01  0.00000000E+00
  7.80000000E+02  3.60000000E+01  0.00000000E+00
  7.80000000E+02  3.40000000E+01  0.00000000E+00
  7.80000000E+02  3.20000000E+01  0.00000000E+00
  7.80000000E+02  3.00000000E+01  0.00000000E+00
  7.80000000E+02  2.80000000E+01  0.00000000E+00
  7.80000000E+02  2.60000000E+01  0.00000000E+00
  7.80000000E+02  2.40000000E+01  0.00000000E+00
  7.80000000E+02  2.20000000E+01  0.00000000E+00
  7.80000000E+02  2.00000000E+01  0.00000000E+00
  7.80000000E+02  1.80000000E+01  0.00000000E+00
  7.80000000E+02  1.60000000E+01  0.00000000E+00
  7.80000000E+02  1.40000000E+01  0.00000000E+00
  7.80000000E+02  1.20000000E+01  0.00000000E+00
  7.80000000E+02  1.00000000E+01  0.00000000E+00
  7.80000000E+02  8.00000000E+00  0.00000000E+00
  7.80000000E+02  6.00000000E+00  0.00000000E+00
  7.80000000E+02  4.00000000E+00  0.00000000E+00
  7.80000000E+02  2.00000000E+00  0.00000000E+00
  7.80000000E+02 -3.33066907E-14  0.00000000E+00
  7.90000000E+02  1.00000000E+02  0.00000000E+00
  7.90000000E+02  9.80000000E+01  0.00000000E+00
  7.90000000E+02  9.60000000E+01  0.00000000E+00
  7.90000000E+02  9.40000000E+01  0.00000000E+00
  7.90000000E+02  9.20000000E+01  0.00000000E+00
  7.90000000E+02  9.00000000E+01  0.00000000E+00
  7.90000000E+02  8.80000000E+01  0.00000000E+00
  7.90000000E+02  8.60000000E+01  0.00000000E+00
  7.90000000E+02  8.40000000E+01  0.00000000E+00
  7.90000000E+02  8.20000000E+01  0.00000000E+00
  7.90000000E+02  8.00000000E+01  0.00000000E+00
  7.90000000E+02  7.80000000E+01  0.00000000E+00
  7.90000000E+02  7.60000000E+01  0.00000000E+00
  7.90000000E+02  7.40000000E+01  0.00000000E+00
  7.90000000E+02  7.20000000E+01  0.00000000E+00
  7.90000000E+02  7.00000000E+01  0.00000000E+00
  7.90000000E+02  6.80000000E+01  0.00000000E+00
  7.90000000E+02  6.60000000E+01  0.00000000E+00
  7.90000000E+02  6.40000000E+01  0.00000000E+00
  7.90000000E+02  6.20000000E+01  0.00000000E+00
  7.90000000E+02  6.00000000E+01  0.00000000E+00
  7.90000000E+02  5.80000000E+01  0.00000000E+00
  7.90000000E+02  5.60000000E+01  0.00000000E+00
  7.90000000E+02  5.40000000E+01  0.00000000E+00
  7.90000000E+02  5.20000000E+01  0.00000000E+00
  7.90000000E+02  5.00000000E+01  0.00000000E+00
  7.90000000E+02  4.80000000E+01  0.00000000E+00
  7.90000000E+02  4.60000000E+01  0.00000000E+00
  7.90000000E+02  4.40000000E+01  0.00000000E+00
  7.90000000E+02  4.20000000E+01  0.00000000E+00
  7.90000000E+02  4.00000000E+01  0.00000000E+00
  7.90000000E+02  3.80000000E+01  0.00000000E+00
  7.90000000E+02  3.60000000E+01  0.00000000E+00
  7.90000000E+02  3.40000000E+01  0.00000000E+00
  7.90000000E+02  3.20000000E+01  0.00000000E+00
  7.90000000E+02  3.00000000E+01  0.00000000E+00
  7.90000000E+02  2.80000000E+01  0.00000000E+00
  7.90000000E+02  2.60000000E+01  0.00000000E+00
  7.90000000E+02  2.40000000E+01  0.00000000E+00
  7.90000000E+02  2.20000000E+01  0.00000000E+00
  7.90000000E+02  2.00000000E+01  0.00000000E+00
  7.90000000E+02  1.80000000E+01  0.00000000E+00
  7.90000000E+02  1.60000000E+01  0.00000000E+00
  7.90000000E+02  1.40000000E+01  0.00000000E+00
  7.90000000E+02  1.20000000E+01  0.00000000E+00
  7.90000000E+02  1.00000000E+01  0.00000000E+00
  7.90000000E+02  8.00000000E+00  0.00000000E+00
  7.90000000E+02  6.00000000E+00  0.00000000E+00
  7.90000000E+02  4.00000000E+00  0.00000000E+00
  7.90000000E+02  2.00000000E+00  0.00000000E+00
  7.90000000E+02 -3.33066907E-14  0.00000000E+00
  8.00000000E+02  1.00000000E+02  0.00000000E+00
  8.00000000E+02  9.80000000E+01  0.00000000E+00
  8.00000000E+02  9.60000000E+01  0.00000000E+00
  8.00000000E+02  9.40000000E+01  0.00000000E+00
  8.00000000E+02  9.20000000E+01  0.00000000E+00
  8.00000000E+02  9.00000000E+01  0.00000000E+00
  8.00000000E+02  8.80000000E+01  0.00000000E+00
  8.00000000E+02  8.60000000E+01  0.00000000E+00
  8.00000000E+02  8.40000000E+01  0.00000000E+00
  8.00000000E+02  8.20000000E+01  0.00000000E+00
  8.00000000E+02  8.00000000E+01  0.00000000E+00
  8.00000000E+02  7.80000000E+01  0.00000000E+00
  8.00000000E+02  7.60000000E+01  0.00000000E+00
  8.00000000E+02  7.40000000E+01  0.00000000E+00
  8.00000000E+02  7.20000000E+01  0.00000000E+00
  8.00000000E+02  7.00000000E+01  0.00000000E+00
  8.00000000E+02  6.80000000E+01  0.00000000E+00
  8.00000000E+02  6.60000000E+01  0.00000000E+00
  8.00000000E+02  6.40000000E+01  0.00000000E+00
  8.00000000E+02  6.20000000E+01  0.00000000E+00
  8.00000000E+02  6.00000000E+01  0.00000000E+00
  8.00000000E+02  5.80000000E+01  0.00000000E+00
  8.00000000E+02  5.60000000E+01  0.00000000E+00
  8.00000000E+02  5.40000000E+01  0.00000000E+00
  8.00000000E+02  5.20000000E+01  0.00000000E+00
  8.00000000E+02  5.00000000E+01  0.00000000E+00
  8.00000000E+02  4.80000000E+01  0.00000000E+00
  8.00000000E+02  4.60000000E+01  0.00000000E+00
  8.00000000E+02  4.40000000E+01  0.00000000E+00
  8.00000000E+02  4.20000000E+01  0.00000000E+00
  8.00000000E+02  4.00000000E+01  0.00000000E+00
  8.00000000E+02  3.80000000E+01  0.00000000E+00
  8.00000000E+02  3.60000000E+01  0.00000000E+00
  8.00000000E+02  3.40000000E+01  0.00000000E+00
  8.00000000E+02  3.20000000E+01  0.00000000E+00
  8.00000000E+02  3.00000000E+01  0.00000000E+00
  8.00000000E+02  2.80000000E+01  0.00000000E+00
  8.00000000E+02  2.60000000E+01  0.00000000E+00
  8.00000000E+02  2.40000000E+01  0.00000000E+00
  8.00000000E+02  2.20000000E+01  0.00000000E+00
  8.00000000E+02  2.00000000E+01  0.00000000E+00
  8.00000000E+02  1.80000000E+01  0.00000000E+00
  8.00000000E+02  1.60000000E+01  0.00000000E+00
  8.00000000E+02  1.40000000E+01  0.00000000E+00
  8.00000000E+02  1.20000000E+01  0.00000000E+00
  8.00000000E+02  1.00000000E+01  0.00000000E+00
  8.00000000E+02  8.00000000E+00  0.00000000E+00
  8.00000000E+02  6.00000000E+00  0.00000000E+00
  8.00000000E+02  4.00000000E+00  0.00000000E+00
  8.00000000E+02  2.00000000E+00  0.00000000E+00
  8.00000000E+02 -3.33066907E-14  0.00000000E+00
  8.10000000E+02  1.00000000E+02  0.00000000E+00
  8.10000000E+02  9.80000000E+01  0.00000000E+00
  8.10000000E+02  9.60000000E+01  0.00000000E+00
  8.10000000E+02  9.40000000E+01  0.00000000E+00
  8.10000000E+02  9.20000000E+01  0.00000000E+00
  8.10000000E+02  9.00000000E+01  0.00000000E+00
  8.10000000E+02  8.80000000E+01  0.00000000E+00
  8.10000000E+02  8.60000000E+01  0.00000000E+00
  8.10000000E+02  8.40000000E+01  0.00000000E+00
  8.10000000E+02  8.20000000E+01  0.00000000E+00
  8.10000000E+02  8.00000000E+01  0.00000000E+00
  8.10000000E+02  7.80000000E+01  0.00000000E+00
  8.10000000E+02  7.60000000E+01  0.00000000E+00
  8.10000000E+02  7.40000000E+01  0.00000000E+00
  8.10000000E+02  7.20000000E+01  0.00000000E+00
  8.10000000E+02  7.00000000E+01  0.00000000E+00
  8.10000000E+02  6.80000000E+01  0.00000000E+00
  8.10000000E+02  6.60000000E+01  0.00000000E+00
  8.10000000E+02  6.40000000E+01  0.00000000E+00
  8.10000000E+02  6.20000000E+01  0.00000000E+00
  8.10000000E+02  6.00000000E+01  0.00000000E+00
  8.10000000E+02  5.80000000E+01  0.00000000E+00
  8.10000000E+02  5.60000000E+01  0.00000000E+00
  8.10000000E+02  5.40000000E+01  0.00000000E+00
  8.10000000E+02  5.20000000E+01  0.00000000E+00
  8.10000000E+02  5.00000000E+01  0.00000000E+00
  8.10000000E+02  4.80000000E+01  0.00000000E+00
  8.10000000E+02  4.60000000E+01  0.00000000E+00
  8.10000000E+02  4.40000000E+01  0.00000000E+00
  8.10000000E+02  4.20000000E+01  0.00000000E+00
  8.10000000E+02  4.00000000E+01  0.00000000E+00
  8.10000000E+02  3.80000000E+01  0.00000000E+00
  8.10000000E+02  3.60000000E+01  0.00000000E+00
  8.10000000E+02  3.40000000E+01  0.00000000E+00
  8.10000000E+02  3.20000000E+01  0.00000000E+00
  8.10000000E+02  3.00000000E+01  0.00000000E+00
  8.10000000E+02  2.80000000E+01  0.00000000E+00
  8.10000000E+02  2.60000000E+01  0.00000000E+00
  8.10000000E+02  2.40000000E+01  0.00000000E+00
  8.10000000E+02  2.20000000E+01  0.00000000E+00
  8.10000000E+02  2.00000000E+01  0.00000000E+00
  8.10000000E+02  1.80000000E+01  0.00000000E+00
  8.10000000E+02  1.60000000E+01  0.00000000E+00
  8.10000000E+02  1.40000000E+01  0.00000000E+00
  8.10000000E+02  1.20000000E+01  0.00000000E+00
  8.10000000E+02  1.00000000E+01  0.00000000E+00
  8.10000000E+02  8.00000000E+00  0.00000000E+00
  8.10000000E+02  6.00000000E+00  0.00000000E+00
  8.10000000E+02  4.00000000E+00  0.00000000E+00
  8.10000000E+02  2.00000000E+00  0.00000000E+00
  8.10000000E+02 -3.33066907E-14  0.00000000E+00
  8.20000000E+02  1.00000000E+02  0.00000000E+00
  8.20000000E+02  9.80000000E+01  0.00000000E+00
  8.20000000E+02  9.60000000E+01  0.00000000E+00
  8.20000000E+02  9.40000000E+01  0.00000000E+00
  8.20000000E+02  9.20000000E+01  0.00000000E+00
  8.20000000E+02  9.00000000E+01  0.00000000E+00
  8.20000000E+02  8.80000000E+01  0.00000000E+00
  8.20000000E+02  8.60000000E+01  0.00000000E+00
  8.20000000E+02  8.40000000E+01  0.00000000E+00
  8.20000000E+02  8.20000000E+01  0.00000000E+00
  8.20000000E+02  8.00000000E+01  0.00000000E+00
  8.20000000E+02  7.80000000E+01  0.00000000E+00
  8.20000000E+02  7.60000000E+01  0.00000000E+00
  8.20000000E+02  7.40000000E+01  0.00000000E+00
  8.20000000E+02  7.20000000E+01  0.00000000E+00
  8.20000000E+02  7.00000000E+01  0.00000000E+00
  8.20000000E+02  6.80000000E+01  0.00000000E+00
  8.20000000E+02  6.60000000E+01  0.00000000E+00
  8.20000000E+02  6.40000000E+01  0.00000000E+00
  8.20000000E+02  6.20000000E+01  0.00000000E+00
  8.20000000E+02  6.00000000E+01  0.00000000E+00
  8.20000000E+02  5.80000000E+01  0.00000000E+00
  8.20000000E+02  5.60000000E+01  0.00000000E+00
  8.20000000E+02  5.40000000E+01  0.00000000E+00
  8.20000000E+02  5.20000000E+01  0.00000000E+00
  8.20000000E+02  5.00000000E+01  0.00000000E+00
  8.20000000E+02  4.80000000E+01  0.00000000E+00
  8.20000000E+02  4.60000000E+01  0.00000000E+00
  8.20000000E+02  4.40000000E+01  0.00000000E+00
  8.20000000E+02  4.20000000E+01  0.00000000E+00
  8.20000000E+02  4.00000000E+01  0.00000000E+00
  8.20000000E+02  3.80000000E+01  0.00000000E+00
  8.20000000E+02  3.60000000E+01  0.00000000E+00
  8.20000000E+02  3.40000000E+01  0.00000000E+00
  8.20000000E+02  3.20000000E+01  0.00000000E+00
  8.20000000E+02  3.00000000E+01  0.00000000E+00
  8.20000000E+02  2.80000000E+01  0.00000000E+00
  8.20000000E+02  2.60000000E+01  0.00000000E+00
  8.20000000E+02  2.40000000E+01  0.00000000E+00
  8.20000000E+02  2.20000000E+01  0.00000000E+00
  8.20000000E+02  2.00000000E+01  0.00000000E+00
  8.20000000E+02  1.80000000E+01  0.00000000E+00
  8.20000000E+02  1.60000000E+01  0.00000000E+00
  8.20000000E+02  1.40000000E+01  0.00000000E+00
  8.20000000E+02  1.20000000E+01  0.00000000E+00
  8.20000000E+02  1.00000000E+01  0.00000000E+00
  8.20000000E+02  8.00000000E+00  0.00000000E+00
  8.20000000E+02  6.00000000E+00  0.00000000E+00
  8.20000000E+02  4.00000000E+00  0.00000000E+00
  8.20000000E+02  2.00000000E+00  0.00000000E+00
  8.20000000E+02 -3.33066907E-14  0.00000000E+00
  8.30000000E+02  1.00000000E+02  0.00000000E+00
  8.30000000E+02  9.80000000E+01  0.00000000E+00
  8.30000000E+02  9.60000000E+01  0.00000000E+00
  8.30000000E+02  9.40000000E+01  0.00000000E+00
  8.30000000E+02  9.20000000E+01  0.00000000E+00
  8.30000000E+02  9.00000000E+01  0.00000000E+00
  8.30000000E+02  8.80000000E+01  0.00000000E+00
  8.30000000E+02  8.60000000E+01  0.00000000E+00
  8.30000000E+02  8.40000000E+01  0.00000000E+00
  8.30000000E+02  8.20000000E+01  0.00000000E+00
  8.30000000E+02  8.00000000E+01  0.00000000E+00
  8.30000000E+02  7.80000000E+01  0.00000000E+00
  8.30000000E+02  7.60000000E+01  0.00000000E+00
  8.30000000E+02  7.40000000E+01  0.00000000E+00
  8.30000000E+02  7.20000000E+01  0.00000000E+00
  8.30000000E+02  7.00000000E+01  0.00000000E+00
  8.30000000E+02  6.80000000E+01  0.00000000E+00
  8.30000000E+02  6.60000000E+01  0.00000000E+00
  8.30000000E+02  6.40000000E+01  0.00000000E+00
  8.30000000E+02  6.20000000E+01  0.00000000E+00
  8.30000000E+02  6.00000000E+01  0.00000000E+00
  8.30000000E+02  5.80000000E+01  0.00000000E+00
  8.30000000E+02  5.60000000E+01  0.00000000E+00
  8.30000000E+02  5.40000000E+01  0.00000000E+00
  8.30000000E+02  5.20000000E+01  0.00000000E+00
  8.30000000E+02  5.00000000E+01  0.00000000E+00
  8.30000000E+02  4.80000000E+01  0.00000000E+00
  8.30000000E+02  4.60000000E+01  0.00000000E+00
  8.30000000E+02  4.40000000E+01  0.00000000E+00
  8.30000000E+02  4.20000000E+01  0.00000000E+00
  8.30000000E+02  4.00000000E+01  0.00000000E+00
  8.30000000E+02  3.80000000E+01  0.00000000E+00
  8.30000000E+02  3.60000000E+01  0.00000000E+00
  8.30000000E+02  3.40000000E+01  0.00000000E+00
  8.30000000E+02  3.20000000E+01  0.00000000E+00
  8.30000000E+02  3.00000000E+01  0.00000000E+00
  8.30000000E+02  2.80000000E+01  0.00000000E+00
  8.30000000E+02  2.60000000E+01  0.00000000E+00
  8.30000000E+02  2.40000000E+01  0.00000000E+00
  8.30000000E+02  2.20000000E+01  0.00000000E+00
  8.30000000E+02  2.00000000E+01  0.00000000E+00
  8.30000000E+02  1.80000000E+01  0.00000000E+00
  8.30000000E+02  1.60000000E+01  0.00000000E+00
  8.30000000E+02  1.40000000E+01  0.00000000E+00
  8.30000000E+02  1.20000000E+01  0.00000000E+00
  8.30000000E+02  1.00000000E+01  0.00000000E+00
  8.30000000E+02  8.00000000E+00  0.00000000E+00
  8.30000000E+02  6.00000000E+00  0.00000000E+00
  8.30000000E+02  4.00000000E+00  0.00000000E+00
  8.30000000E+02  2.00000000E+00  0.00000000E+00
  8.30000000E+02 -3.33066907E-14  0.00000000E+00
  8.40000000E+02  1.00000000E+02  0.00000000E+00
  8.40000000E+02  9.80000000E+01  0.00000000E+00
  8.40000000E+02  9.60000000E+01  0.00000000E+00
  8.40000000E+02  9.40000000E+01  0.00000000E+00
  8.40000000E+02  9.20000000E+01  0.00000000E+00
  8.40000000E+02  9.00000000E+01  0.00000000E+00
  8.40000000E+02  8.80000000E+01  0.00000000E+00
  8.40000000E+02  8.60000000E+01  0.00000000E+00
  8.40000000E+02  8.40000000E+01  0.00000000E+00
  8.40000000E+02  8.20000000E+01  0.00000000E+00
  8.40000000E+02  8.00000000E+01  0.00000000E+00
  8.40000000E+02  7.80000000E+01  0.00000000E+00
  8.40000000E+02  7.60000000E+01  0.00000000E+00
  8.40000000E+02  7.40000000E+01  0.00000000E+00
  8.40000000E+02  7.20000000E+01  0.00000000E+00
  8.40000000E+02  7.00000000E+01  0.00000000E+00
  8.40000000E+02  6.80000000E+01  0.00000000E+00
  8.40000000E+02  6.60000000E+01  0.00000000E+00
  8.40000000E+02  6.40000000E+01  0.00000000E+00
  8.40000000E+02  6.20000000E+01  0.00000000E+00
  8.40000000E+02  6.00000000E+01  0.00000000E+00
  8.40000000E+02  5.80000000E+01  0.00000000E+00
  8.40000000E+02  5.60000000E+01  0.00000000E+00
  8.40000000E+02  5.40000000E+01  0.00000000E+00
  8.40000000E+02  5.20000000E+01  0.00000000E+00
  8.40000000E+02  5.00000000E+01  0.00000000E+00
  8.40000000E+02  4.80000000E+01  0.00000000E+00
  8.40000000E+02  4.60000000E+01  0.00000000E+00
  8.40000000E+02  4.40000000E+01  0.00000000E+00
  8.40000000E+02  4.20000000E+01  0.00000000E+00
  8.40000000E+02  4.00000000E+01  0.00000000E+00
  8.40000000E+02  3.80000000E+01  0.00000000E+00
  8.40000000E+02  3.60000000E+01  0.00000000E+00
  8.40000000E+02  3.40000000E+01  0.00000000E+00
  8.40000000E+02  3.20000000E+01  0.00000000E+00
  8.40000000E+02  3.00000000E+01  0.00000000E+00
  8.40000000E+02  2.80000000E+01  0.00000000E+00
  8.40000000E+02  2.60000000E+01  0.00000000E+00
  8.40000000E+02  2.40000000E+01  0.00000000E+00
  8.40000000E+02  2.20000000E+01  0.00000000E+00
  8.40000000E+02  2.00000000E+01  0.00000000E+00
  8.40000000E+02  1.80000000E+01  0.00000000E+00
  8.40000000E+02  1.60000000E+01  0.00000000E+00
  8.40000000E+02  1.40000000E+01  0.00000000E+00
  8.40000000E+02  1.20000000E+01  0.00000000E+00
  8.40000000E+02  1.00000000E+01  0.00000000E+00
  8.40000000E+02  8.00000000E+00  0.00000000E+00
  8.40000000E+02  6.00000000E+00  0.00000000E+00
  8.40000000E+02  4.00000000E+00  0.00000000E+00
  8.40000000E+02  2.00000000E+00  0.00000000E+00
  8.40000000E+02 -3.33066907E-14  0.00000000E+00
  8.50000000E+02  1.00000000E+02  0.00000000E+00
  8.50000000E+02  9.80000000E+01  0.00000000E+00
  8.50000000E+02  9.60000000E+01  0.00000000E+00
  8.50000000E+02  9.40000000E+01  0.00000000E+00
  8.50000000E+02  9.20000000E+01  0.00000000E+00
  8.50000000E+02  9.00000000E+01  0.00000000E+00
  8.50000000E+02  8.80000000E+01  0.00000000E+00
  8.50000000E+02  8.60000000E+01  0.00000000E+00
  8.50000000E+02  8.40000000E+01  0.00000000E+00
  8.50000000E+02  8.20000000E+01  0.00000000E+00
  8.50000000E+02  8.00000000E+01  0.00000000E+00
  8.50000000E+02  7.80000000E+01  0.00000000E+00
  8.50000000E+02  7.60000000E+01  0.00000000E+00
  8.50000000E+02  7.40000000E+01  0.00000000E+00
  8.50000000E+02  7.20000000E+01  0.00000000E+00
  8.50000000E+02  7.00000000E+01  0.00000000E+00
  8.50000000E+02  6.80000000E+01  0.00000000E+00
  8.50000000E+02  6.60000000E+01  0.00000000E+00
  8.50000000E+02  6.40000000E+01  0.00000000E+00
  8.50000000E+02  6.20000000E+01  0.00000000E+00
  8.50000000E+02  6.00000000E+01  0.00000000E+00
  8.50000000E+02  5.80000000E+01  0.00000000E+00
  8.50000000E+02  5.60000000E+01  0.00000000E+00
  8.50000000E+02  5.40000000E+01  0.00000000E+00
  8.50000000E+02  5.20000000E+01  0.00000000E+00
  8.50000000E+02  5.00000000E+01  0.00000000E+00
  8.50000000E+02  4.80000000E+01  0.00000000E+00
  8.50000000E+02  4.60000000E+01  0.00000000E+00
  8.50000000E+02  4.40000000E+01  0.00000000E+00
  8.50000000E+02  4.20000000E+01  0.00000000E+00
  8.50000000E+02  4.00000000E+01  0.00000000E+00
  8.50000000E+02  3.80000000E+01  0.00000000E+00
  8.50000000E+02  3.60000000E+01  0.00000000E+00
  8.50000000E+02  3.40000000E+01  0.00000000E+00
  8.50000000E+02  3.20000000E+01  0.00000000E+00
  8.50000000E+02  3.00000000E+01  0.00000000E+00
  8.50000000E+02  2.80000000E+01  0.00000000E+00
  8.50000000E+02  2.60000000E+01  0.00000000E+00
  8.50000000E+02  2.40000000E+01  0.00000000E+00
  8.50000000E+02  2.20000000E+01  0.00000000E+00
  8.50000000E+02  2.00000000E+01  0.00000000E+00
  8.50000000E+02  1.80000000E+01  0.00000000E+00
  8.50000000E+02  1.60000000E+01  0.00000000E+00
  8.50000000E+02  1.40000000E+01  0.00000000E+00
  8.50000000E+02  1.20000000E+01  0.00000000E+00
  8.50000000E+02  1.00000000E+01  0.00000000E+00
  8.50000000E+02  8.00000000E+00  0.00000000E+00
  8.50000000E+02  6.00000000E+00  0.00000000E+00
  8.50000000E+02  4.00000000E+00  0.00000000E+00
  8.50000000E+02  2.00000000E+00  0.00000000E+00
  8.50000000E+02 -3.33066907E-14  0.00000000E+00
  8.60000000E+02  1.00000000E+02  0.00000000E+00
  8.60000000E+02  9.80000000E+01  0.00000000E+00
  8.60000000E+02  9.60000000E+01  0.00000000E+00
  8.60000000E+02  9.40000000E+01  0.00000000E+00
  8.60000000E+02  9.20000000E+01  0.00000000E+00
  8.60000000E+02  9.00000000E+01  0.00000000E+00
  8.60000000E+02  8.80000000E+01  0.00000000E+00
  8.60000000E+02  8.60000000E+01  0.00000000E+00
  8.60000000E+02  8.40000000E+01  0.00000000E+00
  8.60000000E+02  8.20000000E+01  0.00000000E+00
  8.60000000E+02  8.00000000E+01  0.00000000E+00
  8.60000000E+02  7.80000000E+01  0.00000000E+00
  8.60000000E+02  7.60000000E+01  0.00000000E+00
  8.60000000E+02  7.40000000E+01  0.00000000E+00
  8.60000000E+02  7.20000000E+01  0.00000000E+00
  8.60000000E+02  7.00000000E+01  0.00000000E+00
  8.60000000E+02  6.80000000E+01  0.00000000E+00
  8.60000000E+02  6.60000000E+01  0.00000000E+00
  8.60000000E+02  6.40000000E+01  0.00000000E+00
  8.60000000E+02  6.20000000E+01  0.00000000E+00
  8.60000000E+02  6.00000000E+01  0.00000000E+00
  8.60000000E+02  5.80000000E+01  0.00000000E+00
  8.60000000E+02  5.60000000E+01  0.00000000E+00
  8.60000000E+02  5.40000000E+01  0.00000000E+00
  8.60000000E+02  5.20000000E+01  0.00000000E+00
  8.60000000E+02  5.00000000E+01  0.00000000E+00
  8.60000000E+02  4.80000000E+01  0.00000000E+00
  8.60000000E+02  4.60000000E+01  0.00000000E+00
  8.60000000E+02  4.40000000E+01  0.00000000E+00
  8.60000000E+02  4.20000000E+01  0.00000000E+00
  8.60000000E+02  4.00000000E+01  0.00000000E+00
  8.60000000E+02  3.80000000E+01  0.00000000E+00
  8.60000000E+02  3.60000000E+01  0.00000000E+00
  8.60000000E+02  3.40000000E+01  0.00000000E+00
  8.60000000E+02  3.20000000E+01  0.00000000E+00
  8.60000000E+02  3.00000000E+01  0.00000000E+00
  8.60000000E+02  2.80000000E+01  0.00000000E+00
  8.60000000E+02  2.60000000E+01  0.00000000E+00
  8.60000000E+02  2.40000000E+01  0.00000000E+00
  8.60000000E+02  2.20000000E+01  0.00000000E+00
  8.60000000E+02  2.00000000E+01  0.00000000E+00
  8.60000000E+02  1.80000000E+01  0.00000000E+00
  8.60000000E+02  1.60000000E+01  0.00000000E+00
  8.60000000E+02  1.40000000E+01  0.00000000E+00
  8.60000000E+02  1.20000000E+01  0.00000000E+00
  8.60000000E+02  1.00000000E+01  0.00000000E+00
  8.60000000E+02  8.00000000E+00  0.00000000E+00
  8.60000000E+02  6.00000000E+00  0.00000000E+00
  8.60000000E+02  4.00000000E+00  0.00000000E+00
  8.60000000E+02  2.00000000E+00  0.00000000E+00
  8.60000000E+02 -3.33066907E-14  0.00000000E+00
  8.70000000E+02  1.00000000E+02  0.00000000E+00
  8.70000000E+02  9.80000000E+01  0.00000000E+00
  8.70000000E+02  9.60000000E+01  0.00000000E+00
  8.70000000E+02  9.40000000E+01  0.00000000E+00
  8.70000000E+02  9.20000000E+01  0.00000000E+00
  8.70000000E+02  9.00000000E+01  0.00000000E+00
  8.70000000E+02  8.80000000E+01  0.00000000E+00
  8.70000000E+02  8.60000000E+01  0.00000000E+00
  8.70000000E+02  8.40000000E+01  0.00000000E+00
  8.70000000E+02  8.20000000E+01  0.00000000E+00
  8.70000000E+02  8.00000000E+01  0.00000000E+00
  8.70000000E+02  7.80000000E+01  0.00000000E+00
  8.70000000E+02  7.60000000E+01  0.00000000E+00
  8.70000000E+02  7.40000000E+01  0.00000000E+00
  8.70000000E+02  7.20000000E+01  0.00000000E+00
  8.70000000E+02  7.00000000E+01  0.00000000E+00
  8.70000000E+02  6.80000000E+01  0.00000000E+00
  8.70000000E+02  6.60000000E+01  0.00000000E+00
  8.70000000E+02  6.40000000E+01  0.00000000E+00
  8.70000000E+02  6.20000000E+01  0.00000000E+00
  8.70000000E+02  6.00000000E+01  0.00000000E+00
  8.70000000E+02  5.80000000E+01  0.00000000E+00
  8.70000000E+02  5.60000000E+01  0.00000000E+00
  8.70000000E+02  5.40000000E+01  0.00000000E+00
  8.70000000E+02  5.20000000E+01  0.00000000E+00
  8.70000000E+02  5.00000000E+01  0.00000000E+00
  8.70000000E+02  4.80000000E+01  0.00000000E+00
  8.70000000E+02  4.60000000E+01  0.00000000E+00
  8.70000000E+02  4.40000000E+01  0.00000000E+00
  8.70000000E+02  4.20000000E+01  0.00000000E+00
  8.70000000E+02  4.00000000E+01  0.00000000E+00
  8.70000000E+02  3.80000000E+01  0.00000000E+00
  8.70000000E+02  3.60000000E+01  0.00000000E+00
  8.70000000E+02  3.40000000E+01  0.00000000E+00
  8.70000000E+02  3.20000000E+01  0.00000000E+00
  8.70000000E+02  3.00000000E+01  0.00000000E+00
  8.70000000E+02  2.80000000E+01  0.00000000E+00
  8.70000000E+02  2.60000000E+01  0.00000000E+00
  8.70000000E+02  2.40000000E+01  0.00000000E+00
  8.70000000E+02  2.20000000E+01  0.00000000E+00
  8.70000000E+02  2.00000000E+01  0.00000000E+00
  8.70000000E+02  1.80000000E+01  0.00000000E+00
  8.70000000E+02  1.60000000E+01  0.00000000E+00
  8.70000000E+02  1.40000000E+01  0.00000000E+00
  8.70000000E+02  1.20000000E+01  0.00000000E+00
  8.70000000E+02  1.00000000E+01  0.00000000E+00
  8.70000000E+02  8.00000000E+00  0.00000000E+00
  8.70000000E+02  6.00000000E+00  0.00000000E+00
  8.70000000E+02  4.00000000E+00  0.00000000E+00
  8.70000000E+02  2.00000000E+00  0.00000000E+00
  8.70000000E+02 -3.33066907E-14  0.00000000E+00
  8.80000000E+02  1.00000000E+02  0.00000000E+00
  8.80000000E+02  9.80000000E+01  0.00000000E+00
  8.80000000E+02  9.60000000E+01  0.00000000E+00
  8.80000000E+02  9.40000000E+01  0.00000000E+00
  8.80000000E+02  9.20000000E+01  0.00000000E+00
  8.80000000E+02  9.00000000E+01  0.00000000E+00
  8.80000000E+02  8.80000000E+01  0.00000000E+00
  8.80000000E+02  8.60000000E+01  0.00000000E+00
  8.80000000E+02  8.40000000E+01  0.00000000E+00
  8.80000000E+02  8.20000000E+01  0.00000000E+00
  8.80000000E+02  8.00000000E+01  0.00000000E+00
  8.80000000E+02  7.80000000E+01  0.00000000E+00
  8.80000000E+02  7.60000000E+01  0.00000000E+00
  8.80000000E+02  7.40000000E+01  0.00000000E+00
  8.80000000E+02  7.20000000E+01  0.00000000E+00
  8.80000000E+02  7.00000000E+01  0.00000000E+00
  8.80000000E+02  6.80000000E+01  0.00000000E+00
  8.80000000E+02  6.60000000E+01  0.00000000E+00
  8.80000000E+02  6.40000000E+01  0.00000000E+00
  8.80000000E+02  6.20000000E+01  0.00000000E+00
  8.80000000E+02  6.00000000E+01  0.00000000E+00
  8.80000000E+02  5.80000000E+01  0.00000000E+00
  8.80000000E+02  5.60000000E+01  0.00000000E+00
  8.80000000E+02  5.40000000E+01  0.00000000E+00
  8.80000000E+02  5.20000000E+01  0.00000000E+00
  8.80000000E+02  5.00000000E+01  0.00000000E+00
  8.80000000E+02  4.80000000E+01  0.00000000E+00
  8.80000000E+02  4.60000000E+01  0.00000000E+00
  8.80000000E+02  4.40000000E+01  0.00000000E+00
  8.80000000E+02  4.20000000E+01  0.00000000E+00
  8.80000000E+02  4.00000000E+01  0.00000000E+00
  8.80000000E+02  3.80000000E+01  0.00000000E+00
  8.80000000E+02  3.60000000E+01  0.00000000E+00
  8.80000000E+02  3.40000000E+01  0.00000000E+00
  8.80000000E+02  3.20000000E+01  0.00000000E+00
  8.80000000E+02  3.00000000E+01  0.00000000E+00
  8.80000000E+02  2.80000000E+01  0.00000000E+00
  8.80000000E+02  2.60000000E+01  0.00000000E+00
  8.80000000E+02  2.40000000E+01  0.00000000E+00
  8.80000000E+02  2.20000000E+01  0.00000000E+00
  8.80000000E+02  2.00000000E+01  0.00000000E+00
  8.80000000E+02  1.80000000E+01  0.00000000E+00
  8.80000000E+02  1.60000000E+01  0.00000000E+00
  8.80000000E+02  1.40000000E+01  0.00000000E+00
  8.80000000E+02  1.20000000E+01  0.00000000E+00
  8.80000000E+02  1.00000000E+01  0.00000000E+00
  8.80000000E+02  8.00000000E+00  0.00000000E+00
  8.80000000E+02  6.00000000E+00  0.00000000E+00
  8.80000000E+02  4.00000000E+00  0.00000000E+00
  8.80000000E+02  2.00000000E+00  0.00000000E+00
  8.80000000E+02 -3.33066907E-14  0.00000000E+00
  8.90000000E+02  1.00000000E+02  0.00000000E+00
  8.90000000E+02  9.80000000E+01  0.00000000E+00
  8.90000000E+02  9.60000000E+01  0.00000000E+00
  8.90000000E+02  9.40000000E+01  0.00000000E+00
  8.90000000E+02  9.20000000E+01  0.00000000E+00
  8.90000000E+02  9.00000000E+01  0.00000000E+00
  8.90000000E+02  8.80000000E+01  0.00000000E+00
  8.90000000E+02  8.60000000E+01  0.00000000E+00
  8.90000000E+02  8.40000000E+01  0.00000000E+00
  8.90000000E+02  8.20000000E+01  0.00000000E+00
  8.90000000E+02  8.00000000E+01  0.00000000E+00
  8.90000000E+02  7.80000000E+01  0.00000000E+00
  8.90000000E+02  7.60000000E+01  0.00000000E+00
  8.90000000E+02  7.40000000E+01  0.00000000E+00
  8.90000000E+02  7.20000000E+01  0.00000000E+00
  8.90000000E+02  7.00000000E+01  0.00000000E+00
  8.90000000E+02  6.80000000E+01  0.00000000E+00
  8.90000000E+02  6.60000000E+01  0.00000000E+00
  8.90000000E+02  6.40000000E+01  0.00000000E+00
  8.90000000E+02  6.20000000E+01  0.00000000E+00
  8.90000000E+02  6.00000000E+01  0.00000000E+00
  8.90000000E+02  5.80000000E+01  0.00000000E+00
  8.90000000E+02  5.60000000E+01  0.00000000E+00
  8.90000000E+02  5.40000000E+01  0.00000000E+00
  8.90000000E+02  5.20000000E+01  0.00000000E+00
  8.90000000E+02  5.00000000E+01  0.00000000E+00
  8.90000000E+02  4.80000000E+01  0.00000000E+00
  8.90000000E+02  4.60000000E+01  0.00000000E+00
  8.90000000E+02  4.40000000E+01  0.00000000E+00
  8.90000000E+02  4.20000000E+01  0.00000000E+00
  8.90000000E+02  4.00000000E+01  0.00000000E+00
  8.90000000E+02  3.80000000E+01  0.00000000E+00
  8.90000000E+02  3.60000000E+01  0.00000000E+00
  8.90000000E+02  3.40000000E+01  0.00000000E+00
  8.90000000E+02  3.20000000E+01  0.00000000E+00
  8.90000000E+02  3.00000000E+01  0.00000000E+00
  8.90000000E+02  2.80000000E+01  0.00000000E+00
  8.90000000E+02  2.60000000E+01  0.00000000E+00
  8.90000000E+02  2.40000000E+01  0.00000000E+00
  8.90000000E+02  2.20000000E+01  0.00000000E+00
  8.90000000E+02  2.00000000E+01  0.00000000E+00
  8.90000000E+02  1.80000000E+01  0.00000000E+00
  8.90000000E+02  1.60000000E+01  0.00000000E+00
  8.90000000E+02  1.40000000E+01  0.00000000E+00
  8.90000000E+02  1.20000000E+01  0.00000000E+00
  8.90000000E+02  1.00000000E+01  0.00000000E+00
  8.90000000E+02  8.00000000E+00  0.00000000E+00
  8.90000000E+02  6.00000000E+00  0.00000000E+00
  8.90000000E+02  4.00000000E+00  0.00000000E+00
  8.90000000E+02  2.00000000E+00  0.00000000E+00
  8.90000000E+02 -3.33066907E-14  0.00000000E+00
  9.00000000E+02  1.00000000E+02  0.00000000E+00
  9.00000000E+02  9.80000000E+01  0.00000000E+00
  9.00000000E+02  9.60000000E+01  0.00000000E+00
  9.00000000E+02  9.40000000E+01  0.00000000E+00
  9.00000000E+02  9.20000000E+01  0.00000000E+00
  9.00000000E+02  9.00000000E+01  0.00000000E+00
  9.00000000E+02  8.80000000E+01  0.00000000E+00
  9.00000000E+02  8.60000000E+01  0.00000000E+00
  9.00000000E+02  8.40000000E+01  0.00000000E+00
  9.00000000E+02  8.20000000E+01  0.00000000E+00
  9.00000000E+02  8.00000000E+01  0.00000000E+00
  9.00000000E+02  7.80000000E+01  0.00000000E+00
  9.00000000E+02  7.60000000E+01  0.00000000E+00
  9.00000000E+02  7.40000000E+01  0.00000000E+00
  9.00000000E+02  7.20000000E+01  0.00000000E+00
  9.00000000E+02  7.00000000E+01  0.00000000E+00
  9.00000000E+02  6.80000000E+01  0.00000000E+00
  9.00000000E+02  6.60000000E+01  0.00000000E+00
  9.00000000E+02  6.40000000E+01  0.00000000E+00
  9.00000000E+02  6.20000000E+01  0.00000000E+00
  9.00000000E+02  6.00000000E+01  0.00000000E+00
  9.00000000E+02  5.80000000E+01  0.00000000E+00
  9.00000000E+02  5.60000000E+01  0.00000000E+00
  9.00000000E+02  5.40000000E+01  0.00000000E+00
  9.00000000E+02  5.20000000E+01  0.00000000E+00
  9.00000000E+02  5.00000000E+01  0.00000000E+00
  9.00000000E+02  4.80000000E+01  0.00000000E+00
  9.00000000E+02  4.60000000E+01  0.00000000E+00
  9.00000000E+02  4.40000000E+01  0.00000000E+00
  9.00000000E+02  4.20000000E+01  0.00000000E+00
  9.00000000E+02  4.00000000E+01  0.00000000E+00
  9.00000000E+02  3.80000000E+01  0.00000000E+00
  9.00000000E+02  3.60000000E+01  0.00000000E+00
  9.00000000E+02  3.40000000E+01  0.00000000E+00
  9.00000000E+02  3.20000000E+01  0.00000000E+00
  9.00000000E+02  3.00000000E+01  0.00000000E+00
  9.00000000E+02  2.80000000E+01  0.00000000E+00
  9.00000000E+02  2.60000000E+01  0.00000000E+00
  9.00000000E+02  2.40000000E+01  0.00000000E+00
  9.00000000E+02  2.20000000E+01  0.00000000E+00
  9.00000000E+02  2.00000000E+01  0.00000000E+00
  9.00000000E+02  1.80000000E+01  0.00000000E+00
  9.00000000E+02  1.60000000E+01  0.00000000E+00
  9.00000000E+02  1.40000000E+01  0.00000000E+00
  9.00000000E+02  1.20000000E+01  0.00000000E+00
  9.00000000E+02  1.00000000E+01  0.00000000E+00
  9.00000000E+02  8.00000000E+00  0.00000000E+00
  9.00000000E+02  6.00000000E+00  0.00000000E+00
  9.00000000E+02  4.00000000E+00  0.00000000E+00
  9.00000000E+02  2.00000000E+00  0.00000000E+00
  9.00000000E+02 -3.33066907E-14  0.00000000E+00
  9.10000000E+02  1.00000000E+02  0.00000000E+00
  9.10000000E+02  9.80000000E+01  0.00000000E+00
  9.10000000E+02  9.60000000E+01  0.00000000E+00
  9.10000000E+02  9.40000000E+01  0.00000000E+00
  9.10000000E+02  9.20000000E+01  0.00000000E+00
  9.10000000E+02  9.00000000E+01  0.00000000E+00
  9.10000000E+02  8.80000000E+01  0.00000000E+00
  9.10000000E+02  8.60000000E+01  0.00000000E+00
  9.10000000E+02  8.40000000E+01  0.00000000E+00
  9.10000000E+02  8.20000000E+01  0.00000000E+00
  9.10000000E+02  8.00000000E+01  0.00000000E+00
  9.10000000E+02  7.80000000E+01  0.00000000E+00
  9.10000000E+02  7.60000000E+01  0.00000000E+00
  9.10000000E+02  7.40000000E+01  0.00000000E+00
  9.10000000E+02  7.20000000E+01  0.00000000E+00
  9.10000000E+02  7.00000000E+01  0.00000000E+00
  9.10000000E+02  6.80000000E+01  0.00000000E+00
  9.10000000E+02  6.60000000E+01  0.00000000E+00
  9.10000000E+02  6.40000000E+01  0.00000000E+00
  9.10000000E+02  6.20000000E+01  0.00000000E+00
  9.10000000E+02  6.00000000E+01  0.00000000E+00
  9.10000000E+02  5.80000000E+01  0.00000000E+00
  9.10000000E+02  5.60000000E+01  0.00000000E+00
  9.10000000E+02  5.40000000E+01  0.00000000E+00
  9.10000000E+02  5.20000000E+01  0.00000000E+00
  9.10000000E+02  5.00000000E+01  0.00000000E+00
  9.10000000E+02  4.80000000E+01  0.00000000E+00
  9.10000000E+02  4.60000000E+01  0.00000000E+00
  9.10000000E+02  4.40000000E+01  0.00000000E+00
  9.10000000E+02  4.20000000E+01  0.00000000E+00
  9.10000000E+02  4.00000000E+01  0.00000000E+00
  9.10000000E+02  3.80000000E+01  0.00000000E+00
  9.10000000E+02  3.60000000E+01  0.00000000E+00
  9.10000000E+02  3.40000000E+01  0.00000000E+00
  9.10000000E+02  3.20000000E+01  0.00000000E+00
  9.10000000E+02  3.00000000E+01  0.00000000E+00
  9.10000000E+02  2.80000000E+01  0.00000000E+00
  9.10000000E+02  2.60000000E+01  0.00000000E+00
  9.10000000E+02  2.40000000E+01  0.00000000E+00
  9.10000000E+02  2.20000000E+01  0.00000000E+00
  9.10000000E+02  2.00000000E+01  0.00000000E+00
  9.10000000E+02  1.80000000E+01  0.00000000E+00
  9.10000000E+02  1.60000000E+01  0.00000000E+00
  9.10000000E+02  1.40000000E+01  0.00000000E+00
  9.10000000E+02  1.20000000E+01  0.00000000E+00
  9.10000000E+02  1.00000000E+01  0.00000000E+00
  9.10000000E+02  8.00000000E+00  0.00000000E+00
  9.10000000E+02  6.00000000E+00  0.00000000E+00
  9.10000000E+02  4.00000000E+00  0.00000000E+00
  9.10000000E+02  2.00000000E+00  0.00000000E+00
  9.10000000E+02 -3.33066907E-14  0.00000000E+00
  9.20000000E+02  1.00000000E+02  0.00000000E+00
  9.20000000E+02  9.80000000E+01  0.00000000E+00
  9.20000000E+02  9.60000000E+01  0.00000000E+00
  9.20000000E+02  9.40000000E+01  0.00000000E+00
  9.20000000E+02  9.20000000E+01  0.00000000E+00
  9.20000000E+02  9.00000000E+01  0.00000000E+00
  9.20000000E+02  8.80000000E+01  0.00000000E+00
  9.20000000E+02  8.60000000E+01  0.00000000E+00
  9.20000000E+02  8.40000000E+01  0.00000000E+00
  9.20000000E+02  8.20000000E+01  0.00000000E+00
  9.20000000E+02  8.00000000E+01  0.00000000E+00
  9.20000000E+02  7.80000000E+01  0.00000000E+00
  9.20000000E+02  7.60000000E+01  0.00000000E+00
  9.20000000E+02  7.40000000E+01  0.00000000E+00
  9.20000000E+02  7.20000000E+01  0.00000000E+00
  9.20000000E+02  7.00000000E+01  0.00000000E+00
  9.20000000E+02  6.80000000E+01  0.00000000E+00
  9.20000000E+02  6.60000000E+01  0.00000000E+00
  9.20000000E+02  6.40000000E+01  0.00000000E+00
  9.20000000E+02  6.20000000E+01  0.00000000E+00
  9.20000000E+02  6.00000000E+01  0.00000000E+00
  9.20000000E+02  5.80000000E+01  0.00000000E+00
  9.20000000E+02  5.60000000E+01  0.00000000E+00
  9.20000000E+02  5.40000000E+01  0.00000000E+00
  9.20000000E+02  5.20000000E+01  0.00000000E+00
  9.20000000E+02  5.00000000E+01  0.00000000E+00
  9.20000000E+02  4.80000000E+01  0.00000000E+00
  9.20000000E+02  4.60000000E+01  0.00000000E+00
  9.20000000E+02  4.40000000E+01  0.00000000E+00
  9.20000000E+02  4.20000000E+01  0.00000000E+00
  9.20000000E+02  4.00000000E+01  0.00000000E+00
  9.20000000E+02  3.80000000E+01  0.00000000E+00
  9.20000000E+02  3.60000000E+01  0.00000000E+00
  9.20000000E+02  3.40000000E+01  0.00000000E+00
  9.20000000E+02  3.20000000E+01  0.00000000E+00
  9.20000000E+02  3.00000000E+01  0.00000000E+00
  9.20000000E+02  2.80000000E+01  0.00000000E+00
  9.20000000E+02  2.60000000E+01  0.00000000E+00
  9.20000000E+02  2.40000000E+01  0.00000000E+00
  9.20000000E+02  2.20000000E+01  0.00000000E+00
  9.20000000E+02  2.00000000E+01  0.00000000E+00
  9.20000000E+02  1.80000000E+01  0.00000000E+00
  9.20000000E+02  1.60000000E+01  0.00000000E+00
  9.20000000E+02  1.40000000E+01  0.00000000E+00
  9.20000000E+02  1.20000000E+01  0.00000000E+00
  9.20000000E+02  1.00000000E+01  0.00000000E+00
  9.20000000E+02  8.00000000E+00  0.00000000E+00
  9.20000000E+02  6.00000000E+00  0.00000000E+00
  9.20000000E+02  4.00000000E+00  0.00000000E+00
  9.20000000E+02  2.00000000E+00  0.00000000E+00
  9.20000000E+02 -3.33066907E-14  0.00000000E+00
  9.30000000E+02  1.00000000E+02  0.00000000E+00
  9.30000000E+02  9.80000000E+01  0.00000000E+00
  9.30000000E+02  9.60000000E+01  0.00000000E+00
  9.30000000E+02  9.40000000E+01  0.00000000E+00
  9.30000000E+02  9.20000000E+01  0.00000000E+00
  9.30000000E+02  9.00000000E+01  0.00000000E+00
  9.30000000E+02  8.80000000E+01  0.00000000E+00
  9.30000000E+02  8.60000000E+01  0.00000000E+00
  9.30000000E+02  8.40000000E+01  0.00000000E+00
  9.30000000E+02  8.20000000E+01  0.00000000E+00
  9.30000000E+02  8.00000000E+01  0.00000000E+00
  9.30000000E+02  7.80000000E+01  0.00000000E+00
  9.30000000E+02  7.60000000E+01  0.00000000E+00
  9.30000000E+02  7.40000000E+01  0.00000000E+00
  9.30000000E+02  7.20000000E+01  0.00000000E+00
  9.30000000E+02  7.00000000E+01  0.00000000E+00
  9.30000000E+02  6.80000000E+01  0.00000000E+00
  9.30000000E+02  6.60000000E+01  0.00000000E+00
  9.30000000E+02  6.40000000E+01  0.00000000E+00
  9.30000000E+02  6.20000000E+01  0.00000000E+00
  9.30000000E+02  6.00000000E+01  0.00000000E+00
  9.30000000E+02  5.80000000E+01  0.00000000E+00
  9.30000000E+02  5.60000000E+01  0.00000000E+00
  9.30000000E+02  5.40000000E+01  0.00000000E+00
  9.30000000E+02  5.20000000E+01  0.00000000E+00
  9.30000000E+02  5.00000000E+01  0.00000000E+00
  9.30000000E+02  4.80000000E+01  0.00000000E+00
  9.30000000E+02  4.60000000E+01  0.00000000E+00
  9.30000000E+02  4.40000000E+01  0.00000000E+00
  9.30000000E+02  4.20000000E+01  0.00000000E+00
  9.30000000E+02  4.00000000E+01  0.00000000E+00
  9.30000000E+02  3.80000000E+01  0.00000000E+00
  9.30000000E+02  3.60000000E+01  0.00000000E+00
  9.30000000E+02  3.40000000E+01  0.00000000E+00
  9.30000000E+02  3.20000000E+01  0.00000000E+00
  9.30000000E+02  3.00000000E+01  0.00000000E+00
  9.30000000E+02  2.80000000E+01  0.00000000E+00
  9.30000000E+02  2.60000000E+01  0.00000000E+00
  9.30000000E+02  2.40000000E+01  0.00000000E+00
  9.30000000E+02  2.20000000E+01  0.00000000E+00
  9.30000000E+02  2.00000000E+01  0.00000000E+00
  9.30000000E+02  1.80000000E+01  0.00000000E+00
  9.30000000E+02  1.60000000E+01  0.00000000E+00
  9.30000000E+02  1.40000000E+01  0.00000000E+00
  9.30000000E+02  1.20000000E+01  0.00000000E+00
  9.30000000E+02  1.00000000E+01  0.00000000E+00
  9.30000000E+02  8.00000000E+00  0.00000000E+00
  9.30000000E+02  6.00000000E+00  0.00000000E+00
  9.30000000E+02  4.00000000E+00  0.00000000E+00
  9.30000000E+02  2.00000000E+00  0.00000000E+00
  9.30000000E+02 -3.33066907E-14  0.00000000E+00
  9.40000000E+02  1.00000000E+02  0.00000000E+00
  9.40000000E+02  9.80000000E+01  0.00000000E+00
  9.40000000E+02  9.60000000E+01  0.00000000E+00
  9.40000000E+02  9.40000000E+01  0.00000000E+00
  9.40000000E+02  9.20000000E+01  0.00000000E+00
  9.40000000E+02  9.00000000E+01  0.00000000E+00
  9.40000000E+02  8.80000000E+01  0.00000000E+00
  9.40000000E+02  8.60000000E+01  0.00000000E+00
  9.40000000E+02  8.40000000E+01  0.00000000E+00
  9.40000000E+02  8.20000000E+01  0.00000000E+00
  9.40000000E+02  8.00000000E+01  0.00000000E+00
  9.40000000E+02  7.80000000E+01  0.00000000E+00
  9.40000000E+02  7.60000000E+01  0.00000000E+00
  9.40000000E+02  7.40000000E+01  0.00000000E+00
  9.40000000E+02  7.20000000E+01  0.00000000E+00
  9.40000000E+02  7.00000000E+01  0.00000000E+00
  9.40000000E+02  6.80000000E+01  0.00000000E+00
  9.40000000E+02  6.60000000E+01  0.00000000E+00
  9.40000000E+02  6.40000000E+01  0.00000000E+00
  9.40000000E+02  6.20000000E+01  0.00000000E+00
  9.40000000E+02  6.00000000E+01  0.00000000E+00
  9.40000000E+02  5.80000000E+01  0.00000000E+00
  9.40000000E+02  5.60000000E+01  0.00000000E+00
  9.40000000E+02  5.40000000E+01  0.00000000E+00
  9.40000000E+02  5.20000000E+01  0.00000000E+00
  9.40000000E+02  5.00000000E+01  0.00000000E+00
  9.40000000E+02  4.80000000E+01  0.00000000E+00
  9.40000000E+02  4.60000000E+01  0.00000000E+00
  9.40000000E+02  4.40000000E+01  0.00000000E+00
  9.40000000E+02  4.20000000E+01  0.00000000E+00
  9.40000000E+02  4.00000000E+01  0.00000000E+00
  9.40000000E+02  3.80000000E+01  0.00000000E+00
  9.40000000E+02  3.60000000E+01  0.00000000E+00
  9.40000000E+02  3.40000000E+01  0.00000000E+00
  9.40000000E+02  3.20000000E+01  0.00000000E+00
  9.40000000E+02  3.00000000E+01  0.00000000E+00
  9.40000000E+02  2.80000000E+01  0.00000000E+00
  9.40000000E+02  2.60000000E+01  0.00000000E+00
  9.40000000E+02  2.40000000E+01  0.00000000E+00
  9.40000000E+02  2.20000000E+01  0.00000000E+00
  9.40000000E+02  2.00000000E+01  0.00000000E+00
  9.40000000E+02  1.80000000E+01  0.00000000E+00
  9.40000000E+02  1.60000000E+01  0.00000000E+00
  9.40000000E+02  1.40000000E+01  0.00000000E+00
  9.40000000E+02  1.20000000E+01  0.00000000E+00
  9.40000000E+02  1.00000000E+01  0.00000000E+00
  9.40000000E+02  8.00000000E+00  0.00000000E+00
  9.40000000E+02  6.00000000E+00  0.00000000E+00
  9.40000000E+02  4.00000000E+00  0.00000000E+00
  9.40000000E+02  2.00000000E+00  0.00000000E+00
  9.40000000E+02 -3.33066907E-14  0.00000000E+00
  9.50000000E+02  1.00000000E+02  0.00000000E+00
  9.50000000E+02  9.80000000E+01  0.00000000E+00
  9.50000000E+02  9.60000000E+01  0.00000000E+00
  9.50000000E+02  9.40000000E+01  0.00000000E+00
  9.50000000E+02  9.20000000E+01  0.00000000E+00
  9.50000000E+02  9.00000000E+01  0.00000000E+00
  9.50000000E+02  8.80000000E+01  0.00000000E+00
  9.50000000E+02  8.60000000E+01  0.00000000E+00
  9.50000000E+02  8.40000000E+01  0.00000000E+00
  9.50000000E+02  8.20000000E+01  0.00000000E+00
  9.50000000E+02  8.00000000E+01  0.00000000E+00
  9.50000000E+02  7.80000000E+01  0.00000000E+00
  9.50000000E+02  7.60000000E+01  0.00000000E+00
  9.50000000E+02  7.40000000E+01  0.00000000E+00
  9.50000000E+02  7.20000000E+01  0.00000000E+00
  9.50000000E+02  7.00000000E+01  0.00000000E+00
  9.50000000E+02  6.80000000E+01  0.00000000E+00
  9.50000000E+02  6.60000000E+01  0.00000000E+00
  9.50000000E+02  6.40000000E+01  0.00000000E+00
  9.50000000E+02  6.20000000E+01  0.00000000E+00
  9.50000000E+02  6.00000000E+01  0.00000000E+00
  9.50000000E+02  5.80000000E+01  0.00000000E+00
  9.50000000E+02  5.60000000E+01  0.00000000E+00
  9.50000000E+02  5.40000000E+01  0.00000000E+00
  9.50000000E+02  5.20000000E+01  0.00000000E+00
  9.50000000E+02  5.00000000E+01  0.00000000E+00
  9.50000000E+02  4.80000000E+01  0.00000000E+00
  9.50000000E+02  4.60000000E+01  0.00000000E+00
  9.50000000E+02  4.40000000E+01  0.00000000E+00
  9.50000000E+02  4.20000000E+01  0.00000000E+00
  9.50000000E+02  4.00000000E+01  0.00000000E+00
  9.50000000E+02  3.80000000E+01  0.00000000E+00
  9.50000000E+02  3.60000000E+01  0.00000000E+00
  9.50000000E+02  3.40000000E+01  0.00000000E+00
  9.50000000E+02  3.20000000E+01  0.00000000E+00
  9.50000000E+02  3.00000000E+01  0.00000000E+00
  9.50000000E+02  2.80000000E+01  0.00000000E+00
  9.50000000E+02  2.60000000E+01  0.00000000E+00
  9.50000000E+02  2.40000000E+01  0.00000000E+00
  9.50000000E+02  2.20000000E+01  0.00000000E+00
  9.50000000E+02  2.00000000E+01  0.00000000E+00
  9.50000000E+02  1.80000000E+01  0.00000000E+00
  9.50000000E+02  1.60000000E+01  0.00000000E+00
  9.50000000E+02  1.40000000E+01  0.00000000E+00
  9.50000000E+02  1.20000000E+01  0.00000000E+00
  9.50000000E+02  1.00000000E+01  0.00000000E+00
  9.50000000E+02  8.00000000E+00  0.00000000E+00
  9.50000000E+02  6.00000000E+00  0.00000000E+00
  9.50000000E+02  4.00000000E+00  0.00000000E+00
  9.50000000E+02  2.00000000E+00  0.00000000E+00
  9.50000000E+02 -3.33066907E-14  0.00000000E+00
  9.60000000E+02  1.00000000E+02  0.00000000E+00
  9.60000000E+02  9.80000000E+01  0.00000000E+00
  9.60000000E+02  9.60000000E+01  0.00000000E+00
  9.60000000E+02  9.40000000E+01  0.00000000E+00
  9.60000000E+02  9.20000000E+01  0.00000000E+00
  9.60000000E+02  9.00000000E+01  0.00000000E+00
  9.60000000E+02  8.80000000E+01  0.00000000E+00
  9.60000000E+02  8.60000000E+01  0.00000000E+00
  9.60000000E+02  8.40000000E+01  0.00000000E+00
  9.60000000E+02  8.20000000E+01  0.00000000E+00
  9.60000000E+02  8.00000000E+01  0.00000000E+00
  9.60000000E+02  7.80000000E+01  0.00000000E+00
  9.60000000E+02  7.60000000E+01  0.00000000E+00
  9.60000000E+02  7.40000000E+01  0.00000000E+00
  9.60000000E+02  7.20000000E+01  0.00000000E+00
  9.60000000E+02  7.00000000E+01  0.00000000E+00
  9.60000000E+02  6.80000000E+01  0.00000000E+00
  9.60000000E+02  6.60000000E+01  0.00000000E+00
  9.60000000E+02  6.40000000E+01  0.00000000E+00
  9.60000000E+02  6.20000000E+01  0.00000000E+00
  9.60000000E+02  6.00000000E+01  0.00000000E+00
  9.60000000E+02  5.80000000E+01  0.00000000E+00
  9.60000000E+02  5.60000000E+01  0.00000000E+00
  9.60000000E+02  5.40000000E+01  0.00000000E+00
  9.60000000E+02  5.20000000E+01  0.00000000E+00
  9.60000000E+02  5.00000000E+01  0.00000000E+00
  9.60000000E+02  4.80000000E+01  0.00000000E+00
  9.60000000E+02  4.60000000E+01  0.00000000E+00
  9.60000000E+02  4.40000000E+01  0.00000000E+00
  9.60000000E+02  4.20000000E+01  0.00000000E+00
  9.60000000E+02  4.00000000E+01  0.00000000E+00
  9.60000000E+02  3.80000000E+01  0.00000000E+00
  9.60000000E+02  3.60000000E+01  0.00000000E+00
  9.60000000E+02  3.40000000E+01  0.00000000E+00
  9.60000000E+02  3.20000000E+01  0.00000000E+00
  9.60000000E+02  3.00000000E+01  0.00000000E+00
  9.60000000E+02  2.80000000E+01  0.00000000E+00
  9.60000000E+02  2.60000000E+01  0.00000000E+00
  9.60000000E+02  2.40000000E+01  0.00000000E+00
  9.60000000E+02  2.20000000E+01  0.00000000E+00
  9.60000000E+02  2.00000000E+01  0.00000000E+00
  9.60000000E+02  1.80000000E+01  0.00000000E+00
  9.60000000E+02  1.60000000E+01  0.00000000E+00
  9.60000000E+02  1.40000000E+01  0.00000000E+00
  9.60000000E+02  1.20000000E+01  0.00000000E+00
  9.60000000E+02  1.00000000E+01  0.00000000E+00
  9.60000000E+02  8.00000000E+00  0.00000000E+00
  9.60000000E+02  6.00000000E+00  0.00000000E+00
  9.60000000E+02  4.00000000E+00  0.00000000E+00
  9.60000000E+02  2.00000000E+00  0.00000000E+00
  9.60000000E+02 -3.33066907E-14  0.00000000E+00
  9.70000000E+02  1.00000000E+02  0.00000000E+00
  9.70000000E+02  9.80000000E+01  0.00000000E+00
  9.70000000E+02  9.60000000E+01  0.00000000E+00
  9.70000000E+02  9.40000000E+01  0.00000000E+00
  9.70000000E+02  9.20000000E+01  0.00000000E+00
  9.70000000E+02  9.00000000E+01  0.00000000E+00
  9.70000000E+02  8.80000000E+01  0.00000000E+00
  9.70000000E+02  8.60000000E+01  0.00000000E+00
  9.70000000E+02  8.40000000E+01  0.00000000E+00
  9.70000000E+02  8.20000000E+01  0.00000000E+00
  9.70000000E+02  8.00000000E+01  0.00000000E+00
  9.70000000E+02  7.80000000E+01  0.00000000E+00
  9.70000000E+02  7.60000000E+01  0.00000000E+00
  9.70000000E+02  7.40000000E+01  0.00000000E+00
  9.70000000E+02  7.20000000E+01  0.00000000E+00
  9.70000000E+02  7.00000000E+01  0.00000000E+00
  9.70000000E+02  6.80000000E+01  0.00000000E+00
  9.70000000E+02  6.60000000E+01  0.00000000E+00
  9.70000000E+02  6.40000000E+01  0.00000000E+00
  9.70000000E+02  6.20000000E+01  0.00000000E+00
  9.70000000E+02  6.00000000E+01  0.00000000E+00
  9.70000000E+02  5.80000000E+01  0.00000000E+00
  9.70000000E+02  5.60000000E+01  0.00000000E+00
  9.70000000E+02  5.40000000E+01  0.00000000E+00
  9.70000000E+02  5.20000000E+01  0.00000000E+00
  9.70000000E+02  5.00000000E+01  0.00000000E+00
  9.70000000E+02  4.80000000E+01  0.00000000E+00
  9.70000000E+02  4.60000000E+01  0.00000000E+00
  9.70000000E+02  4.40000000E+01  0.00000000E+00
  9.70000000E+02  4.20000000E+01  0.00000000E+00
  9.70000000E+02  4.00000000E+01  0.00000000E+00
  9.70000000E+02  3.80000000E+01  0.00000000E+00
  9.70000000E+02  3.60000000E+01  0.00000000E+00
  9.70000000E+02  3.40000000E+01  0.00000000E+00
  9.70000000E+02  3.20000000E+01  0.00000000E+00
  9.70000000E+02  3.00000000E+01  0.00000000E+00
  9.70000000E+02  2.80000000E+01  0.00000000E+00
  9.70000000E+02  2.60000000E+01  0.00000000E+00
  9.70000000E+02  2.40000000E+01  0.00000000E+00
  9.70000000E+02  2.20000000E+01  0.00000000E+00
  9.70000000E+02  2.00000000E+01  0.00000000E+00
  9.70000000E+02  1.80000000E+01  0.00000000E+00
  9.70000000E+02  1.60000000E+01  0.00000000E+00
  9.70000000E+02  1.40000000E+01  0.00000000E+00
  9.70000000E+02  1.20000000E+01  0.00000000E+00
  9.70000000E+02  1.00000000E+01  0.00000000E+00
  9.70000000E+02  8.00000000E+00  0.00000000E+00
  9.70000000E+02  6.00000000E+00  0.00000000E+00
  9.70000000E+02  4.00000000E+00  0.00000000E+00
  9.70000000E+02  2.00000000E+00  0.00000000E+00
  9.70000000E+02 -3.33066907E-14  0.00000000E+00
  9.80000000E+02  1.00000000E+02  0.00000000E+00
  9.80000000E+02  9.80000000E+01  0.00000000E+00
  9.80000000E+02  9.60000000E+01  0.00000000E+00
  9.80000000E+02  9.40000000E+01  0.00000000E+00
  9.80000000E+02  9.20000000E+01  0.00000000E+00
  9.80000000E+02  9.00000000E+01  0.00000000E+00
  9.80000000E+02  8.80000000E+01  0.00000000E+00
  9.80000000E+02  8.60000000E+01  0.00000000E+00
  9.80000000E+02  8.40000000E+01  0.00000000E+00
  9.80000000E+02  8.20000000E+01  0.00000000E+00
  9.80000000E+02  8.00000000E+01  0.00000000E+00
  9.80000000E+02  7.80000000E+01  0.00000000E+00
  9.80000000E+02  7.60000000E+01  0.00000000E+00
  9.80000000E+02  7.40000000E+01  0.00000000E+00
  9.80000000E+02  7.20000000E+01  0.00000000E+00
  9.80000000E+02  7.00000000E+01  0.00000000E+00
  9.80000000E+02  6.80000000E+01  0.00000000E+00
  9.80000000E+02  6.60000000E+01  0.00000000E+00
  9.80000000E+02  6.40000000E+01  0.00000000E+00
  9.80000000E+02  6.20000000E+01  0.00000000E+00
  9.80000000E+02  6.00000000E+01  0.00000000E+00
  9.80000000E+02  5.80000000E+01  0.00000000E+00
  9.80000000E+02  5.60000000E+01  0.00000000E+00
  9.80000000E+02  5.40000000E+01  0.00000000E+00
  9.80000000E+02  5.20000000E+01  0.00000000E+00
  9.80000000E+02  5.00000000E+01  0.00000000E+00
  9.80000000E+02  4.80000000E+01  0.00000000E+00
  9.80000000E+02  4.60000000E+01  0.00000000E+00
  9.80000000E+02  4.40000000E+01  0.00000000E+00
  9.80000000E+02  4.20000000E+01  0.00000000E+00
  9.80000000E+02  4.00000000E+01  0.00000000E+00
  9.80000000E+02  3.80000000E+01  0.00000000E+00
  9.80000000E+02  3.60000000E+01  0.00000000E+00
  9.80000000E+02  3.40000000E+01  0.00000000E+00
  9.80000000E+02  3.20000000E+01  0.00000000E+00
  9.80000000E+02  3.00000000E+01  0.00000000E+00
  9.80000000E+02  2.80000000E+01  0.00000000E+00
  9.80000000E+02  2.60000000E+01  0.00000000E+00
  9.80000000E+02  2.40000000E+01  0.00000000E+00
  9.80000000E+02  2.20000000E+01  0.00000000E+00
  9.80000000E+02  2.00000000E+01  0.00000000E+00
  9.80000000E+02  1.80000000E+01  0.00000000E+00
  9.80000000E+02  1.60000000E+01  0.00000000E+00
  9.80000000E+02  1.40000000E+01  0.00000000E+00
  9.80000000E+02  1.20000000E+01  0.00000000E+00
  9.80000000E+02  1.00000000E+01  0.00000000E+00
  9.80000000E+02  8.00000000E+00  0.00000000E+00
  9.80000000E+02  6.00000000E+00  0.00000000E+00
  9.80000000E+02  4.00000000E+00  0.00000000E+00
  9.80000000E+02  2.00000000E+00  0.00000000E+00
  9.80000000E+02 -3.33066907E-14  0.00000000E+00
  9.90000000E+02  1.00000000E+02  0.00000000E+00
  9.90000000E+02  9.80000000E+01  0.00000000E+00
  9.90000000E+02  9.60000000E+01  0.00000000E+00
  9.90000000E+02  9.40000000E+01  0.00000000E+00
  9.90000000E+02  9.20000000E+01  0.00000000E+00
  9.90000000E+02  9.00000000E+01  0.00000000E+00
  9.90000000E+02  8.80000000E+01  0.00000000E+00
  9.90000000E+02  8.60000000E+01  0.00000000E+00
  9.90000000E+02  8.40000000E+01  0.00000000E+00
  9.90000000E+02  8.20000000E+01  0.00000000E+00
  9.90000000E+02  8.00000000E+01  0.00000000E+00
  9.90000000E+02  7.80000000E+01  0.00000000E+00
  9.90000000E+02  7.60000000E+01  0.00000000E+00
  9.90000000E+02  7.40000000E+01  0.00000000E+00
  9.90000000E+02  7.20000000E+01  0.00000000E+00
  9.90000000E+02  7.00000000E+01  0.00000000E+00
  9.90000000E+02  6.80000000E+01  0.00000000E+00
  9.90000000E+02  6.60000000E+01  0.00000000E+00
  9.90000000E+02  6.40000000E+01  0.00000000E+00
  9.90000000E+02  6.20000000E+01  0.00000000E+00
  9.90000000E+02  6.00000000E+01  0.00000000E+00
  9.90000000E+02  5.80000000E+01  0.00000000E+00
  9.90000000E+02  5.60000000E+01  0.00000000E+00
  9.90000000E+02  5.40000000E+01  0.00000000E+00
  9.90000000E+02  5.20000000E+01  0.00000000E+00
  9.90000000E+02  5.00000000E+01  0.00000000E+00
  9.90000000E+02  4.80000000E+01  0.00000000E+00
  9.90000000E+02  4.60000000E+01  0.00000000E+00
  9.90000000E+02  4.40000000E+01  0.00000000E+00
  9.90000000E+02  4.20000000E+01  0.00000000E+00
  9.90000000E+02  4.00000000E+01  0.00000000E+00
  9.90000000E+02  3.80000000E+01  0.00000000E+00
  9.90000000E+02  3.60000000E+01  0.00000000E+00
  9.90000000E+02  3.40000000E+01  0.00000000E+00
  9.90000000E+02  3.20000000E+01  0.00000000E+00
  9.90000000E+02  3.00000000E+01  0.00000000E+00
  9.90000000E+02  2.80000000E+01  0.00000000E+00
  9.90000000E+02  2.60000000E+01  0.00000000E+00
  9.90000000E+02  2.40000000E+01  0.00000000E+00
  9.90000000E+02  2.20000000E+01  0.00000000E+00
  9.90000000E+02  2.00000000E+01  0.00000000E+00
  9.90000000E+02  1.80000000E+01  0.00000000E+00
  9.90000000E+02  1.60000000E+01  0.00000000E+00
  9.90000000E+02  1.40000000E+01  0.00000000E+00
  9.90000000E+02  1.20000000E+01  0.00000000E+00
  9.90000000E+02  1.00000000E+01  0.00000000E+00
  9.90000000E+02  8.00000000E+00  0.00000000E+00
  9.90000000E+02  6.00000000E+00  0.00000000E+00
  9.90000000E+02  4.00000000E+00  0.00000000E+00
  9.90000000E+02  2.00000000E+00  0.00000000E+00
  9.90000000E+02 -3.33066907E-14  0.00000000E+00
  1.00000000E+03  1.00000000E+02  0.00000000E+00
  1.00000000E+03  9.80000000E+01  0.00000000E+00
  1.00000000E+03  9.60000000E+01  0.00000000E+00
  1.00000000E+03  9.40000000E+01  0.00000000E+00
  1.00000000E+03  9.20000000E+01  0.00000000E+00
  1.00000000E+03  9.00000000E+01  0.00000000E+00
  1.00000000E+03  8.80000000E+01  0.00000000E+00
  1.00000000E+03  8.60000000E+01  0.00000000E+00
  1.00000000E+03  8.40000000E+01  0.00000000E+00
  1.00000000E+03  8.20000000E+01  0.00000000E+00
  1.00000000E+03  8.00000000E+01  0.00000000E+00
  1.00000000E+03  7.80000000E+01  0.00000000E+00
  1.00000000E+03  7.60000000E+01  0.00000000E+00
  1.00000000E+03  7.40000000E+01  0.00000000E+00
  1.00000000E+03  7.20000000E+01  0.00000000E+00
  1.00000000E+03  7.00000000E+01  0.00000000E+00
  1.00000000E+03  6.80000000E+01  0.00000000E+00
  1.00000000E+03  6.60000000E+01  0.00000000E+00
  1.00000000E+03  6.40000000E+01  0.00000000E+00
  1.00000000E+03  6.20000000E+01  0.00000000E+00
  1.00000000E+03  6.00000000E+01  0.00000000E+00
  1.00000000E+03  5.80000000E+01  0.00000000E+00
  1.00000000E+03  5.60000000E+01  0.00000000E+00
  1.00000000E+03  5.40000000E+01  0.00000000E+00
  1.00000000E+03  5.20000000E+01  0.00000000E+00
  1.00000000E+03  5.00000000E+01  0.00000000E+00
  1.00000000E+03  4.80000000E+01  0.00000000E+00
  1.00000000E+03  4.60000000E+01  0.00000000E+00
  1.00000000E+03  4.40000000E+01  0.00000000E+00
  1.00000000E+03  4.20000000E+01  0.00000000E+00
  1.00000000E+03  4.00000000E+01  0.00000000E+00
  1.00000000E+03  3.80000000E+01  0.00000000E+00
  1.00000000E+03  3.60000000E+01  0.00000000E+00
  1.00000000E+03  3.40000000E+01  0.00000000E+00
  1.00000000E+03  3.20000000E+01  0.00000000E+00
  1.00000000E+03  3.00000000E+01  0.00000000E+00
  1.00000000E+03  2.80000000E+01  0.00000000E+00
  1.00000000E+03  2.60000000E+01  0.00000000E+00
  1.00000000E+03  2.40000000E+01  0.00000000E+00
  1.00000000E+03  2.20000000E+01  0.00000000E+00
  1.00000000E+03  2.00000000E+01  0.00000000E+00
  1.00000000E+03  1.80000000E+01  0.00000000E+00
  1.00000000E+03  1.60000000E+01  0.00000000E+00
  1.00000000E+03  1.40000000E+01  0.00000000E+00
  1.00000000E+03  1.20000000E+01  0.00000000E+00
  1.00000000E+03  1.00000000E+01  0.00000000E+00
  1.00000000E+03  8.00000000E+00  0.00000000E+00
  1.00000000E+03  6.00000000E+00  0.00000000E+00
  1.00000000E+03  4.00000000E+00  0.00000000E+00
  1.00000000E+03  2.00000000E+00  0.00000000E+00
  1.00000000E+03 -3.33066907E-14  0.00000000E+00
CELLS      5000     25000
         4           0           1          52          51
         4           1           2          53          52
         4           2           3          54          53
         4           3           4          55          54
         4           4           5          56          55
         4           5           6          57          56
         4           6           7          58          57
         4           7           8          59          58
         4           8           9          60          59
         4           9          10          61          60
         4          10          11          62          61
         4          11          12          63          62
         4          12          13          64          63
         4          13          14          65          64
         4          14          15          66          65
         4          15          16          67          66
         4          16          17          68          67
         4          17          18          69          68
         4          18          19          70          69
         4          19          20          71          70
         4          20          21          72          71
         4          21          22          73          72
         4          22          23          74          73
         4          23          24          75          74
         4          24          25          76          75
         4          25          26          77          76
         4          26          27          78          77
         4          27          28          79          78
         4          28          29          80          79
         4          29          30          81          80
         4          30          31          82          81
         4          31          32          83          82
         4          32          33          84          83
         4          33          34          85          84
         4          34          35          86          85
         4          35          36          87          86
         4          36          37          88          87
         4          37          38          89          88
         4          38          39          90          89
         4          39          40          91          90
         4          40          41          92          91
         4          41          42          93          92
         4          42          43          94          93
         4          43          44          95          94
         4          44          45          96          95
         4          45          46          97          96
         4          46          47          98          97
         4          47          48          99          98
         4          48          49         100          99
         4          49          50         101         100
         4          51          52         103         102
         4          52          53         104         103
         4          53          54         105         104
         4          54          55         106         105
         4          55          56         107         106
         4          56          57         108         107
         4          57          58         109         108
         4          58          59         110         109
         4          59          60         111         110
         4          60          61         112         111
         4          61          62         113         112
         4          62          63         114         113
         4          63          64         115         114
         4          64          65         116         115
         4          65          66         117         116
         4          66          67         118         117
         4          67          68         119         118
         4          68          69         120         119
         4          69          70         121         120
         4          70          71         122         121
         4          71          72         123         122
         4          72          73         124         123
         4          73          74         125         124
         4          74          75         126         125
         4          75          76         127         126
         4          76          77         128         127
         4          77          78         129         128
         4          78          79         130         129
         4          79          80         131         130
         4          80          81         132         131
         4          81          82         133         132
         4          82          83         134         133
         4          83          84         135         134
         4          84          85         136         135
         4          85          86         137         136
         4          86          87         138         137
         4          87          88         139         138
         4          88          89         140         139
         4          89          90         141         140
         4          90          91         142         141
         4          91          92         143         142
         4          92          93         144         143
         4          93          94         145         144
         4          94          95         146         145
         4          95          96         147         146
         4          96          97         148         147
         4          97          98         149         148
         4          98          99         150         149
         4          99         100         151         150
         4         100         101         152         151
         4         102         103         154         153
         4         103         104         155         154
         4         104         105         156         155
         4         105         106         157         156
         4         106         107         158         157
         4         107         108         159         158
         4         108         109         160         159
         4         109         110         161         160
         4         110         111         162         161
         4         111         112         163         162
         4         112         113         164         163
         4         113         114         165         164
         4         114         115         166         165
         4         115         116         167         166
         4         116         117         168         167
         4         117         118         169         168
         4         118         119         170         169
         4         119         120         171         170
         4         120         121         172         171
         4         121         122         173         172
         4         122         123         174         173
         4         123         124         175         174
         4         124         125         176         175
         4         125         126         177         176
         4         126         127         178         177
         4         127         128         179         178
         4         128         129         180         179
         4         129         130         181         180
         4         130         131         182         181
         4         131         132         183         182
         4         132         133         184         183
         4         133         134         185         184
         4         134         135         186         185
         4         135         136         187         186
         4         136         137         188         187
         4         137         138         189         188
         4         138         139         190         189
         4         139         140         191         190
         4         140         141         192         191
         4         141         142         193         192
         4         142         143         194         193
         4         143         144         195         194
         4         144         145         196         195
         4         145         146         197         196
         4         146         147         198         197
         4         147         148         199         198
         4         148         149         200         199
         4         149         150         201         200
         4         150         151         202         201
         4         151         152         203         202
         4         153         154         205         204
         4         154         155         206         205
         4         155         156         207         206
         4         156         157         208         207
         4         157         158         209         208
         4         158         159         210         209
         4         159         160         211         210
         4         160         161         212         211
         4         161         162         213         212
         4         162         163         214         213
         4         163         164         215         214
         4         164         165         216         215
         4         165         166         217         216
         4         166         167         218         217
         4         167         168         219         218
         4         168         169         220         219
         4         169         170         221         220
         4         170         171         222         221
         4         171         172         223         222
         4         172         173         224         223
         4         173         174         225         224
         4         174         175         226         225
         4         175         176         227         226
         4         176         177         228         227
         4         177         178         229         228
         4         178         179         230         229
         4         179         180         231         230
         4         180         181         232         231
         4         181         182         233         232
         4         182         183         234         233
         4         183         184         235         234
         4         184         185         236         235
         4         185         186         237         236
         4         186         187         238         237
         4         187         188         239         238
         4         188         189         240         239
         4         189         190         241         240
         4         190         191         242         241
         4         191         192         243         242
         4         192         193         244         243
         4         193         194         245         244
         4         194         195         246         245
         4         195         196         247         246
         4         196         197         248         247
         4         197         198         249         248
         4         198         199         250         249
         4         199         200         251         250
         4         200         201         252         251
         4         201         202         253         252
         4         202         203         254         253
         4         204         205         256         255
         4         205         206         257         256
         4         206         207         258         257
         4         207         208         259         258
         4         208         209         260         259
         4         209         210         261         260
         4         210         211         262         261
         4         211         212         263         262
         4         212         213         264         263
         4         213         214         265         264
         4         214         215         266         265
         4         215         216         267         266
         4         216         217         268         267
         4         217         218         269         268
         4         218         219         270         269
         4         219         220         271         270
         4         220         221         272         271
         4         221         222         273         272
         4         222         223         274         273
         4         223         224         275         274
         4         224         225         276         275
         4         225         226         277         276
         4         226         227         278         277
         4         227         228         279         278
         4         228         229         280         279
         4         229         230         281         280
         4         230         231         282         281
         4         231         232         283         282
         4         232         233         284         283
         4         233         234         285         284
         4         234         235         286         285
         4         235         236         287         286
         4         236         237         288         287
         4         237         238         289         288
         4         238         239         290         289
         4         239         240         291         290
         4         240         241         292         291
         4         241         242         293         292
         4         242         243         294         293
         4         243         244         295         294
         4         244         245         296         295
         4         245         246         297         296
         4         246         247         298         297
         4         247         248         299         298
         4         248         249         300         299
         4         249         250         301         300
         4         250         251         302         301
         4         251         252         303         302
         4         252         253         304         303
         4         253         254         305         304
         4         255         256         307         306
         4         256         257         308         307
         4         257         258         309         308
         4         258         259         310         309
         4         259         260         311         310
         4         260         261         312         311
         4         261         262         313         312
         4         262         263         314         313
         4         263         264         315         314
         4         264         265         316         315
         4         265         266         317         316
         4         266         267         318         317
         4         267         268         319         318
         4         268         269         320         319
         4         269         270         321         320
         4         270         271         322         321
         4         271         272         323         322
         4         272         273         324         323
         4         273         274         325         324
         4         274         275         326         325
         4         275         276         327         326
         4         276         277         328         327
         4         277         278         329         328
         4         278         279         330         329
         4         279         280         331         330
         4         280         281         332         331
         4         281         282         333         332
         4         282         283         334         333
         4         283         284         335         334
         4         284         285         336         335
         4         285         286         337         336
         4         286         287         338         337
         4         287         288         339         338
         4         288         289         340         339
         4         289         290         341         340
         4         290         291         342         341
         4         291         292         343         342
         4         292         293         344         343
         4         293         294         345         344
         4         294         295         346         345
         4         295         296         347         346
         4         296         297         348         347
         4         297         298         349         348
         4         298         299         350         349
         4         299         300         351         350
         4         300         301         352         351
         4         301         302         353         352
         4         302         303         354         353
         4         303         304         355         354
         4         304         305         356         355
         4         306         307         358         357
         4         307         308         359         358
         4         308         309         360         359
         4         309         310         361         360
         4         310         311         362         361
         4         311         312         363         362
         4         312         313         364         363
         4         313         314         365         364
         4         314         315         366         365
         4         315         316         367         366
         4         316         317         368         367
         4         317         318         369         368
         4         318         319         370         369
         4         319         320         371         370
         4         320         321         372         371
         4         321         322         373         372
         4         322         323         374         373
         4         323         324         375         374
         4         324         325         376         375
         4         325         326         377         376
         4         326         327         378         377
         4         327         328         379         378
         4         328         329         380         379
         4         329         330         381         380
         4         330         331         382         381
         4         331         332         383         382
         4         332         333         384         383
         4         333         334         385         384
         4         334         335         386         385
         4         335         336         387         386
         4         336         337         388         387
         4         337         338         389         388
         4         338         339         390         389
         4         339         340         391         390
         4         340         341         392         391
         4         341         342         393         392
         4         342         343         394         393
         4         343         344         395         394
         4         344         345         396         395
         4         345         346         397         396
         4         346         347         398         397
         4         347         348         399         398
         4         348         349         400         399
         4         349         350         401         400
         4         350         351         402         401
         4         351         352         403         402
         4         352         353         404         403
         4         353         354         405         404
         4         354         355         406         405
         4         355         356         407         406
         4         357         358         409         408
         4         358         359         410         409
         4         359         360         411         410
         4         360         361         412         411
         4         361         362         413         412
         4         362         363         414         413
         4         363         364         415         414
         4         364         365         416         415
         4         365         366         417         416
         4         366         367         418         417
         4         367         368         419         418
         4         368         369         420         419
         4         369         370         421         420
         4         370         371         422         421
         4         371         372         423         422
         4         372         373         424         423
         4         373         374         425         424
         4         374         375         426         425
         4         375         376         427         426
         4         376         377         428         427
         4         377         378         429         428
         4         378         379         430         429
         4         379         380         431         430
         4         380         381         432         431
         4         381         382         433         432
         4         382         383         434         433
         4         383         384         435         434
         4         384         385         436         435
         4         385         386         437         436
         4         386         387         438         437
         4         387         388         439         438
         4         388         389         440         439
         4         389         390         441         440
         4         390         391         442         441
         4         391         392         443         442
         4         392         393         444         443
         4         393         394         445         444
         4         394         395         446         445
         4         395         396         447         446
         4         396         397         448         447
         4         397         398         449         448
         4         398         399         450         449
         4         399         400         451         450
         4         400         401         452         451
         4         401         402         453         452
         4         402         403         454         453
         4         403         404         455         454
         4         404         405         456         455
         4         405         406         457         456
         4         406         407         458         457
         4         408         409         460         459
         4         409         410         461         460
         4         410         411         462         461
         4         411         412         463         462
         4         412         413         464         463
         4         413         414         465         464
         4         414         415         466         465
         4         415         416         467         466
         4         416         417         468         467
         4         417         418         469         468
         4         418         419         470         469
         4         419         420         471         470
         4         420         421         472         471
         4         421         422         473         472
         4         422         423         474         473
         4         423         424         475         474
         4         424         425         476         475
         4         425         426         477         476
         4         426         427         478         477
         4         427         428         479         478
         4         428         429         480         479
         4         429         430         481         480
         4         430         431         482         481
         4         431         432         483         482
         4         432         433         484         483
         4         433         434         485         484
         4         434         435         486         485
         4         435         436         487         486
         4         436         437         488         487
         4         437         438         489         488
         4         438         439         490         489
         4         439         440         491         490
         4         440         441         492         491
         4         441         442         493         492
         4         442         443         494         493
         4         443         444         495         494
         4         444         445         496         495
         4         445         446         497         496
         4         446         447         498         497
         4         447         448         499         498
         4         448         449         500         499
         4         449         450         501         500
         4         450         451         502         501
         4         451         452         503         502
         4         452         453         504         503
         4         453         454         505         504
         4         454         455         506         505
         4         455         456         507         506
         4         456         457         508         507
         4         457         458         509         508
         4         459         460         511         510
         4         460         461         512         511
         4         461         462         513         512
         4         462         463         514         513
         4         463         464         515         514
         4         464         465         516         515
         4         465         466         517         516
         4         466         467         518         517
         4         467         468         519         518
         4         468         469         520         519
         4         469         470         521         520
         4         470         471         522         521
         4         471         472         523         522
         4         472         473         524         523
         4         473         474         525         524
         4         474         475         526         525
         4         475         476         527         526
         4         476         477         528         527
         4         477         478         529         528
         4         478         479         530         529
         4         479         480         531         530
         4         480         481         532         531
         4         481         482         533         532
         4         482         483         534         533
         4         483         484         535         534
         4         484         485         536         535
         4         485         486         537         536
         4         486         487         538         537
         4         487         488         539         538
         4         488         489         540         539
         4         489         490         541         540
         4         490         491         542         541
         4         491         492         543         542
         4         492         493         544         543
         4         493         494         545         544
         4         494         495         546         545
         4         495         496         547         546
         4         496         497         548         547
         4         497         498         549         548
         4         498         499         550         549
         4         499         500         551         550
         4         500         501         552         551
         4         501         502         553         552
         4         502         503         554         553
         4         503         504         555         554
         4         504         505         556         555
         4         505         506         557         556
         4         506         507         558         557
         4         507         508         559         558
         4         508         509         560         559
         4         510         511         562         561
         4         511         512         563         562
         4         512         513         564         563
         4         513         514         565         564
         4         514         515         566         565
         4         515         516         567         566
         4         516         517         568         567
         4         517         518         569         568
         4         518         519         570         569
         4         519         520         571         570
         4         520         521         572         571
         4         521         522         573         572
         4         522         523         574         573
         4         523         524         575         574
         4         524         525         576         575
         4         525         526         577         576
         4         526         527         578         577
         4         527         528         579         578
         4         528         529         580         579
         4         529         530         581         580
         4         530         531         582         581
         4         531         532         583         582
         4         532         533         584         583
         4         533         534         585         584
         4         534         535         586         585
         4         535         536         587         586
         4         536         537         588         587
         4         537         538         589         588
         4         538         539         590         589
         4         539         540         591         590
         4         540         541         592         591
         4         541         542         593         592
         4         542         543         594         593
         4         543         544         595         594
         4         544         545         596         595
         4         545         546         597         596
         4         546         547         598         597
         4         547         548         599         598
         4         548         549         600         599
         4         549         550         601         600
         4         550         551         602         601
         4         551         552         603         602
         4         552         553         604         603
         4         553         554         605         604
         4         554         555         606         605
         4         555         556         607         606
         4         556         557         608         607
         4         557         558         609         608
         4         558         559         610         609
         4         559         560         611         610
         4         561         562         613         612
         4         562         563         614         613
         4         563         564         615         614
         4         564         565         616         615
         4         565         566         617         616
         4         566         567         618         617
         4         567         568         619         618
         4         568         569         620         619
         4         569         570         621         620
         4         570         571         622         621
         4         571         572         623         622
         4         572         573         624         623
         4         573         574         625         624
         4         574         575         626         625
         4         575         576         627         626
         4         576         577         628         627
         4         577         578         629         628
         4         578         579         630         629
         4         579         580         631         630
         4         580         581         632         631
         4         581         582         633         632
         4         582         583         634         633
         4         583         584         635         634
         4         584         585         636         635
         4         585         586         637         636
         4         586         587         638         637
         4         587         588         639         638
         4         588         589         640         639
         4         589         590         641         640
         4         590         591         642         641
         4         591         592         643         642
         4         592         593         644         643
         4         593         594         645         644
         4         594         595         646         645
         4         595         596         647         646
         4         596         597         648         647
         4         597         598         649         648
         4         598         599         650         649
         4         599         600         651         650
         4         600         601         652         651
         4         601         602         653         652
         4         602         603         654         653
         4         603         604         655         654
         4         604         605         656         655
         4         605         606         657         656
         4         606         607         658         657
         4         607         608         659         658
         4         608         609         660         659
         4         609         610         661         660
         4         610         611         662         661
         4         612         613         664         663
         4         613         614         665         664
         4         614         615         666         665
         4         615         616         667         666
         4         616         617         668         667
         4         617         618         669         668
         4         618         619         670         669
         4         619         620         671         670
         4         620         621         672         671
         4         621         622         673         672
         4         622         623         674         673
         4         623         624         675         674
         4         624         625         676         675
         4         625         626         677         676
         4         626         627         678         677
         4         627         628         679         678
         4         628         629         680         679
         4         629         630         681         680
         4         630         631         682         681
         4         631         632         683         682
         4         632         633         684         683
         4         633         634         685         684
         4         634         635         686         685
         4         635         636         687         686
         4         636         637         688         687
         4         637         638         689         688
         4         638         639         690         689
         4         639         640         691         690
         4         640         641         692         691
         4         641         642         693         692
         4         642         643         694         693
         4         643         644         695         694
         4         644         645         696         695
         4         645         646         697         696
         4         646         647         698         697
         4         647         648         699         698
         4         648         649         700         699
         4         649         650         701         700
         4         650         651         702         701
         4         651         652         703         702
         4         652         653         704         703
         4         653         654         705         704
         4         654         655         706         705
         4         655         656         707         706
         4         656         657         708         707
         4         657         658         709         708
         4         658         659         710         709
         4         659         660         711         710
         4         660         661         712         711
         4         661         662         713         712
         4         663         664         715         714
         4         664         665         716         715
         4         665         666         717         716
         4         666         667         718         717
         4         667         668         719         718
         4         668         669         720         719
         4         669         670         721         720
         4         670         671         722         721
         4         671         672         723         722
         4         672         673         724         723
         4         673         674         725         724
         4         674         675         726         725
         4         675         676         727         726
         4         676         677         728         727
         4         677         678         729         728
         4         678         679         730         729
         4         679         680         731         730
         4         680         681         732         731
         4         681         682         733         732
         4         682         683         734         733
         4         683         684         735         734
         4         684         685         736         735
         4         685         686         737         736
         4         686         687         738         737
         4         687         688         739         738
         4         688         689         740         739
         4         689         690         741         740
         4         690         691         742         741
         4         691         692         743         742
         4         692         693         744         743
         4         693         694         745         744
         4         694         695         746         745
         4         695         696         747         746
         4         696         697         748         747
         4         697         698         749         748
         4         698         699         750         749
         4         699         700         751         750
         4         700         701         752         751
         4         701         702         753         752
         4         702         703         754         753
         4         703         704         755         754
         4         704         705         756         755
         4         705         706         757         756
         4         706         707         758         757
         4         707         708         759         758
         4         708         709         760         759
         4         709         710         761         760
         4         710         711         762         761
         4         711         712         763         762
         4         712         713         764         763
         4         714         715         766         765
         4         715         716         767         766
         4         716         717         768         767
         4         717         718         769         768
         4         718         719         770         769
         4         719         720         771         770
         4         720         721         772         771
         4         721         722         773         772
         4         722         723         774         773
         4         723         724         775         774
         4         724         725         776         775
         4         725         726         777         776
         4         726         727         778         777
         4         727         728         779         778
         4         728         729         780         779
         4         729         730         781         780
         4         730         731         782         781
         4         731         732         783         782
         4         732         733         784         783
         4         733         734         785         784
         4         734         735         786         785
         4         735         736         787         786
         4         736         737         788         787
         4         737         738         789         788
         4         738         739         790         789
         4         739         740         791         790
         4         740         741         792         791
         4         741         742         793         792
         4         742         743         794         793
         4         743         744         795         794
         4         744         745         796         795
         4         745         746         797         796
         4         746         747         798         797
         4         747         748         799         798
         4         748         749         800         799
         4         749         750         801         800
         4         750         751         802         801
         4         751         752         803         802
         4         752         753         804         803
         4         753         754         805         804
         4         754         755         806         805
         4         755         756         807         806
         4         756         757         808         807
         4         757         758         809         808
         4         758         759         810         809
         4         759         760         811         810
         4         760         761         812         811
         4         761         762         813         812
         4         762         763         814         813
         4         763         764         815         814
         4         765         766         817         816
         4         766         767         818         817
         4         767         768         819         818
         4         768         769         820         819
         4         769         770         821         820
         4         770         771         822         821
         4         771         772         823         822
         4         772         773         824         823
         4         773         774         825         824
         4         774         775         826         825
         4         775         776         827         826
         4         776         777         828         827
         4         777         778         829         828
         4         778         779         830         829
         4         779         780         831         830
         4         780         781         832         831
         4         781         782         833         832
         4         782         783         834         833
         4         783         784         835         834
         4         784         785         836         835
         4         785         786         837         836
         4         786         787         838         837
         4         787         788         839         838
         4         788         789         840         839
         4         789         790         841         840
         4         790         791         842         841
         4         791         792         843         842
         4         792         793         844         843
         4         793         794         845         844
         4         794         795         846         845
         4         795         796         847         846
         4         796         797         848         847
         4         797         798         849         848
         4         798         799         850         849
         4         799         800         851         850
         4         800         801         852         851
         4         801         802         853         852
         4         802         803         854         853
         4         803         804         855         854
         4         804         805         856         855
         4         805         806         857         856
         4         806         807         858         857
         4         807         808         859         858
         4         808         809         860         859
         4         809         810         861         860
         4         810         811         862         861
         4         811         812         863         862
         4         812         813         864         863
         4         813         814         865         864
         4         814         815         866         865
         4         816         817         868         867
         4         817         818         869         868
         4         818         819         870         869
         4         819         820         871         870
         4         820         821         872         871
         4         821         822         873         872
         4         822         823         874         873
         4         823         824         875         874
         4         824         825         876         875
         4         825         826         877         876
         4         826         827         878         877
         4         827         828         879         878
         4         828         829         880         879
         4         829         830         881         880
         4         830         831         882         881
         4         831         832         883         882
         4         832         833         884         883
         4         833         834         885         884
         4         834         835         886         885
         4         835         836         887         886
         4         836         837         888         887
         4         837         838         889         888
         4         838         839         890         889
         4         839         840         891         890
         4         840         841         892         891
         4         841         842         893         892
         4         842         843         894         893
         4         843         844         895         894
         4         844         845         896         895
         4         845         846         897         896
         4         846         847         898         897
         4         847         848         899         898
         4         848         849         900         899
         4         849         850         901         900
         4         850         851         902         901
         4         851         852         903         902
         4         852         853         904         903
         4         853         854         905         904
         4         854         855         906         905
         4         855         856         907         906
         4         856         857         908         907
         4         857         858         909         908
         4         858         859         910         909
         4         859         860         911         910
         4         860         861         912         911
         4         861         862         913         912
         4         862         863         914         913
         4         863         864         915         914
         4         864         865         916         915
         4         865         866         917         916
         4         867         868         919         918
         4         868         869         920         919
         4         869         870         921         920
         4         870         871         922         921
         4         871         872         923         922
         4         872         873         924         923
         4         873         874         925         924
         4         874         875         926         925
         4         875         876         927         926
         4         876         877         928         927
         4         877         878         929         928
         4         878         879         930         929
         4         879         880         931         930
         4         880         881         932         931
         4         881         882         933         932
         4         882         883         934         933
         4         883         884         935         934
         4         884         885         936         935
         4         885         886         937         936
         4         886         887         938         937
         4         887         888         939         938
         4         888         889         940         939
         4         889         890         941         940
         4         890         891         942         941
         4         891         892         943         942
         4         892         893         944         943
         4         893         894         945         944
         4         894         895         946         945
         4         895         896         947         946
         4         896         897         948         947
         4         897         898         949         948
         4         898         899         950         949
         4         899         900         951         950
         4         900         901         952         951
         4         901         902         953         952
         4         902         903         954         953
         4         903         904         955         954
         4         904         905         956         955
         4         905         906         957         956
         4         906         907         958         957
         4         907         908         959         958
         4         908         909         960         959
         4         909         910         961         960
         4         910         911         962         961
         4         911         912         963         962
         4         912         913         964         963
         4         913         914         965         964
         4         914         915         966         965
         4         915         916         967         966
         4         916         917         968         967
         4         918         919         970         969
         4         919         920         971         970
         4         920         921         972         971
         4         921         922         973         972
         4         922         923         974         973
         4         923         924         975         974
         4         924         925         976         975
         4         925         926         977         976
         4         926         927         978         977
         4         927         928         979         978
         4         928         929         980         979
         4         929         930         981         980
         4         930         931         982         981
         4         931         932         983         982
         4         932         933         984         983
         4         933         934         985         984
         4         934         935         986         985
         4         935         936         987         986
         4         936         937         988         987
         4         937         938         989         988
         4         938         939         990         989
         4         939         940         991         990
         4         940         941         992         991
         4         941         942         993         992
         4         942         943         994         993
         4         943         944         995         994
         4         944         945         996         995
         4         945         946         997         996
         4         946         947         998         997
         4         947         948         999         998
         4         948         949        1000         999
         4         949         950        1001        1000
         4         950         951        1002        1001
         4         951         952        1003        1002
         4         952         953        1004        1003
         4         953         954        1005        1004
         4         954         955        1006        1005
         4         955         956        1007        1006
         4         956         957        1008        1007
         4         957         958        1009        1008
         4         958         959        1010        1009
         4         959         960        1011        1010
         4         960         961        1012        1011
         4         961         962        1013        1012
         4         962         963        1014        1013
         4         963         964        1015        1014
         4         964         965        1016        1015
         4         965         966        1017        1016
         4         966         967        1018        1017
         4         967         968        1019        1018
         4         969         970        1021        1020
         4         970         971        1022        1021
         4         971         972        1023        1022
         4         972         973        1024        1023
         4         973         974        1025        1024
         4         974         975        1026        1025
         4         975         976        1027        1026
         4         976         977        1028        1027
         4         977         978        1029        1028
         4         978         979        1030        1029
         4         979         980        1031        1030
         4         980         981        1032        1031
         4         981         982        1033        1032
         4         982         983        1034        1033
         4         983         984        1035        1034
         4         984         985        1036        1035
         4         985         986        1037        1036
         4         986         987        1038        1037
         4         987         988        1039        1038
         4         988         989        1040        1039
         4         989         990        1041        1040
         4         990         991        1042        1041
         4         991         992        1043        1042
         4         992         993        1044        1043
         4         993         994        1045        1044
         4         994         995        1046        1045
         4         995         996        1047        1046
         4         996         997        1048        1047
         4         997         998        1049        1048
         4         998         999        1050        1049
         4         999        1000        1051        1050
         4        1000        1001        1052        1051
         4        1001        1002        1053        1052
         4        1002        1003        1054        1053
         4        1003        1004        1055        1054
         4        1004        1005        1056        1055
         4        1005        1006        1057        1056
         4        1006        1007        1058        1057
         4        1007        1008        1059        1058
         4        1008        1009        1060        1059
         4        1009        1010        1061        1060
         4        1010        1011        1062        1061
         4        1011        1012        1063        1062
         4        1012        1013        1064        1063
         4        1013        1014        1065        1064
         4        1014        1015        1066        1065
         4        1015        1016        1067        1066
         4        1016        1017        1068        1067
         4        1017        1018        1069        1068
         4        1018        1019        1070        1069
         4        1020        1021        1072        1071
         4        1021        1022        1073        1072
         4        1022        1023        1074        1073
         4        1023        1024        1075        1074
         4        1024        1025        1076        1075
         4        1025        1026        1077        1076
         4        1026        1027        1078        1077
         4        1027        1028        1079        1078
         4        1028        1029        1080        1079
         4        1029        1030        1081        1080
         4        1030        1031        1082        1081
         4        1031        1032        1083        1082
         4        1032        1033        1084        1083
         4        1033        1034        1085        1084
         4        1034        1035        1086        1085
         4        1035        1036        1087        1086
         4        1036        1037        1088        1087
         4        1037        1038        1089        1088
         4        1038        1039        1090        1089
         4        1039        1040        1091        1090
         4        1040        1041        1092        1091
         4        1041        1042        1093        1092
         4        1042        1043        1094        1093
         4        1043        1044        1095        1094
         4        1044        1045        1096        1095
         4        1045        1046        1097        1096
         4        1046        1047        1098        1097
         4        1047        1048        1099        1098
         4        1048        1049        1100        1099
         4        1049        1050        1101        1100
         4        1050        1051        1102        1101
         4        1051        1052        1103        1102
         4        1052        1053        1104        1103
         4        1053        1054        1105        1104
         4        1054        1055        1106        1105
         4        1055        1056        1107        1106
         4        1056        1057        1108        1107
         4        1057        1058        1109        1108
         4        1058        1059        1110        1109
         4        1059        1060        1111        1110
         4        1060        1061        1112        1111
         4        1061        1062        1113        1112
         4        1062        1063        1114        1113
         4        1063        1064        1115        1114
         4        1064        1065        1116        1115
         4        1065        1066        1117        1116
         4        1066        1067        1118        1117
         4        1067        1068        1119        1118
         4        1068        1069        1120        1119
         4        1069        1070        1121        1120
         4        1071        1072        1123        1122
         4        1072        1073        1124        1123
         4        1073        1074        1125        1124
         4        1074        1075        1126        1125
         4        1075        1076        1127        1126
         4        1076        1077        1128        1127
         4        1077        1078        1129        1128
         4        1078        1079        1130        1129
         4        1079        1080        1131        1130
         4        1080        1081        1132        1131
         4        1081        1082        1133        1132
         4        1082        1083        1134        1133
         4        1083        1084        1135        1134
         4        1084        1085        1136        1135
         4        1085        1086        1137        1136
         4        1086        1087        1138        1137
         4        1087        1088        1139        1138
         4        1088        1089        1140        1139
         4        1089        1090        1141        1140
         4        1090        1091        1142        1141
         4        1091        1092        1143        1142
         4        1092        1093        1144        1143
         4        1093        1094        1145        1144
         4        1094        1095        1146        1145
         4        1095        1096        1147        1146
         4        1096        1097        1148        1147
         4        1097        1098        1149        1148
         4        1098        1099        1150        1149
         4        1099        1100        1151        1150
         4        1100        1101        1152        1151
         4        1101        1102        1153        1152
         4        1102        1103        1154        1153
         4        1103        1104        1155        1154
         4        1104        1105        1156        1155
         4        1105        1106        1157        1156
         4        1106        1107        1158        1157
         4        1107        1108        1159        1158
         4        1108        1109        1160        1159
         4        1109        1110        1161        1160
         4        1110        1111        1162        1161
         4        1111        1112        1163        1162
         4        1112        1113        1164        1163
         4        1113        1114        1165        1164
         4        1114        1115        1166        1165
         4        1115        1116        1167        1166
         4        1116        1117        1168        1167
         4        1117        1118        1169        1168
         4        1118        1119        1170        1169
         4        1119        1120        1171        1170
         4        1120        1121        1172        1171
         4        1122        1123        1174        1173
         4        1123        1124        1175        1174
         4        1124        1125        1176        1175
         4        1125        1126        1177        1176
         4        1126        1127        1178        1177
         4        1127        1128        1179        1178
         4        1128        1129        1180        1179
         4        1129        1130        1181        1180
         4        1130        1131        1182        1181
         4        1131        1132        1183        1182
         4        1132        1133        1184        1183
         4        1133        1134        1185        1184
         4        1134        1135        1186        1185
         4        1135        1136        1187        1186
         4        1136        1137        1188        1187
         4        1137        1138        1189        1188
         4        1138        1139        1190        1189
         4        1139        1140        1191        1190
         4        1140        1141        1192        1191
         4        1141        1142        1193        1192
         4        1142        1143        1194        1193
         4        1143        1144        1195        1194
         4        1144        1145        1196        1195
         4        1145        1146        1197        1196
         4        1146        1147        1198        1197
         4        1147        1148        1199        1198
         4        1148        1149        1200        1199
         4        1149        1150        1201        1200
         4        1150        1151        1202        1201
         4        1151        1152        1203        1202
         4        1152        1153        1204        1203
         4        1153        1154        1205        1204
         4        1154        1155        1206        1205
         4        1155        1156        1207        1206
         4        1156        1157        1208        1207
         4        1157        1158        1209        1208
         4        1158        1159        1210        1209
         4        1159        1160        1211        1210
         4        1160        1161        1212        1211
         4        1161        1162        1213        1212
         4        1162        1163        1214        1213
         4        1163        1164        1215        1214
         4        1164        1165        1216        1215
         4        1165        1166        1217        1216
         4        1166        1167        1218        1217
         4        1167        1168        1219        1218
         4        1168        1169        1220        1219
         4        1169        1170        1221        1220
         4        1170        1171        1222        1221
         4        1171        1172        1223        1222
         4        1173        1174        1225        1224
         4        1174        1175        1226        1225
         4        1175        1176        1227        1226
         4        1176        1177        1228        1227
         4        1177        1178        1229        1228
         4        1178        1179        1230        1229
         4        1179        1180        1231        1230
         4        1180        1181        1232        1231
         4        1181        1182        1233        1232
         4        1182        1183        1234        1233
         4        1183        1184        1235        1234
         4        1184        1185        1236        1235
         4        1185        1186        1237        1236
         4        1186        1187        1238        1237
         4        1187        1188        1239        1238
         4        1188        1189        1240        1239
         4        1189        1190        1241        1240
         4        1190        1191        1242        1241
         4        1191        1192        1243        1242
         4        1192        1193        1244        1243
         4        1193        1194        1245        1244
         4        1194        1195        1246        1245
         4        1195        1196        1247        1246
         4        1196        1197        1248        1247
         4        1197        1198        1249        1248
         4        1198        1199        1250        1249
         4        1199        1200        1251        1250
         4        1200        1201        1252        1251
         4        1201        1202        1253        1252
         4        1202        1203        1254        1253
         4        1203        1204        1255        1254
         4        1204        1205        1256        1255
         4        1205        1206        1257        1256
         4        1206        1207        1258        1257
         4        1207        1208        1259        1258
         4        1208        1209        1260        1259
         4        1209        1210        1261        1260
         4        1210        1211        1262        1261
         4        1211        1212        1263        1262
         4        1212        1213        1264        1263
         4        1213        1214        1265        1264
         4        1214        1215        1266        1265
         4        1215        1216        1267        1266
         4        1216        1217        1268        1267
         4        1217        1218        1269        1268
         4        1218        1219        1270        1269
         4        1219        1220        1271        1270
         4        1220        1221        1272        1271
         4        1221        1222        1273        1272
         4        1222        1223        1274        1273
         4        1224        1225        1276        1275
         4        1225        1226        1277        1276
         4        1226        1227        1278        1277
         4        1227        1228        1279        1278
         4        1228        1229        1280        1279
         4        1229        1230        1281        1280
         4        1230        1231        1282        1281
         4        1231        1232        1283        1282
         4        1232        1233        1284        1283
         4        1233        1234        1285        1284
         4        1234        1235        1286        1285
         4        1235        1236        1287        1286
         4        1236        1237        1288        1287
         4        1237        1238        1289        1288
         4        1238        1239        1290        1289
         4        1239        1240        1291        1290
         4        1240        1241        1292        1291
         4        1241        1242        1293        1292
         4        1242        1243        1294        1293
         4        1243        1244        1295        1294
         4        1244        1245        1296        1295
         4        1245        1246        1297        1296
         4        1246        1247        1298        1297
         4        1247        1248        1299        1298
         4        1248        1249        1300        1299
         4        1249        1250        1301        1300
         4        1250        1251        1302        1301
         4        1251        1252        1303        1302
         4        1252        1253        1304        1303
         4        1253        1254        1305        1304
         4        1254        1255        1306        1305
         4        1255        1256        1307        1306
         4        1256        1257        1308        1307
         4        1257        1258        1309        1308
         4        1258        1259        1310        1309
         4        1259        1260        1311        1310
         4        1260        1261        1312        1311
         4        1261        1262        1313        1312
         4        1262        1263        1314        1313
         4        1263        1264        1315        1314
         4        1264        1265        1316        1315
         4        1265        1266        1317        1316
         4        1266        1267        1318        1317
         4        1267        1268        1319        1318
         4        1268        1269        1320        1319
         4        1269        1270        1321        1320
         4        1270        1271        1322        1321
         4        1271        1272        1323        1322
         4        1272        1273        1324        1323
         4        1273        1274        1325        1324
         4        1275        1276        1327        1326
         4        1276        1277        1328        1327
         4        1277        1278        1329        1328
         4        1278        1279        1330        1329
         4        1279        1280        1331        1330
         4        1280        1281        1332        1331
         4        1281        1282        1333        1332
         4        1282        1283        1334        1333
         4        1283        1284        1335        1334
         4        1284        1285        1336        1335
         4        1285        1286        1337        1336
         4        1286        1287        1338        1337
         4        1287        1288        1339        1338
         4        1288        1289        1340        1339
         4        1289        1290        1341        1340
         4        1290        1291        1342        1341
         4        1291        1292        1343        1342
         4        1292        1293        1344        1343
         4        1293        1294        1345        1344
         4        1294        1295        1346        1345
         4        1295        1296        1347        1346
         4        1296        1297        1348        1347
         4        1297        1298        1349        1348
         4        1298        1299        1350        1349
         4        1299        1300        1351        1350
         4        1300        1301        1352        1351
         4        1301        1302        1353        1352
         4        1302        1303        1354        1353
         4        1303        1304        1355        1354
         4        1304        1305        1356        1355
         4        1305        1306        1357        1356
         4        1306        1307        1358        1357
         4        1307        1308        1359        1358
         4        1308        1309        1360        1359
         4        1309        1310        1361        1360
         4        1310        1311        1362        1361
         4        1311        1312        1363        1362
         4        1312        1313        1364        1363
         4        1313        1314        1365        1364
         4        1314        1315        1366        1365
         4        1315        1316        1367        1366
         4        1316        1317        1368        1367
         4        1317        1318        1369        1368
         4        1318        1319        1370        1369
         4        1319        1320        1371        1370
         4        1320        1321        1372        1371
         4        1321        1322        1373        1372
         4        1322        1323        1374        1373
         4        1323        1324        1375        1374
         4        1324        1325        1376        1375
         4        1326        1327        1378        1377
         4        1327        1328        1379        1378
         4        1328        1329        1380        1379
         4        1329        1330        1381        1380
         4        1330        1331        1382        1381
         4        1331        1332        1383        1382
         4        1332        1333        1384        1383
         4        1333        1334        1385        1384
         4        1334        1335        1386        1385
         4        1335        1336        1387        1386
         4        1336        1337        1388        1387
         4        1337        1338        1389        1388
         4        1338        1339        1390        1389
         4        1339        1340        1391        1390
         4        1340        1341        1392        1391
         4        1341        1342        1393        1392
         4        1342        1343        1394        1393
         4        1343        1344        1395        1394
         4        1344        1345        1396        1395
         4        1345        1346        1397        1396
         4        1346        1347        1398        1397
         4        1347        1348        1399        1398
         4        1348        1349        1400        1399
         4        1349        1350        1401        1400
         4        1350        1351        1402        1401
         4        1351        1352        1403        1402
         4        1352        1353        1404        1403
         4        1353        1354        1405        1404
         4        1354        1355        1406        1405
         4        1355        1356        1407        1406
         4        1356        1357        1408        1407
         4        1357        1358        1409        1408
         4        1358        1359        1410        1409
         4        1359        1360        1411        1410
         4        1360        1361        1412        1411
         4        1361        1362        1413        1412
         4        1362        1363        1414        1413
         4        1363        1364        1415        1414
         4        1364        1365        1416        1415
         4        1365        1366        1417        1416
         4        1366        1367        1418        1417
         4        1367        1368        1419        1418
         4        1368        1369        1420        1419
         4        1369        1370        1421        1420
         4        1370        1371        1422        1421
         4        1371        1372        1423        1422
         4        1372        1373        1424        1423
         4        1373        1374        1425        1424
         4        1374        1375        1426        1425
         4        1375        1376        1427        1426
         4        1377        1378        1429        1428
         4        1378        1379        1430        1429
         4        1379        1380        1431        1430
         4        1380        1381        1432        1431
         4        1381        1382        1433        1432
         4        1382        1383        1434        1433
         4        1383        1384        1435        1434
         4        1384        1385        1436        1435
         4        1385        1386        1437        1436
         4        1386        1387        1438        1437
         4        1387        1388        1439        1438
         4        1388        1389        1440        1439
         4        1389        1390        1441        1440
         4        1390        1391        1442        1441
         4        1391        1392        1443        1442
         4        1392        1393        1444        1443
         4        1393        1394        1445        1444
         4        1394        1395        1446        1445
         4        1395        1396        1447        1446
         4        1396        1397        1448        1447
         4        1397        1398        1449        1448
         4        1398        1399        1450        1449
         4        1399        1400        1451        1450
         4        1400        1401        1452        1451
         4        1401        1402        1453        1452
         4        1402        1403        1454        1453
         4        1403        1404        1455        1454
         4        1404        1405        1456        1455
         4        1405        1406        1457        1456
         4        1406        1407        1458        1457
         4        1407        1408        1459        1458
         4        1408        1409        1460        1459
         4        1409        1410        1461        1460
         4        1410        1411        1462        1461
         4        1411        1412        1463        1462
         4        1412        1413        1464        1463
         4        1413        1414        1465        1464
         4        1414        1415        1466        1465
         4        1415        1416        1467        1466
         4        1416        1417        1468        1467
         4        1417        1418        1469        1468
         4        1418        1419        1470        1469
         4        1419        1420        1471        1470
         4        1420        1421        1472        1471
         4        1421        1422        1473        1472
         4        1422        1423        1474        1473
         4        1423        1424        1475        1474
         4        1424        1425        1476        1475
         4        1425        1426        1477        1476
         4        1426        1427        1478        1477
         4        1428        1429        1480        1479
         4        1429        1430        1481        1480
         4        1430        1431        1482        1481
         4        1431        1432        1483        1482
         4        1432        1433        1484        1483
         4        1433        1434        1485        1484
         4        1434        1435        1486        1485
         4        1435        1436        1487        1486
         4        1436        1437        1488        1487
         4        1437        1438        1489        1488
         4        1438        1439        1490        1489
         4        1439        1440        1491        1490
         4        1440        1441        1492        1491
         4        1441        1442        1493        1492
         4        1442        1443        1494        1493
         4        1443        1444        1495        1494
         4        1444        1445        1496        1495
         4        1445        1446        1497        1496
         4        1446        1447        1498        1497
         4        1447        1448        1499        1498
         4        1448        1449        1500        1499
         4        1449        1450        1501        1500
         4        1450        1451        1502        1501
         4        1451        1452        1503        1502
         4        1452        1453        1504        1503
         4        1453        1454        1505        1504
         4        1454        1455        1506        1505
         4        1455        1456        1507        1506
         4        1456        1457        1508        1507
         4        1457        1458        1509        1508
         4        1458        1459        1510        1509
         4        1459        1460        1511        1510
         4        1460        1461        1512        1511
         4        1461        1462        1513        1512
         4        1462        1463        1514        1513
         4        1463        1464        1515        1514
         4        1464        1465        1516        1515
         4        1465        1466        1517        1516
         4        1466        1467        1518        1517
         4        1467        1468        1519        1518
         4        1468        1469        1520        1519
         4        1469        1470        1521        1520
         4        1470        1471        1522        1521
         4        1471        1472        1523        1522
         4        1472        1473        1524        1523
         4        1473        1474        1525        1524
         4        1474        1475        1526        1525
         4        1475        1476        1527        1526
         4        1476        1477        1528        1527
         4        1477        1478        1529        1528
         4        1479        1480        1531        1530
         4        1480        1481        1532        1531
         4        1481        1482        1533        1532
         4        1482        1483        1534        1533
         4        1483        1484        1535        1534
         4        1484        1485        1536        1535
         4        1485        1486        1537        1536
         4        1486        1487        1538        1537
         4        1487        1488        1539        1538
         4        1488        1489        1540        1539
         4        1489        1490        1541        1540
         4        1490        1491        1542        1541
         4        1491        1492        1543        1542
         4        1492        1493        1544        1543
         4        1493        1494        1545        1544
         4        1494        1495        1546        1545
         4        1495        1496        1547        1546
         4        1496        1497        1548        1547
         4        1497        1498        1549        1548
         4        1498        1499        1550        1549
         4        1499        1500        1551        1550
         4        1500        1501        1552        1551
         4        1501        1502        1553        1552
         4        1502        1503        1554        1553
         4        1503        1504        1555        1554
         4        1504        1505        1556        1555
         4        1505        1506        1557        1556
         4        1506        1507        1558        1557
         4        1507        1508        1559        1558
         4        1508        1509        1560        1559
         4        1509        1510        1561        1560
         4        1510        1511        1562        1561
         4        1511        1512        1563        1562
         4        1512        1513        1564        1563
         4        1513        1514        1565        1564
         4        1514        1515        1566        1565
         4        1515        1516        1567        1566
         4        1516        1517        1568        1567
         4        1517        1518        1569        1568
         4        1518        1519        1570        1569
         4        1519        1520        1571        1570
         4        1520        1521        1572        1571
         4        1521        1522        1573        1572
         4        1522        1523        1574        1573
         4        1523        1524        1575        1574
         4        1524        1525        1576        1575
         4        1525        1526        1577        1576
         4        1526        1527        1578        1577
         4        1527        1528        1579        1578
         4        1528        1529        1580        1579
         4        1530        1531        1582        1581
         4        1531        1532        1583        1582
         4        1532        1533        1584        1583
         4        1533        1534        1585        1584
         4        1534        1535        1586        1585
         4        1535        1536        1587        1586
         4        1536        1537        1588        1587
         4        1537        1538        1589        1588
         4        1538        1539        1590        1589
         4        1539        1540        1591        1590
         4        1540        1541        1592        1591
         4        1541        1542        1593        1592
         4        1542        1543        1594        1593
         4        1543        1544        1595        1594
         4        1544        1545        1596        1595
         4        1545        1546        1597        1596
         4        1546        1547        1598        1597
         4        1547        1548        1599        1598
         4        1548        1549        1600        1599
         4        1549        1550        1601        1600
         4        1550        1551        1602        1601
         4        1551        1552        1603        1602
         4        1552        1553        1604        1603
         4        1553        1554        1605        1604
         4        1554        1555        1606        1605
         4        1555        1556        1607        1606
         4        1556        1557        1608        1607
         4        1557        1558        1609        1608
         4        1558        1559        1610        1609
         4        1559        1560        1611        1610
         4        1560        1561        1612        1611
         4        1561        1562        1613        1612
         4        1562        1563        1614        1613
         4        1563        1564        1615        1614
         4        1564        1565        1616        1615
         4        1565        1566        1617        1616
         4        1566        1567        1618        1617
         4        1567        1568        1619        1618
         4        1568        1569        1620        1619
         4        1569        1570        1621        1620
         4        1570        1571        1622        1621
         4        1571        1572        1623        1622
         4        1572        1573        1624        1623
         4        1573        1574        1625        1624
         4        1574        1575        1626        1625
         4        1575        1576        1627        1626
         4        1576        1577        1628        1627
         4        1577        1578        1629        1628
         4        1578        1579        1630        1629
         4        1579        1580        1631        1630
         4        1581        1582        1633        1632
         4        1582        1583        1634        1633
         4        1583        1584        1635        1634
         4        1584        1585        1636        1635
         4        1585        1586        1637        1636
         4        1586        1587        1638        1637
         4        1587        1588        1639        1638
         4        1588        1589        1640        1639
         4        1589        1590        1641        1640
         4        1590        1591        1642        1641
         4        1591        1592        1643        1642
         4        1592        1593        1644        1643
         4        1593        1594        1645        1644
         4        1594        1595        1646        1645
         4        1595        1596        1647        1646
         4        1596        1597        1648        1647
         4        1597        1598        1649        1648
         4        1598        1599        1650        1649
         4        1599        1600        1651        1650
         4        1600        1601        1652        1651
         4        1601        1602        1653        1652
         4        1602        1603        1654        1653
         4        1603        1604        1655        1654
         4        1604        1605        1656        1655
         4        1605        1606        1657        1656
         4        1606        1607        1658        1657
         4        1607        1608        1659        1658
         4        1608        1609        1660        1659
         4        1609        1610        1661        1660
         4        1610        1611        1662        1661
         4        1611        1612        1663        1662
         4        1612        1613        1664        1663
         4        1613        1614        1665        1664
         4        1614        1615        1666        1665
         4        1615        1616        1667        1666
         4        1616        1617        1668        1667
         4        1617        1618        1669        1668
         4        1618        1619        1670        1669
         4        1619        1620        1671        1670
         4        1620        1621        1672        1671
         4        1621        1622        1673        1672
         4        1622        1623        1674        1673
         4        1623        1624        1675        1674
         4        1624        1625        1676        1675
         4        1625        1626        1677        1676
         4        1626        1627        1678        1677
         4        1627        1628        1679        1678
         4        1628        1629        1680        1679
         4        1629        1630        1681        1680
         4        1630        1631        1682        1681
         4        1632        1633        1684        1683
         4        1633        1634        1685        1684
         4        1634        1635        1686        1685
         4        1635        1636        1687        1686
         4        1636        1637        1688        1687
         4        1637        1638        1689        1688
         4        1638        1639        1690        1689
         4        1639        1640        1691        1690
         4        1640        1641        1692        1691
         4        1641        1642        1693        1692
         4        1642        1643        1694        1693
         4        1643        1644        1695        1694
         4        1644        1645        1696        1695
         4        1645        1646        1697        1696
         4        1646        1647        1698        1697
         4        1647        1648        1699        1698
         4        1648        1649        1700        1699
         4        1649        1650        1701        1700
         4        1650        1651        1702        1701
         4        1651        1652        1703        1702
         4        1652        1653        1704        1703
         4        1653        1654        1705        1704
         4        1654        1655        1706        1705
         4        1655        1656        1707        1706
         4        1656        1657        1708        1707
         4        1657        1658        1709        1708
         4        1658        1659        1710        1709
         4        1659        1660        1711        1710
         4        1660        1661        1712        1711
         4        1661        1662        1713        1712
         4        1662        1663        1714        1713
         4        1663        1664        1715        1714
         4        1664        1665        1716        1715
         4        1665        1666        1717        1716
         4        1666        1667        1718        1717
         4        1667        1668        1719        1718
         4        1668        1669        1720        1719
         4        1669        1670        1721        1720
         4        1670        1671        1722        1721
         4        1671        1672        1723        1722
         4        1672        1673        1724        1723
         4        1673        1674        1725        1724
         4        1674        1675        1726        1725
         4        1675        1676        1727        1726
         4        1676        1677        1728        1727
         4        1677        1678        1729        1728
         4        1678        1679        1730        1729
         4        1679        1680        1731        1730
         4        1680        1681        1732        1731
         4        1681        1682        1733        1732
         4        1683        1684        1735        1734
         4        1684        1685        1736        1735
         4        1685        1686        1737        1736
         4        1686        1687        1738        1737
         4        1687        1688        1739        1738
         4        1688        1689        1740        1739
         4        1689        1690        1741        1740
         4        1690        1691        1742        1741
         4        1691        1692        1743        1742
         4        1692        1693        1744        1743
         4        1693        1694        1745        1744
         4        1694        1695        1746        1745
         4        1695        1696        1747        1746
         4        1696        1697        1748        1747
         4        1697        1698        1749        1748
         4        1698        1699        1750        1749
         4        1699        1700        1751        1750
         4        1700        1701        1752        1751
         4        1701        1702        1753        1752
         4        1702        1703        1754        1753
         4        1703        1704        1755        1754
         4        1704        1705        1756        1755
         4        1705        1706        1757        1756
         4        1706        1707        1758        1757
         4        1707        1708        1759        1758
         4        1708        1709        1760        1759
         4        1709        1710        1761        1760
         4        1710        1711        1762        1761
         4        1711        1712        1763        1762
         4        1712        1713        1764        1763
         4        1713        1714        1765        1764
         4        1714        1715        1766        1765
         4        1715        1716        1767        1766
         4        1716        1717        1768        1767
         4        1717        1718        1769        1768
         4        1718        1719        1770        1769
         4        1719        1720        1771        1770
         4        1720        1721        1772        1771
         4        1721        1722        1773        1772
         4        1722        1723        1774        1773
         4        1723        1724        1775        1774
         4        1724        1725        1776        1775
         4        1725        1726        1777        1776
         4        1726        1727        1778        1777
         4        1727        1728        1779        1778
         4        1728        1729        1780        1779
         4        1729        1730        1781        1780
         4        1730        1731        1782        1781
         4        1731        1732        1783        1782
         4        1732        1733        1784        1783
         4        1734        1735        1786        1785
         4        1735        1736        1787        1786
         4        1736        1737        1788        1787
         4        1737        1738        1789        1788
         4        1738        1739        1790        1789
         4        1739        1740        1791        1790
         4        1740        1741        1792        1791
         4        1741        1742        1793        1792
         4        1742        1743        1794        1793
         4        1743        1744        1795        1794
         4        1744        1745        1796        1795
         4        1745        1746        1797        1796
         4        1746        1747        1798        1797
         4        1747        1748        1799        1798
         4        1748        1749        1800        1799
         4        1749        1750        1801        1800
         4        1750        1751        1802        1801
         4        1751        1752        1803        1802
         4        1752        1753        1804        1803
         4        1753        1754        1805        1804
         4        1754        1755        1806        1805
         4        1755        1756        1807        1806
         4        1756        1757        1808        1807
         4        1757        1758        1809        1808
         4        1758        1759        1810        1809
         4        1759        1760        1811        1810
         4        1760        1761        1812        1811
         4        1761        1762        1813        1812
         4        1762        1763        1814        1813
         4        1763        1764        1815        1814
         4        1764        1765        1816        1815
         4        1765        1766        1817        1816
         4        1766        1767        1818        1817
         4        1767        1768        1819        1818
         4        1768        1769        1820        1819
         4        1769        1770        1821        1820
         4        1770        1771        1822        1821
         4        1771        1772        1823        1822
         4        1772        1773        1824        1823
         4        1773        1774        1825        1824
         4        1774        1775        1826        1825
         4        1775        1776        1827        1826
         4        1776        1777        1828        1827
         4        1777        1778        1829        1828
         4        1778        1779        1830        1829
         4        1779        1780        1831        1830
         4        1780        1781        1832        1831
         4        1781        1782        1833        1832
         4        1782        1783        1834        1833
         4        1783        1784        1835        1834
         4        1785        1786        1837        1836
         4        1786        1787        1838        1837
         4        1787        1788        1839        1838
         4        1788        1789        1840        1839
         4        1789        1790        1841        1840
         4        1790        1791        1842        1841
         4        1791        1792        1843        1842
         4        1792        1793        1844        1843
         4        1793        1794        1845        1844
         4        1794        1795        1846        1845
         4        1795        1796        1847        1846
         4        1796        1797        1848        1847
         4        1797        1798        1849        1848
         4        1798        1799        1850        1849
         4        1799        1800        1851        1850
         4        1800        1801        1852        1851
         4        1801        1802        1853        1852
         4        1802        1803        1854        1853
         4        1803        1804        1855        1854
         4        1804        1805        1856        1855
         4        1805        1806        1857        1856
         4        1806        1807        1858        1857
         4        1807        1808        1859        1858
         4        1808        1809        1860        1859
         4        1809        1810        1861        1860
         4        1810        1811        1862        1861
         4        1811        1812        1863        1862
         4        1812        1813        1864        1863
         4        1813        1814        1865        1864
         4        1814        1815        1866        1865
         4        1815        1816        1867        1866
         4        1816        1817        1868        1867
         4        1817        1818        1869        1868
         4        1818        1819        1870        1869
         4        1819        1820        1871        1870
         4        1820        1821        1872        1871
         4        1821        1822        1873        1872
         4        1822        1823        1874        1873
         4        1823        1824        1875        1874
         4        1824        1825        1876        1875
         4        1825        1826        1877        1876
         4        1826        1827        1878        1877
         4        1827        1828        1879        1878
         4        1828        1829        1880        1879
         4        1829        1830        1881        1880
         4        1830        1831        1882        1881
         4        1831        1832        1883        1882
         4        1832        1833        1884        1883
         4        1833        1834        1885        1884
         4        1834        1835        1886        1885
         4        1836        1837        1888        1887
         4        1837        1838        1889        1888
         4        1838        1839        1890        1889
         4        1839        1840        1891        1890
         4        1840        1841        1892        1891
         4        1841        1842        1893        1892
         4        1842        1843        1894        1893
         4        1843        1844        1895        1894
         4        1844        1845        1896        1895
         4        1845        1846        1897        1896
         4        1846        1847        1898        1897
         4        1847        1848        1899        1898
         4        1848        1849        1900        1899
         4        1849        1850        1901        1900
         4        1850        1851        1902        1901
         4        1851        1852        1903        1902
         4        1852        1853        1904        1903
         4        1853        1854        1905        1904
         4        1854        1855        1906        1905
         4        1855        1856        1907        1906
         4        1856        1857        1908        1907
         4        1857        1858        1909        1908
         4        1858        1859        1910        1909
         4        1859        1860        1911        1910
         4        1860        1861        1912        1911
         4        1861        1862        1913        1912
         4        1862        1863        1914        1913
         4        1863        1864        1915        1914
         4        1864        1865        1916        1915
         4        1865        1866        1917        1916
         4        1866        1867        1918        1917
         4        1867        1868        1919        1918
         4        1868        1869        1920        1919
         4        1869        1870        1921        1920
         4        1870        1871        1922        1921
         4        1871        1872        1923        1922
         4        1872        1873        1924        1923
         4        1873        1874        1925        1924
         4        1874        1875        1926        1925
         4        1875        1876        1927        1926
         4        1876        1877        1928        1927
         4        1877        1878        1929        1928
         4        1878        1879        1930        1929
         4        1879        1880        1931        1930
         4        1880        1881        1932        1931
         4        1881        1882        1933        1932
         4        1882        1883        1934        1933
         4        1883        1884        1935        1934
         4        1884        1885        1936        1935
         4        1885        1886        1937        1936
         4        1887        1888        1939        1938
         4        1888        1889        1940        1939
         4        1889        1890        1941        1940
         4        1890        1891        1942        1941
         4        1891        1892        1943        1942
         4        1892        1893        1944        1943
         4        1893        1894        1945        1944
         4        1894        1895        1946        1945
         4        1895        1896        1947        1946
         4        1896        1897        1948        1947
         4        1897        1898        1949        1948
         4        1898        1899        1950        1949
         4        1899        1900        1951        1950
         4        1900        1901        1952        1951
         4        1901        1902        1953        1952
         4        1902        1903        1954        1953
         4        1903        1904        1955        1954
         4        1904        1905        1956        1955
         4        1905        1906        1957        1956
         4        1906        1907        1958        1957
         4        1907        1908        1959        1958
         4        1908        1909        1960        1959
         4        1909        1910        1961        1960
         4        1910        1911        1962        1961
         4        1911        1912        1963        1962
         4        1912        1913        1964        1963
         4        1913        1914        1965        1964
         4        1914        1915        1966        1965
         4        1915        1916        1967        1966
         4        1916        1917        1968        1967
         4        1917        1918        1969        1968
         4        1918        1919        1970        1969
         4        1919        1920        1971        1970
         4        1920        1921        1972        1971
         4        1921        1922        1973        1972
         4        1922        1923        1974        1973
         4        1923        1924        1975        1974
         4        1924        1925        1976        1975
         4        1925        1926        1977        1976
         4        1926        1927        1978        1977
         4        1927        1928        1979        1978
         4        1928        1929        1980        1979
         4        1929        1930        1981        1980
         4        1930        1931        1982        1981
         4        1931        1932        1983        1982
         4        1932        1933        1984        1983
         4        1933        1934        1985        1984
         4        1934        1935        1986        1985
         4        1935        1936        1987        1986
         4        1936        1937        1988        1987
         4        1938        1939        1990        1989
         4        1939        1940        1991        1990
         4        1940        1941        1992        1991
         4        1941        1942        1993        1992
         4        1942        1943        1994        1993
         4        1943        1944        1995        1994
         4        1944        1945        1996        1995
         4        1945        1946        1997        1996
         4        1946        1947        1998        1997
         4        1947        1948        1999        1998
         4        1948        1949        2000        1999
         4        1949        1950        2001        2000
         4        1950        1951        2002        2001
         4        1951        1952        2003        2002
         4        1952        1953        2004        2003
         4        1953        1954        2005        2004
         4        1954        1955        2006        2005
         4        1955        1956        2007        2006
         4        1956        1957        2008        2007
         4        1957        1958        2009        2008
         4        1958        1959        2010        2009
         4        1959        1960        2011        2010
         4        1960        1961        2012        2011
         4        1961        1962        2013        2012
         4        1962        1963        2014        2013
         4        1963        1964        2015        2014
         4        1964        1965        2016        2015
         4        1965        1966        2017        2016
         4        1966        1967        2018        2017
         4        1967        1968        2019        2018
         4        1968        1969        2020        2019
         4        1969        1970        2021        2020
         4        1970        1971        2022        2021
         4        1971        1972        2023        2022
         4        1972        1973        2024        2023
         4        1973        1974        2025        2024
         4        1974        1975        2026        2025
         4        1975        1976        2027        2026
         4        1976        1977        2028        2027
         4        1977        1978        2029        2028
         4        1978        1979        2030        2029
         4        1979        1980        2031        2030
         4        1980        1981        2032        2031
         4        1981        1982        2033        2032
         4        1982        1983        2034        2033
         4        1983        1984        2035        2034
         4        1984        1985        2036        2035
         4        1985        1986        2037        2036
         4        1986        1987        2038        2037
         4        1987        1988        2039        2038
         4        1989        1990        2041        2040
         4        1990        1991        2042        2041
         4        1991        1992        2043        2042
         4        1992        1993        2044        2043
         4        1993        1994        2045        2044
         4        1994        1995        2046        2045
         4        1995        1996        2047        2046
         4        1996        1997        2048        2047
         4        1997        1998        2049        2048
         4        1998        1999        2050        2049
         4        1999        2000        2051        2050
         4        2000        2001        2052        2051
         4        2001        2002        2053        2052
         4        2002        2003        2054        2053
         4        2003        2004        2055        2054
         4        2004        2005        2056        2055
         4        2005        2006        2057        2056
         4        2006        2007        2058        2057
         4        2007        2008        2059        2058
         4        2008        2009        2060        2059
         4        2009        2010        2061        2060
         4        2010        2011        2062        2061
         4        2011        2012        2063        2062
         4        2012        2013        2064        2063
         4        2013        2014        2065        2064
         4        2014        2015        2066        2065
         4        2015        2016        2067        2066
         4        2016        2017        2068        2067
         4        2017        2018        2069        2068
         4        2018        2019        2070        2069
         4        2019        2020        2071        2070
         4        2020        2021        2072        2071
         4        2021        2022        2073        2072
         4        2022        2023        2074        2073
         4        2023        2024        2075        2074
         4        2024        2025        2076        2075
         4        2025        2026        2077        2076
         4        2026        2027        2078        2077
         4        2027        2028        2079        2078
         4        2028        2029        2080        2079
         4        2029        2030        2081        2080
         4        2030        2031        2082        2081
         4        2031        2032        2083        2082
         4        2032        2033        2084        2083
         4        2033        2034        2085        2084
         4        2034        2035        2086        2085
         4        2035        2036        2087        2086
         4        2036        2037        2088        2087
         4        2037        2038        2089        2088
         4        2038        2039        2090        2089
         4        2040        2041        2092        2091
         4        2041        2042        2093        2092
         4        2042        2043        2094        2093
         4        2043        2044        2095        2094
         4        2044        2045        2096        2095
         4        2045        2046        2097        2096
         4        2046        2047        2098        2097
         4        2047        2048        2099        2098
         4        2048        2049        2100        2099
         4        2049        2050        2101        2100
         4        2050        2051        2102        2101
         4        2051        2052        2103        2102
         4        2052        2053        2104        2103
         4        2053        2054        2105        2104
         4        2054        2055        2106        2105
         4        2055        2056        2107        2106
         4        2056        2057        2108        2107
         4        2057        2058        2109        2108
         4        2058        2059        2110        2109
         4        2059        2060        2111        2110
         4        2060        2061        2112        2111
         4        2061        2062        2113        2112
         4        2062        2063        2114        2113
         4        2063        2064        2115        2114
         4        2064        2065        2116        2115
         4        2065        2066        2117        2116
         4        2066        2067        2118        2117
         4        2067        2068        2119        2118
         4        2068        2069        2120        2119
         4        2069        2070        2121        2120
         4        2070        2071        2122        2121
         4        2071        2072        2123        2122
         4        2072        2073        2124        2123
         4        2073        2074        2125        2124
         4        2074        2075        2126        2125
         4        2075        2076        2127        2126
         4        2076        2077        2128        2127
         4        2077        2078        2129        2128
         4        2078        2079        2130        2129
         4        2079        2080        2131        2130
         4        2080        2081        2132        2131
         4        2081        2082        2133        2132
         4        2082        2083        2134        2133
         4        2083        2084        2135        2134
         4        2084        2085        2136        2135
         4        2085        2086        2137        2136
         4        2086        2087        2138        2137
         4        2087        2088        2139        2138
         4        2088        2089        2140        2139
         4        2089        2090        2141        2140
         4        2091        2092        2143        2142
         4        2092        2093        2144        2143
         4        2093        2094        2145        2144
         4        2094        2095        2146        2145
         4        2095        2096        2147        2146
         4        2096        2097        2148        2147
         4        2097        2098        2149        2148
         4        2098        2099        2150        2149
         4        2099        2100        2151        2150
         4        2100        2101        2152        2151
         4        2101        2102        2153        2152
         4        2102        2103        2154        2153
         4        2103        2104        2155        2154
         4        2104        2105        2156        2155
         4        2105        2106        2157        2156
         4        2106        2107        2158        2157
         4        2107        2108        2159        2158
         4        2108        2109        2160        2159
         4        2109        2110        2161        2160
         4        2110        2111        2162        2161
         4        2111        2112        2163        2162
         4        2112        2113        2164        2163
         4        2113        2114        2165        2164
         4        2114        2115        2166        2165
         4        2115        2116        2167        2166
         4        2116        2117        2168        2167
         4        2117        2118        2169        2168
         4        2118        2119        2170        2169
         4        2119        2120        2171        2170
         4        2120        2121        2172        2171
         4        2121        2122        2173        2172
         4        2122        2123        2174        2173
         4        2123        2124        2175        2174
         4        2124        2125        2176        2175
         4        2125        2126        2177        2176
         4        2126        2127        2178        2177
         4        2127        2128        2179        2178
         4        2128        2129        2180        2179
         4        2129        2130        2181        2180
         4        2130        2131        2182        2181
         4        2131        2132        2183        2182
         4        2132        2133        2184        2183
         4        2133        2134        2185        2184
         4        2134        2135        2186        2185
         4        2135        2136        2187        2186
         4        2136        2137        2188        2187
         4        2137        2138        2189        2188
         4        2138        2139        2190        2189
         4        2139        2140        2191        2190
         4        2140        2141        2192        2191
         4        2142        2143        2194        2193
         4        2143        2144        2195        2194
         4        2144        2145        2196        2195
         4        2145        2146        2197        2196
         4        2146        2147        2198        2197
         4        2147        2148        2199        2198
         4        2148        2149        2200        2199
         4        2149        2150        2201        2200
         4        2150        2151        2202        2201
         4        2151        2152        2203        2202
         4        2152        2153        2204        2203
         4        2153        2154        2205        2204
         4        2154        2155        2206        2205
         4        2155        2156        2207        2206
         4        2156        2157        2208        2207
         4        2157        2158        2209        2208
         4        2158        2159        2210        2209
         4        2159        2160        2211        2210
         4        2160        2161        2212        2211
         4        2161        2162        2213        2212
         4        2162        2163        2214        2213
         4        2163        2164        2215        2214
         4        2164        2165        2216        2215
         4        2165        2166        2217        2216
         4        2166        2167        2218        2217
         4        2167        2168        2219        2218
         4        2168        2169        2220        2219
         4        2169        2170        2221        2220
         4        2170        2171        2222        2221
         4        2171        2172        2223        2222
         4        2172        2173        2224        2223
         4        2173        2174        2225        2224
         4        2174        2175        2226        2225
         4        2175        2176        2227        2226
         4        2176        2177        2228        2227
         4        2177        2178        2229        2228
         4        2178        2179        2230        2229
         4        2179        2180        2231        2230
         4        2180        2181        2232        2231
         4        2181        2182        2233        2232
         4        2182        2183        2234        2233
         4        2183        2184        2235        2234
         4        2184        2185        2236        2235
         4        2185        2186        2237        2236
         4        2186        2187        2238        2237
         4        2187        2188        2239        2238
         4        2188        2189        2240        2239
         4        2189        2190        2241        2240
         4        2190        2191        2242        2241
         4        2191        2192        2243        2242
         4        2193        2194        2245        2244
         4        2194        2195        2246        2245
         4        2195        2196        2247        2246
         4        2196        2197        2248        2247
         4        2197        2198        2249        2248
         4        2198        2199        2250        2249
         4        2199        2200        2251        2250
         4        2200        2201        2252        2251
         4        2201        2202        2253        2252
         4        2202        2203        2254        2253
         4        2203        2204        2255        2254
         4        2204        2205        2256        2255
         4        2205        2206        2257        2256
         4        2206        2207        2258        2257
         4        2207        2208        2259        2258
         4        2208        2209        2260        2259
         4        2209        2210        2261        2260
         4        2210        2211        2262        2261
         4        2211        2212        2263        2262
         4        2212        2213        2264        2263
         4        2213        2214        2265        2264
         4        2214        2215        2266        2265
         4        2215        2216        2267        2266
         4        2216        2217        2268        2267
         4        2217        2218        2269        2268
         4        2218        2219        2270        2269
         4        2219        2220        2271        2270
         4        2220        2221        2272        2271
         4        2221        2222        2273        2272
         4        2222        2223        2274        2273
         4        2223        2224        2275        2274
         4        2224        2225        2276        2275
         4        2225        2226        2277        2276
         4        2226        2227        2278        2277
         4        2227        2228        2279        2278
         4        2228        2229        2280        2279
         4        2229        2230        2281        2280
         4        2230        2231        2282        2281
         4        2231        2232        2283        2282
         4        2232        2233        2284        2283
         4        2233        2234        2285        2284
         4        2234        2235        2286        2285
         4        2235        2236        2287        2286
         4        2236        2237        2288        2287
         4        2237        2238        2289        2288
         4        2238        2239        2290        2289
         4        2239        2240        2291        2290
         4        2240        2241        2292        2291
         4        2241        2242        2293        2292
         4        2242        2243        2294        2293
         4        2244        2245        2296        2295
         4        2245        2246        2297        2296
         4        2246        2247        2298        2297
         4        2247        2248        2299        2298
         4        2248        2249        2300        2299
         4        2249        2250        2301        2300
         4        2250        2251        2302        2301
         4        2251        2252        2303        2302
         4        2252        2253        2304        2303
         4        2253        2254        2305        2304
         4        2254        2255        2306        2305
         4        2255        2256        2307        2306
         4        2256        2257        2308        2307
         4        2257        2258        2309        2308
         4        2258        2259        2310        2309
         4        2259        2260        2311        2310
         4        2260        2261        2312        2311
         4        2261        2262        2313        2312
         4        2262        2263        2314        2313
         4        2263        2264        2315        2314
         4        2264        2265        2316        2315
         4        2265        2266        2317        2316
         4        2266        2267        2318        2317
         4        2267        2268        2319        2318
         4        2268        2269        2320        2319
         4        2269        2270        2321        2320
         4        2270        2271        2322        2321
         4        2271        2272        2323        2322
         4        2272        2273        2324        2323
         4        2273        2274        2325        2324
         4        2274        2275        2326        2325
         4        2275        2276        2327        2326
         4        2276        2277        2328        2327
         4        2277        2278        2329        2328
         4        2278        2279        2330        2329
         4        2279        2280        2331        2330
         4        2280        2281        2332        2331
         4        2281        2282        2333        2332
         4        2282        2283        2334        2333
         4        2283        2284        2335        2334
         4        2284        2285        2336        2335
         4        2285        2286        2337        2336
         4        2286        2287        2338        2337
         4        2287        2288        2339        2338
         4        2288        2289        2340        2339
         4        2289        2290        2341        2340
         4        2290        2291        2342        2341
         4        2291        2292        2343        2342
         4        2292        2293        2344        2343
         4        2293        2294        2345        2344
         4        2295        2296        2347        2346
         4        2296        2297        2348        2347
         4        2297        2298        2349        2348
         4        2298        2299        2350        2349
         4        2299        2300        2351        2350
         4        2300        2301        2352        2351
         4        2301        2302        2353        2352
         4        2302        2303        2354        2353
         4        2303        2304        2355        2354
         4        2304        2305        2356        2355
         4        2305        2306        2357        2356
         4        2306        2307        2358        2357
         4        2307        2308        2359        2358
         4        2308        2309        2360        2359
         4        2309        2310        2361        2360
         4        2310        2311        2362        2361
         4        2311        2312        2363        2362
         4        2312        2313        2364        2363
         4        2313        2314        2365        2364
         4        2314        2315        2366        2365
         4        2315        2316        2367        2366
         4        2316        2317        2368        2367
         4        2317        2318        2369        2368
         4        2318        2319        2370        2369
         4        2319        2320        2371        2370
         4        2320        2321        2372        2371
         4        2321        2322        2373        2372
         4        2322        2323        2374        2373
         4        2323        2324        2375        2374
         4        2324        2325        2376        2375
         4        2325        2326        2377        2376
         4        2326        2327        2378        2377
         4        2327        2328        2379        2378
         4        2328        2329        2380        2379
         4        2329        2330        2381        2380
         4        2330        2331        2382        2381
         4        2331        2332        2383        2382
         4        2332        2333        2384        2383
         4        2333        2334        2385        2384
         4        2334        2335        2386        2385
         4        2335        2336        2387        2386
         4        2336        2337        2388        2387
         4        2337        2338        2389        2388
         4        2338        2339        2390        2389
         4        2339        2340        2391        2390
         4        2340        2341        2392        2391
         4        2341        2342        2393        2392
         4        2342        2343        2394        2393
         4        2343        2344        2395        2394
         4        2344        2345        2396        2395
         4        2346        2347        2398        2397
         4        2347        2348        2399        2398
         4        2348        2349        2400        2399
         4        2349        2350        2401        2400
         4        2350        2351        2402        2401
         4        2351        2352        2403        2402
         4        2352        2353        2404        2403
         4        2353        2354        2405        2404
         4        2354        2355        2406        2405
         4        2355        2356        2407        2406
         4        2356        2357        2408        2407
         4        2357        2358        2409        2408
         4        2358        2359        2410        2409
         4        2359        2360        2411        2410
         4        2360        2361        2412        2411
         4        2361        2362        2413        2412
         4        2362        2363        2414        2413
         4        2363        2364        2415        2414
         4        2364        2365        2416        2415
         4        2365        2366        2417        2416
         4        2366        2367        2418        2417
         4        2367        2368        2419        2418
         4        2368        2369        2420        2419
         4        2369        2370        2421        2420
         4        2370        2371        2422        2421
         4        2371        2372        2423        2422
         4        2372        2373        2424        2423
         4        2373        2374        2425        2424
         4        2374        2375        2426        2425
         4        2375        2376        2427        2426
         4        2376        2377        2428        2427
         4        2377        2378        2429        2428
         4        2378        2379        2430        2429
         4        2379        2380        2431        2430
         4        2380        2381        2432        2431
         4        2381        2382        2433        2432
         4        2382        2383        2434        2433
         4        2383        2384        2435        2434
         4        2384        2385        2436        2435
         4        2385        2386        2437        2436
         4        2386        2387        2438        2437
         4        2387        2388        2439        2438
         4        2388        2389        2440        2439
         4        2389        2390        2441        2440
         4        2390        2391        2442        2441
         4        2391        2392        2443        2442
         4        2392        2393        2444        2443
         4        2393        2394        2445        2444
         4        2394        2395        2446        2445
         4        2395        2396        2447        2446
         4        2397        2398        2449        2448
         4        2398        2399        2450        2449
         4        2399        2400        2451        2450
         4        2400        2401        2452        2451
         4        2401        2402        2453        2452
         4        2402        2403        2454        2453
         4        2403        2404        2455        2454
         4        2404        2405        2456        2455
         4        2405        2406        2457        2456
         4        2406        2407        2458        2457
         4        2407        2408        2459        2458
         4        2408        2409        2460        2459
         4        2409        2410        2461        2460
         4        2410        2411        2462        2461
         4        2411        2412        2463        2462
         4        2412        2413        2464        2463
         4        2413        2414        2465        2464
         4        2414        2415        2466        2465
         4        2415        2416        2467        2466
         4        2416        2417        2468        2467
         4        2417        2418        2469        2468
         4        2418        2419        2470        2469
         4        2419        2420        2471        2470
         4        2420        2421        2472        2471
         4        2421        2422        2473        2472
         4        2422        2423        2474        2473
         4        2423        2424        2475        2474
         4        2424        2425        2476        2475
         4        2425        2426        2477        2476
         4        2426        2427        2478        2477
         4        2427        2428        2479        2478
         4        2428        2429        2480        2479
         4        2429        2430        2481        2480
         4        2430        2431        2482        2481
         4        2431        2432        2483        2482
         4        2432        2433        2484        2483
         4        2433        2434        2485        2484
         4        2434        2435        2486        2485
         4        2435        2436        2487        2486
         4        2436        2437        2488        2487
         4        2437        2438        2489        2488
         4        2438        2439        2490        2489
         4        2439        2440        2491        2490
         4        2440        2441        2492        2491
         4        2441        2442        2493        2492
         4        2442        2443        2494        2493
         4        2443        2444        2495        2494
         4        2444        2445        2496        2495
         4        2445        2446        2497        2496
         4        2446        2447        2498        2497
         4        2448        2449        2500        2499
         4        2449        2450        2501        2500
         4        2450        2451        2502        2501
         4        2451        2452        2503        2502
         4        2452        2453        2504        2503
         4        2453        2454        2505        2504
         4        2454        2455        2506        2505
         4        2455        2456        2507        2506
         4        2456        2457        2508        2507
         4        2457        2458        2509        2508
         4        2458        2459        2510        2509
         4        2459        2460        2511        2510
         4        2460        2461        2512        2511
         4        2461        2462        2513        2512
         4        2462        2463        2514        2513
         4        2463        2464        2515        2514
         4        2464        2465        2516        2515
         4        2465        2466        2517        2516
         4        2466        2467        2518        2517
         4        2467        2468        2519        2518
         4        2468        2469        2520        2519
         4        2469        2470        2521        2520
         4        2470        2471        2522        2521
         4        2471        2472        2523        2522
         4        2472        2473        2524        2523
         4        2473        2474        2525        2524
         4        2474        2475        2526        2525
         4        2475        2476        2527        2526
         4        2476        2477        2528        2527
         4        2477        2478        2529        2528
         4        2478        2479        2530        2529
         4        2479        2480        2531        2530
         4        2480        2481        2532        2531
         4        2481        2482        2533        2532
         4        2482        2483        2534        2533
         4        2483        2484        2535        2534
         4        2484        2485        2536        2535
         4        2485        2486        2537        2536
         4        2486        2487        2538        2537
         4        2487        2488        2539        2538
         4        2488        2489        2540        2539
         4        2489        2490        2541        2540
         4        2490        2491        2542        2541
         4        2491        2492        2543        2542
         4        2492        2493        2544        2543
         4        2493        2494        2545        2544
         4        2494        2495        2546        2545
         4        2495        2496        2547        2546
         4        2496        2497        2548        2547
         4        2497        2498        2549        2548
         4        2499        2500        2551        2550
         4        2500        2501        2552        2551
         4        2501        2502        2553        2552
         4        2502        2503        2554        2553
         4        2503        2504        2555        2554
         4        2504        2505        2556        2555
         4        2505        2506        2557        2556
         4        2506        2507        2558        2557
         4        2507        2508        2559        2558
         4        2508        2509        2560        2559
         4        2509        2510        2561        2560
         4        2510        2511        2562        2561
         4        2511        2512        2563        2562
         4        2512        2513        2564        2563
         4        2513        2514        2565        2564
         4        2514        2515        2566        2565
         4        2515        2516        2567        2566
         4        2516        2517        2568        2567
         4        2517        2518        2569        2568
         4        2518        2519        2570        2569
         4        2519        2520        2571        2570
         4        2520        2521        2572        2571
         4        2521        2522        2573        2572
         4        2522        2523        2574        2573
         4        2523        2524        2575        2574
         4        2524        2525        2576        2575
         4        2525        2526        2577        2576
         4        2526        2527        2578        2577
         4        2527        2528        2579        2578
         4        2528        2529        2580        2579
         4        2529        2530        2581        2580
         4        2530        2531        2582        2581
         4        2531        2532        2583        2582
         4        2532        2533        2584        2583
         4        2533        2534        2585        2584
         4        2534        2535        2586        2585
         4        2535        2536        2587        2586
         4        2536        2537        2588        2587
         4        2537        2538        2589        2588
         4        2538        2539        2590        2589
         4        2539        2540        2591        2590
         4        2540        2541        2592        2591
         4        2541        2542        2593        2592
         4        2542        2543        2594        2593
         4        2543        2544        2595        2594
         4        2544        2545        2596        2595
         4        2545        2546        2597        2596
         4        2546        2547        2598        2597
         4        2547        2548        2599        2598
         4        2548        2549        2600        2599
         4        2550        2551        2602        2601
         4        2551        2552        2603        2602
         4        2552        2553        2604        2603
         4        2553        2554        2605        2604
         4        2554        2555        2606        2605
         4        2555        2556        2607        2606
         4        2556        2557        2608        2607
         4        2557        2558        2609        2608
         4        2558        2559        2610        2609
         4        2559        2560        2611        2610
         4        2560        2561        2612        2611
         4        2561        2562        2613        2612
         4        2562        2563        2614        2613
         4        2563        2564        2615        2614
         4        2564        2565        2616        2615
         4        2565        2566        2617        2616
         4        2566        2567        2618        2617
         4        2567        2568        2619        2618
         4        2568        2569        2620        2619
         4        2569        2570        2621        2620
         4        2570        2571        2622        2621
         4        2571        2572        2623        2622
         4        2572        2573        2624        2623
         4        2573        2574        2625        2624
         4        2574        2575        2626        2625
         4        2575        2576        2627        2626
         4        2576        2577        2628        2627
         4        2577        2578        2629        2628
         4        2578        2579        2630        2629
         4        2579        2580        2631        2630
         4        2580        2581        2632        2631
         4        2581        2582        2633        2632
         4        2582        2583        2634        2633
         4        2583        2584        2635        2634
         4        2584        2585        2636        2635
         4        2585        2586        2637        2636
         4        2586        2587        2638        2637
         4        2587        2588        2639        2638
         4        2588        2589        2640        2639
         4        2589        2590        2641        2640
         4        2590        2591        2642        2641
         4        2591        2592        2643        2642
         4        2592        2593        2644        2643
         4        2593        2594        2645        2644
         4        2594        2595        2646        2645
         4        2595        2596        2647        2646
         4        2596        2597        2648        2647
         4        2597        2598        2649        2648
         4        2598        2599        2650        2649
         4        2599        2600        2651        2650
         4        2601        2602        2653        2652
         4        2602        2603        2654        2653
         4        2603        2604        2655        2654
         4        2604        2605        2656        2655
         4        2605        2606        2657        2656
         4        2606        2607        2658        2657
         4        2607        2608        2659        2658
         4        2608        2609        2660        2659
         4        2609        2610        2661        2660
         4        2610        2611        2662        2661
         4        2611        2612        2663        2662
         4        2612        2613        2664        2663
         4        2613        2614        2665        2664
         4        2614        2615        2666        2665
         4        2615        2616        2667        2666
         4        2616        2617        2668        2667
         4        2617        2618        2669        2668
         4        2618        2619        2670        2669
         4        2619        2620        2671        2670
         4        2620        2621        2672        2671
         4        2621        2622        2673        2672
         4        2622        2623        2674        2673
         4        2623        2624        2675        2674
         4        2624        2625        2676        2675
         4        2625        2626        2677        2676
         4        2626        2627        2678        2677
         4        2627        2628        2679        2678
         4        2628        2629        2680        2679
         4        2629        2630        2681        2680
         4        2630        2631        2682        2681
         4        2631        2632        2683        2682
         4        2632        2633        2684        2683
         4        2633        2634        2685        2684
         4        2634        2635        2686        2685
         4        2635        2636        2687        2686
         4        2636        2637        2688        2687
         4        2637        2638        2689        2688
         4        2638        2639        2690        2689
         4        2639        2640        2691        2690
         4        2640        2641        2692        2691
         4        2641        2642        2693        2692
         4        2642        2643        2694        2693
         4        2643        2644        2695        2694
         4        2644        2645        2696        2695
         4        2645        2646        2697        2696
         4        2646        2647        2698        2697
         4        2647        2648        2699        2698
         4        2648        2649        2700        2699
         4        2649        2650        2701        2700
         4        2650        2651        2702        2701
         4        2652        2653        2704        2703
         4        2653        2654        2705        2704
         4        2654        2655        2706        2705
         4        2655        2656        2707        2706
         4        2656        2657        2708        2707
         4        2657        2658        2709        2708
         4        2658        2659        2710        2709
         4        2659        2660        2711        2710
         4        2660        2661        2712        2711
         4        2661        2662        2713        2712
         4        2662        2663        2714        2713
         4        2663        2664        2715        2714
         4        2664        2665        2716        2715
         4        2665        2666        2717        2716
         4        2666        2667        2718        2717
         4        2667        2668        2719        2718
         4        2668        2669        2720        2719
         4        2669        2670        2721        2720
         4        2670        2671        2722        2721
         4        2671        2672        2723        2722
         4        2672        2673        2724        2723
         4        2673        2674        2725        2724
         4        2674        2675        2726        2725
         4        2675        2676        2727        2726
         4        2676        2677        2728        2727
         4        2677        2678        2729        2728
         4        2678        2679        2730        2729
         4        2679        2680        2731        2730
         4        2680        2681        2732        2731
         4        2681        2682        2733        2732
         4        2682        2683        2734        2733
         4        2683        2684        2735        2734
         4        2684        2685        2736        2735
         4        2685        2686        2737        2736
         4        2686        2687        2738        2737
         4        2687        2688        2739        2738
         4        2688        2689        2740        2739
         4        2689        2690        2741        2740
         4        2690        2691        2742        2741
         4        2691        2692        2743        2742
         4        2692        2693        2744        2743
         4        2693        2694        2745        2744
         4        2694        2695        2746        2745
         4        2695        2696        2747        2746
         4        2696        2697        2748        2747
         4        2697        2698        2749        2748
         4        2698        2699        2750        2749
         4        2699        2700        2751        2750
         4        2700        2701        2752        2751
         4        2701        2702        2753        2752
         4        2703        2704        2755        2754
         4        2704        2705        2756        2755
         4        2705        2706        2757        2756
         4        2706        2707        2758        2757
         4        2707        2708        2759        2758
         4        2708        2709        2760        2759
         4        2709        2710        2761        2760
         4        2710        2711        2762        2761
         4        2711        2712        2763        2762
         4        2712        2713        2764        2763
         4        2713        2714        2765        2764
         4        2714        2715        2766        2765
         4        2715        2716        2767        2766
         4        2716        2717        2768        2767
         4        2717        2718        2769        2768
         4        2718        2719        2770        2769
         4        2719        2720        2771        2770
         4        2720        2721        2772        2771
         4        2721        2722        2773        2772
         4        2722        2723        2774        2773
         4        2723        2724        2775        2774
         4        2724        2725        2776        2775
         4        2725        2726        2777        2776
         4        2726        2727        2778        2777
         4        2727        2728        2779        2778
         4        2728        2729        2780        2779
         4        2729        2730        2781        2780
         4        2730        2731        2782        2781
         4        2731        2732        2783        2782
         4        2732        2733        2784        2783
         4        2733        2734        2785        2784
         4        2734        2735        2786        2785
         4        2735        2736        2787        2786
         4        2736        2737        2788        2787
         4        2737        2738        2789        2788
         4        2738        2739        2790        2789
         4        2739        2740        2791        2790
         4        2740        2741        2792        2791
         4        2741        2742        2793        2792
         4        2742        2743        2794        2793
         4        2743        2744        2795        2794
         4        2744        2745        2796        2795
         4        2745        2746        2797        2796
         4        2746        2747        2798        2797
         4        2747        2748        2799        2798
         4        2748        2749        2800        2799
         4        2749        2750        2801        2800
         4        2750        2751        2802        2801
         4        2751        2752        2803        2802
         4        2752        2753        2804        2803
         4        2754        2755        2806        2805
         4        2755        2756        2807        2806
         4        2756        2757        2808        2807
         4        2757        2758        2809        2808
         4        2758        2759        2810        2809
         4        2759        2760        2811        2810
         4        2760        2761        2812        2811
         4        2761        2762        2813        2812
         4        2762        2763        2814        2813
         4        2763        2764        2815        2814
         4        2764        2765        2816        2815
         4        2765        2766        2817        2816
         4        2766        2767        2818        2817
         4        2767        2768        2819        2818
         4        2768        2769        2820        2819
         4        2769        2770        2821        2820
         4        2770        2771        2822        2821
         4        2771        2772        2823        2822
         4        2772        2773        2824        2823
         4        2773        2774        2825        2824
         4        2774        2775        2826        2825
         4        2775        2776        2827        2826
         4        2776        2777        2828        2827
         4        2777        2778        2829        2828
         4        2778        2779        2830        2829
         4        2779        2780        2831        2830
         4        2780        2781        2832        2831
         4        2781        2782        2833        2832
         4        2782        2783        2834        2833
         4        2783        2784        2835        2834
         4        2784        2785        2836        2835
         4        2785        2786        2837        2836
         4        2786        2787        2838        2837
         4        2787        2788        2839        2838
         4        2788        2789        2840        2839
         4        2789        2790        2841        2840
         4        2790        2791        2842        2841
         4        2791        2792        2843        2842
         4        2792        2793        2844        2843
         4        2793        2794        2845        2844
         4        2794        2795        2846        2845
         4        2795        2796        2847        2846
         4        2796        2797        2848        2847
         4        2797        2798        2849        2848
         4        2798        2799        2850        2849
         4        2799        2800        2851        2850
         4        2800        2801        2852        2851
         4        2801        2802        2853        2852
         4        2802        2803        2854        2853
         4        2803        2804        2855        2854
         4        2805        2806        2857        2856
         4        2806        2807        2858        2857
         4        2807        2808        2859        2858
         4        2808        2809        2860        2859
         4        2809        2810        2861        2860
         4        2810        2811        2862        2861
         4        2811        2812        2863        2862
         4        2812        2813        2864        2863
         4        2813        2814        2865        2864
         4        2814        2815        2866        2865
         4        2815        2816        2867        2866
         4        2816        2817        2868        2867
         4        2817        2818        2869        2868
         4        2818        2819        2870        2869
         4        2819        2820        2871        2870
         4        2820        2821        2872        2871
         4        2821        2822        2873        2872
         4        2822        2823        2874        2873
         4        2823        2824        2875        2874
         4        2824        2825        2876        2875
         4        2825        2826        2877        2876
         4        2826        2827        2878        2877
         4        2827        2828        2879        2878
         4        2828        2829        2880        2879
         4        2829        2830        2881        2880
         4        2830        2831        2882        2881
         4        2831        2832        2883        2882
         4        2832        2833        2884        2883
         4        2833        2834        2885        2884
         4        2834        2835        2886        2885
         4        2835        2836        2887        2886
         4        2836        2837        2888        2887
         4        2837        2838        2889        2888
         4        2838        2839        2890        2889
         4        2839        2840        2891        2890
         4        2840        2841        2892        2891
         4        2841        2842        2893        2892
         4        2842        2843        2894        2893
         4        2843        2844        2895        2894
         4        2844        2845        2896        2895
         4        2845        2846        2897        2896
         4        2846        2847        2898        2897
         4        2847        2848        2899        2898
         4        2848        2849        2900        2899
         4        2849        2850        2901        2900
         4        2850        2851        2902        2901
         4        2851        2852        2903        2902
         4        2852        2853        2904        2903
         4        2853        2854        2905        2904
         4        2854        2855        2906        2905
         4        2856        2857        2908        2907
         4        2857        2858        2909        2908
         4        2858        2859        2910        2909
         4        2859        2860        2911        2910
         4        2860        2861        2912        2911
         4        2861        2862        2913        2912
         4        2862        2863        2914        2913
         4        2863        2864        2915        2914
         4        2864        2865        2916        2915
         4        2865        2866        2917        2916
         4        2866        2867        2918        2917
         4        2867        2868        2919        2918
         4        2868        2869        2920        2919
         4        2869        2870        2921        2920
         4        2870        2871        2922        2921
         4        2871        2872        2923        2922
         4        2872        2873        2924        2923
         4        2873        2874        2925        2924
         4        2874        2875        2926        2925
         4        2875        2876        2927        2926
         4        2876        2877        2928        2927
         4        2877        2878        2929        2928
         4        2878        2879        2930        2929
         4        2879        2880        2931        2930
         4        2880        2881        2932        2931
         4        2881        2882        2933        2932
         4        2882        2883        2934        2933
         4        2883        2884        2935        2934
         4        2884        2885        2936        2935
         4        2885        2886        2937        2936
         4        2886        2887        2938        2937
         4        2887        2888        2939        2938
         4        2888        2889        2940        2939
         4        2889        2890        2941        2940
         4        2890        2891        2942        2941
         4        2891        2892        2943        2942
         4        2892        2893        2944        2943
         4        2893        2894        2945        2944
         4        2894        2895        2946        2945
         4        2895        2896        2947        2946
         4        2896        2897        2948        2947
         4        2897        2898        2949        2948
         4        2898        2899        2950        2949
         4        2899        2900        2951        2950
         4        2900        2901        2952        2951
         4        2901        2902        2953        2952
         4        2902        2903        2954        2953
         4        2903        2904        2955        2954
         4        2904        2905        2956        2955
         4        2905        2906        2957        2956
         4        2907        2908        2959        2958
         4        2908        2909        2960        2959
         4        2909        2910        2961        2960
         4        2910        2911        2962        2961
         4        2911        2912        2963        2962
         4        2912        2913        2964        2963
         4        2913        2914        2965        2964
         4        2914        2915        2966        2965
         4        2915        2916        2967        2966
         4        2916        2917        2968        2967
         4        2917        2918        2969        2968
         4        2918        2919        2970        2969
         4        2919        2920        2971        2970
         4        2920        2921        2972        2971
         4        2921        2922        2973        2972
         4        2922        2923        2974        2973
         4        2923        2924        2975        2974
         4        2924        2925        2976        2975
         4        2925        2926        2977        2976
         4        2926        2927        2978        2977
         4        2927        2928        2979        2978
         4        2928        2929        2980        2979
         4        2929        2930        2981        2980
         4        2930        2931        2982        2981
         4        2931        2932        2983        2982
         4        2932        2933        2984        2983
         4        2933        2934        2985        2984
         4        2934        2935        2986        2985
         4        2935        2936        2987        2986
         4        2936        2937        2988        2987
         4        2937        2938        2989        2988
         4        2938        2939        2990        2989
         4        2939        2940        2991        2990
         4        2940        2941        2992        2991
         4        2941        2942        2993        2992
         4        2942        2943        2994        2993
         4        2943        2944        2995        2994
         4        2944        2945        2996        2995
         4        2945        2946        2997        2996
         4        2946        2947        2998        2997
         4        2947        2948        2999        2998
         4        2948        2949        3000        2999
         4        2949        2950        3001        3000
         4        2950        2951        3002        3001
         4        2951        2952        3003        3002
         4        2952        2953        3004        3003
         4        2953        2954        3005        3004
         4        2954        2955        3006        3005
         4        2955        2956        3007        3006
         4        2956        2957        3008        3007
         4        2958        2959        3010        3009
         4        2959        2960        3011        3010
         4        2960        2961        3012        3011
         4        2961        2962        3013        3012
         4        2962        2963        3014        3013
         4        2963        2964        3015        3014
         4        2964        2965        3016        3015
         4        2965        2966        3017        3016
         4        2966        2967        3018        3017
         4        2967        2968        3019        3018
         4        2968        2969        3020        3019
         4        2969        2970        3021        3020
         4        2970        2971        3022        3021
         4        2971        2972        3023        3022
         4        2972        2973        3024        3023
         4        2973        2974        3025        3024
         4        2974        2975        3026        3025
         4        2975        2976        3027        3026
         4        2976        2977        3028        3027
         4        2977        2978        3029        3028
         4        2978        2979        3030        3029
         4        2979        2980        3031        3030
         4        2980        2981        3032        3031
         4        2981        2982        3033        3032
         4        2982        2983        3034        3033
         4        2983        2984        3035        3034
         4        2984        2985        3036        3035
         4        2985        2986        3037        3036
         4        2986        2987        3038        3037
         4        2987        2988        3039        3038
         4        2988        2989        3040        3039
         4        2989        2990        3041        3040
         4        2990        2991        3042        3041
         4        2991        2992        3043        3042
         4        2992        2993        3044        3043
         4        2993        2994        3045        3044
         4        2994        2995        3046        3045
         4        2995        2996        3047        3046
         4        2996        2997        3048        3047
         4        2997        2998        3049        3048
         4        2998        2999        3050        3049
         4        2999        3000        3051        3050
         4        3000        3001        3052        3051
         4        3001        3002        3053        3052
         4        3002        3003        3054        3053
         4        3003        3004        3055        3054
         4        3004        3005        3056        3055
         4        3005        3006        3057        3056
         4        3006        3007        3058        3057
         4        3007        3008        3059        3058
         4        3009        3010        3061        3060
         4        3010        3011        3062        3061
         4        3011        3012        3063        3062
         4        3012        3013        3064        3063
         4        3013        3014        3065        3064
         4        3014        3015        3066        3065
         4        3015        3016        3067        3066
         4        3016        3017        3068        3067
         4        3017        3018        3069        3068
         4        3018        3019        3070        3069
         4        3019        3020        3071        3070
         4        3020        3021        3072        3071
         4        3021        3022        3073        3072
         4        3022        3023        3074        3073
         4        3023        3024        3075        3074
         4        3024        3025        3076        3075
         4        3025        3026        3077        3076
         4        3026        3027        3078        3077
         4        3027        3028        3079        3078
         4        3028        3029        3080        3079
         4        3029        3030        3081        3080
         4        3030        3031        3082        3081
         4        3031        3032        3083        3082
         4        3032        3033        3084        3083
         4        3033        3034        3085        3084
         4        3034        3035        3086        3085
         4        3035        3036        3087        3086
         4        3036        3037        3088        3087
         4        3037        3038        3089        3088
         4        3038        3039        3090        3089
         4        3039        3040        3091        3090
         4        3040        3041        3092        3091
         4        3041        3042        3093        3092
         4        3042        3043        3094        3093
         4        3043        3044        3095        3094
         4        3044        3045        3096        3095
         4        3045        3046        3097        3096
         4        3046        3047        3098        3097
         4        3047        3048        3099        3098
         4        3048        3049        3100        3099
         4        3049        3050        3101        3100
         4        3050        3051        3102        3101
         4        3051        3052        3103        3102
         4        3052        3053        3104        3103
         4        3053        3054        3105        3104
         4        3054        3055        3106        3105
         4        3055        3056        3107        3106
         4        3056        3057        3108        3107
         4        3057        3058        3109        3108
         4        3058        3059        3110        3109
         4        3060        3061        3112        3111
         4        3061        3062        3113        3112
         4        3062        3063        3114        3113
         4        3063        3064        3115        3114
         4        3064        3065        3116        3115
         4        3065        3066        3117        3116
         4        3066        3067        3118        3117
         4        3067        3068        3119        3118
         4        3068        3069        3120        3119
         4        3069        3070        3121        3120
         4        3070        3071        3122        3121
         4        3071        3072        3123        3122
         4        3072        3073        3124        3123
         4        3073        3074        3125        3124
         4        3074        3075        3126        3125
         4        3075        3076        3127        3126
         4        3076        3077        3128        3127
         4        3077        3078        3129        3128
         4        3078        3079        3130        3129
         4        3079        3080        3131        3130
         4        3080        3081        3132        3131
         4        3081        3082        3133        3132
         4        3082        3083        3134        3133
         4        3083        3084        3135        3134
         4        3084        3085        3136        3135
         4        3085        3086        3137        3136
         4        3086        3087        3138        3137
         4        3087        3088        3139        3138
         4        3088        3089        3140        3139
         4        3089        3090        3141        3140
         4        3090        3091        3142        3141
         4        3091        3092        3143        3142
         4        3092        3093        3144        3143
         4        3093        3094        3145        3144
         4        3094        3095        3146        3145
         4        3095        3096        3147        3146
         4        3096        3097        3148        3147
         4        3097        3098        3149        3148
         4        3098        3099        3150        3149
         4        3099        3100        3151        3150
         4        3100        3101        3152        3151
         4        3101        3102        3153        3152
         4        3102        3103        3154        3153
         4        3103        3104        3155        3154
         4        3104        3105        3156        3155
         4        3105        3106        3157        3156
         4        3106        3107        3158        3157
         4        3107        3108        3159        3158
         4        3108        3109        3160        3159
         4        3109        3110        3161        3160
         4        3111        3112        3163        3162
         4        3112        3113        3164        3163
         4        3113        3114        3165        3164
         4        3114        3115        3166        3165
         4        3115        3116        3167        3166
         4        3116        3117        3168        3167
         4        3117        3118        3169        3168
         4        3118        3119        3170        3169
         4        3119        3120        3171        3170
         4        3120        3121        3172        3171
         4        3121        3122        3173        3172
         4        3122        3123        3174        3173
         4        3123        3124        3175        3174
         4        3124        3125        3176        3175
         4        3125        3126        3177        3176
         4        3126        3127        3178        3177
         4        3127        3128        3179        3178
         4        3128        3129        3180        3179
         4        3129        3130        3181        3180
         4        3130        3131        3182        3181
         4        3131        3132        3183        3182
         4        3132        3133        3184        3183
         4        3133        3134        3185        3184
         4        3134        3135        3186        3185
         4        3135        3136        3187        3186
         4        3136        3137        3188        3187
         4        3137        3138        3189        3188
         4        3138        3139        3190        3189
         4        3139        3140        3191        3190
         4        3140        3141        3192        3191
         4        3141        3142        3193        3192
         4        3142        3143        3194        3193
         4        3143        3144        3195        3194
         4        3144        3145        3196        3195
         4        3145        3146        3197        3196
         4        3146        3147        3198        3197
         4        3147        3148        3199        3198
         4        3148        3149        3200        3199
         4        3149        3150        3201        3200
         4        3150        3151        3202        3201
         4        3151        3152        3203        3202
         4        3152        3153        3204        3203
         4        3153        3154        3205        3204
         4        3154        3155        3206        3205
         4        3155        3156        3207        3206
         4        3156        3157        3208        3207
         4        3157        3158        3209        3208
         4        3158        3159        3210        3209
         4        3159        3160        3211        3210
         4        3160        3161        3212        3211
         4        3162        3163        3214        3213
         4        3163        3164        3215        3214
         4        3164        3165        3216        3215
         4        3165        3166        3217        3216
         4        3166        3167        3218        3217
         4        3167        3168        3219        3218
         4        3168        3169        3220        3219
         4        3169        3170        3221        3220
         4        3170        3171        3222        3221
         4        3171        3172        3223        3222
         4        3172        3173        3224        3223
         4        3173        3174        3225        3224
         4        3174        3175        3226        3225
         4        3175        3176        3227        3226
         4        3176        3177        3228        3227
         4        3177        3178        3229        3228
         4        3178        3179        3230        3229
         4        3179        3180        3231        3230
         4        3180        3181        3232        3231
         4        3181        3182        3233        3232
         4        3182        3183        3234        3233
         4        3183        3184        3235        3234
         4        3184        3185        3236        3235
         4        3185        3186        3237        3236
         4        3186        3187        3238        3237
         4        3187        3188        3239        3238
         4        3188        3189        3240        3239
         4        3189        3190        3241        3240
         4        3190        3191        3242        3241
         4        3191        3192        3243        3242
         4        3192        3193        3244        3243
         4        3193        3194        3245        3244
         4        3194        3195        3246        3245
         4        3195        3196        3247        3246
         4        3196        3197        3248        3247
         4        3197        3198        3249        3248
         4        3198        3199        3250        3249
         4        3199        3200        3251        3250
         4        3200        3201        3252        3251
         4        3201        3202        3253        3252
         4        3202        3203        3254        3253
         4        3203        3204        3255        3254
         4        3204        3205        3256        3255
         4        3205        3206        3257        3256
         4        3206        3207        3258        3257
         4        3207        3208        3259        3258
         4        3208        3209        3260        3259
         4        3209        3210        3261        3260
         4        3210        3211        3262        3261
         4        3211        3212        3263        3262
         4        3213        3214        3265        3264
         4        3214        3215        3266        3265
         4        3215        3216        3267        3266
         4        3216        3217        3268        3267
         4        3217        3218        3269        3268
         4        3218        3219        3270        3269
         4        3219        3220        3271        3270
         4        3220        3221        3272        3271
         4        3221        3222        3273        3272
         4        3222        3223        3274        3273
         4        3223        3224        3275        3274
         4        3224        3225        3276        3275
         4        3225        3226        3277        3276
         4        3226        3227        3278        3277
         4        3227        3228        3279        3278
         4        3228        3229        3280        3279
         4        3229        3230        3281        3280
         4        3230        3231        3282        3281
         4        3231        3232        3283        3282
         4        3232        3233        3284        3283
         4        3233        3234        3285        3284
         4        3234        3235        3286        3285
         4        3235        3236        3287        3286
         4        3236        3237        3288        3287
         4        3237        3238        3289        3288
         4        3238        3239        3290        3289
         4        3239        3240        3291        3290
         4        3240        3241        3292        3291
         4        3241        3242        3293        3292
         4        3242        3243        3294        3293
         4        3243        3244        3295        3294
         4        3244        3245        3296        3295
         4        3245        3246        3297        3296
         4        3246        3247        3298        3297
         4        3247        3248        3299        3298
         4        3248        3249        3300        3299
         4        3249        3250        3301        3300
         4        3250        3251        3302        3301
         4        3251        3252        3303        3302
         4        3252        3253        3304        3303
         4        3253        3254        3305        3304
         4        3254        3255        3306        3305
         4        3255        3256        3307        3306
         4        3256        3257        3308        3307
         4        3257        3258        3309        3308
         4        3258        3259        3310        3309
         4        3259        3260        3311        3310
         4        3260        3261        3312        3311
         4        3261        3262        3313        3312
         4        3262        3263        3314        3313
         4        3264        3265        3316        3315
         4        3265        3266        3317        3316
         4        3266        3267        3318        3317
         4        3267        3268        3319        3318
         4        3268        3269        3320        3319
         4        3269        3270        3321        3320
         4        3270        3271        3322        3321
         4        3271        3272        3323        3322
         4        3272        3273        3324        3323
         4        3273        3274        3325        3324
         4        3274        3275        3326        3325
         4        3275        3276        3327        3326
         4        3276        3277        3328        3327
         4        3277        3278        3329        3328
         4        3278        3279        3330        3329
         4        3279        3280        3331        3330
         4        3280        3281        3332        3331
         4        3281        3282        3333        3332
         4        3282        3283        3334        3333
         4        3283        3284        3335        3334
         4        3284        3285        3336        3335
         4        3285        3286        3337        3336
         4        3286        3287        3338        3337
         4        3287        3288        3339        3338
         4        3288        3289        3340        3339
         4        3289        3290        3341        3340
         4        3290        3291        3342        3341
         4        3291        3292        3343        3342
         4        3292        3293        3344        3343
         4        3293        3294        3345        3344
         4        3294        3295        3346        3345
         4        3295        3296        3347        3346
         4        3296        3297        3348        3347
         4        3297        3298        3349        3348
         4        3298        3299        3350        3349
         4        3299        3300        3351        3350
         4        3300        3301        3352        3351
         4        3301        3302        3353        3352
         4        3302        3303        3354        3353
         4        3303        3304        3355        3354
         4        3304        3305        3356        3355
         4        3305        3306        3357        3356
         4        3306        3307        3358        3357
         4        3307        3308        3359        3358
         4        3308        3309        3360        3359
         4        3309        3310        3361        3360
         4        3310        3311        3362        3361
         4        3311        3312        3363        3362
         4        3312        3313        3364        3363
         4        3313        3314        3365        3364
         4        3315        3316        3367        3366
         4        3316        3317        3368        3367
         4        3317        3318        3369        3368
         4        3318        3319        3370        3369
         4        3319        3320        3371        3370
         4        3320        3321        3372        3371
         4        3321        3322        3373        3372
         4        3322        3323        3374        3373
         4        3323        3324        3375        3374
         4        3324        3325        3376        3375
         4        3325        3326        3377        3376
         4        3326        3327        3378        3377
         4        3327        3328        3379        3378
         4        3328        3329        3380        3379
         4        3329        3330        3381        3380
         4        3330        3331        3382        3381
         4        3331        3332        3383        3382
         4        3332        3333        3384        3383
         4        3333        3334        3385        3384
         4        3334        3335        3386        3385
         4        3335        3336        3387        3386
         4        3336        3337        3388        3387
         4        3337        3338        3389        3388
         4        3338        3339        3390        3389
         4        3339        3340        3391        3390
         4        3340        3341        3392        3391
         4        3341        3342        3393        3392
         4        3342        3343        3394        3393
         4        3343        3344        3395        3394
         4        3344        3345        3396        3395
         4        3345        3346        3397        3396
         4        3346        3347        3398        3397
         4        3347        3348        3399        3398
         4        3348        3349        3400        3399
         4        3349        3350        3401        3400
         4        3350        3351        3402        3401
         4        3351        3352        3403        3402
         4        3352        3353        3404        3403
         4        3353        3354        3405        3404
         4        3354        3355        3406        3405
         4        3355        3356        3407        3406
         4        3356        3357        3408        3407
         4        3357        3358        3409        3408
         4        3358        3359        3410        3409
         4        3359        3360        3411        3410
         4        3360        3361        3412        3411
         4        3361        3362        3413        3412
         4        3362        3363        3414        3413
         4        3363        3364        3415        3414
         4        3364        3365        3416        3415
         4        3366        3367        3418        3417
         4        3367        3368        3419        3418
         4        3368        3369        3420        3419
         4        3369        3370        3421        3420
         4        3370        3371        3422        3421
         4        3371        3372        3423        3422
         4        3372        3373        3424        3423
         4        3373        3374        3425        3424
         4        3374        3375        3426        3425
         4        3375        3376        3427        3426
         4        3376        3377        3428        3427
         4        3377        3378        3429        3428
         4        3378        3379        3430        3429
         4        3379        3380        3431        3430
         4        3380        3381        3432        3431
         4        3381        3382        3433        3432
         4        3382        3383        3434        3433
         4        3383        3384        3435        3434
         4        3384        3385        3436        3435
         4        3385        3386        3437        3436
         4        3386        3387        3438        3437
         4        3387        3388        3439        3438
         4        3388        3389        3440        3439
         4        3389        3390        3441        3440
         4        3390        3391        3442        3441
         4        3391        3392        3443        3442
         4        3392        3393        3444        3443
         4        3393        3394        3445        3444
         4        3394        3395        3446        3445
         4        3395        3396        3447        3446
         4        3396        3397        3448        3447
         4        3397        3398        3449        3448
         4        3398        3399        3450        3449
         4        3399        3400        3451        3450
         4        3400        3401        3452        3451
         4        3401        3402        3453        3452
         4        3402        3403        3454        3453
         4        3403        3404        3455        3454
         4        3404        3405        3456        3455
         4        3405        3406        3457        3456
         4        3406        3407        3458        3457
         4        3407        3408        3459        3458
         4        3408        3409        3460        3459
         4        3409        3410        3461        3460
         4        3410        3411        3462        3461
         4        3411        3412        3463        3462
         4        3412        3413        3464        3463
         4        3413        3414        3465        3464
         4        3414        3415        3466        3465
         4        3415        3416        3467        3466
         4        3417        3418        3469        3468
         4        3418        3419        3470        3469
         4        3419        3420        3471        3470
         4        3420        3421        3472        3471
         4        3421        3422        3473        3472
         4        3422        3423        3474        3473
         4        3423        3424        3475        3474
         4        3424        3425        3476        3475
         4        3425        3426        3477        3476
         4        3426        3427        3478        3477
         4        3427        3428        3479        3478
         4        3428        3429        3480        3479
         4        3429        3430        3481        3480
         4        3430        3431        3482        3481
         4        3431        3432        3483        3482
         4        3432        3433        3484        3483
         4        3433        3434        3485        3484
         4        3434        3435        3486        3485
         4        3435        3436        3487        3486
         4        3436        3437        3488        3487
         4        3437        3438        3489        3488
         4        3438        3439        3490        3489
         4        3439        3440        3491        3490
         4        3440        3441        3492        3491
         4        3441        3442        3493        3492
         4        3442        3443        3494        3493
         4        3443        3444        3495        3494
         4        3444        3445        3496        3495
         4        3445        3446        3497        3496
         4        3446        3447        3498        3497
         4        3447        3448        3499        3498
         4        3448        3449        3500        3499
         4        3449        3450        3501        3500
         4        3450        3451        3502        3501
         4        3451        3452        3503        3502
         4        3452        3453        3504        3503
         4        3453        3454        3505        3504
         4        3454        3455        3506        3505
         4        3455        3456        3507        3506
         4        3456        3457        3508        3507
         4        3457        3458        3509        3508
         4        3458        3459        3510        3509
         4        3459        3460        3511        3510
         4        3460        3461        3512        3511
         4        3461        3462        3513        3512
         4        3462        3463        3514        3513
         4        3463        3464        3515        3514
         4        3464        3465        3516        3515
         4        3465        3466        3517        3516
         4        3466        3467        3518        3517
         4        3468        3469        3520        3519
         4        3469        3470        3521        3520
         4        3470        3471        3522        3521
         4        3471        3472        3523        3522
         4        3472        3473        3524        3523
         4        3473        3474        3525        3524
         4        3474        3475        3526        3525
         4        3475        3476        3527        3526
         4        3476        3477        3528        3527
         4        3477        3478        3529        3528
         4        3478        3479        3530        3529
         4        3479        3480        3531        3530
         4        3480        3481        3532        3531
         4        3481        3482        3533        3532
         4        3482        3483        3534        3533
         4        3483        3484        3535        3534
         4        3484        3485        3536        3535
         4        3485        3486        3537        3536
         4        3486        3487        3538        3537
         4        3487        3488        3539        3538
         4        3488        3489        3540        3539
         4        3489        3490        3541        3540
         4        3490        3491        3542        3541
         4        3491        3492        3543        3542
         4        3492        3493        3544        3543
         4        3493        3494        3545        3544
         4        3494        3495        3546        3545
         4        3495        3496        3547        3546
         4        3496        3497        3548        3547
         4        3497        3498        3549        3548
         4        3498        3499        3550        3549
         4        3499        3500        3551        3550
         4        3500        3501        3552        3551
         4        3501        3502        3553        3552
         4        3502        3503        3554        3553
         4        3503        3504        3555        3554
         4        3504        3505        3556        3555
         4        3505        3506        3557        3556
         4        3506        3507        3558        3557
         4        3507        3508        3559        3558
         4        3508        3509        3560        3559
         4        3509        3510        3561        3560
         4        3510        3511        3562        3561
         4        3511        3512        3563        3562
         4        3512        3513        3564        3563
         4        3513        3514        3565        3564
         4        3514        3515        3566        3565
         4        3515        3516        3567        3566
         4        3516        3517        3568        3567
         4        3517        3518        3569        3568
         4        3519        3520        3571        3570
         4        3520        3521        3572        3571
         4        3521        3522        3573        3572
         4        3522        3523        3574        3573
         4        3523        3524        3575        3574
         4        3524        3525        3576        3575
         4        3525        3526        3577        3576
         4        3526        3527        3578        3577
         4        3527        3528        3579        3578
         4        3528        3529        3580        3579
         4        3529        3530        3581        3580
         4        3530        3531        3582        3581
         4        3531        3532        3583        3582
         4        3532        3533        3584        3583
         4        3533        3534        3585        3584
         4        3534        3535        3586        3585
         4        3535        3536        3587        3586
         4        3536        3537        3588        3587
         4        3537        3538        3589        3588
         4        3538        3539        3590        3589
         4        3539        3540        3591        3590
         4        3540        3541        3592        3591
         4        3541        3542        3593        3592
         4        3542        3543        3594        3593
         4        3543        3544        3595        3594
         4        3544        3545        3596        3595
         4        3545        3546        3597        3596
         4        3546        3547        3598        3597
         4        3547        3548        3599        3598
         4        3548        3549        3600        3599
         4        3549        3550        3601        3600
         4        3550        3551        3602        3601
         4        3551        3552        3603        3602
         4        3552        3553        3604        3603
         4        3553        3554        3605        3604
         4        3554        3555        3606        3605
         4        3555        3556        3607        3606
         4        3556        3557        3608        3607
         4        3557        3558        3609        3608
         4        3558        3559        3610        3609
         4        3559        3560        3611        3610
         4        3560        3561        3612        3611
         4        3561        3562        3613        3612
         4        3562        3563        3614        3613
         4        3563        3564        3615        3614
         4        3564        3565        3616        3615
         4        3565        3566        3617        3616
         4        3566        3567        3618        3617
         4        3567        3568        3619        3618
         4        3568        3569        3620        3619
         4        3570        3571        3622        3621
         4        3571        3572        3623        3622
         4        3572        3573        3624        3623
         4        3573        3574        3625        3624
         4        3574        3575        3626        3625
         4        3575        3576        3627        3626
         4        3576        3577        3628        3627
         4        3577        3578        3629        3628
         4        3578        3579        3630        3629
         4        3579        3580        3631        3630
         4        3580        3581        3632        3631
         4        3581        3582        3633        3632
         4        3582        3583        3634        3633
         4        3583        3584        3635        3634
         4        3584        3585        3636        3635
         4        3585        3586        3637        3636
         4        3586        3587        3638        3637
         4        3587        3588        3639        3638
         4        3588        3589        3640        3639
         4        3589        3590        3641        3640
         4        3590        3591        3642        3641
         4        3591        3592        3643        3642
         4        3592        3593        3644        3643
         4        3593        3594        3645        3644
         4        3594        3595        3646        3645
         4        3595        3596        3647        3646
         4        3596        3597        3648        3647
         4        3597        3598        3649        3648
         4        3598        3599        3650        3649
         4        3599        3600        3651        3650
         4        3600        3601        3652        3651
         4        3601        3602        3653        3652
         4        3602        3603        3654        3653
         4        3603        3604        3655        3654
         4        3604        3605        3656        3655
         4        3605        3606        3657        3656
         4        3606        3607        3658        3657
         4        3607        3608        3659        3658
         4        3608        3609        3660        3659
         4        3609        3610        3661        3660
         4        3610        3611        3662        3661
         4        3611        3612        3663        3662
         4        3612        3613        3664        3663
         4        3613        3614        3665        3664
         4        3614        3615        3666        3665
         4        3615        3616        3667        3666
         4        3616        3617        3668        3667
         4        3617        3618        3669        3668
         4        3618        3619        3670        3669
         4        3619        3620        3671        3670
         4        3621        3622        3673        3672
         4        3622        3623        3674        3673
         4        3623        3624        3675        3674
         4        3624        3625        3676        3675
         4        3625        3626        3677        3676
         4        3626        3627        3678        3677
         4        3627        3628        3679        3678
         4        3628        3629        3680        3679
         4        3629        3630        3681        3680
         4        3630        3631        3682        3681
         4        3631        3632        3683        3682
         4        3632        3633        3684        3683
         4        3633        3634        3685        3684
         4        3634        3635        3686        3685
         4        3635        3636        3687        3686
         4        3636        3637        3688        3687
         4        3637        3638        3689        3688
         4        3638        3639        3690        3689
         4        3639        3640        3691        3690
         4        3640        3641        3692        3691
         4        3641        3642        3693        3692
         4        3642        3643        3694        3693
         4        3643        3644        3695        3694
         4        3644        3645        3696        3695
         4        3645        3646        3697        3696
         4        3646        3647        3698        3697
         4        3647        3648        3699        3698
         4        3648        3649        3700        3699
         4        3649        3650        3701        3700
         4        3650        3651        3702        3701
         4        3651        3652        3703        3702
         4        3652        3653        3704        3703
         4        3653        3654        3705        3704
         4        3654        3655        3706        3705
         4        3655        3656        3707        3706
         4        3656        3657        3708        3707
         4        3657        3658        3709        3708
         4        3658        3659        3710        3709
         4        3659        3660        3711        3710
         4        3660        3661        3712        3711
         4        3661        3662        3713        3712
         4        3662        3663        3714        3713
         4        3663        3664        3715        3714
         4        3664        3665        3716        3715
         4        3665        3666        3717        3716
         4        3666        3667        3718        3717
         4        3667        3668        3719        3718
         4        3668        3669        3720        3719
         4        3669        3670        3721        3720
         4        3670        3671        3722        3721
         4        3672        3673        3724        3723
         4        3673        3674        3725        3724
         4        3674        3675        3726        3725
         4        3675        3676        3727        3726
         4        3676        3677        3728        3727
         4        3677        3678        3729        3728
         4        3678        3679        3730        3729
         4        3679        3680        3731        3730
         4        3680        3681        3732        3731
         4        3681        3682        3733        3732
         4        3682        3683        3734        3733
         4        3683        3684        3735        3734
         4        3684        3685        3736        3735
         4        3685        3686        3737        3736
         4        3686        3687        3738        3737
         4        3687        3688        3739        3738
         4        3688        3689        3740        3739
         4        3689        3690        3741        3740
         4        3690        3691        3742        3741
         4        3691        3692        3743        3742
         4        3692        3693        3744        3743
         4        3693        3694        3745        3744
         4        3694        3695        3746        3745
         4        3695        3696        3747        3746
         4        3696        3697        3748        3747
         4        3697        3698        3749        3748
         4        3698        3699        3750        3749
         4        3699        3700        3751        3750
         4        3700        3701        3752        3751
         4        3701        3702        3753        3752
         4        3702        3703        3754        3753
         4        3703        3704        3755        3754
         4        3704        3705        3756        3755
         4        3705        3706        3757        3756
         4        3706        3707        3758        3757
         4        3707        3708        3759        3758
         4        3708        3709        3760        3759
         4        3709        3710        3761        3760
         4        3710        3711        3762        3761
         4        3711        3712        3763        3762
         4        3712        3713        3764        3763
         4        3713        3714        3765        3764
         4        3714        3715        3766        3765
         4        3715        3716        3767        3766
         4        3716        3717        3768        3767
         4        3717        3718        3769        3768
         4        3718        3719        3770        3769
         4        3719        3720        3771        3770
         4        3720        3721        3772        3771
         4        3721        3722        3773        3772
         4        3723        3724        3775        3774
         4        3724        3725        3776        3775
         4        3725        3726        3777        3776
         4        3726        3727        3778        3777
         4        3727        3728        3779        3778
         4        3728        3729        3780        3779
         4        3729        3730        3781        3780
         4        3730        3731        3782        3781
         4        3731        3732        3783        3782
         4        3732        3733        3784        3783
         4        3733        3734        3785        3784
         4        3734        3735        3786        3785
         4        3735        3736        3787        3786
         4        3736        3737        3788        3787
         4        3737        3738        3789        3788
         4        3738        3739        3790        3789
         4        3739        3740        3791        3790
         4        3740        3741        3792        3791
         4        3741        3742        3793        3792
         4        3742        3743        3794        3793
         4        3743        3744        3795        3794
         4        3744        3745        3796        3795
         4        3745        3746        3797        3796
         4        3746        3747        3798        3797
         4        3747        3748        3799        3798
         4        3748        3749        3800        3799
         4        3749        3750        3801        3800
         4        3750        3751        3802        3801
         4        3751        3752        3803        3802
         4        3752        3753        3804        3803
         4        3753        3754        3805        3804
         4        3754        3755        3806        3805
         4        3755        3756        3807        3806
         4        3756        3757        3808        3807
         4        3757        3758        3809        3808
         4        3758        3759        3810        3809
         4        3759        3760        3811        3810
         4        3760        3761        3812        3811
         4        3761        3762        3813        3812
         4        3762        3763        3814        3813
         4        3763        3764        3815        3814
         4        3764        3765        3816        3815
         4        3765        3766        3817        3816
         4        3766        3767        3818        3817
         4        3767        3768        3819        3818
         4        3768        3769        3820        3819
         4        3769        3770        3821        3820
         4        3770        3771        3822        3821
         4        3771        3772        3823        3822
         4        3772        3773        3824        3823
         4        3774        3775        3826        3825
         4        3775        3776        3827        3826
         4        3776        3777        3828        3827
         4        3777        3778        3829        3828
         4        3778        3779        3830        3829
         4        3779        3780        3831        3830
         4        3780        3781        3832        3831
         4        3781        3782        3833        3832
         4        3782        3783        3834        3833
         4        3783        3784        3835        3834
         4        3784        3785        3836        3835
         4        3785        3786        3837        3836
         4        3786        3787        3838        3837
         4        3787        3788        3839        3838
         4        3788        3789        3840        3839
         4        3789        3790        3841        3840
         4        3790        3791        3842        3841
         4        3791        3792        3843        3842
         4        3792        3793        3844        3843
         4        3793        3794        3845        3844
         4        3794        3795        3846        3845
         4        3795        3796        3847        3846
         4        3796        3797        3848        3847
         4        3797        3798        3849        3848
         4        3798        3799        3850        3849
         4        3799        3800        3851        3850
         4        3800        3801        3852        3851
         4        3801        3802        3853        3852
         4        3802        3803        3854        3853
         4        3803        3804        3855        3854
         4        3804        3805        3856        3855
         4        3805        3806        3857        3856
         4        3806        3807        3858        3857
         4        3807        3808        3859        3858
         4        3808        3809        3860        3859
         4        3809        3810        3861        3860
         4        3810        3811        3862        3861
         4        3811        3812        3863        3862
         4        3812        3813        3864        3863
         4        3813        3814        3865        3864
         4        3814        3815        3866        3865
         4        3815        3816        3867        3866
         4        3816        3817        3868        3867
         4        3817        3818        3869        3868
         4        3818        3819        3870        3869
         4        3819        3820        3871        3870
         4        3820        3821        3872        3871
         4        3821        3822        3873        3872
         4        3822        3823        3874        3873
         4        3823        3824        3875        3874
         4        3825        3826        3877        3876
         4        3826        3827        3878        3877
         4        3827        3828        3879        3878
         4        3828        3829        3880        3879
         4        3829        3830        3881        3880
         4        3830        3831        3882        3881
         4        3831        3832        3883        3882
         4        3832        3833        3884        3883
         4        3833        3834        3885        3884
         4        3834        3835        3886        3885
         4        3835        3836        3887        3886
         4        3836        3837        3888        3887
         4        3837        3838        3889        3888
         4        3838        3839        3890        3889
         4        3839        3840        3891        3890
         4        3840        3841        3892        3891
         4        3841        3842        3893        3892
         4        3842        3843        3894        3893
         4        3843        3844        3895        3894
         4        3844        3845        3896        3895
         4        3845        3846        3897        3896
         4        3846        3847        3898        3897
         4        3847        3848        3899        3898
         4        3848        3849        3900        3899
         4        3849        3850        3901        3900
         4        3850        3851        3902        3901
         4        3851        3852        3903        3902
         4        3852        3853        3904        3903
         4        3853        3854        3905        3904
         4        3854        3855        3906        3905
         4        3855        3856        3907        3906
         4        3856        3857        3908        3907
         4        3857        3858        3909        3908
         4        3858        3859        3910        3909
         4        3859        3860        3911        3910
         4        3860        3861        3912        3911
         4        3861        3862        3913        3912
         4        3862        3863        3914        3913
         4        3863        3864        3915        3914
         4        3864        3865        3916        3915
         4        3865        3866        3917        3916
         4        3866        3867        3918        3917
         4        3867        3868        3919        3918
         4        3868        3869        3920        3919
         4        3869        3870        3921        3920
         4        3870        3871        3922        3921
         4        3871        3872        3923        3922
         4        3872        3873        3924        3923
         4        3873        3874        3925        3924
         4        3874        3875        3926        3925
         4        3876        3877        3928        3927
         4        3877        3878        3929        3928
         4        3878        3879        3930        3929
         4        3879        3880        3931        3930
         4        3880        3881        3932        3931
         4        3881        3882        3933        3932
         4        3882        3883        3934        3933
         4        3883        3884        3935        3934
         4        3884        3885        3936        3935
         4        3885        3886        3937        3936
         4        3886        3887        3938        3937
         4        3887        3888        3939        3938
         4        3888        3889        3940        3939
         4        3889        3890        3941        3940
         4        3890        3891        3942        3941
         4        3891        3892        3943        3942
         4        3892        3893        3944        3943
         4        3893        3894        3945        3944
         4        3894        3895        3946        3945
         4        3895        3896        3947        3946
         4        3896        3897        3948        3947
         4        3897        3898        3949        3948
         4        3898        3899        3950        3949
         4        3899        3900        3951        3950
         4        3900        3901        3952        3951
         4        3901        3902        3953        3952
         4        3902        3903        3954        3953
         4        3903        3904        3955        3954
         4        3904        3905        3956        3955
         4        3905        3906        3957        3956
         4        3906        3907        3958        3957
         4        3907        3908        3959        3958
         4        3908        3909        3960        3959
         4        3909        3910        3961        3960
         4        3910        3911        3962        3961
         4        3911        3912        3963        3962
         4        3912        3913        3964        3963
         4        3913        3914        3965        3964
         4        3914        3915        3966        3965
         4        3915        3916        3967        3966
         4        3916        3917        3968        3967
         4        3917        3918        3969        3968
         4        3918        3919        3970        3969
         4        3919        3920        3971        3970
         4        3920        3921        3972        3971
         4        3921        3922        3973        3972
         4        3922        3923        3974        3973
         4        3923        3924        3975        3974
         4        3924        3925        3976        3975
         4        3925        3926        3977        3976
         4        3927        3928        3979        3978
         4        3928        3929        3980        3979
         4        3929        3930        3981        3980
         4        3930        3931        3982        3981
         4        3931        3932        3983        3982
         4        3932        3933        3984        3983
         4        3933        3934        3985        3984
         4        3934        3935        3986        3985
         4        3935        3936        3987        3986
         4        3936        3937        3988        3987
         4        3937        3938        3989        3988
         4        3938        3939        3990        3989
         4        3939        3940        3991        3990
         4        3940        3941        3992        3991
         4        3941        3942        3993        3992
         4        3942        3943        3994        3993
         4        3943        3944        3995        3994
         4        3944        3945        3996        3995
         4        3945        3946        3997        3996
         4        3946        3947        3998        3997
         4        3947        3948        3999        3998
         4        3948        3949        4000        3999
         4        3949        3950        4001        4000
         4        3950        3951        4002        4001
         4        3951        3952        4003        4002
         4        3952        3953        4004        4003
         4        3953        3954        4005        4004
         4        3954        3955        4006        4005
         4        3955        3956        4007        4006
         4        3956        3957        4008        4007
         4        3957        3958        4009        4008
         4        3958        3959        4010        4009
         4        3959        3960        4011        4010
         4        3960        3961        4012        4011
         4        3961        3962        4013        4012
         4        3962        3963        4014        4013
         4        3963        3964        4015        4014
         4        3964        3965        4016        4015
         4        3965        3966        4017        4016
         4        3966        3967        4018        4017
         4        3967        3968        4019        4018
         4        3968        3969        4020        4019
         4        3969        3970        4021        4020
         4        3970        3971        4022        4021
         4        3971        3972        4023        4022
         4        3972        3973        4024        4023
         4        3973        3974        4025        4024
         4        3974        3975        4026        4025
         4        3975        3976        4027        4026
         4        3976        3977        4028        4027
         4        3978        3979        4030        4029
         4        3979        3980        4031        4030
         4        3980        3981        4032        4031
         4        3981        3982        4033        4032
         4        3982        3983        4034        4033
         4        3983        3984        4035        4034
         4        3984        3985        4036        4035
         4        3985        3986        4037        4036
         4        3986        3987        4038        4037
         4        3987        3988        4039        4038
         4        3988        3989        4040        4039
         4        3989        3990        4041        4040
         4        3990        3991        4042        4041
         4        3991        3992        4043        4042
         4        3992        3993        4044        4043
         4        3993        3994        4045        4044
         4        3994        3995        4046        4045
         4        3995        3996        4047        4046
         4        3996        3997        4048        4047
         4        3997        3998        4049        4048
         4        3998        3999        4050        4049
         4        3999        4000        4051        4050
         4        4000        4001        4052        4051
         4        4001        4002        4053        4052
         4        4002        4003        4054        4053
         4        4003        4004        4055        4054
         4        4004        4005        4056        4055
         4        4005        4006        4057        4056
         4        4006        4007        4058        4057
         4        4007        4008        4059        4058
         4        4008        4009        4060        4059
         4        4009        4010        4061        4060
         4        4010        4011        4062        4061
         4        4011        4012        4063        4062
         4        4012        4013        4064        4063
         4        4013        4014        4065        4064
         4        4014        4015        4066        4065
         4        4015        4016        4067        4066
         4        4016        4017        4068        4067
         4        4017        4018        4069        4068
         4        4018        4019        4070        4069
         4        4019        4020        4071        4070
         4        4020        4021        4072        4071
         4        4021        4022        4073        4072
         4        4022        4023        4074        4073
         4        4023        4024        4075        4074
         4        4024        4025        4076        4075
         4        4025        4026        4077        4076
         4        4026        4027        4078        4077
         4        4027        4028        4079        4078
         4        4029        4030        4081        4080
         4        4030        4031        4082        4081
         4        4031        4032        4083        4082
         4        4032        4033        4084        4083
         4        4033        4034        4085        4084
         4        4034        4035        4086        4085
         4        4035        4036        4087        4086
         4        4036        4037        4088        4087
         4        4037        4038        4089        4088
         4        4038        4039        4090        4089
         4        4039        4040        4091        4090
         4        4040        4041        4092        4091
         4        4041        4042        4093        4092
         4        4042        4043        4094        4093
         4        4043        4044        4095        4094
         4        4044        4045        4096        4095
         4        4045        4046        4097        4096
         4        4046        4047        4098        4097
         4        4047        4048        4099        4098
         4        4048        4049        4100        4099
         4        4049        4050        4101        4100
         4        4050        4051        4102        4101
         4        4051        4052        4103        4102
         4        4052        4053        4104        4103
         4        4053        4054        4105        4104
         4        4054        4055        4106        4105
         4        4055        4056        4107        4106
         4        4056        4057        4108        4107
         4        4057        4058        4109        4108
         4        4058        4059        4110        4109
         4        4059        4060        4111        4110
         4        4060        4061        4112        4111
         4        4061        4062        4113        4112
         4        4062        4063        4114        4113
         4        4063        4064        4115        4114
         4        4064        4065        4116        4115
         4        4065        4066        4117        4116
         4        4066        4067        4118        4117
         4        4067        4068        4119        4118
         4        4068        4069        4120        4119
         4        4069        4070        4121        4120
         4        4070        4071        4122        4121
         4        4071        4072        4123        4122
         4        4072        4073        4124        4123
         4        4073        4074        4125        4124
         4        4074        4075        4126        4125
         4        4075        4076        4127        4126
         4        4076        4077        4128        4127
         4        4077        4078        4129        4128
         4        4078        4079        4130        4129
         4        4080        4081        4132        4131
         4        4081        4082        4133        4132
         4        4082        4083        4134        4133
         4        4083        4084        4135        4134
         4        4084        4085        4136        4135
         4        4085        4086        4137        4136
         4        4086        4087        4138        4137
         4        4087        4088        4139        4138
         4        4088        4089        4140        4139
         4        4089        4090        4141        4140
         4        4090        4091        4142        4141
         4        4091        4092        4143        4142
         4        4092        4093        4144        4143
         4        4093        4094        4145        4144
         4        4094        4095        4146        4145
         4        4095        4096        4147        4146
         4        4096        4097        4148        4147
         4        4097        4098        4149        4148
         4        4098        4099        4150        4149
         4        4099        4100        4151        4150
         4        4100        4101        4152        4151
         4        4101        4102        4153        4152
         4        4102        4103        4154        4153
         4        4103        4104        4155        4154
         4        4104        4105        4156        4155
         4        4105        4106        4157        4156
         4        4106        4107        4158        4157
         4        4107        4108        4159        4158
         4        4108        4109        4160        4159
         4        4109        4110        4161        4160
         4        4110        4111        4162        4161
         4        4111        4112        4163        4162
         4        4112        4113        4164        4163
         4        4113        4114        4165        4164
         4        4114        4115        4166        4165
         4        4115        4116        4167        4166
         4        4116        4117        4168        4167
         4        4117        4118        4169        4168
         4        4118        4119        4170        4169
         4        4119        4120        4171        4170
         4        4120        4121        4172        4171
         4        4121        4122        4173        4172
         4        4122        4123        4174        4173
         4        4123        4124        4175        4174
         4        4124        4125        4176        4175
         4        4125        4126        4177        4176
         4        4126        4127        4178        4177
         4        4127        4128        4179        4178
         4        4128        4129        4180        4179
         4        4129        4130        4181        4180
         4        4131        4132        4183        4182
         4        4132        4133        4184        4183
         4        4133        4134        4185        4184
         4        4134        4135        4186        4185
         4        4135        4136        4187        4186
         4        4136        4137        4188        4187
         4        4137        4138        4189        4188
         4        4138        4139        4190        4189
         4        4139        4140        4191        4190
         4        4140        4141        4192        4191
         4        4141        4142        4193        4192
         4        4142        4143        4194        4193
         4        4143        4144        4195        4194
         4        4144        4145        4196        4195
         4        4145        4146        4197        4196
         4        4146        4147        4198        4197
         4        4147        4148        4199        4198
         4        4148        4149        4200        4199
         4        4149        4150        4201        4200
         4        4150        4151        4202        4201
         4        4151        4152        4203        4202
         4        4152        4153        4204        4203
         4        4153        4154        4205        4204
         4        4154        4155        4206        4205
         4        4155        4156        4207        4206
         4        4156        4157        4208        4207
         4        4157        4158        4209        4208
         4        4158        4159        4210        4209
         4        4159        4160        4211        4210
         4        4160        4161        4212        4211
         4        4161        4162        4213        4212
         4        4162        4163        4214        4213
         4        4163        4164        4215        4214
         4        4164        4165        4216        4215
         4        4165        4166        4217        4216
         4        4166        4167        4218        4217
         4        4167        4168        4219        4218
         4        4168        4169        4220        4219
         4        4169        4170        4221        4220
         4        4170        4171        4222        4221
         4        4171        4172        4223        4222
         4        4172        4173        4224        4223
         4        4173        4174        4225        4224
         4        4174        4175        4226        4225
         4        4175        4176        4227        4226
         4        4176        4177        4228        4227
         4        4177        4178        4229        4228
         4        4178        4179        4230        4229
         4        4179        4180        4231        4230
         4        4180        4181        4232        4231
         4        4182        4183        4234        4233
         4        4183        4184        4235        4234
         4        4184        4185        4236        4235
         4        4185        4186        4237        4236
         4        4186        4187        4238        4237
         4        4187        4188        4239        4238
         4        4188        4189        4240        4239
         4        4189        4190        4241        4240
         4        4190        4191        4242        4241
         4        4191        4192        4243        4242
         4        4192        4193        4244        4243
         4        4193        4194        4245        4244
         4        4194        4195        4246        4245
         4        4195        4196        4247        4246
         4        4196        4197        4248        4247
         4        4197        4198        4249        4248
         4        4198        4199        4250        4249
         4        4199        4200        4251        4250
         4        4200        4201        4252        4251
         4        4201        4202        4253        4252
         4        4202        4203        4254        4253
         4        4203        4204        4255        4254
         4        4204        4205        4256        4255
         4        4205        4206        4257        4256
         4        4206        4207        4258        4257
         4        4207        4208        4259        4258
         4        4208        4209        4260        4259
         4        4209        4210        4261        4260
         4        4210        4211        4262        4261
         4        4211        4212        4263        4262
         4        4212        4213        4264        4263
         4        4213        4214        4265        4264
         4        4214        4215        4266        4265
         4        4215        4216        4267        4266
         4        4216        4217        4268        4267
         4        4217        4218        4269        4268
         4        4218        4219        4270        4269
         4        4219        4220        4271        4270
         4        4220        4221        4272        4271
         4        4221        4222        4273        4272
         4        4222        4223        4274        4273
         4        4223        4224        4275        4274
         4        4224        4225        4276        4275
         4        4225        4226        4277        4276
         4        4226        4227        4278        4277
         4        4227        4228        4279        4278
         4        4228        4229        4280        4279
         4        4229        4230        4281        4280
         4        4230        4231        4282        4281
         4        4231        4232        4283        4282
         4        4233        4234        4285        4284
         4        4234        4235        4286        4285
         4        4235        4236        4287        4286
         4        4236        4237        4288        4287
         4        4237        4238        4289        4288
         4        4238        4239        4290        4289
         4        4239        4240        4291        4290
         4        4240        4241        4292        4291
         4        4241        4242        4293        4292
         4        4242        4243        4294        4293
         4        4243        4244        4295        4294
         4        4244        4245        4296        4295
         4        4245        4246        4297        4296
         4        4246        4247        4298        4297
         4        4247        4248        4299        4298
         4        4248        4249        4300        4299
         4        4249        4250        4301        4300
         4        4250        4251        4302        4301
         4        4251        4252        4303        4302
         4        4252        4253        4304        4303
         4        4253        4254        4305        4304
         4        4254        4255        4306        4305
         4        4255        4256        4307        4306
         4        4256        4257        4308        4307
         4        4257        4258        4309        4308
         4        4258        4259        4310        4309
         4        4259        4260        4311        4310
         4        4260        4261        4312        4311
         4        4261        4262        4313        4312
         4        4262        4263        4314        4313
         4        4263        4264        4315        4314
         4        4264        4265        4316        4315
         4        4265        4266        4317        4316
         4        4266        4267        4318        4317
         4        4267        4268        4319        4318
         4        4268        4269        4320        4319
         4        4269        4270        4321        4320
         4        4270        4271        4322        4321
         4        4271        4272        4323        4322
         4        4272        4273        4324        4323
         4        4273        4274        4325        4324
         4        4274        4275        4326        4325
         4        4275        4276        4327        4326
         4        4276        4277        4328        4327
         4        4277        4278        4329        4328
         4        4278        4279        4330        4329
         4        4279        4280        4331        4330
         4        4280        4281        4332        4331
         4        4281        4282        4333        4332
         4        4282        4283        4334        4333
         4        4284        4285        4336        4335
         4        4285        4286        4337        4336
         4        4286        4287        4338        4337
         4        4287        4288        4339        4338
         4        4288        4289        4340        4339
         4        4289        4290        4341        4340
         4        4290        4291        4342        4341
         4        4291        4292        4343        4342
         4        4292        4293        4344        4343
         4        4293        4294        4345        4344
         4        4294        4295        4346        4345
         4        4295        4296        4347        4346
         4        4296        4297        4348        4347
         4        4297        4298        4349        4348
         4        4298        4299        4350        4349
         4        4299        4300        4351        4350
         4        4300        4301        4352        4351
         4        4301        4302        4353        4352
         4        4302        4303        4354        4353
         4        4303        4304        4355        4354
         4        4304        4305        4356        4355
         4        4305        4306        4357        4356
         4        4306        4307        4358        4357
         4        4307        4308        4359        4358
         4        4308        4309        4360        4359
         4        4309        4310        4361        4360
         4        4310        4311        4362        4361
         4        4311        4312        4363        4362
         4        4312        4313        4364        4363
         4        4313        4314        4365        4364
         4        4314        4315        4366        4365
         4        4315        4316        4367        4366
         4        4316        4317        4368        4367
         4        4317        4318        4369        4368
         4        4318        4319        4370        4369
         4        4319        4320        4371        4370
         4        4320        4321        4372        4371
         4        4321        4322        4373        4372
         4        4322        4323        4374        4373
         4        4323        4324        4375        4374
         4        4324        4325        4376        4375
         4        4325        4326        4377        4376
         4        4326        4327        4378        4377
         4        4327        4328        4379        4378
         4        4328        4329        4380        4379
         4        4329        4330        4381        4380
         4        4330        4331        4382        4381
         4        4331        4332        4383        4382
         4        4332        4333        4384        4383
         4        4333        4334        4385        4384
         4        4335        4336        4387        4386
         4        4336        4337        4388        4387
         4        4337        4338        4389        4388
         4        4338        4339        4390        4389
         4        4339        4340        4391        4390
         4        4340        4341        4392        4391
         4        4341        4342        4393        4392
         4        4342        4343        4394        4393
         4        4343        4344        4395        4394
         4        4344        4345        4396        4395
         4        4345        4346        4397        4396
         4        4346        4347        4398        4397
         4        4347        4348        4399        4398
         4        4348        4349        4400        4399
         4        4349        4350        4401        4400
         4        4350        4351        4402        4401
         4        4351        4352        4403        4402
         4        4352        4353        4404        4403
         4        4353        4354        4405        4404
         4        4354        4355        4406        4405
         4        4355        4356        4407        4406
         4        4356        4357        4408        4407
         4        4357        4358        4409        4408
         4        4358        4359        4410        4409
         4        4359        4360        4411        4410
         4        4360        4361        4412        4411
         4        4361        4362        4413        4412
         4        4362        4363        4414        4413
         4        4363        4364        4415        4414
         4        4364        4365        4416        4415
         4        4365        4366        4417        4416
         4        4366        4367        4418        4417
         4        4367        4368        4419        4418
         4        4368        4369        4420        4419
         4        4369        4370        4421        4420
         4        4370        4371        4422        4421
         4        4371        4372        4423        4422
         4        4372        4373        4424        4423
         4        4373        4374        4425        4424
         4        4374        4375        4426        4425
         4        4375        4376        4427        4426
         4        4376        4377        4428        4427
         4        4377        4378        4429        4428
         4        4378        4379        4430        4429
         4        4379        4380        4431        4430
         4        4380        4381        4432        4431
         4        4381        4382        4433        4432
         4        4382        4383        4434        4433
         4        4383        4384        4435        4434
         4        4384        4385        4436        4435
         4        4386        4387        4438        4437
         4        4387        4388        4439        4438
         4        4388        4389        4440        4439
         4        4389        4390        4441        4440
         4        4390        4391        4442        4441
         4        4391        4392        4443        4442
         4        4392        4393        4444        4443
         4        4393        4394        4445        4444
         4        4394        4395        4446        4445
         4        4395        4396        4447        4446
         4        4396        4397        4448        4447
         4        4397        4398        4449        4448
         4        4398        4399        4450        4449
         4        4399        4400        4451        4450
         4        4400        4401        4452        4451
         4        4401        4402        4453        4452
         4        4402        4403        4454        4453
         4        4403        4404        4455        4454
         4        4404        4405        4456        4455
         4        4405        4406        4457        4456
         4        4406        4407        4458        4457
         4        4407        4408        4459        4458
         4        4408        4409        4460        4459
         4        4409        4410        4461        4460
         4        4410        4411        4462        4461
         4        4411        4412        4463        4462
         4        4412        4413        4464        4463
         4        4413        4414        4465        4464
         4        4414        4415        4466        4465
         4        4415        4416        4467        4466
         4        4416        4417        4468        4467
         4        4417        4418        4469        4468
         4        4418        4419        4470        4469
         4        4419        4420        4471        4470
         4        4420        4421        4472        4471
         4        4421        4422        4473        4472
         4        4422        4423        4474        4473
         4        4423        4424        4475        4474
         4        4424        4425        4476        4475
         4        4425        4426        4477        4476
         4        4426        4427        4478        4477
         4        4427        4428        4479        4478
         4        4428        4429        4480        4479
         4        4429        4430        4481        4480
         4        4430        4431        4482        4481
         4        4431        4432        4483        4482
         4        4432        4433        4484        4483
         4        4433        4434        4485        4484
         4        4434        4435        4486        4485
         4        4435        4436        4487        4486
         4        4437        4438        4489        4488
         4        4438        4439        4490        4489
         4        4439        4440        4491        4490
         4        4440        4441        4492        4491
         4        4441        4442        4493        4492
         4        4442        4443        4494        4493
         4        4443        4444        4495        4494
         4        4444        4445        4496        4495
         4        4445        4446        4497        4496
         4        4446        4447        4498        4497
         4        4447        4448        4499        4498
         4        4448        4449        4500        4499
         4        4449        4450        4501        4500
         4        4450        4451        4502        4501
         4        4451        4452        4503        4502
         4        4452        4453        4504        4503
         4        4453        4454        4505        4504
         4        4454        4455        4506        4505
         4        4455        4456        4507        4506
         4        4456        4457        4508        4507
         4        4457        4458        4509        4508
         4        4458        4459        4510        4509
         4        4459        4460        4511        4510
         4        4460        4461        4512        4511
         4        4461        4462        4513        4512
         4        4462        4463        4514        4513
         4        4463        4464        4515        4514
         4        4464        4465        4516        4515
         4        4465        4466        4517        4516
         4        4466        4467        4518        4517
         4        4467        4468        4519        4518
         4        4468        4469        4520        4519
         4        4469        4470        4521        4520
         4        4470        4471        4522        4521
         4        4471        4472        4523        4522
         4        4472        4473        4524        4523
         4        4473        4474        4525        4524
         4        4474        4475        4526        4525
         4        4475        4476        4527        4526
         4        4476        4477        4528        4527
         4        4477        4478        4529        4528
         4        4478        4479        4530        4529
         4        4479        4480        4531        4530
         4        4480        4481        4532        4531
         4        4481        4482        4533        4532
         4        4482        4483        4534        4533
         4        4483        4484        4535        4534
         4        4484        4485        4536        4535
         4        4485        4486        4537        4536
         4        4486        4487        4538        4537
         4        4488        4489        4540        4539
         4        4489        4490        4541        4540
         4        4490        4491        4542        4541
         4        4491        4492        4543        4542
         4        4492        4493        4544        4543
         4        4493        4494        4545        4544
         4        4494        4495        4546        4545
         4        4495        4496        4547        4546
         4        4496        4497        4548        4547
         4        4497        4498        4549        4548
         4        4498        4499        4550        4549
         4        4499        4500        4551        4550
         4        4500        4501        4552        4551
         4        4501        4502        4553        4552
         4        4502        4503        4554        4553
         4        4503        4504        4555        4554
         4        4504        4505        4556        4555
         4        4505        4506        4557        4556
         4        4506        4507        4558        4557
         4        4507        4508        4559        4558
         4        4508        4509        4560        4559
         4        4509        4510        4561        4560
         4        4510        4511        4562        4561
         4        4511        4512        4563        4562
         4        4512        4513        4564        4563
         4        4513        4514        4565        4564
         4        4514        4515        4566        4565
         4        4515        4516        4567        4566
         4        4516        4517        4568        4567
         4        4517        4518        4569        4568
         4        4518        4519        4570        4569
         4        4519        4520        4571        4570
         4        4520        4521        4572        4571
         4        4521        4522        4573        4572
         4        4522        4523        4574        4573
         4        4523        4524        4575        4574
         4        4524        4525        4576        4575
         4        4525        4526        4577        4576
         4        4526        4527        4578        4577
         4        4527        4528        4579        4578
         4        4528        4529        4580        4579
         4        4529        4530        4581        4580
         4        4530        4531        4582        4581
         4        4531        4532        4583        4582
         4        4532        4533        4584        4583
         4        4533        4534        4585        4584
         4        4534        4535        4586        4585
         4        4535        4536        4587        4586
         4        4536        4537        4588        4587
         4        4537        4538        4589        4588
         4        4539        4540        4591        4590
         4        4540        4541        4592        4591
         4        4541        4542        4593        4592
         4        4542        4543        4594        4593
         4        4543        4544        4595        4594
         4        4544        4545        4596        4595
         4        4545        4546        4597        4596
         4        4546        4547        4598        4597
         4        4547        4548        4599        4598
         4        4548        4549        4600        4599
         4        4549        4550        4601        4600
         4        4550        4551        4602        4601
         4        4551        4552        4603        4602
         4        4552        4553        4604        4603
         4        4553        4554        4605        4604
         4        4554        4555        4606        4605
         4        4555        4556        4607        4606
         4        4556        4557        4608        4607
         4        4557        4558        4609        4608
         4        4558        4559        4610        4609
         4        4559        4560        4611        4610
         4        4560        4561        4612        4611
         4        4561        4562        4613        4612
         4        4562        4563        4614        4613
         4        4563        4564        4615        4614
         4        4564        4565        4616        4615
         4        4565        4566        4617        4616
         4        4566        4567        4618        4617
         4        4567        4568        4619        4618
         4        4568        4569        4620        4619
         4        4569        4570        4621        4620
         4        4570        4571        4622        4621
         4        4571        4572        4623        4622
         4        4572        4573        4624        4623
         4        4573        4574        4625        4624
         4        4574        4575        4626        4625
         4        4575        4576        4627        4626
         4        4576        4577        4628        4627
         4        4577        4578        4629        4628
         4        4578        4579        4630        4629
         4        4579        4580        4631        4630
         4        4580        4581        4632        4631
         4        4581        4582        4633        4632
         4        4582        4583        4634        4633
         4        4583        4584        4635        4634
         4        4584        4585        4636        4635
         4        4585        4586        4637        4636
         4        4586        4587        4638        4637
         4        4587        4588        4639        4638
         4        4588        4589        4640        4639
         4        4590        4591        4642        4641
         4        4591        4592        4643        4642
         4        4592        4593        4644        4643
         4        4593        4594        4645        4644
         4        4594        4595        4646        4645
         4        4595        4596        4647        4646
         4        4596        4597        4648        4647
         4        4597        4598        4649        4648
         4        4598        4599        4650        4649
         4        4599        4600        4651        4650
         4        4600        4601        4652        4651
         4        4601        4602        4653        4652
         4        4602        4603        4654        4653
         4        4603        4604        4655        4654
         4        4604        4605        4656        4655
         4        4605        4606        4657        4656
         4        4606        4607        4658        4657
         4        4607        4608        4659        4658
         4        4608        4609        4660        4659
         4        4609        4610        4661        4660
         4        4610        4611        4662        4661
         4        4611        4612        4663        4662
         4        4612        4613        4664        4663
         4        4613        4614        4665        4664
         4        4614        4615        4666        4665
         4        4615        4616        4667        4666
         4        4616        4617        4668        4667
         4        4617        4618        4669        4668
         4        4618        4619        4670        4669
         4        4619        4620        4671        4670
         4        4620        4621        4672        4671
         4        4621        4622        4673        4672
         4        4622        4623        4674        4673
         4        4623        4624        4675        4674
         4        4624        4625        4676        4675
         4        4625        4626        4677        4676
         4        4626        4627        4678        4677
         4        4627        4628        4679        4678
         4        4628        4629        4680        4679
         4        4629        4630        4681        4680
         4        4630        4631        4682        4681
         4        4631        4632        4683        4682
         4        4632        4633        4684        4683
         4        4633        4634        4685        4684
         4        4634        4635        4686        4685
         4        4635        4636        4687        4686
         4        4636        4637        4688        4687
         4        4637        4638        4689        4688
         4        4638        4639        4690        4689
         4        4639        4640        4691        4690
         4        4641        4642        4693        4692
         4        4642        4643        4694        4693
         4        4643        4644        4695        4694
         4        4644        4645        4696        4695
         4        4645        4646        4697        4696
         4        4646        4647        4698        4697
         4        4647        4648        4699        4698
         4        4648        4649        4700        4699
         4        4649        4650        4701        4700
         4        4650        4651        4702        4701
         4        4651        4652        4703        4702
         4        4652        4653        4704        4703
         4        4653        4654        4705        4704
         4        4654        4655        4706        4705
         4        4655        4656        4707        4706
         4        4656        4657        4708        4707
         4        4657        4658        4709        4708
         4        4658        4659        4710        4709
         4        4659        4660        4711        4710
         4        4660        4661        4712        4711
         4        4661        4662        4713        4712
         4        4662        4663        4714        4713
         4        4663        4664        4715        4714
         4        4664        4665        4716        4715
         4        4665        4666        4717        4716
         4        4666        4667        4718        4717
         4        4667        4668        4719        4718
         4        4668        4669        4720        4719
         4        4669        4670        4721        4720
         4        4670        4671        4722        4721
         4        4671        4672        4723        4722
         4        4672        4673        4724        4723
         4        4673        4674        4725        4724
         4        4674        4675        4726        4725
         4        4675        4676        4727        4726
         4        4676        4677        4728        4727
         4        4677        4678        4729        4728
         4        4678        4679        4730        4729
         4        4679        4680        4731        4730
         4        4680        4681        4732        4731
         4        4681        4682        4733        4732
         4        4682        4683        4734        4733
         4        4683        4684        4735        4734
         4        4684        4685        4736        4735
         4        4685        4686        4737        4736
         4        4686        4687        4738        4737
         4        4687        4688        4739        4738
         4        4688        4689        4740        4739
         4        4689        4690        4741        4740
         4        4690        4691        4742        4741
         4        4692        4693        4744        4743
         4        4693        4694        4745        4744
         4        4694        4695        4746        4745
         4        4695        4696        4747        4746
         4        4696        4697        4748        4747
         4        4697        4698        4749        4748
         4        4698        4699        4750        4749
         4        4699        4700        4751        4750
         4        4700        4701        4752        4751
         4        4701        4702        4753        4752
         4        4702        4703        4754        4753
         4        4703        4704        4755        4754
         4        4704        4705        4756        4755
         4        4705        4706        4757        4756
         4        4706        4707        4758        4757
         4        4707        4708        4759        4758
         4        4708        4709        4760        4759
         4        4709        4710        4761        4760
         4        4710        4711        4762        4761
         4        4711        4712        4763        4762
         4        4712        4713        4764        4763
         4        4713        4714        4765        4764
         4        4714        4715        4766        4765
         4        4715        4716        4767        4766
         4        4716        4717        4768        4767
         4        4717        4718        4769        4768
         4        4718        4719        4770        4769
         4        4719        4720        4771        4770
         4        4720        4721        4772        4771
         4        4721        4722        4773        4772
         4        4722        4723        4774        4773
         4        4723        4724        4775        4774
         4        4724        4725        4776        4775
         4        4725        4726        4777        4776
         4        4726        4727        4778        4777
         4        4727        4728        4779        4778
         4        4728        4729        4780        4779
         4        4729        4730        4781        4780
         4        4730        4731        4782        4781
         4        4731        4732        4783        4782
         4        4732        4733        4784        4783
         4        4733        4734        4785        4784
         4        4734        4735        4786        4785
         4        4735        4736        4787        4786
         4        4736        4737        4788        4787
         4        4737        4738        4789        4788
         4        4738        4739        4790        4789
         4        4739        4740        4791        4790
         4        4740        4741        4792        4791
         4        4741        4742        4793        4792
         4        4743        4744        4795        4794
         4        4744        4745        4796        4795
         4        4745        4746        4797        4796
         4        4746        4747        4798        4797
         4        4747        4748        4799        4798
         4        4748        4749        4800        4799
         4        4749        4750        4801        4800
         4        4750        4751        4802        4801
         4        4751        4752        4803        4802
         4        4752        4753        4804        4803
         4        4753        4754        4805        4804
         4        4754        4755        4806        4805
         4        4755        4756        4807        4806
         4        4756        4757        4808        4807
         4        4757        4758        4809        4808
         4        4758        4759        4810        4809
         4        4759        4760        4811        4810
         4        4760        4761        4812        4811
         4        4761        4762        4813        4812
         4        4762        4763        4814        4813
         4        4763        4764        4815        4814
         4        4764        4765        4816        4815
         4        4765        4766        4817        4816
         4        4766        4767        4818        4817
         4        4767        4768        4819        4818
         4        4768        4769        4820        4819
         4        4769        4770        4821        4820
         4        4770        4771        4822        4821
         4        4771        4772        4823        4822
         4        4772        4773        4824        4823
         4        4773        4774        4825        4824
         4        4774        4775        4826        4825
         4        4775        4776        4827        4826
         4        4776        4777        4828        4827
         4        4777        4778        4829        4828
         4        4778        4779        4830        4829
         4        4779        4780        4831        4830
         4        4780        4781        4832        4831
         4        4781        4782        4833        4832
         4        4782        4783        4834        4833
         4        4783        4784        4835        4834
         4        4784        4785        4836        4835
         4        4785        4786        4837        4836
         4        4786        4787        4838        4837
         4        4787        4788        4839        4838
         4        4788        4789        4840        4839
         4        4789        4790        4841        4840
         4        4790        4791        4842        4841
         4        4791        4792        4843        4842
         4        4792        4793        4844        4843
         4        4794        4795        4846        4845
         4        4795        4796        4847        4846
         4        4796        4797        4848        4847
         4        4797        4798        4849        4848
         4        4798        4799        4850        4849
         4        4799        4800        4851        4850
         4        4800        4801        4852        4851
         4        4801        4802        4853        4852
         4        4802        4803        4854        4853
         4        4803        4804        4855        4854
         4        4804        4805        4856        4855
         4        4805        4806        4857        4856
         4        4806        4807        4858        4857
         4        4807        4808        4859        4858
         4        4808        4809        4860        4859
         4        4809        4810        4861        4860
         4        4810        4811        4862        4861
         4        4811        4812        4863        4862
         4        4812        4813        4864        4863
         4        4813        4814        4865        4864
         4        4814        4815        4866        4865
         4        4815        4816        4867        4866
         4        4816        4817        4868        4867
         4        4817        4818        4869        4868
         4        4818        4819        4870        4869
         4        4819        4820        4871        4870
         4        4820        4821        4872        4871
         4        4821        4822        4873        4872
         4        4822        4823        4874        4873
         4        4823        4824        4875        4874
         4        4824        4825        4876        4875
         4        4825        4826        4877        4876
         4        4826        4827        4878        4877
         4        4827        4828        4879        4878
         4        4828        4829        4880        4879
         4        4829        4830        4881        4880
         4        4830        4831        4882        4881
         4        4831        4832        4883        4882
         4        4832        4833        4884        4883
         4        4833        4834        4885        4884
         4        4834        4835        4886        4885
         4        4835        4836        4887        4886
         4        4836        4837        4888        4887
         4        4837        4838        4889        4888
         4        4838        4839        4890        4889
         4        4839        4840        4891        4890
         4        4840        4841        4892        4891
         4        4841        4842        4893        4892
         4        4842        4843        4894        4893
         4        4843        4844        4895        4894
         4        4845        4846        4897        4896
         4        4846        4847        4898        4897
         4        4847        4848        4899        4898
         4        4848        4849        4900        4899
         4        4849        4850        4901        4900
         4        4850        4851        4902        4901
         4        4851        4852        4903        4902
         4        4852        4853        4904        4903
         4        4853        4854        4905        4904
         4        4854        4855        4906        4905
         4        4855        4856        4907        4906
         4        4856        4857        4908        4907
         4        4857        4858        4909        4908
         4        4858        4859        4910        4909
         4        4859        4860        4911        4910
         4        4860        4861        4912        4911
         4        4861        4862        4913        4912
         4        4862        4863        4914        4913
         4        4863        4864        4915        4914
         4        4864        4865        4916        4915
         4        4865        4866        4917        4916
         4        4866        4867        4918        4917
         4        4867        4868        4919        4918
         4        4868        4869        4920        4919
         4        4869        4870        4921        4920
         4        4870        4871        4922        4921
         4        4871        4872        4923        4922
         4        4872        4873        4924        4923
         4        4873        4874        4925        4924
         4        4874        4875        4926        4925
         4        4875        4876        4927        4926
         4        4876        4877        4928        4927
         4        4877        4878        4929        4928
         4        4878        4879        4930        4929
         4        4879        4880        4931        4930
         4        4880        4881        4932        4931
         4        4881        4882        4933        4932
         4        4882        4883        4934        4933
         4        4883        4884        4935        4934
         4        4884        4885        4936        4935
         4        4885        4886        4937        4936
         4        4886        4887        4938        4937
         4        4887        4888        4939        4938
         4        4888        4889        4940        4939
         4        4889        4890        4941        4940
         4        4890        4891        4942        4941
         4        4891        4892        4943        4942
         4        4892        4893        4944        4943
         4        4893        4894        4945        4944
         4        4894        4895        4946        4945
         4        4896        4897        4948        4947
         4        4897        4898        4949        4948
         4        4898        4899        4950        4949
         4        4899        4900        4951        4950
         4        4900        4901        4952        4951
         4        4901        4902        4953        4952
         4        4902        4903        4954        4953
         4        4903        4904        4955        4954
         4        4904        4905        4956        4955
         4        4905        4906        4957        4956
         4        4906        4907        4958        4957
         4        4907        4908        4959        4958
         4        4908        4909        4960        4959
         4        4909        4910        4961        4960
         4        4910        4911        4962        4961
         4        4911        4912        4963        4962
         4        4912        4913        4964        4963
         4        4913        4914        4965        4964
         4        4914        4915        4966        4965
         4        4915        4916        4967        4966
         4        4916        4917        4968        4967
         4        4917        4918        4969        4968
         4        4918        4919        4970        4969
         4        4919        4920        4971        4970
         4        4920        4921        4972        4971
         4        4921        4922        4973        4972
         4        4922        4923        4974        4973
         4        4923        4924        4975        4974
         4        4924        4925        4976        4975
         4        4925        4926        4977        4976
         4        4926        4927        4978        4977
         4        4927        4928        4979        4978
         4        4928        4929        4980        4979
         4        4929        4930        4981        4980
         4        4930        4931        4982        4981
         4        4931        4932        4983        4982
         4        4932        4933        4984        4983
         4        4933        4934        4985        4984
         4        4934        4935        4986        4985
         4        4935        4936        4987        4986
         4        4936        4937        4988        4987
         4        4937        4938        4989        4988
         4        4938        4939        4990        4989
         4        4939        4940        4991        4990
         4        4940        4941        4992        4991
         4        4941        4942        4993        4992
         4        4942        4943        4994        4993
         4        4943        4944        4995        4994
         4        4944        4945        4996        4995
         4        4945        4946        4997        4996
         4        4947        4948        4999        4998
         4        4948        4949        5000        4999
         4        4949        4950        5001        5000
         4        4950        4951        5002        5001
         4        4951        4952        5003        5002
         4        4952        4953        5004        5003
         4        4953        4954        5005        5004
         4        4954        4955        5006        5005
         4        4955        4956        5007        5006
         4        4956        4957        5008        5007
         4        4957        4958        5009        5008
         4        4958        4959        5010        5009
         4        4959        4960        5011        5010
         4        4960        4961        5012        5011
         4        4961        4962        5013        5012
         4        4962        4963        5014        5013
         4        4963        4964        5015        5014
         4        4964        4965        5016        5015
         4        4965        4966        5017        5016
         4        4966        4967        5018        5017
         4        4967        4968        5019        5018
         4        4968        4969        5020        5019
         4        4969        4970        5021        5020
         4        4970        4971        5022        5021
         4        4971        4972        5023        5022
         4        4972        4973        5024        5023
         4        4973        4974        5025        5024
         4        4974        4975        5026        5025
         4        4975        4976        5027        5026
         4        4976        4977        5028        5027
         4        4977        4978        5029        5028
         4        4978        4979        5030        5029
         4        4979        4980        5031        5030
         4        4980        4981        5032        5031
         4        4981        4982        5033        5032
         4        4982        4983        5034        5033
         4        4983        4984        5035        5034
         4        4984        4985        5036        5035
         4        4985        4986        5037        5036
         4        4986        4987        5038        5037
         4        4987        4988        5039        5038
         4        4988        4989        5040        5039
         4        4989        4990        5041        5040
         4        4990        4991        5042        5041
         4        4991        4992        5043        5042
         4        4992        4993        5044        5043
         4        4993        4994        5045        5044
         4        4994        4995        5046        5045
         4        4995        4996        5047        5046
         4        4996        4997        5048        5047
         4        4998        4999        5050        5049
         4        4999        5000        5051        5050
         4        5000        5001        5052        5051
         4        5001        5002        5053        5052
         4        5002        5003        5054        5053
         4        5003        5004        5055        5054
         4        5004        5005        5056        5055
         4        5005        5006        5057        5056
         4        5006        5007        5058        5057
         4        5007        5008        5059        5058
         4        5008        5009        5060        5059
         4        5009        5010        5061        5060
         4        5010        5011        5062        5061
         4        5011        5012        5063        5062
         4        5012        5013        5064        5063
         4        5013        5014        5065        5064
         4        5014        5015        5066        5065
         4        5015        5016        5067        5066
         4        5016        5017        5068        5067
         4        5017        5018        5069        5068
         4        5018        5019        5070        5069
         4        5019        5020        5071        5070
         4        5020        5021        5072        5071
         4        5021        5022        5073        5072
         4        5022        5023        5074        5073
         4        5023        5024        5075        5074
         4        5024        5025        5076        5075
         4        5025        5026        5077        5076
         4        5026        5027        5078        5077
         4        5027        5028        5079        5078
         4        5028        5029        5080        5079
         4        5029        5030        5081        5080
         4        5030        5031        5082        5081
         4        5031        5032        5083        5082
         4        5032        5033        5084        5083
         4        5033        5034        5085        5084
         4        5034        5035        5086        5085
         4        5035        5036        5087        5086
         4        5036        5037        5088        5087
         4        5037        5038        5089        5088
         4        5038        5039        5090        5089
         4        5039        5040        5091        5090
         4        5040        5041        5092        5091
         4        5041        5042        5093        5092
         4        5042        5043        5094        5093
         4        5043        5044        5095        5094
         4        5044        5045        5096        5095
         4        5045        5046        5097        5096
         4        5046        5047        5098        5097
         4        5047        5048        5099        5098
         4        5049        5050        5101        5100
         4        5050        5051        5102        5101
         4        5051        5052        5103        5102
         4        5052        5053        5104        5103
         4        5053        5054        5105        5104
         4        5054        5055        5106        5105
         4        5055        5056        5107        5106
         4        5056        5057        5108        5107
         4        5057        5058        5109        5108
         4        5058        5059        5110        5109
         4        5059        5060        5111        5110
         4        5060        5061        5112        5111
         4        5061        5062        5113        5112
         4        5062        5063        5114        5113
         4        5063        5064        5115        5114
         4        5064        5065        5116        5115
         4        5065        5066        5117        5116
         4        5066        5067        5118        5117
         4        5067        5068        5119        5118
         4        5068        5069        5120        5119
         4        5069        5070        5121        5120
         4        5070        5071        5122        5121
         4        5071        5072        5123        5122
         4        5072        5073        5124        5123
         4        5073        5074        5125        5124
         4        5074        5075        5126        5125
         4        5075        5076        5127        5126
         4        5076        5077        5128        5127
         4        5077        5078        5129        5128
         4        5078        5079        5130        5129
         4        5079        5080        5131        5130
         4        5080        5081        5132        5131
         4        5081        5082        5133        5132
         4        5082        5083        5134        5133
         4        5083        5084        5135        5134
         4        5084        5085        5136        5135
         4        5085        5086        5137        5136
         4        5086        5087        5138        5137
         4        5087        5088        5139        5138
         4        5088        5089        5140        5139
         4        5089        5090        5141        5140
         4        5090        5091        5142        5141
         4        5091        5092        5143        5142
         4        5092        5093        5144        5143
         4        5093        5094        5145        5144
         4        5094        5095        5146        5145
         4        5095        5096        5147        5146
         4        5096        5097        5148        5147
         4        5097        5098        5149        5148
         4        5098        5099        5150        5149
CELL_TYPES       5000
9
9
9
9
9
9
9
9
9
9
9
9
9
9
9
9
9
9
9
9
9
9
9
9
9
9
9
9
9
9
9
9
9
9
9
9
9
9
9
9
9
9
9
9
9
9
9
9
9
9
9
9
9
9
9
9
9
9
9
9
9
9
9
9
9
9
9
9
9
9
9
9
9
9
9
9
9
9
9
9
9
9
9
9
9
9
9
9
9
9
9
9
9
9
9
9
9
9
9
9
9
9
9
9
9
9
9
9
9
9
9
9
9
9
9
9
9
9
9
9
9
9
9
9
9
9
9
9
9
9
9
9
9
9
9
9
9
9
9
9
9
9
9
9
9
9
9
9
9
9
9
9
9
9
9
9
9
9
9
9
9
9
9
9
9
9
9
9
9
9
9
9
9
9
9
9
9
9
9
9
9
9
9
9
9
9
9
9
9
9
9
9
9
9
9
9
9
9
9
9
9
9
9
9
9
9
9
9
9
9
9
9
9
9
9
9
9
9
9
9
9
9
9
9
9
9
9
9
9
9
9
9
9
9
9
9
9
9
9
9
9
9
9
9
9
9
9
9
9
9
9
9
9
9
9
9
9
9
9
9
9
9
9
9
9
9
9
9
9
9
9
9
9
9
9
9
9
9
9
9
9
9
9
9
9
9
9
9
9
9
9
9
9
9
9
9
9
9
9
9
9
9
9
9
9
9
9
9
9
9
9
9
9
9
9
9
9
9
9
9
9
9
9
9
9
9
9
9
9
9
9
9
9
9
9
9
9
9
9
9
9
9
9
9
9
9
9
9
9
9
9
9
9
9
9
9
9
9
9
9
9
9
9
9
9
9
9
9
9
9
9
9
9
9
9
9
9
9
9
9
9
9
9
9
9
9
9
9
9
9
9
9
9
9
9
9
9
9
9
9
9
9
9
9
9
9
9
9
9
9
9
9
9
9
9
9
9
9
9
9
9
9
9
9
9
9
9
9
9
9
9
9
9
9
9
9
9
9
9
9
9
9
9
9
9
9
9
9
9
9
9
9
9
9
9
9
9
9
9
9
9
9
9
9
9
9
9
9
9
9
9
9
9
9
9
9
9
9
9
9
9
9
9
9
9
9
9
9
9
9
9
9
9
9
9
9
9
9
9
9
9
9
9
9
9
9
9
9
9
9
9
9
9
9
9
9
9
9
9
9
9
9
9
9
9
9
9
9
9
9
9
9
9
9
9
9
9
9
9
9
9
9
9
9
9
9
9
9
9
9
9
9
9
9
9
9
9
9
9
9
9
9
9
9
9
9
9
9
9
9
9
9
9
9
9
9
9
9
9
9
9
9
9
9
9
9
9
9
9
9
9
9
9
9
9
9
9
9
9
9
9
9
9
9
9
9
9
9
9
9
9
9
9
9
9
9
9
9
9
9
9
9
9
9
9
9
9
9
9
9
9
9
9
9
9
9
9
9
9
9
9
9
9
9
9
9
9
9
9
9
9
9
9
9
9
9
9
9
9
9
9
9
9
9
9
9
9
9
9
9
9
9
9
9
9
9
9
9
9
9
9
9
9
9
9
9
9
9
9
9
9
9
9
9
9
9
9
9
9
9
9
9
9
9
9
9
9
9
9
9
9
9
9
9
9
9
9
9
9
9
9
9
9
9
9
9
9
9
9
9
9
9
9
9
9
9
9
9
9
9
9
9
9
9
9
9
9
9
9
9
9
9
9
9
9
9
9
9
9
9
9
9
9
9
9
9
9
9
9
9
9
9
9
9
9
9
9
9
9
9
9
9
9
9
9
9
9
9
9
9
9
9
9
9
9
9
9
9
9
9
9
9
9
9
9
9
9
9
9
9
9
9
9
9
9
9
9
9
9
9
9
9
9
9
9
9
9
9
9
9
9
9
9
9
9
9
9
9
9
9
9
9
9
9
9
9
9
9
9
9
9
9
9
9
9
9
9
9
9
9
9
9
9
9
9
9
9
9
9
9
9
9
9
9
9
9
9
9
9
9
9
9
9
9
9
9
9
9
9
9
9
9
9
9
9
9
9
9
9
9
9
9
9
9
9
9
9
9
9
9
9
9
9
9
9
9
9
9
9
9
9
9
9
9
9
9
9
9
9
9
9
9
9
9
9
9
9
9
9
9
9
9
9
9
9
9
9
9
9
9
9
9
9
9
9
9
9
9
9
9
9
9
9
9
9
9
9
9
9
9
9
9
9
9
9
9
9
9
9
9
9
9
9
9
9
9
9
9
9
9
9
9
9
9
9
9
9
9
9
9
9
9
9
9
9
9
9
9
9
9
9
9
9
9
9
9
9
9
9
9
9
9
9
9
9
9
9
9
9
9
9
9
9
9
9
9
9
9
9
9
9
9
9
9
9
9
9
9
9
9
9
9
9
9
9
9
9
9
9
9
9
9
9
9
9
9
9
9
9
9
9
9
9
9
9
9
9
9
9
9
9
9
9
9
9
9
9
9
9
9
9
9
9
9
9
9
9
9
9
9
9
9
9
9
9
9
9
9
9
9
9
9
9
9
9
9
9
9
9
9
9
9
9
9
9
9
9
9
9
9
9
9
9
9
9
9
9
9
9
9
9
9
9
9
9
9
9
9
9
9
9
9
9
9
9
9
9
9
9
9
9
9
9
9
9
9
9
9
9
9
9
9
9
9
9
9
9
9
9
9
9
9
9
9
9
9
9
9
9
9
9
9
9
9
9
9
9
9
9
9
9
9
9
9
9
9
9
9
9
9
9
9
9
9
9
9
9
9
9
9
9
9
9
9
9
9
9
9
9
9
9
9
9
9
9
9
9
9
9
9
9
9
9
9
9
9
9
9
9
9
9
9
9
9
9
9
9
9
9
9
9
9
9
9
9
9
9
9
9
9
9
9
9
9
9
9
9
9
9
9
9
9
9
9
9
9
9
9
9
9
9
9
9
9
9
9
9
9
9
9
9
9
9
9
9
9
9
9
9
9
9
9
9
9
9
9
9
9
9
9
9
9
9
9
9
9
9
9
9
9
9
9
9
9
9
9
9
9
9
9
9
9
9
9
9
9
9
9
9
9
9
9
9
9
9
9
9
9
9
9
9
9
9
9
9
9
9
9
9
9
9
9
9
9
9
9
9
9
9
9
9
9
9
9
9
9
9
9
9
9
9
9
9
9
9
9
9
9
9
9
9
9
9
9
9
9
9
9
9
9
9
9
9
9
9
9
9
9
9
9
9
9
9
9
9
9
9
9
9
9
9
9
9
9
9
9
9
9
9
9
9
9
9
9
9
9
9
9
9
9
9
9
9
9
9
9
9
9
9
9
9
9
9
9
9
9
9
9
9
9
9
9
9
9
9
9
9
9
9
9
9
9
9
9
9
9
9
9
9
9
9
9
9
9
9
9
9
9
9
9
9
9
9
9
9
9
9
9
9
9
9
9
9
9
9
9
9
9
9
9
9
9
9
9
9
9
9
9
9
9
9
9
9
9
9
9
9
9
9
9
9
9
9
9
9
9
9
9
9
9
9
9
9
9
9
9
9
9
9
9
9
9
9
9
9
9
9
9
9
9
9
9
9
9
9
9
9
9
9
9
9
9
9
9
9
9
9
9
9
9
9
9
9
9
9
9
9
9
9
9
9
9
9
9
9
9
9
9
9
9
9
9
9
9
9
9
9
9
9
9
9
9
9
9
9
9
9
9
9
9
9
9
9
9
9
9
9
9
9
9
9
9
9
9
9
9
9
9
9
9
9
9
9
9
9
9
9
9
9
9
9
9
9
9
9
9
9
9
9
9
9
9
9
9
9
9
9
9
9
9
9
9
9
9
9
9
9
9
9
9
9
9
9
9
9
9
9
9
9
9
9
9
9
9
9
9
9
9
9
9
9
9
9
9
9
9
9
9
9
9
9
9
9
9
9
9
9
9
9
9
9
9
9
9
9
9
9
9
9
9
9
9
9
9
9
9
9
9
9
9
9
9
9
9
9
9
9
9
9
9
9
9
9
9
9
9
9
9
9
9
9
9
9
9
9
9
9
9
9
9
9
9
9
9
9
9
9
9
9
9
9
9
9
9
9
9
9
9
9
9
9
9
9
9
9
9
9
9
9
9
9
9
9
9
9
9
9
9
9
9
9
9
9
9
9
9
9
9
9
9
9
9
9
9
9
9
9
9
9
9
9
9
9
9
9
9
9
9
9
9
9
9
9
9
9
9
9
9
9
9
9
9
9
9
9
9
9
9
9
9
9
9
9
9
9
9
9
9
9
9
9
9
9
9
9
9
9
9
9
9
9
9
9
9
9
9
9
9
9
9
9
9
9
9
9
9
9
9
9
9
9
9
9
9
9
9
9
9
9
9
9
9
9
9
9
9
9
9
9
9
9
9
9
9
9
9
9
9
9
9
9
9
9
9
9
9
9
9
9
9
9
9
9
9
9
9
9
9
9
9
9
9
9
9
9
9
9
9
9
9
9
9
9
9
9
9
9
9
9
9
9
9
9
9
9
9
9
9
9
9
9
9
9
9
9
9
9
9
9
9
9
9
9
9
9
9
9
9
9
9
9
9
9
9
9
9
9
9
9
9
9
9
9
9
9
9
9
9
9
9
9
9
9
9
9
9
9
9
9
9
9
9
9
9
9
9
9
9
9
9
9
9
9
9
9
9
9
9
9
9
9
9
9
9
9
9
9
9
9
9
9
9
9
9
9
9
9
9
9
9
9
9
9
9
9
9
9
9
9
9
9
9
9
9
9
9
9
9
9
9
9
9
9
9
9
9
9
9
9
9
9
9
9
9
9
9
9
9
9
9
9
9
9
9
9
9
9
9
9
9
9
9
9
9
9
9
9
9
9
9
9
9
9
9
9
9
9
9
9
9
9
9
9
9
9
9
9
9
9
9
9
9
9
9
9
9
9
9
9
9
9
9
9
9
9
9
9
9
9
9
9
9
9
9
9
9
9
9
9
9
9
9
9
9
9
9
9
9
9
9
9
9
9
9
9
9
9
9
9
9
9
9
9
9
9
9
9
9
9
9
9
9
9
9
9
9
9
9
9
9
9
9
9
9
9
9
9
9
9
9
9
9
9
9
9
9
9
9
9
9
9
9
9
9
9
9
9
9
9
9
9
9
9
9
9
9
9
9
9
9
9
9
9
9
9
9
9
9
9
9
9
9
9
9
9
9
9
9
9
9
9
9
9
9
9
9
9
9
9
9
9
9
9
9
9
9
9
9
9
9
9
9
9
9
9
9
9
9
9
9
9
9
9
9
9
9
9
9
9
9
9
9
9
9
9
9
9
9
9
9
9
9
9
9
9
9
9
9
9
9
9
9
9
9
9
9
9
9
9
9
9
9
9
9
9
9
9
9
9
9
9
9
9
9
9
9
9
9
9
9
9
9
9
9
9
9
9
9
9
9
9
9
9
9
9
9
9
9
9
9
9
9
9
9
9
9
9
9
9
9
9
9
9
9
9
9
9
9
9
9
9
9
9
9
9
9
9
9
9
9
9
9
9
9
9
9
9
9
9
9
9
9
9
9
9
9
9
9
9
9
9
9
9
9
9
9
9
9
9
9
9
9
9
9
9
9
9
9
9
9
9
9
9
9
9
9
9
9
9
9
9
9
9
9
9
9
9
9
9
9
9
9
9
9
9
9
9
9
9
9
9
9
9
9
9
9
9
9
9
9
9
9
9
9
9
9
9
9
9
9
9
9
9
9
9
9
9
9
9
9
9
9
9
9
9
9
9
9
9
9
9
9
9
9
9
9
9
9
9
9
9
9
9
9
9
9
9
9
9
9
9
9
9
9
9
9
9
9
9
9
9
9
9
9
9
9
9
9
9
9
9
9
9
9
9
9
9
9
9
9
9
9
9
9
9
9
9
9
9
9
9
9
9
9
9
9
9
9
9
9
9
9
9
9
9
9
9
9
9
9
9
9
9
9
9
9
9
9
9
9
9
9
9
9
9
9
9
9
9
9
9
9
9
9
9
9
9
9
9
9
9
9
9
9
9
9
9
9
9
9
9
9
9
9
9
9
9
9
9
9
9
9
9
9
9
9
9
9
9
9
9
9
9
9
9
9
9
9
9
9
9
9
9
9
9
9
9
9
9
9
9
9
9
9
9
9
9
9
9
9
9
9
9
9
9
9
9
9
9
9
9
9
9
9
9
9
9
9
9
9
9
9
9
9
9
9
9
9
9
9
9
9
9
9
9
9
9
9
9
9
9
9
9
9
9
9
9
9
9
9
9
9
9
9
9
9
9
9
9
9
9
9
9
9
9
9
9
9
9
9
9
9
9
9
9
9
9
9
9
9
9
9
9
9
9
9
9
9
9
9
9
9
9
9
9
9
9
9
9
9
9
9
9
9
9
9
9
9
9
9
9
9
9
9
9
9
9
9
9
9
9
9
9
9
9
9
9
9
9
9
9
9
9
9
9
9
9
9
9
9
9
9
9
9
9
9
9
9
9
9
9
9
9
9
9
9
9
9
9
9
9
9
9
9
9
9
9
9
9
9
9
9
9
9
9
9
9
9
9
9
9
9
9
9
9
9
9
9
9
9
9
9
9
9
9
9
9
9
9
9
9
9
9
9
9
9
9
9
9
9
9
9
9
9
9
9
9
9
9
9
9
9
9
9
9
9
9
9
9
9
9
9
9
9
9
9
9
9
9
9
9
9
9
9
9
9
9
9
9
9
9
9
9
9
9
9
9
9
9
9
9
9
9
9
9
9
9
9
9
9
9
9
9
9
9
9
9
9
9
9
9
9
9
9
9
9
9
9
9
9
9
9
9
9
9
9
9
9
9
9
9
9
9
9
9
9
9
9
9
9
9
9
9
9
9
9
9
9
9
9
9
9
9
9
9
9
9
9
9
9
9
9
9
9
9
9
9
9
9
9
9
9
9
9
9
9
9
9
9
9
9
9
9
9
9
9
9
9
9
9
9
9
9
9
9
9
9
9
9
9
9
9
9
9
9
9
9
9
9
9
9
9
9
9
9
9
9
9
9
9
9
9
9
9
9
9
9
9
9
9
9
9
9
9
9
9
9
9
9
9
9
9
9
9
9
9
9
9
9
9
9
9
9
9
9
9
9
9
9
9
9
9
9
9
9
9
9
9
9
9
9
9
9
9
9
9
9
9
9
9
9
9
9
9
9
9
9
9
9
9
9
9
9
9
9
9
9
9
9
9
9
9
9
9
9
9
9
9
9
9
9
9
9
9
9
9
9
9
9
9
9
9
9
9
9
9
9
9
9
9
9
9
9
9
9
9
9
9
9
9
9
9
9
9
9
9
9
9
9
9
9
9
9
9
9
9
9
9
9
9
9
9
9
9
9
9
9
9
9
9
9
9
9
9
9
9
9
9
9
9
9
9
9
9
9
9
9
9
9
9
9
9
9
9
9
9
9
9
9
9
9
9
9
9
9
9
9
9
9
9
9
9
9
9
9
9
9
9
9
9
9
9
9
9
9
9
9
9
9
9
9
9
9
9
9
9
9
9
9
9
9
9
9
9
9
9
9
9
9
9
9
9
9
9
9
9
9
9
9
9
9
9
9
9
9
9
9
9
9
9
9
9
9
9
9
9
9
9
9
9
9
9
9
9
9
9
9
9
9
9
9
9
9
9
9
9
9
9
9
9
9
9
9
9
9
9
9
9
9
9
9
9
9
9
9
9
9
9
9
9
9
9
9
9
9
9
9
9
9
9
9
9
9
9
9
9
9
9
9
9
9
9
9
9
9
9
9
9
9
9
9
9
9
9
9
9
9
9
9
9
9
9
9
9
9
9
9
9
9
9
9
9
9
9
9
9
9
9
9
9
9
9
9
9
9
9
9
9
9
9
9
9
9
9
9
9
9
9
9
9
9
9
9
9
9
9
9
9
9
9
9
9
9
9
9
9
9
9
9
9
9
9
9
9
9
9
9
9
9
9
9
9
9
9
9
9
9
9
9
9
9
9
9
9
9
9
9
9
9
9
9
9
9
9
9
9
9
9
9
9
9
9
9
9
9
9
9
9
9
9
9
9
9
9
9
9
9
9
9
9
9
9
9
9
9
9
9
9
9
9
9
9
9
9
9
9
9
9
9
9
9
9
9
9
9
9
9
9
9
9
9
9
9
9
9
9
9
9
9
9
9
9
9
9
9
9
9
9
9
9
9
9
9
9
9
9
9
9
9
9
9
9
9
9
9
9
9
9
9
9
9
9
9
9
9
9
9
9
9
9
9
9
9
9
9
9
9
9
9
9
9
9
9
9
9
9
9
9
9
9
9
9
9
9
9
9
9
9
9
9
9
9
9
9
9
9
9
9
9
9
9
9
9
9
9
9
9
9
9
9
9
9
9
9
9
9
9
9
9
9
9
9
9
9
9
9
9
9
9
9
9
9
9
9
9
9
9
9
9
9
9
9
9
9
9
9
9
9
9
9
9
9
9
9
9
9
9
9
9
9
9
9
9
9
9
9
9
9
9
9
9
9
9
9
9
9
9
9
9
9
9
9
9
9
9
9
9
9
9
9
9
9
9
9
9
9
9
9
9
9
9
9
9
9
9
9
9
9
9
9
9
9
9
9
9
9
9
9
9
9
9
9
9
9
9
9
9
9
9
9
9
9
9
9
9
9
9
9
9
9
9
9
9
9
9
9
9
9
9
9
9
9
9
9
9
9
9
9
9
9
9
9
9
9
9
9
9
9
9
9
9
9
9
9
9
9
9
9
9
9
9
9
9
9
9
9
9
9
9
9
9
9
9
9
9
9
9
9
9
9
9
9
9
9
9
9
9
9
9
9
9
9
9
9
9
9
9
9
9
9
9
9
9
9
9
9
9
9
9
9
9
9
9
9
9
9
9
9
9
9
9
9
9
9
9
9
9
9
9
9
9
9
9
9
9
9
9
9
9
9
9
9
9
9
9
9
9
9
9
9
9
9
9
9
9
9
9
9
9
9
9
9
9
9
9
9
9
9
9
9
9
9
9
9
9
9
9
9
9
9
9
9
9
9
9
9
9
9
9
9
9
9
9
9
9
9
9
9
9
9
9
9
9
9
9
9
9
9
9
9
9
9
9
9
9
9
9
9
9
9
9
9
9
9
9
9
9
9
9
9
9
9
9
9
9
9
9
9
9
9
9
9
9
9
9
9
9
9
9
9
9
9
9
9
9
9
9
9
9
9
9
9
9
9
9
9
9
9
9
9
9
9
9
9
9
9
9
9
9
9
9
9
9
9
9
9
9
9
9
9
9
9
9
9
9
9
9
9
9
9
9
9
9
9
9
9
9
9
9
9
9
9
9
9
9
9
9
9
9
9
9
9
9
9
9
9
9
9
9
9
9
9
9
9
9
9
9
9
9
9
9
9
9
9
9
9
9
9
9
9
9
9
9
9
9
9
9
9
9
9
9
9
9
9
9
9
9
9
9
9
9
9
9
9
9
9
9
9
9
9
9
9
9
9
9
9
9
9
9
9
9
9
9
9
9
9
9
9
9
9
9
9
9
9
9
9
9
9
9
9
9
9
9
9
9
9
9
9
9
9
9
9
9
9
9
9
9
9
9
9
9
9
9
9
9
9
9
9
9
9
9
9
9
9
9
9
9
9
9
9
9
9
9
9
9
9
9
9
9
9
9
9
9
9
9
9
9
9
9
9
9
9
9
9
9
9
9
9
9
9
9
9
9
9
9
9
9
9
9
9
9
9
9
9
9
9
9
9
9
9
9
9
9
9
9
9
9
9
9
9
9
9
9
9
9
9
9
9
9
9
9
9
9
9
9
9
9
9
9
9
9
9
9
9
9
9
9
9
9
9
9
9
9
9
9
9
9
9
9
9
9
9
9
9
9
9
9
9
9
9
9
9
9
9
9
9
9
9
9
9
9
9
9
9
9
9
9
9
9
9
9
9
9
9
9
9
9
9
9
9
9
9
9
9
9
9
9
9
9
9
9
9
9
9
9
9
9
9
9
9
9
9
9
9
9
9
9
9
9
9
9
9
9
9
9
9
9
9
9
9
9
9
9
9
9
9
9
9
9
9
9
9
9
9
9
9
9
9
9
9
9
9
9
9
9
9
9
9
9
9
9
9
9
9
9
9
9
9
9
9
9
9
9
9
9
9
9
9
9
9
9
9
9
9
9
9
9
9
9
9
9
9
9
9
9
9
9
9
9
9
9
9
9
9
9
9
9
9
9
9
9
9
9
9
9
9
9
9
9
9
9
9
9
9
9
9
9
9
9
9
9
9
9
9
9
9
9
9
9
9
9
9
9
9
9
9
9
9
9
9
9
9
9
9
9
9
9
9
9
9
9
9
9
9
9
9
9
9
9
9
9
9
9
9
9
9
9
9
9
9
9
9
9
9
9
9
9
9
9
9
9
9
9
9
9
9
9
9
9
9
9
9
9
9
9
9
9
9
9
9
9
9
9
9
9
9
9
9
9
9
9
9
9
9
9
9
9
9
9
9
9
9
9
9
9
9
9
9
9
9
9
9
9
9
9
9
9
9
9
9
9
9
9
9
9
9
9
9
9
9
9
9
9
9
9
9
9
9
9
9
9
9
9
9
9
9
9
9
9
9
9
9
9
9
9
9
9
9
9
9
9
9
9
9
9
9
9
9
9
9
9
9
9
9
9
9
9
9
9
9
9
9
9
9
9
9
9
9
9
9
9
9
9
9
9
9
9
9
9
9
9
9
9
9
9
9
9
9
9
9
9
9
9
9
9
9
9
9
9
9
9
9
9
9
9
9
9
9
9
9
9
9
9
9
9
9
9
9
9
9
9
9
9
9
9
9
9
9
9
9
9
9
9
9
9
9
9
9
9
9
9
9
9
9
9
9
9
9
9
9
9
9
9
9
9
9
9
9
9
9
9
9
9
9
9
9
9
9
9
9
9
9
9
9
9
9
9
9
9
9
9
9
9
9
9
9
9
9
9
9
9
9
9
9
9
9
9
9
9
9
9
9
9
9
9
9
9
9
9
9
9
9
9
9
9
9
9
9
9
9
9
9
9
9
9
9
9
9
9
9
9
9
9
9
9
9
9
9
9
9
9
9
9
9
9
9
9
9
9
9
9
9
9
9
9
9
9
9
9
9
9
9
9
9
9
9
9
9
9
9
9
9
9
9
9
9
9
9
9
9
9
9
9
9
9
9
9
9
9
9
9
9
9
9
9
9
9
9
9
9
9
9
9
9
9
9
9
9
9
9
9
9
9
9
9
9
9
9
9
9
9
9
9
9
9
9
9
9
9
9
9
9
9
9
9
9
9
9
9
9
9
9
9
9
9
9
9
9
9
9
POINT_DATA      5151
SCALARS p double 
LOOKUP_TABLE default
   70000000.0000000     
   70000000.0000000     
   70000000.0000000     
   70000000.0000000     
   70000000.0000000     
   70000000.0000000     
   70000000.0000000     
   70000000.0000000     
   70000000.0000000     
   70000000.0000000     
   70000000.0000000     
   70000000.0000000     
   70000000.0000000     
   70000000.0000000     
   70000000.0000000     
   70000000.0000000     
   70000000.0000000     
   70000000.0000000     
   70000000.0000000     
   70000000.0000000     
   70000000.0000000     
   70000000.0000000     
   70000000.0000000     
   70000000.0000000     
   70000000.0000000     
   70000000.0000000     
   70000000.0000000     
   70000000.0000000     
   70000000.0000000     
   70000000.0000000     
   70000000.0000000     
   70000000.0000000     
   70000000.0000000     
   70000000.0000000     
   70000000.0000000     
   70000000.0000000     
   70000000.0000000     
   70000000.0000000     
   70000000.0000000     
   70000000.0000000     
   70000000.0000000     
   70000000.0000000     
   70000000.0000000     
   70000000.0000000     
   70000000.0000000     
   70000000.0000000     
   70000000.0000000     
   70000000.0000000     
   70000000.0000000     
   70000000.0000000     
   70000000.0000000     
   61257013.3288800     
   61257013.3288800     
   61257013.3288800     
   61257013.3288800     
   61257013.3288800     
   61257013.3288800     
   61257013.3288801     
   61257013.3288800     
   61257013.3288800     
   61257013.3288800     
   61257013.3288800     
   61257013.3288800     
   61257013.3288800     
   61257013.3288800     
   61257013.3288800     
   61257013.3288800     
   61257013.3288800     
   61257013.3288799     
   61257013.3288800     
   61257013.3288800     
   61257013.3288800     
   61257013.3288800     
   61257013.3288800     
   61257013.3288800     
   61257013.3288800     
   61257013.3288800     
   61257013.3288800     
   61257013.3288800     
   61257013.3288800     
   61257013.3288800     
   61257013.3288800     
   61257013.3288800     
   61257013.3288800     
   61257013.3288800     
   61257013.3288801     
   61257013.3288801     
   61257013.3288801     
   61257013.3288801     
   61257013.3288801     
   61257013.3288801     
   61257013.3288801     
   61257013.3288801     
   61257013.3288801     
   61257013.3288801     
   61257013.3288801     
   61257013.3288801     
   61257013.3288801     
   61257013.3288801     
   61257013.3288801     
   61257013.3288801     
   61257013.3288801     
   55069926.3925258     
   55069926.3925258     
   55069926.3925259     
   55069926.3925258     
   55069926.3925258     
   55069926.3925258     
   55069926.3925258     
   55069926.3925257     
   55069926.3925257     
   55069926.3925257     
   55069926.3925257     
   55069926.3925257     
   55069926.3925257     
   55069926.3925257     
   55069926.3925257     
   55069926.3925258     
   55069926.3925257     
   55069926.3925258     
   55069926.3925258     
   55069926.3925258     
   55069926.3925258     
   55069926.3925258     
   55069926.3925258     
   55069926.3925257     
   55069926.3925257     
   55069926.3925257     
   55069926.3925256     
   55069926.3925256     
   55069926.3925256     
   55069926.3925256     
   55069926.3925257     
   55069926.3925257     
   55069926.3925258     
   55069926.3925258     
   55069926.3925258     
   55069926.3925258     
   55069926.3925258     
   55069926.3925258     
   55069926.3925258     
   55069926.3925258     
   55069926.3925258     
   55069926.3925258     
   55069926.3925259     
   55069926.3925258     
   55069926.3925258     
   55069926.3925257     
   55069926.3925257     
   55069926.3925257     
   55069926.3925257     
   55069926.3925257     
   55069926.3925257     
   51860549.0213376     
   51860549.0213376     
   51860549.0213376     
   51860549.0213376     
   51860549.0213376     
   51860549.0213375     
   51860549.0213375     
   51860549.0213374     
   51860549.0213375     
   51860549.0213375     
   51860549.0213376     
   51860549.0213377     
   51860549.0213377     
   51860549.0213377     
   51860549.0213377     
   51860549.0213377     
   51860549.0213377     
   51860549.0213377     
   51860549.0213377     
   51860549.0213377     
   51860549.0213377     
   51860549.0213377     
   51860549.0213377     
   51860549.0213377     
   51860549.0213377     
   51860549.0213377     
   51860549.0213377     
   51860549.0213377     
   51860549.0213377     
   51860549.0213377     
   51860549.0213378     
   51860549.0213378     
   51860549.0213378     
   51860549.0213378     
   51860549.0213378     
   51860549.0213378     
   51860549.0213378     
   51860549.0213377     
   51860549.0213377     
   51860549.0213376     
   51860549.0213376     
   51860549.0213376     
   51860549.0213376     
   51860549.0213376     
   51860549.0213376     
   51860549.0213376     
   51860549.0213376     
   51860549.0213376     
   51860549.0213376     
   51860549.0213376     
   51860549.0213376     
   50575377.4272274     
   50575377.4272274     
   50575377.4272274     
   50575377.4272274     
   50575377.4272274     
   50575377.4272274     
   50575377.4272274     
   50575377.4272275     
   50575377.4272275     
   50575377.4272275     
   50575377.4272275     
   50575377.4272275     
   50575377.4272275     
   50575377.4272276     
   50575377.4272276     
   50575377.4272276     
   50575377.4272276     
   50575377.4272277     
   50575377.4272277     
   50575377.4272277     
   50575377.4272276     
   50575377.4272276     
   50575377.4272276     
   50575377.4272276     
   50575377.4272276     
   50575377.4272277     
   50575377.4272277     
   50575377.4272277     
   50575377.4272277     
   50575377.4272277     
   50575377.4272277     
   50575377.4272277     
   50575377.4272277     
   50575377.4272277     
   50575377.4272276     
   50575377.4272276     
   50575377.4272276     
   50575377.4272276     
   50575377.4272276     
   50575377.4272277     
   50575377.4272277     
   50575377.4272276     
   50575377.4272276     
   50575377.4272276     
   50575377.4272276     
   50575377.4272276     
   50575377.4272276     
   50575377.4272275     
   50575377.4272275     
   50575377.4272275     
   50575377.4272275     
   50155490.2440614     
   50155490.2440614     
   50155490.2440614     
   50155490.2440614     
   50155490.2440614     
   50155490.2440614     
   50155490.2440614     
   50155490.2440614     
   50155490.2440614     
   50155490.2440614     
   50155490.2440614     
   50155490.2440615     
   50155490.2440614     
   50155490.2440615     
   50155490.2440615     
   50155490.2440615     
   50155490.2440615     
   50155490.2440616     
   50155490.2440616     
   50155490.2440616     
   50155490.2440616     
   50155490.2440616     
   50155490.2440616     
   50155490.2440616     
   50155490.2440617     
   50155490.2440617     
   50155490.2440617     
   50155490.2440617     
   50155490.2440616     
   50155490.2440616     
   50155490.2440617     
   50155490.2440617     
   50155490.2440616     
   50155490.2440616     
   50155490.2440617     
   50155490.2440616     
   50155490.2440616     
   50155490.2440616     
   50155490.2440617     
   50155490.2440617     
   50155490.2440617     
   50155490.2440617     
   50155490.2440616     
   50155490.2440615     
   50155490.2440615     
   50155490.2440614     
   50155490.2440614     
   50155490.2440614     
   50155490.2440614     
   50155490.2440614     
   50155490.2440614     
   50037867.9890603     
   50037867.9890603     
   50037867.9890604     
   50037867.9890604     
   50037867.9890604     
   50037867.9890604     
   50037867.9890604     
   50037867.9890603     
   50037867.9890603     
   50037867.9890603     
   50037867.9890603     
   50037867.9890603     
   50037867.9890603     
   50037867.9890604     
   50037867.9890604     
   50037867.9890604     
   50037867.9890604     
   50037867.9890605     
   50037867.9890605     
   50037867.9890605     
   50037867.9890605     
   50037867.9890605     
   50037867.9890604     
   50037867.9890605     
   50037867.9890604     
   50037867.9890604     
   50037867.9890604     
   50037867.9890605     
   50037867.9890605     
   50037867.9890605     
   50037867.9890605     
   50037867.9890605     
   50037867.9890605     
   50037867.9890605     
   50037867.9890606     
   50037867.9890606     
   50037867.9890605     
   50037867.9890605     
   50037867.9890604     
   50037867.9890604     
   50037867.9890604     
   50037867.9890604     
   50037867.9890604     
   50037867.9890604     
   50037867.9890603     
   50037867.9890603     
   50037867.9890603     
   50037867.9890603     
   50037867.9890603     
   50037867.9890602     
   50037867.9890602     
   50008506.6305474     
   50008506.6305474     
   50008506.6305473     
   50008506.6305473     
   50008506.6305473     
   50008506.6305473     
   50008506.6305473     
   50008506.6305473     
   50008506.6305472     
   50008506.6305471     
   50008506.6305471     
   50008506.6305471     
   50008506.6305471     
   50008506.6305471     
   50008506.6305472     
   50008506.6305472     
   50008506.6305472     
   50008506.6305473     
   50008506.6305473     
   50008506.6305473     
   50008506.6305472     
   50008506.6305472     
   50008506.6305472     
   50008506.6305472     
   50008506.6305472     
   50008506.6305473     
   50008506.6305473     
   50008506.6305474     
   50008506.6305474     
   50008506.6305474     
   50008506.6305474     
   50008506.6305475     
   50008506.6305474     
   50008506.6305473     
   50008506.6305473     
   50008506.6305473     
   50008506.6305473     
   50008506.6305473     
   50008506.6305473     
   50008506.6305473     
   50008506.6305473     
   50008506.6305473     
   50008506.6305473     
   50008506.6305473     
   50008506.6305472     
   50008506.6305472     
   50008506.6305471     
   50008506.6305471     
   50008506.6305471     
   50008506.6305471     
   50008506.6305471     
   50001792.8937529     
   50001792.8937530     
   50001792.8937529     
   50001792.8937529     
   50001792.8937530     
   50001792.8937529     
   50001792.8937529     
   50001792.8937528     
   50001792.8937528     
   50001792.8937528     
   50001792.8937528     
   50001792.8937528     
   50001792.8937528     
   50001792.8937528     
   50001792.8937528     
   50001792.8937527     
   50001792.8937528     
   50001792.8937528     
   50001792.8937528     
   50001792.8937528     
   50001792.8937528     
   50001792.8937527     
   50001792.8937527     
   50001792.8937528     
   50001792.8937528     
   50001792.8937528     
   50001792.8937528     
   50001792.8937529     
   50001792.8937529     
   50001792.8937530     
   50001792.8937530     
   50001792.8937529     
   50001792.8937529     
   50001792.8937529     
   50001792.8937529     
   50001792.8937529     
   50001792.8937529     
   50001792.8937529     
   50001792.8937530     
   50001792.8937530     
   50001792.8937530     
   50001792.8937529     
   50001792.8937529     
   50001792.8937528     
   50001792.8937528     
   50001792.8937528     
   50001792.8937527     
   50001792.8937527     
   50001792.8937527     
   50001792.8937527     
   50001792.8937527     
   50000359.0025245     
   50000359.0025245     
   50000359.0025245     
   50000359.0025246     
   50000359.0025246     
   50000359.0025246     
   50000359.0025245     
   50000359.0025245     
   50000359.0025245     
   50000359.0025244     
   50000359.0025244     
   50000359.0025243     
   50000359.0025243     
   50000359.0025243     
   50000359.0025243     
   50000359.0025243     
   50000359.0025243     
   50000359.0025243     
   50000359.0025243     
   50000359.0025243     
   50000359.0025243     
   50000359.0025242     
   50000359.0025242     
   50000359.0025242     
   50000359.0025242     
   50000359.0025243     
   50000359.0025243     
   50000359.0025243     
   50000359.0025243     
   50000359.0025243     
   50000359.0025244     
   50000359.0025244     
   50000359.0025244     
   50000359.0025244     
   50000359.0025243     
   50000359.0025243     
   50000359.0025243     
   50000359.0025243     
   50000359.0025243     
   50000359.0025243     
   50000359.0025244     
   50000359.0025243     
   50000359.0025244     
   50000359.0025243     
   50000359.0025243     
   50000359.0025242     
   50000359.0025242     
   50000359.0025242     
   50000359.0025242     
   50000359.0025242     
   50000359.0025242     
   50000068.9349172     
   50000068.9349172     
   50000068.9349172     
   50000068.9349172     
   50000068.9349172     
   50000068.9349172     
   50000068.9349172     
   50000068.9349171     
   50000068.9349171     
   50000068.9349170     
   50000068.9349170     
   50000068.9349170     
   50000068.9349170     
   50000068.9349169     
   50000068.9349169     
   50000068.9349169     
   50000068.9349169     
   50000068.9349169     
   50000068.9349169     
   50000068.9349169     
   50000068.9349169     
   50000068.9349169     
   50000068.9349168     
   50000068.9349168     
   50000068.9349168     
   50000068.9349168     
   50000068.9349169     
   50000068.9349169     
   50000068.9349170     
   50000068.9349170     
   50000068.9349170     
   50000068.9349169     
   50000068.9349170     
   50000068.9349169     
   50000068.9349169     
   50000068.9349169     
   50000068.9349169     
   50000068.9349169     
   50000068.9349169     
   50000068.9349169     
   50000068.9349169     
   50000068.9349168     
   50000068.9349168     
   50000068.9349168     
   50000068.9349167     
   50000068.9349167     
   50000068.9349167     
   50000068.9349167     
   50000068.9349167     
   50000068.9349167     
   50000068.9349167     
   50000012.7837267     
   50000012.7837267     
   50000012.7837268     
   50000012.7837268     
   50000012.7837268     
   50000012.7837268     
   50000012.7837268     
   50000012.7837267     
   50000012.7837267     
   50000012.7837266     
   50000012.7837266     
   50000012.7837265     
   50000012.7837265     
   50000012.7837265     
   50000012.7837265     
   50000012.7837264     
   50000012.7837264     
   50000012.7837264     
   50000012.7837264     
   50000012.7837265     
   50000012.7837264     
   50000012.7837264     
   50000012.7837264     
   50000012.7837264     
   50000012.7837264     
   50000012.7837264     
   50000012.7837264     
   50000012.7837264     
   50000012.7837264     
   50000012.7837264     
   50000012.7837264     
   50000012.7837264     
   50000012.7837264     
   50000012.7837264     
   50000012.7837264     
   50000012.7837264     
   50000012.7837264     
   50000012.7837264     
   50000012.7837264     
   50000012.7837264     
   50000012.7837264     
   50000012.7837263     
   50000012.7837263     
   50000012.7837263     
   50000012.7837262     
   50000012.7837262     
   50000012.7837262     
   50000012.7837262     
   50000012.7837262     
   50000012.7837262     
   50000012.7837262     
   50000002.3021419     
   50000002.3021419     
   50000002.3021419     
   50000002.3021419     
   50000002.3021419     
   50000002.3021419     
   50000002.3021419     
   50000002.3021418     
   50000002.3021417     
   50000002.3021417     
   50000002.3021416     
   50000002.3021416     
   50000002.3021416     
   50000002.3021416     
   50000002.3021416     
   50000002.3021416     
   50000002.3021416     
   50000002.3021416     
   50000002.3021416     
   50000002.3021416     
   50000002.3021416     
   50000002.3021416     
   50000002.3021416     
   50000002.3021415     
   50000002.3021415     
   50000002.3021415     
   50000002.3021415     
   50000002.3021415     
   50000002.3021415     
   50000002.3021416     
   50000002.3021416     
   50000002.3021416     
   50000002.3021416     
   50000002.3021416     
   50000002.3021416     
   50000002.3021416     
   50000002.3021416     
   50000002.3021416     
   50000002.3021415     
   50000002.3021415     
   50000002.3021415     
   50000002.3021414     
   50000002.3021414     
   50000002.3021414     
   50000002.3021413     
   50000002.3021412     
   50000002.3021412     
   50000002.3021412     
   50000002.3021412     
   50000002.3021412     
   50000002.3021412     
   50000000.4043292     
   50000000.4043292     
   50000000.4043292     
   50000000.4043292     
   50000000.4043292     
   50000000.4043292     
   50000000.4043292     
   50000000.4043291     
   50000000.4043291     
   50000000.4043290     
   50000000.4043290     
   50000000.4043290     
   50000000.4043290     
   50000000.4043290     
   50000000.4043290     
   50000000.4043289     
   50000000.4043290     
   50000000.4043290     
   50000000.4043290     
   50000000.4043290     
   50000000.4043290     
   50000000.4043290     
   50000000.4043290     
   50000000.4043289     
   50000000.4043289     
   50000000.4043289     
   50000000.4043289     
   50000000.4043289     
   50000000.4043289     
   50000000.4043289     
   50000000.4043289     
   50000000.4043288     
   50000000.4043289     
   50000000.4043289     
   50000000.4043289     
   50000000.4043289     
   50000000.4043289     
   50000000.4043289     
   50000000.4043288     
   50000000.4043288     
   50000000.4043288     
   50000000.4043287     
   50000000.4043287     
   50000000.4043287     
   50000000.4043286     
   50000000.4043286     
   50000000.4043286     
   50000000.4043286     
   50000000.4043285     
   50000000.4043285     
   50000000.4043285     
   50000000.0694964     
   50000000.0694965     
   50000000.0694965     
   50000000.0694965     
   50000000.0694965     
   50000000.0694964     
   50000000.0694964     
   50000000.0694964     
   50000000.0694963     
   50000000.0694962     
   50000000.0694962     
   50000000.0694962     
   50000000.0694962     
   50000000.0694962     
   50000000.0694962     
   50000000.0694962     
   50000000.0694962     
   50000000.0694962     
   50000000.0694963     
   50000000.0694963     
   50000000.0694963     
   50000000.0694962     
   50000000.0694962     
   50000000.0694961     
   50000000.0694961     
   50000000.0694961     
   50000000.0694961     
   50000000.0694961     
   50000000.0694961     
   50000000.0694961     
   50000000.0694961     
   50000000.0694961     
   50000000.0694961     
   50000000.0694961     
   50000000.0694961     
   50000000.0694961     
   50000000.0694961     
   50000000.0694961     
   50000000.0694961     
   50000000.0694961     
   50000000.0694960     
   50000000.0694960     
   50000000.0694960     
   50000000.0694959     
   50000000.0694959     
   50000000.0694959     
   50000000.0694958     
   50000000.0694958     
   50000000.0694958     
   50000000.0694958     
   50000000.0694958     
   50000000.0117228     
   50000000.0117228     
   50000000.0117228     
   50000000.0117228     
   50000000.0117228     
   50000000.0117228     
   50000000.0117227     
   50000000.0117227     
   50000000.0117226     
   50000000.0117225     
   50000000.0117225     
   50000000.0117225     
   50000000.0117225     
   50000000.0117224     
   50000000.0117224     
   50000000.0117224     
   50000000.0117225     
   50000000.0117225     
   50000000.0117225     
   50000000.0117226     
   50000000.0117226     
   50000000.0117225     
   50000000.0117225     
   50000000.0117225     
   50000000.0117224     
   50000000.0117224     
   50000000.0117224     
   50000000.0117224     
   50000000.0117224     
   50000000.0117224     
   50000000.0117224     
   50000000.0117224     
   50000000.0117224     
   50000000.0117224     
   50000000.0117225     
   50000000.0117225     
   50000000.0117225     
   50000000.0117225     
   50000000.0117225     
   50000000.0117224     
   50000000.0117224     
   50000000.0117223     
   50000000.0117223     
   50000000.0117223     
   50000000.0117222     
   50000000.0117221     
   50000000.0117221     
   50000000.0117221     
   50000000.0117221     
   50000000.0117221     
   50000000.0117222     
   50000000.0019452     
   50000000.0019452     
   50000000.0019452     
   50000000.0019452     
   50000000.0019452     
   50000000.0019451     
   50000000.0019451     
   50000000.0019451     
   50000000.0019450     
   50000000.0019450     
   50000000.0019449     
   50000000.0019449     
   50000000.0019449     
   50000000.0019449     
   50000000.0019448     
   50000000.0019449     
   50000000.0019449     
   50000000.0019449     
   50000000.0019450     
   50000000.0019450     
   50000000.0019450     
   50000000.0019450     
   50000000.0019450     
   50000000.0019449     
   50000000.0019449     
   50000000.0019449     
   50000000.0019449     
   50000000.0019448     
   50000000.0019449     
   50000000.0019449     
   50000000.0019449     
   50000000.0019448     
   50000000.0019448     
   50000000.0019448     
   50000000.0019448     
   50000000.0019448     
   50000000.0019448     
   50000000.0019448     
   50000000.0019448     
   50000000.0019448     
   50000000.0019448     
   50000000.0019447     
   50000000.0019447     
   50000000.0019446     
   50000000.0019446     
   50000000.0019445     
   50000000.0019445     
   50000000.0019445     
   50000000.0019445     
   50000000.0019445     
   50000000.0019445     
   50000000.0003182     
   50000000.0003182     
   50000000.0003182     
   50000000.0003182     
   50000000.0003182     
   50000000.0003182     
   50000000.0003182     
   50000000.0003181     
   50000000.0003180     
   50000000.0003180     
   50000000.0003180     
   50000000.0003179     
   50000000.0003179     
   50000000.0003179     
   50000000.0003179     
   50000000.0003179     
   50000000.0003179     
   50000000.0003179     
   50000000.0003180     
   50000000.0003180     
   50000000.0003180     
   50000000.0003180     
   50000000.0003180     
   50000000.0003179     
   50000000.0003178     
   50000000.0003178     
   50000000.0003179     
   50000000.0003179     
   50000000.0003179     
   50000000.0003179     
   50000000.0003179     
   50000000.0003179     
   50000000.0003179     
   50000000.0003180     
   50000000.0003179     
   50000000.0003179     
   50000000.0003179     
   50000000.0003179     
   50000000.0003179     
   50000000.0003179     
   50000000.0003178     
   50000000.0003177     
   50000000.0003177     
   50000000.0003176     
   50000000.0003175     
   50000000.0003175     
   50000000.0003174     
   50000000.0003174     
   50000000.0003174     
   50000000.0003174     
   50000000.0003174     
   50000000.0000514     
   50000000.0000515     
   50000000.0000515     
   50000000.0000515     
   50000000.0000515     
   50000000.0000514     
   50000000.0000513     
   50000000.0000513     
   50000000.0000513     
   50000000.0000512     
   50000000.0000512     
   50000000.0000512     
   50000000.0000512     
   50000000.0000512     
   50000000.0000512     
   50000000.0000512     
   50000000.0000513     
   50000000.0000513     
   50000000.0000513     
   50000000.0000513     
   50000000.0000513     
   50000000.0000513     
   50000000.0000512     
   50000000.0000512     
   50000000.0000512     
   50000000.0000512     
   50000000.0000511     
   50000000.0000511     
   50000000.0000512     
   50000000.0000512     
   50000000.0000512     
   50000000.0000512     
   50000000.0000512     
   50000000.0000512     
   50000000.0000512     
   50000000.0000512     
   50000000.0000512     
   50000000.0000512     
   50000000.0000512     
   50000000.0000511     
   50000000.0000511     
   50000000.0000510     
   50000000.0000510     
   50000000.0000509     
   50000000.0000509     
   50000000.0000508     
   50000000.0000507     
   50000000.0000507     
   50000000.0000507     
   50000000.0000507     
   50000000.0000507     
   50000000.0000083     
   50000000.0000083     
   50000000.0000083     
   50000000.0000084     
   50000000.0000084     
   50000000.0000083     
   50000000.0000083     
   50000000.0000082     
   50000000.0000082     
   50000000.0000081     
   50000000.0000081     
   50000000.0000080     
   50000000.0000080     
   50000000.0000080     
   50000000.0000081     
   50000000.0000081     
   50000000.0000082     
   50000000.0000082     
   50000000.0000082     
   50000000.0000082     
   50000000.0000082     
   50000000.0000082     
   50000000.0000081     
   50000000.0000081     
   50000000.0000080     
   50000000.0000080     
   50000000.0000080     
   50000000.0000080     
   50000000.0000080     
   50000000.0000080     
   50000000.0000080     
   50000000.0000079     
   50000000.0000080     
   50000000.0000080     
   50000000.0000080     
   50000000.0000080     
   50000000.0000080     
   50000000.0000080     
   50000000.0000079     
   50000000.0000079     
   50000000.0000079     
   50000000.0000078     
   50000000.0000078     
   50000000.0000078     
   50000000.0000077     
   50000000.0000076     
   50000000.0000076     
   50000000.0000076     
   50000000.0000076     
   50000000.0000076     
   50000000.0000076     
   50000000.0000014     
   50000000.0000014     
   50000000.0000014     
   50000000.0000014     
   50000000.0000014     
   50000000.0000015     
   50000000.0000014     
   50000000.0000014     
   50000000.0000013     
   50000000.0000013     
   50000000.0000013     
   50000000.0000012     
   50000000.0000012     
   50000000.0000012     
   50000000.0000012     
   50000000.0000013     
   50000000.0000013     
   50000000.0000013     
   50000000.0000013     
   50000000.0000013     
   50000000.0000013     
   50000000.0000013     
   50000000.0000012     
   50000000.0000012     
   50000000.0000011     
   50000000.0000011     
   50000000.0000011     
   50000000.0000011     
   50000000.0000011     
   50000000.0000011     
   50000000.0000011     
   50000000.0000011     
   50000000.0000011     
   50000000.0000011     
   50000000.0000011     
   50000000.0000011     
   50000000.0000010     
   50000000.0000010     
   50000000.0000010     
   50000000.0000010     
   50000000.0000010     
   50000000.0000009     
   50000000.0000009     
   50000000.0000009     
   50000000.0000008     
   50000000.0000007     
   50000000.0000007     
   50000000.0000006     
   50000000.0000006     
   50000000.0000006     
   50000000.0000006     
   50000000.0000003     
   50000000.0000003     
   50000000.0000003     
   50000000.0000003     
   50000000.0000003     
   50000000.0000003     
   50000000.0000003     
   50000000.0000003     
   50000000.0000002     
   50000000.0000002     
   50000000.0000002     
   50000000.0000001     
   50000000.0000001     
   50000000.0000001     
   50000000.0000001     
   50000000.0000001     
   50000000.0000001     
   50000000.0000002     
   50000000.0000002     
   50000000.0000002     
   50000000.0000002     
   50000000.0000002     
   50000000.0000001     
   50000000.0000001     
   50000000.0000000     
   50000000.0000000     
   50000000.0000000     
   50000000.0000000     
   50000000.0000000     
   50000000.0000000     
   50000000.0000000     
   50000000.0000000     
   50000000.0000000     
   50000000.0000000     
   50000000.0000000     
   50000000.0000000     
   50000000.0000000     
   50000000.0000000     
   50000000.0000000     
   50000000.0000000     
   49999999.9999999     
   49999999.9999999     
   49999999.9999998     
   49999999.9999998     
   49999999.9999997     
   49999999.9999997     
   49999999.9999996     
   49999999.9999996     
   49999999.9999996     
   49999999.9999996     
   49999999.9999996     
   50000000.0000001     
   50000000.0000001     
   50000000.0000001     
   50000000.0000001     
   50000000.0000001     
   50000000.0000001     
   50000000.0000001     
   50000000.0000000     
   50000000.0000000     
   50000000.0000000     
   49999999.9999999     
   49999999.9999999     
   49999999.9999999     
   49999999.9999999     
   49999999.9999999     
   49999999.9999999     
   49999999.9999999     
   49999999.9999999     
   49999999.9999999     
   50000000.0000000     
   50000000.0000000     
   50000000.0000000     
   50000000.0000000     
   50000000.0000000     
   50000000.0000000     
   49999999.9999999     
   49999999.9999999     
   49999999.9999999     
   49999999.9999999     
   49999999.9999999     
   49999999.9999999     
   49999999.9999999     
   49999999.9999999     
   49999999.9999999     
   49999999.9999999     
   49999999.9999999     
   49999999.9999999     
   49999999.9999999     
   49999999.9999998     
   49999999.9999998     
   49999999.9999998     
   49999999.9999997     
   49999999.9999997     
   49999999.9999997     
   49999999.9999996     
   49999999.9999995     
   49999999.9999995     
   49999999.9999994     
   49999999.9999994     
   49999999.9999994     
   49999999.9999994     
   50000000.0000001     
   50000000.0000001     
   50000000.0000001     
   50000000.0000001     
   50000000.0000001     
   50000000.0000001     
   50000000.0000001     
   50000000.0000000     
   50000000.0000000     
   49999999.9999999     
   49999999.9999999     
   49999999.9999998     
   49999999.9999998     
   49999999.9999998     
   49999999.9999998     
   49999999.9999998     
   49999999.9999999     
   49999999.9999999     
   49999999.9999999     
   50000000.0000000     
   50000000.0000000     
   50000000.0000000     
   49999999.9999999     
   49999999.9999999     
   49999999.9999999     
   49999999.9999999     
   49999999.9999999     
   49999999.9999999     
   49999999.9999999     
   49999999.9999999     
   49999999.9999999     
   49999999.9999999     
   49999999.9999999     
   49999999.9999999     
   49999999.9999999     
   49999999.9999999     
   49999999.9999999     
   49999999.9999999     
   49999999.9999999     
   49999999.9999999     
   49999999.9999998     
   49999999.9999998     
   49999999.9999997     
   49999999.9999997     
   49999999.9999996     
   49999999.9999995     
   49999999.9999995     
   49999999.9999995     
   49999999.9999994     
   49999999.9999994     
   49999999.9999994     
   50000000.0000002     
   50000000.0000002     
   50000000.0000002     
   50000000.0000002     
   50000000.0000002     
   50000000.0000002     
   50000000.0000001     
   50000000.0000001     
   50000000.0000000     
   50000000.0000000     
   49999999.9999999     
   49999999.9999999     
   49999999.9999999     
   49999999.9999998     
   49999999.9999998     
   49999999.9999999     
   49999999.9999999     
   49999999.9999999     
   49999999.9999999     
   50000000.0000000     
   50000000.0000000     
   49999999.9999999     
   49999999.9999999     
   49999999.9999999     
   49999999.9999999     
   49999999.9999999     
   49999999.9999998     
   49999999.9999998     
   49999999.9999999     
   49999999.9999999     
   49999999.9999999     
   49999999.9999999     
   49999999.9999999     
   49999999.9999999     
   50000000.0000000     
   50000000.0000000     
   49999999.9999999     
   50000000.0000000     
   49999999.9999999     
   49999999.9999999     
   49999999.9999999     
   49999999.9999998     
   49999999.9999998     
   49999999.9999997     
   49999999.9999996     
   49999999.9999996     
   49999999.9999995     
   49999999.9999995     
   49999999.9999995     
   49999999.9999995     
   49999999.9999995     
   50000000.0000003     
   50000000.0000003     
   50000000.0000003     
   50000000.0000003     
   50000000.0000003     
   50000000.0000003     
   50000000.0000002     
   50000000.0000001     
   50000000.0000001     
   50000000.0000000     
   49999999.9999999     
   49999999.9999999     
   49999999.9999999     
   49999999.9999999     
   49999999.9999999     
   49999999.9999998     
   49999999.9999999     
   49999999.9999999     
   49999999.9999999     
   50000000.0000000     
   49999999.9999999     
   49999999.9999999     
   49999999.9999999     
   49999999.9999999     
   49999999.9999999     
   49999999.9999999     
   49999999.9999999     
   49999999.9999999     
   49999999.9999999     
   49999999.9999999     
   49999999.9999999     
   49999999.9999999     
   49999999.9999999     
   50000000.0000000     
   50000000.0000000     
   50000000.0000000     
   50000000.0000000     
   50000000.0000000     
   49999999.9999999     
   49999999.9999999     
   49999999.9999998     
   49999999.9999998     
   49999999.9999998     
   49999999.9999997     
   49999999.9999997     
   49999999.9999996     
   49999999.9999996     
   49999999.9999996     
   49999999.9999995     
   49999999.9999995     
   49999999.9999996     
   50000000.0000003     
   50000000.0000003     
   50000000.0000003     
   50000000.0000003     
   50000000.0000003     
   50000000.0000002     
   50000000.0000002     
   50000000.0000001     
   50000000.0000001     
   50000000.0000000     
   50000000.0000000     
   49999999.9999999     
   49999999.9999999     
   49999999.9999999     
   49999999.9999998     
   49999999.9999998     
   49999999.9999999     
   49999999.9999999     
   49999999.9999999     
   49999999.9999999     
   49999999.9999999     
   49999999.9999999     
   49999999.9999999     
   49999999.9999998     
   49999999.9999998     
   49999999.9999998     
   49999999.9999998     
   49999999.9999998     
   49999999.9999998     
   49999999.9999998     
   49999999.9999998     
   49999999.9999998     
   49999999.9999998     
   49999999.9999999     
   49999999.9999999     
   49999999.9999999     
   49999999.9999999     
   49999999.9999999     
   49999999.9999999     
   49999999.9999999     
   49999999.9999999     
   49999999.9999998     
   49999999.9999998     
   49999999.9999997     
   49999999.9999996     
   49999999.9999996     
   49999999.9999996     
   49999999.9999996     
   49999999.9999995     
   49999999.9999995     
   49999999.9999995     
   50000000.0000003     
   50000000.0000003     
   50000000.0000003     
   50000000.0000003     
   50000000.0000003     
   50000000.0000002     
   50000000.0000002     
   50000000.0000001     
   50000000.0000001     
   50000000.0000000     
   49999999.9999999     
   49999999.9999999     
   49999999.9999999     
   49999999.9999998     
   49999999.9999999     
   49999999.9999998     
   49999999.9999998     
   49999999.9999999     
   49999999.9999999     
   49999999.9999999     
   49999999.9999999     
   49999999.9999998     
   49999999.9999998     
   49999999.9999998     
   49999999.9999997     
   49999999.9999997     
   49999999.9999997     
   49999999.9999997     
   49999999.9999998     
   49999999.9999998     
   49999999.9999998     
   49999999.9999998     
   49999999.9999998     
   49999999.9999998     
   49999999.9999999     
   49999999.9999999     
   49999999.9999999     
   49999999.9999999     
   49999999.9999999     
   49999999.9999998     
   49999999.9999998     
   49999999.9999997     
   49999999.9999997     
   49999999.9999996     
   49999999.9999996     
   49999999.9999995     
   49999999.9999995     
   49999999.9999995     
   49999999.9999995     
   49999999.9999995     
   49999999.9999995     
   50000000.0000002     
   50000000.0000003     
   50000000.0000003     
   50000000.0000003     
   50000000.0000003     
   50000000.0000002     
   50000000.0000001     
   50000000.0000001     
   50000000.0000000     
   49999999.9999999     
   49999999.9999999     
   49999999.9999999     
   49999999.9999999     
   49999999.9999999     
   49999999.9999999     
   49999999.9999999     
   49999999.9999999     
   49999999.9999999     
   49999999.9999999     
   49999999.9999999     
   49999999.9999999     
   49999999.9999999     
   49999999.9999998     
   49999999.9999998     
   49999999.9999997     
   49999999.9999997     
   49999999.9999997     
   49999999.9999997     
   49999999.9999998     
   49999999.9999998     
   49999999.9999998     
   49999999.9999998     
   49999999.9999999     
   49999999.9999999     
   49999999.9999999     
   49999999.9999999     
   49999999.9999999     
   49999999.9999999     
   49999999.9999999     
   49999999.9999998     
   49999999.9999998     
   49999999.9999997     
   49999999.9999997     
   49999999.9999996     
   49999999.9999995     
   49999999.9999995     
   49999999.9999995     
   49999999.9999995     
   49999999.9999995     
   49999999.9999994     
   49999999.9999995     
   50000000.0000001     
   50000000.0000001     
   50000000.0000001     
   50000000.0000001     
   50000000.0000002     
   50000000.0000002     
   50000000.0000001     
   50000000.0000001     
   50000000.0000000     
   50000000.0000000     
   49999999.9999999     
   49999999.9999999     
   49999999.9999999     
   49999999.9999999     
   49999999.9999999     
   49999999.9999999     
   49999999.9999999     
   49999999.9999999     
   49999999.9999999     
   50000000.0000000     
   50000000.0000000     
   49999999.9999999     
   49999999.9999999     
   49999999.9999999     
   49999999.9999998     
   49999999.9999998     
   49999999.9999998     
   49999999.9999998     
   49999999.9999998     
   49999999.9999998     
   49999999.9999998     
   49999999.9999998     
   49999999.9999999     
   49999999.9999999     
   49999999.9999999     
   49999999.9999999     
   49999999.9999999     
   49999999.9999999     
   49999999.9999998     
   49999999.9999998     
   49999999.9999998     
   49999999.9999997     
   49999999.9999997     
   49999999.9999996     
   49999999.9999996     
   49999999.9999995     
   49999999.9999995     
   49999999.9999994     
   49999999.9999994     
   49999999.9999994     
   49999999.9999994     
   50000000.0000001     
   50000000.0000001     
   50000000.0000002     
   50000000.0000002     
   50000000.0000002     
   50000000.0000002     
   50000000.0000001     
   50000000.0000001     
   50000000.0000000     
   50000000.0000000     
   49999999.9999999     
   49999999.9999999     
   49999999.9999999     
   49999999.9999998     
   49999999.9999999     
   49999999.9999999     
   49999999.9999999     
   49999999.9999999     
   49999999.9999999     
   49999999.9999999     
   49999999.9999999     
   49999999.9999999     
   49999999.9999999     
   49999999.9999998     
   49999999.9999998     
   49999999.9999998     
   49999999.9999998     
   49999999.9999998     
   49999999.9999999     
   49999999.9999998     
   49999999.9999998     
   49999999.9999998     
   49999999.9999998     
   49999999.9999998     
   49999999.9999999     
   49999999.9999999     
   49999999.9999999     
   49999999.9999999     
   49999999.9999999     
   49999999.9999998     
   49999999.9999998     
   49999999.9999998     
   49999999.9999998     
   49999999.9999997     
   49999999.9999996     
   49999999.9999995     
   49999999.9999995     
   49999999.9999995     
   49999999.9999994     
   49999999.9999994     
   49999999.9999994     
   50000000.0000002     
   50000000.0000002     
   50000000.0000002     
   50000000.0000002     
   50000000.0000002     
   50000000.0000001     
   50000000.0000001     
   50000000.0000000     
   50000000.0000000     
   49999999.9999999     
   49999999.9999999     
   49999999.9999998     
   49999999.9999999     
   49999999.9999999     
   49999999.9999999     
   49999999.9999999     
   49999999.9999999     
   49999999.9999999     
   50000000.0000000     
   50000000.0000000     
   50000000.0000000     
   49999999.9999999     
   49999999.9999999     
   49999999.9999998     
   49999999.9999998     
   49999999.9999998     
   49999999.9999998     
   49999999.9999998     
   49999999.9999999     
   49999999.9999999     
   49999999.9999999     
   49999999.9999998     
   49999999.9999999     
   49999999.9999999     
   49999999.9999999     
   49999999.9999999     
   49999999.9999999     
   49999999.9999999     
   49999999.9999998     
   49999999.9999998     
   49999999.9999997     
   49999999.9999997     
   49999999.9999997     
   49999999.9999997     
   49999999.9999996     
   49999999.9999996     
   49999999.9999995     
   49999999.9999995     
   49999999.9999995     
   49999999.9999995     
   49999999.9999995     
   50000000.0000002     
   50000000.0000002     
   50000000.0000002     
   50000000.0000002     
   50000000.0000002     
   50000000.0000002     
   50000000.0000001     
   50000000.0000001     
   50000000.0000000     
   50000000.0000000     
   49999999.9999999     
   49999999.9999999     
   49999999.9999999     
   49999999.9999999     
   49999999.9999999     
   49999999.9999999     
   49999999.9999999     
   49999999.9999999     
   49999999.9999999     
   49999999.9999999     
   49999999.9999999     
   49999999.9999999     
   49999999.9999999     
   49999999.9999999     
   49999999.9999998     
   49999999.9999998     
   49999999.9999998     
   49999999.9999998     
   49999999.9999999     
   49999999.9999999     
   49999999.9999999     
   49999999.9999999     
   49999999.9999999     
   50000000.0000000     
   50000000.0000000     
   50000000.0000000     
   50000000.0000000     
   50000000.0000000     
   50000000.0000000     
   49999999.9999999     
   49999999.9999999     
   49999999.9999999     
   49999999.9999998     
   49999999.9999998     
   49999999.9999997     
   49999999.9999996     
   49999999.9999995     
   49999999.9999995     
   49999999.9999995     
   49999999.9999994     
   49999999.9999994     
   50000000.0000003     
   50000000.0000003     
   50000000.0000003     
   50000000.0000003     
   50000000.0000002     
   50000000.0000002     
   50000000.0000002     
   50000000.0000001     
   50000000.0000000     
   50000000.0000000     
   49999999.9999999     
   49999999.9999999     
   49999999.9999999     
   49999999.9999999     
   49999999.9999999     
   49999999.9999998     
   49999999.9999999     
   49999999.9999999     
   49999999.9999999     
   49999999.9999999     
   50000000.0000000     
   49999999.9999999     
   49999999.9999999     
   49999999.9999999     
   49999999.9999999     
   49999999.9999999     
   49999999.9999999     
   49999999.9999999     
   49999999.9999999     
   49999999.9999999     
   49999999.9999999     
   49999999.9999999     
   49999999.9999999     
   49999999.9999999     
   50000000.0000000     
   50000000.0000000     
   50000000.0000000     
   50000000.0000000     
   50000000.0000000     
   50000000.0000000     
   49999999.9999999     
   49999999.9999999     
   49999999.9999998     
   49999999.9999998     
   49999999.9999997     
   49999999.9999996     
   49999999.9999996     
   49999999.9999996     
   49999999.9999995     
   49999999.9999995     
   49999999.9999995     
   50000000.0000002     
   50000000.0000002     
   50000000.0000002     
   50000000.0000002     
   50000000.0000002     
   50000000.0000002     
   50000000.0000002     
   50000000.0000001     
   50000000.0000001     
   50000000.0000000     
   50000000.0000000     
   49999999.9999999     
   49999999.9999999     
   49999999.9999999     
   49999999.9999999     
   49999999.9999999     
   49999999.9999999     
   49999999.9999999     
   50000000.0000000     
   50000000.0000000     
   50000000.0000000     
   49999999.9999999     
   49999999.9999999     
   49999999.9999999     
   49999999.9999999     
   49999999.9999999     
   49999999.9999999     
   49999999.9999999     
   49999999.9999999     
   49999999.9999999     
   49999999.9999999     
   49999999.9999999     
   49999999.9999999     
   49999999.9999999     
   49999999.9999999     
   49999999.9999999     
   49999999.9999999     
   49999999.9999999     
   49999999.9999999     
   49999999.9999999     
   49999999.9999999     
   49999999.9999998     
   49999999.9999998     
   49999999.9999998     
   49999999.9999997     
   49999999.9999996     
   49999999.9999996     
   49999999.9999996     
   49999999.9999995     
   49999999.9999995     
   49999999.9999995     
   50000000.0000001     
   50000000.0000001     
   50000000.0000001     
   50000000.0000002     
   50000000.0000001     
   50000000.0000001     
   50000000.0000001     
   50000000.0000001     
   50000000.0000000     
   50000000.0000000     
   49999999.9999999     
   49999999.9999999     
   49999999.9999999     
   49999999.9999999     
   49999999.9999999     
   49999999.9999999     
   49999999.9999999     
   49999999.9999999     
   50000000.0000000     
   50000000.0000000     
   50000000.0000000     
   49999999.9999999     
   49999999.9999999     
   49999999.9999999     
   49999999.9999998     
   49999999.9999998     
   49999999.9999998     
   49999999.9999998     
   49999999.9999999     
   49999999.9999999     
   49999999.9999999     
   49999999.9999999     
   49999999.9999999     
   49999999.9999999     
   50000000.0000000     
   50000000.0000000     
   50000000.0000000     
   50000000.0000000     
   50000000.0000000     
   49999999.9999999     
   49999999.9999999     
   49999999.9999999     
   49999999.9999998     
   49999999.9999997     
   49999999.9999997     
   49999999.9999996     
   49999999.9999996     
   49999999.9999995     
   49999999.9999995     
   49999999.9999995     
   49999999.9999995     
   50000000.0000000     
   50000000.0000000     
   50000000.0000000     
   50000000.0000000     
   50000000.0000000     
   50000000.0000000     
   50000000.0000000     
   50000000.0000000     
   50000000.0000000     
   49999999.9999999     
   49999999.9999999     
   49999999.9999999     
   49999999.9999999     
   49999999.9999999     
   49999999.9999999     
   49999999.9999999     
   49999999.9999999     
   50000000.0000000     
   50000000.0000000     
   50000000.0000000     
   50000000.0000000     
   50000000.0000000     
   49999999.9999999     
   49999999.9999999     
   49999999.9999999     
   49999999.9999999     
   49999999.9999999     
   49999999.9999998     
   49999999.9999999     
   49999999.9999999     
   49999999.9999999     
   49999999.9999999     
   49999999.9999999     
   49999999.9999999     
   49999999.9999999     
   50000000.0000000     
   50000000.0000000     
   50000000.0000000     
   50000000.0000000     
   49999999.9999999     
   49999999.9999999     
   49999999.9999998     
   49999999.9999998     
   49999999.9999997     
   49999999.9999997     
   49999999.9999996     
   49999999.9999996     
   49999999.9999995     
   49999999.9999995     
   49999999.9999995     
   49999999.9999995     
   49999999.9999999     
   49999999.9999999     
   50000000.0000000     
   50000000.0000000     
   50000000.0000000     
   50000000.0000000     
   50000000.0000000     
   50000000.0000000     
   49999999.9999999     
   49999999.9999999     
   49999999.9999999     
   49999999.9999998     
   49999999.9999998     
   49999999.9999998     
   49999999.9999999     
   49999999.9999999     
   49999999.9999999     
   49999999.9999999     
   50000000.0000000     
   50000000.0000000     
   50000000.0000000     
   49999999.9999999     
   49999999.9999999     
   49999999.9999999     
   49999999.9999999     
   49999999.9999999     
   49999999.9999999     
   49999999.9999998     
   49999999.9999999     
   49999999.9999999     
   49999999.9999999     
   49999999.9999999     
   49999999.9999999     
   49999999.9999999     
   50000000.0000000     
   50000000.0000000     
   50000000.0000000     
   50000000.0000000     
   50000000.0000000     
   50000000.0000000     
   49999999.9999999     
   49999999.9999998     
   49999999.9999998     
   49999999.9999997     
   49999999.9999996     
   49999999.9999996     
   49999999.9999996     
   49999999.9999995     
   49999999.9999995     
   49999999.9999995     
   49999999.9999995     
   50000000.0000001     
   50000000.0000001     
   50000000.0000001     
   50000000.0000001     
   50000000.0000001     
   50000000.0000001     
   50000000.0000000     
   50000000.0000000     
   50000000.0000000     
   49999999.9999999     
   49999999.9999999     
   49999999.9999999     
   49999999.9999999     
   49999999.9999998     
   49999999.9999999     
   49999999.9999999     
   49999999.9999999     
   49999999.9999999     
   50000000.0000000     
   50000000.0000000     
   50000000.0000000     
   50000000.0000000     
   49999999.9999999     
   49999999.9999999     
   49999999.9999999     
   49999999.9999999     
   49999999.9999998     
   49999999.9999998     
   49999999.9999999     
   49999999.9999999     
   49999999.9999999     
   49999999.9999999     
   49999999.9999999     
   49999999.9999999     
   50000000.0000000     
   50000000.0000000     
   50000000.0000000     
   50000000.0000000     
   50000000.0000000     
   49999999.9999999     
   49999999.9999999     
   49999999.9999998     
   49999999.9999998     
   49999999.9999997     
   49999999.9999997     
   49999999.9999996     
   49999999.9999996     
   49999999.9999995     
   49999999.9999995     
   49999999.9999995     
   49999999.9999995     
   50000000.0000001     
   50000000.0000001     
   50000000.0000002     
   50000000.0000002     
   50000000.0000002     
   50000000.0000002     
   50000000.0000002     
   50000000.0000001     
   50000000.0000000     
   50000000.0000000     
   49999999.9999999     
   49999999.9999999     
   49999999.9999999     
   49999999.9999999     
   49999999.9999998     
   49999999.9999998     
   49999999.9999999     
   49999999.9999999     
   50000000.0000000     
   50000000.0000000     
   50000000.0000000     
   50000000.0000000     
   50000000.0000000     
   49999999.9999999     
   49999999.9999999     
   49999999.9999999     
   49999999.9999999     
   49999999.9999999     
   49999999.9999999     
   49999999.9999999     
   49999999.9999999     
   49999999.9999999     
   49999999.9999999     
   50000000.0000000     
   50000000.0000000     
   50000000.0000000     
   50000000.0000000     
   50000000.0000000     
   50000000.0000000     
   49999999.9999999     
   49999999.9999999     
   49999999.9999998     
   49999999.9999998     
   49999999.9999997     
   49999999.9999996     
   49999999.9999996     
   49999999.9999996     
   49999999.9999996     
   49999999.9999996     
   49999999.9999996     
   49999999.9999996     
   50000000.0000002     
   50000000.0000002     
   50000000.0000002     
   50000000.0000002     
   50000000.0000002     
   50000000.0000002     
   50000000.0000001     
   50000000.0000001     
   50000000.0000000     
   49999999.9999999     
   49999999.9999999     
   49999999.9999999     
   49999999.9999998     
   49999999.9999998     
   49999999.9999998     
   49999999.9999998     
   49999999.9999999     
   49999999.9999999     
   49999999.9999999     
   50000000.0000000     
   50000000.0000000     
   49999999.9999999     
   49999999.9999999     
   49999999.9999999     
   49999999.9999999     
   49999999.9999999     
   49999999.9999999     
   49999999.9999999     
   49999999.9999999     
   49999999.9999999     
   49999999.9999999     
   49999999.9999999     
   50000000.0000000     
   50000000.0000000     
   50000000.0000000     
   50000000.0000000     
   50000000.0000000     
   50000000.0000000     
   49999999.9999999     
   49999999.9999999     
   49999999.9999998     
   49999999.9999998     
   49999999.9999997     
   49999999.9999997     
   49999999.9999996     
   49999999.9999996     
   49999999.9999996     
   49999999.9999996     
   49999999.9999996     
   49999999.9999996     
   49999999.9999996     
   50000000.0000002     
   50000000.0000002     
   50000000.0000002     
   50000000.0000002     
   50000000.0000002     
   50000000.0000002     
   50000000.0000001     
   50000000.0000000     
   50000000.0000000     
   49999999.9999999     
   49999999.9999999     
   49999999.9999999     
   49999999.9999999     
   49999999.9999999     
   49999999.9999999     
   49999999.9999999     
   49999999.9999999     
   50000000.0000000     
   50000000.0000000     
   50000000.0000000     
   50000000.0000000     
   49999999.9999999     
   49999999.9999999     
   49999999.9999999     
   49999999.9999998     
   49999999.9999998     
   49999999.9999998     
   49999999.9999998     
   49999999.9999999     
   49999999.9999999     
   49999999.9999999     
   49999999.9999999     
   49999999.9999999     
   50000000.0000000     
   50000000.0000000     
   50000000.0000000     
   50000000.0000000     
   50000000.0000000     
   50000000.0000000     
   50000000.0000000     
   50000000.0000000     
   49999999.9999999     
   49999999.9999999     
   49999999.9999998     
   49999999.9999997     
   49999999.9999996     
   49999999.9999996     
   49999999.9999995     
   49999999.9999995     
   49999999.9999995     
   49999999.9999995     
   50000000.0000002     
   50000000.0000002     
   50000000.0000002     
   50000000.0000002     
   50000000.0000002     
   50000000.0000001     
   50000000.0000001     
   50000000.0000001     
   50000000.0000000     
   49999999.9999999     
   49999999.9999999     
   49999999.9999999     
   49999999.9999999     
   49999999.9999998     
   49999999.9999999     
   49999999.9999999     
   49999999.9999999     
   49999999.9999999     
   50000000.0000000     
   50000000.0000000     
   50000000.0000000     
   50000000.0000000     
   49999999.9999999     
   49999999.9999999     
   49999999.9999999     
   49999999.9999998     
   49999999.9999998     
   49999999.9999999     
   49999999.9999999     
   49999999.9999999     
   49999999.9999999     
   49999999.9999999     
   49999999.9999999     
   50000000.0000000     
   50000000.0000000     
   50000000.0000000     
   50000000.0000000     
   50000000.0000000     
   50000000.0000000     
   50000000.0000000     
   49999999.9999999     
   49999999.9999999     
   49999999.9999998     
   49999999.9999998     
   49999999.9999997     
   49999999.9999996     
   49999999.9999996     
   49999999.9999995     
   49999999.9999995     
   49999999.9999995     
   49999999.9999995     
   50000000.0000002     
   50000000.0000002     
   50000000.0000002     
   50000000.0000002     
   50000000.0000002     
   50000000.0000002     
   50000000.0000001     
   50000000.0000001     
   50000000.0000000     
   50000000.0000000     
   50000000.0000000     
   50000000.0000000     
   50000000.0000000     
   49999999.9999999     
   49999999.9999999     
   49999999.9999999     
   50000000.0000000     
   50000000.0000000     
   50000000.0000000     
   50000000.0000000     
   50000000.0000000     
   50000000.0000000     
   50000000.0000000     
   49999999.9999999     
   49999999.9999999     
   49999999.9999999     
   49999999.9999999     
   49999999.9999999     
   50000000.0000000     
   50000000.0000000     
   50000000.0000000     
   50000000.0000000     
   50000000.0000000     
   50000000.0000000     
   50000000.0000000     
   50000000.0000000     
   50000000.0000000     
   50000000.0000000     
   50000000.0000000     
   50000000.0000000     
   50000000.0000000     
   49999999.9999999     
   49999999.9999999     
   49999999.9999998     
   49999999.9999997     
   49999999.9999997     
   49999999.9999997     
   49999999.9999996     
   49999999.9999996     
   49999999.9999996     
   49999999.9999996     
   50000000.0000002     
   50000000.0000002     
   50000000.0000002     
   50000000.0000002     
   50000000.0000002     
   50000000.0000002     
   50000000.0000001     
   50000000.0000001     
   50000000.0000001     
   50000000.0000001     
   50000000.0000000     
   50000000.0000000     
   50000000.0000000     
   50000000.0000000     
   50000000.0000000     
   50000000.0000000     
   50000000.0000000     
   50000000.0000000     
   50000000.0000001     
   50000000.0000001     
   50000000.0000001     
   50000000.0000000     
   50000000.0000000     
   50000000.0000000     
   49999999.9999999     
   49999999.9999999     
   50000000.0000000     
   50000000.0000000     
   50000000.0000000     
   50000000.0000000     
   50000000.0000000     
   50000000.0000000     
   50000000.0000000     
   50000000.0000001     
   50000000.0000000     
   50000000.0000000     
   50000000.0000000     
   50000000.0000000     
   50000000.0000000     
   50000000.0000000     
   49999999.9999999     
   49999999.9999998     
   49999999.9999998     
   49999999.9999997     
   49999999.9999997     
   49999999.9999996     
   49999999.9999996     
   49999999.9999996     
   49999999.9999996     
   49999999.9999996     
   49999999.9999996     
   50000000.0000002     
   50000000.0000002     
   50000000.0000002     
   50000000.0000002     
   50000000.0000003     
   50000000.0000003     
   50000000.0000003     
   50000000.0000002     
   50000000.0000001     
   50000000.0000001     
   50000000.0000000     
   50000000.0000000     
   50000000.0000000     
   50000000.0000000     
   50000000.0000000     
   50000000.0000001     
   50000000.0000001     
   50000000.0000001     
   50000000.0000001     
   50000000.0000001     
   50000000.0000001     
   50000000.0000001     
   50000000.0000000     
   50000000.0000000     
   49999999.9999999     
   49999999.9999999     
   49999999.9999999     
   49999999.9999999     
   49999999.9999999     
   50000000.0000000     
   49999999.9999999     
   49999999.9999999     
   49999999.9999999     
   49999999.9999999     
   49999999.9999999     
   50000000.0000000     
   50000000.0000000     
   50000000.0000000     
   49999999.9999999     
   49999999.9999999     
   49999999.9999999     
   49999999.9999998     
   49999999.9999998     
   49999999.9999998     
   49999999.9999997     
   49999999.9999996     
   49999999.9999996     
   49999999.9999995     
   49999999.9999995     
   49999999.9999996     
   49999999.9999996     
   50000000.0000002     
   50000000.0000002     
   50000000.0000003     
   50000000.0000003     
   50000000.0000003     
   50000000.0000002     
   50000000.0000002     
   50000000.0000001     
   50000000.0000001     
   50000000.0000001     
   50000000.0000001     
   50000000.0000000     
   50000000.0000000     
   50000000.0000000     
   50000000.0000000     
   50000000.0000000     
   50000000.0000000     
   50000000.0000000     
   50000000.0000000     
   50000000.0000001     
   50000000.0000001     
   50000000.0000000     
   50000000.0000000     
   49999999.9999999     
   49999999.9999999     
   49999999.9999999     
   49999999.9999999     
   49999999.9999999     
   49999999.9999999     
   49999999.9999999     
   49999999.9999999     
   49999999.9999999     
   49999999.9999999     
   49999999.9999999     
   49999999.9999999     
   49999999.9999999     
   49999999.9999999     
   49999999.9999999     
   49999999.9999999     
   49999999.9999999     
   49999999.9999999     
   49999999.9999999     
   49999999.9999998     
   49999999.9999998     
   49999999.9999997     
   49999999.9999997     
   49999999.9999997     
   49999999.9999996     
   49999999.9999996     
   49999999.9999996     
   49999999.9999996     
   50000000.0000002     
   50000000.0000002     
   50000000.0000003     
   50000000.0000003     
   50000000.0000003     
   50000000.0000002     
   50000000.0000002     
   50000000.0000001     
   50000000.0000001     
   50000000.0000000     
   50000000.0000000     
   49999999.9999999     
   49999999.9999999     
   49999999.9999999     
   50000000.0000000     
   50000000.0000000     
   50000000.0000000     
   50000000.0000000     
   50000000.0000000     
   50000000.0000000     
   50000000.0000000     
   50000000.0000000     
   49999999.9999999     
   49999999.9999999     
   49999999.9999999     
   49999999.9999999     
   49999999.9999999     
   49999999.9999999     
   49999999.9999999     
   49999999.9999999     
   49999999.9999999     
   49999999.9999999     
   49999999.9999999     
   49999999.9999999     
   49999999.9999999     
   49999999.9999999     
   49999999.9999999     
   49999999.9999999     
   49999999.9999998     
   49999999.9999998     
   49999999.9999998     
   49999999.9999997     
   49999999.9999997     
   49999999.9999997     
   49999999.9999996     
   49999999.9999996     
   49999999.9999996     
   49999999.9999996     
   49999999.9999995     
   49999999.9999995     
   49999999.9999995     
   50000000.0000002     
   50000000.0000002     
   50000000.0000002     
   50000000.0000002     
   50000000.0000002     
   50000000.0000002     
   50000000.0000002     
   50000000.0000002     
   50000000.0000001     
   50000000.0000000     
   50000000.0000000     
   49999999.9999999     
   49999999.9999999     
   49999999.9999999     
   49999999.9999999     
   49999999.9999999     
   49999999.9999999     
   49999999.9999999     
   50000000.0000000     
   50000000.0000000     
   50000000.0000000     
   49999999.9999999     
   49999999.9999999     
   49999999.9999999     
   49999999.9999999     
   49999999.9999999     
   49999999.9999999     
   49999999.9999998     
   49999999.9999999     
   49999999.9999999     
   49999999.9999998     
   49999999.9999998     
   49999999.9999998     
   49999999.9999999     
   49999999.9999999     
   49999999.9999999     
   49999999.9999999     
   49999999.9999999     
   49999999.9999999     
   49999999.9999999     
   49999999.9999998     
   49999999.9999998     
   49999999.9999997     
   49999999.9999997     
   49999999.9999996     
   49999999.9999995     
   49999999.9999995     
   49999999.9999995     
   49999999.9999995     
   49999999.9999995     
   49999999.9999995     
   50000000.0000001     
   50000000.0000001     
   50000000.0000001     
   50000000.0000001     
   50000000.0000001     
   50000000.0000001     
   50000000.0000001     
   50000000.0000000     
   50000000.0000000     
   50000000.0000000     
   49999999.9999999     
   49999999.9999999     
   49999999.9999999     
   49999999.9999998     
   49999999.9999998     
   49999999.9999998     
   49999999.9999998     
   49999999.9999999     
   49999999.9999999     
   49999999.9999999     
   49999999.9999999     
   49999999.9999999     
   49999999.9999999     
   49999999.9999998     
   49999999.9999998     
   49999999.9999998     
   49999999.9999998     
   49999999.9999998     
   49999999.9999998     
   49999999.9999998     
   49999999.9999998     
   49999999.9999998     
   49999999.9999998     
   49999999.9999999     
   49999999.9999999     
   49999999.9999999     
   49999999.9999999     
   49999999.9999999     
   49999999.9999999     
   49999999.9999998     
   49999999.9999998     
   49999999.9999997     
   49999999.9999997     
   49999999.9999997     
   49999999.9999996     
   49999999.9999996     
   49999999.9999996     
   49999999.9999996     
   49999999.9999995     
   49999999.9999995     
   49999999.9999995     
   50000000.0000000     
   50000000.0000000     
   50000000.0000000     
   50000000.0000000     
   50000000.0000001     
   50000000.0000001     
   50000000.0000000     
   50000000.0000000     
   49999999.9999999     
   49999999.9999999     
   49999999.9999999     
   49999999.9999998     
   49999999.9999998     
   49999999.9999998     
   49999999.9999998     
   49999999.9999998     
   49999999.9999998     
   49999999.9999998     
   49999999.9999999     
   49999999.9999999     
   49999999.9999999     
   49999999.9999998     
   49999999.9999998     
   49999999.9999998     
   49999999.9999998     
   49999999.9999998     
   49999999.9999998     
   49999999.9999998     
   49999999.9999999     
   49999999.9999999     
   49999999.9999999     
   49999999.9999999     
   49999999.9999999     
   50000000.0000000     
   50000000.0000000     
   50000000.0000000     
   50000000.0000000     
   49999999.9999999     
   49999999.9999999     
   49999999.9999999     
   49999999.9999998     
   49999999.9999998     
   49999999.9999997     
   49999999.9999997     
   49999999.9999996     
   49999999.9999996     
   49999999.9999996     
   49999999.9999996     
   49999999.9999996     
   49999999.9999995     
   49999999.9999995     
   50000000.0000001     
   50000000.0000001     
   50000000.0000001     
   50000000.0000001     
   50000000.0000001     
   50000000.0000000     
   50000000.0000000     
   50000000.0000000     
   49999999.9999999     
   49999999.9999999     
   49999999.9999999     
   49999999.9999998     
   49999999.9999998     
   49999999.9999998     
   49999999.9999998     
   49999999.9999998     
   49999999.9999998     
   49999999.9999999     
   49999999.9999999     
   49999999.9999999     
   50000000.0000000     
   49999999.9999999     
   49999999.9999999     
   49999999.9999998     
   49999999.9999998     
   49999999.9999998     
   49999999.9999998     
   49999999.9999998     
   49999999.9999999     
   49999999.9999999     
   49999999.9999999     
   49999999.9999999     
   49999999.9999999     
   50000000.0000000     
   50000000.0000000     
   50000000.0000000     
   50000000.0000000     
   50000000.0000000     
   49999999.9999999     
   49999999.9999999     
   49999999.9999999     
   49999999.9999998     
   49999999.9999998     
   49999999.9999997     
   49999999.9999997     
   49999999.9999996     
   49999999.9999995     
   49999999.9999995     
   49999999.9999995     
   49999999.9999995     
   49999999.9999995     
   50000000.0000001     
   50000000.0000001     
   50000000.0000001     
   50000000.0000001     
   50000000.0000001     
   50000000.0000001     
   50000000.0000001     
   50000000.0000000     
   50000000.0000000     
   49999999.9999999     
   49999999.9999999     
   49999999.9999999     
   49999999.9999999     
   49999999.9999999     
   49999999.9999999     
   49999999.9999999     
   49999999.9999999     
   49999999.9999999     
   50000000.0000000     
   50000000.0000000     
   50000000.0000000     
   50000000.0000000     
   50000000.0000000     
   49999999.9999999     
   49999999.9999999     
   49999999.9999999     
   49999999.9999998     
   49999999.9999998     
   49999999.9999999     
   49999999.9999999     
   49999999.9999999     
   49999999.9999999     
   49999999.9999999     
   49999999.9999999     
   49999999.9999999     
   50000000.0000000     
   50000000.0000000     
   50000000.0000000     
   50000000.0000000     
   50000000.0000000     
   49999999.9999999     
   49999999.9999998     
   49999999.9999998     
   49999999.9999997     
   49999999.9999997     
   49999999.9999996     
   49999999.9999996     
   49999999.9999996     
   49999999.9999996     
   49999999.9999996     
   49999999.9999996     
   50000000.0000002     
   50000000.0000002     
   50000000.0000002     
   50000000.0000002     
   50000000.0000002     
   50000000.0000002     
   50000000.0000002     
   50000000.0000001     
   50000000.0000000     
   50000000.0000000     
   49999999.9999999     
   49999999.9999999     
   49999999.9999999     
   49999999.9999999     
   49999999.9999999     
   49999999.9999999     
   49999999.9999999     
   49999999.9999999     
   50000000.0000000     
   50000000.0000000     
   50000000.0000000     
   50000000.0000000     
   49999999.9999999     
   49999999.9999999     
   49999999.9999999     
   49999999.9999999     
   49999999.9999999     
   49999999.9999999     
   49999999.9999999     
   49999999.9999999     
   49999999.9999999     
   49999999.9999999     
   49999999.9999999     
   50000000.0000000     
   50000000.0000000     
   50000000.0000000     
   50000000.0000000     
   49999999.9999999     
   49999999.9999999     
   49999999.9999999     
   49999999.9999998     
   49999999.9999998     
   49999999.9999998     
   49999999.9999997     
   49999999.9999997     
   49999999.9999996     
   49999999.9999996     
   49999999.9999996     
   49999999.9999996     
   49999999.9999996     
   49999999.9999996     
   50000000.0000003     
   50000000.0000003     
   50000000.0000003     
   50000000.0000003     
   50000000.0000003     
   50000000.0000003     
   50000000.0000002     
   50000000.0000002     
   50000000.0000001     
   50000000.0000000     
   50000000.0000000     
   49999999.9999999     
   49999999.9999999     
   49999999.9999999     
   49999999.9999999     
   49999999.9999999     
   49999999.9999999     
   49999999.9999999     
   49999999.9999999     
   50000000.0000000     
   50000000.0000000     
   49999999.9999999     
   49999999.9999999     
   49999999.9999999     
   49999999.9999998     
   49999999.9999999     
   49999999.9999999     
   49999999.9999999     
   49999999.9999999     
   49999999.9999999     
   49999999.9999999     
   49999999.9999999     
   49999999.9999999     
   49999999.9999999     
   49999999.9999999     
   50000000.0000000     
   50000000.0000000     
   50000000.0000000     
   49999999.9999999     
   49999999.9999999     
   49999999.9999998     
   49999999.9999998     
   49999999.9999997     
   49999999.9999997     
   49999999.9999996     
   49999999.9999996     
   49999999.9999996     
   49999999.9999996     
   49999999.9999996     
   49999999.9999996     
   49999999.9999996     
   50000000.0000002     
   50000000.0000002     
   50000000.0000002     
   50000000.0000002     
   50000000.0000002     
   50000000.0000002     
   50000000.0000002     
   50000000.0000001     
   50000000.0000000     
   50000000.0000000     
   50000000.0000000     
   49999999.9999999     
   49999999.9999999     
   49999999.9999999     
   49999999.9999999     
   49999999.9999999     
   49999999.9999999     
   49999999.9999999     
   49999999.9999999     
   49999999.9999999     
   49999999.9999999     
   49999999.9999999     
   49999999.9999999     
   49999999.9999999     
   49999999.9999999     
   49999999.9999998     
   49999999.9999998     
   49999999.9999998     
   49999999.9999999     
   49999999.9999999     
   49999999.9999999     
   49999999.9999999     
   49999999.9999999     
   49999999.9999999     
   49999999.9999999     
   50000000.0000000     
   49999999.9999999     
   49999999.9999999     
   49999999.9999999     
   49999999.9999999     
   49999999.9999998     
   49999999.9999998     
   49999999.9999997     
   49999999.9999997     
   49999999.9999996     
   49999999.9999996     
   49999999.9999996     
   49999999.9999996     
   49999999.9999996     
   49999999.9999996     
   49999999.9999996     
   50000000.0000002     
   50000000.0000002     
   50000000.0000002     
   50000000.0000002     
   50000000.0000002     
   50000000.0000001     
   50000000.0000001     
   50000000.0000000     
   49999999.9999999     
   49999999.9999999     
   49999999.9999999     
   49999999.9999998     
   49999999.9999998     
   49999999.9999998     
   49999999.9999998     
   49999999.9999998     
   49999999.9999998     
   49999999.9999999     
   49999999.9999999     
   50000000.0000000     
   50000000.0000000     
   49999999.9999999     
   49999999.9999999     
   49999999.9999999     
   49999999.9999998     
   49999999.9999998     
   49999999.9999998     
   49999999.9999998     
   49999999.9999999     
   49999999.9999999     
   49999999.9999999     
   49999999.9999999     
   49999999.9999999     
   49999999.9999999     
   49999999.9999999     
   49999999.9999999     
   50000000.0000000     
   50000000.0000000     
   50000000.0000000     
   49999999.9999999     
   49999999.9999999     
   49999999.9999998     
   49999999.9999998     
   49999999.9999998     
   49999999.9999998     
   49999999.9999997     
   49999999.9999997     
   49999999.9999997     
   49999999.9999996     
   49999999.9999996     
   49999999.9999996     
   50000000.0000001     
   50000000.0000001     
   50000000.0000001     
   50000000.0000001     
   50000000.0000002     
   50000000.0000001     
   50000000.0000001     
   50000000.0000001     
   50000000.0000000     
   49999999.9999999     
   49999999.9999999     
   49999999.9999998     
   49999999.9999998     
   49999999.9999998     
   49999999.9999998     
   49999999.9999998     
   49999999.9999998     
   49999999.9999998     
   49999999.9999999     
   49999999.9999999     
   50000000.0000000     
   49999999.9999999     
   49999999.9999999     
   49999999.9999998     
   49999999.9999998     
   49999999.9999998     
   49999999.9999998     
   49999999.9999998     
   49999999.9999998     
   49999999.9999999     
   49999999.9999999     
   49999999.9999999     
   49999999.9999999     
   50000000.0000000     
   50000000.0000000     
   50000000.0000000     
   50000000.0000000     
   50000000.0000000     
   50000000.0000000     
   50000000.0000000     
   50000000.0000000     
   49999999.9999999     
   49999999.9999999     
   49999999.9999999     
   49999999.9999998     
   49999999.9999997     
   49999999.9999997     
   49999999.9999997     
   49999999.9999997     
   49999999.9999997     
   49999999.9999996     
   50000000.0000002     
   50000000.0000002     
   50000000.0000003     
   50000000.0000003     
   50000000.0000003     
   50000000.0000003     
   50000000.0000002     
   50000000.0000001     
   50000000.0000001     
   50000000.0000000     
   49999999.9999999     
   49999999.9999999     
   49999999.9999999     
   49999999.9999999     
   49999999.9999999     
   49999999.9999999     
   49999999.9999999     
   49999999.9999999     
   49999999.9999999     
   50000000.0000000     
   49999999.9999999     
   49999999.9999999     
   49999999.9999999     
   49999999.9999998     
   49999999.9999998     
   49999999.9999998     
   49999999.9999998     
   49999999.9999998     
   49999999.9999999     
   49999999.9999999     
   49999999.9999998     
   49999999.9999998     
   49999999.9999999     
   49999999.9999999     
   50000000.0000000     
   50000000.0000000     
   50000000.0000000     
   50000000.0000000     
   50000000.0000000     
   50000000.0000000     
   50000000.0000000     
   49999999.9999999     
   49999999.9999999     
   49999999.9999998     
   49999999.9999997     
   49999999.9999997     
   49999999.9999997     
   49999999.9999997     
   49999999.9999997     
   49999999.9999997     
   49999999.9999997     
   50000000.0000001     
   50000000.0000001     
   50000000.0000001     
   50000000.0000001     
   50000000.0000002     
   50000000.0000001     
   50000000.0000001     
   50000000.0000001     
   50000000.0000000     
   50000000.0000000     
   50000000.0000000     
   49999999.9999999     
   49999999.9999999     
   49999999.9999999     
   49999999.9999999     
   49999999.9999999     
   50000000.0000000     
   50000000.0000000     
   50000000.0000000     
   50000000.0000000     
   50000000.0000000     
   50000000.0000000     
   49999999.9999999     
   49999999.9999999     
   49999999.9999999     
   49999999.9999999     
   49999999.9999998     
   49999999.9999998     
   49999999.9999999     
   49999999.9999999     
   50000000.0000000     
   50000000.0000000     
   50000000.0000000     
   50000000.0000000     
   50000000.0000000     
   50000000.0000000     
   50000000.0000000     
   50000000.0000000     
   50000000.0000000     
   50000000.0000000     
   50000000.0000000     
   49999999.9999999     
   49999999.9999999     
   49999999.9999998     
   49999999.9999998     
   49999999.9999997     
   49999999.9999997     
   49999999.9999996     
   49999999.9999996     
   49999999.9999997     
   49999999.9999997     
   50000000.0000001     
   50000000.0000001     
   50000000.0000002     
   50000000.0000001     
   50000000.0000002     
   50000000.0000002     
   50000000.0000001     
   50000000.0000001     
   50000000.0000001     
   50000000.0000000     
   50000000.0000000     
   49999999.9999999     
   50000000.0000000     
   50000000.0000000     
   50000000.0000000     
   50000000.0000000     
   50000000.0000000     
   50000000.0000001     
   50000000.0000001     
   50000000.0000001     
   50000000.0000001     
   50000000.0000000     
   50000000.0000000     
   49999999.9999999     
   49999999.9999999     
   49999999.9999999     
   49999999.9999999     
   49999999.9999999     
   49999999.9999999     
   49999999.9999999     
   49999999.9999999     
   49999999.9999999     
   49999999.9999999     
   49999999.9999999     
   50000000.0000000     
   50000000.0000000     
   50000000.0000000     
   50000000.0000000     
   50000000.0000000     
   50000000.0000000     
   50000000.0000000     
   49999999.9999999     
   49999999.9999999     
   49999999.9999998     
   49999999.9999997     
   49999999.9999997     
   49999999.9999996     
   49999999.9999996     
   49999999.9999995     
   49999999.9999995     
   49999999.9999995     
   50000000.0000002     
   50000000.0000002     
   50000000.0000002     
   50000000.0000002     
   50000000.0000002     
   50000000.0000002     
   50000000.0000001     
   50000000.0000001     
   50000000.0000001     
   50000000.0000000     
   50000000.0000000     
   49999999.9999999     
   49999999.9999999     
   49999999.9999999     
   49999999.9999999     
   49999999.9999999     
   50000000.0000000     
   50000000.0000000     
   50000000.0000000     
   50000000.0000001     
   50000000.0000000     
   50000000.0000000     
   49999999.9999999     
   49999999.9999999     
   49999999.9999999     
   49999999.9999999     
   49999999.9999999     
   49999999.9999999     
   49999999.9999999     
   49999999.9999999     
   49999999.9999999     
   49999999.9999999     
   49999999.9999999     
   49999999.9999999     
   50000000.0000000     
   50000000.0000000     
   50000000.0000000     
   50000000.0000000     
   50000000.0000000     
   50000000.0000000     
   49999999.9999999     
   49999999.9999999     
   49999999.9999998     
   49999999.9999998     
   49999999.9999997     
   49999999.9999996     
   49999999.9999996     
   49999999.9999996     
   49999999.9999995     
   49999999.9999996     
   49999999.9999996     
   50000000.0000002     
   50000000.0000002     
   50000000.0000002     
   50000000.0000002     
   50000000.0000002     
   50000000.0000002     
   50000000.0000002     
   50000000.0000002     
   50000000.0000001     
   50000000.0000000     
   50000000.0000000     
   50000000.0000000     
   50000000.0000000     
   49999999.9999999     
   50000000.0000000     
   49999999.9999999     
   50000000.0000000     
   50000000.0000000     
   50000000.0000000     
   50000000.0000001     
   50000000.0000001     
   50000000.0000000     
   50000000.0000000     
   50000000.0000000     
   50000000.0000000     
   50000000.0000000     
   50000000.0000000     
   49999999.9999999     
   50000000.0000000     
   49999999.9999999     
   49999999.9999999     
   49999999.9999999     
   49999999.9999999     
   50000000.0000000     
   50000000.0000000     
   50000000.0000000     
   50000000.0000000     
   50000000.0000000     
   50000000.0000000     
   49999999.9999999     
   49999999.9999999     
   49999999.9999999     
   49999999.9999998     
   49999999.9999998     
   49999999.9999997     
   49999999.9999997     
   49999999.9999997     
   49999999.9999997     
   49999999.9999996     
   49999999.9999996     
   49999999.9999996     
   50000000.0000003     
   50000000.0000003     
   50000000.0000003     
   50000000.0000003     
   50000000.0000003     
   50000000.0000003     
   50000000.0000002     
   50000000.0000002     
   50000000.0000001     
   50000000.0000001     
   50000000.0000000     
   50000000.0000000     
   50000000.0000000     
   50000000.0000000     
   50000000.0000000     
   50000000.0000000     
   50000000.0000000     
   50000000.0000000     
   50000000.0000001     
   50000000.0000001     
   50000000.0000001     
   50000000.0000000     
   50000000.0000000     
   49999999.9999999     
   49999999.9999999     
   49999999.9999999     
   49999999.9999999     
   49999999.9999999     
   49999999.9999999     
   49999999.9999999     
   49999999.9999999     
   49999999.9999999     
   49999999.9999999     
   50000000.0000000     
   50000000.0000000     
   50000000.0000000     
   50000000.0000000     
   50000000.0000000     
   50000000.0000000     
   50000000.0000000     
   50000000.0000000     
   49999999.9999999     
   49999999.9999998     
   49999999.9999998     
   49999999.9999997     
   49999999.9999997     
   49999999.9999997     
   49999999.9999996     
   49999999.9999996     
   49999999.9999996     
   49999999.9999996     
   50000000.0000003     
   50000000.0000003     
   50000000.0000003     
   50000000.0000003     
   50000000.0000003     
   50000000.0000003     
   50000000.0000002     
   50000000.0000001     
   50000000.0000001     
   50000000.0000000     
   50000000.0000000     
   50000000.0000000     
   50000000.0000000     
   50000000.0000000     
   50000000.0000000     
   50000000.0000000     
   50000000.0000000     
   50000000.0000000     
   50000000.0000000     
   50000000.0000000     
   50000000.0000000     
   50000000.0000000     
   49999999.9999999     
   49999999.9999999     
   49999999.9999999     
   49999999.9999999     
   49999999.9999999     
   49999999.9999999     
   49999999.9999999     
   50000000.0000000     
   50000000.0000000     
   50000000.0000000     
   50000000.0000000     
   50000000.0000000     
   50000000.0000000     
   50000000.0000000     
   50000000.0000000     
   50000000.0000000     
   50000000.0000000     
   50000000.0000000     
   49999999.9999999     
   49999999.9999999     
   49999999.9999999     
   49999999.9999998     
   49999999.9999998     
   49999999.9999997     
   49999999.9999997     
   49999999.9999997     
   49999999.9999996     
   49999999.9999996     
   49999999.9999996     
   50000000.0000002     
   50000000.0000002     
   50000000.0000003     
   50000000.0000003     
   50000000.0000003     
   50000000.0000003     
   50000000.0000003     
   50000000.0000002     
   50000000.0000002     
   50000000.0000001     
   50000000.0000001     
   50000000.0000000     
   50000000.0000000     
   50000000.0000000     
   50000000.0000000     
   50000000.0000000     
   50000000.0000000     
   50000000.0000001     
   50000000.0000001     
   50000000.0000001     
   50000000.0000001     
   50000000.0000000     
   50000000.0000000     
   50000000.0000000     
   49999999.9999999     
   49999999.9999999     
   49999999.9999999     
   49999999.9999999     
   50000000.0000000     
   50000000.0000000     
   49999999.9999999     
   49999999.9999999     
   50000000.0000000     
   50000000.0000000     
   50000000.0000000     
   50000000.0000000     
   50000000.0000000     
   50000000.0000000     
   50000000.0000000     
   50000000.0000000     
   49999999.9999999     
   49999999.9999999     
   49999999.9999998     
   49999999.9999998     
   49999999.9999997     
   49999999.9999997     
   49999999.9999996     
   49999999.9999996     
   49999999.9999996     
   49999999.9999996     
   49999999.9999996     
   50000000.0000002     
   50000000.0000002     
   50000000.0000002     
   50000000.0000002     
   50000000.0000002     
   50000000.0000002     
   50000000.0000002     
   50000000.0000001     
   50000000.0000001     
   50000000.0000001     
   50000000.0000001     
   50000000.0000001     
   50000000.0000001     
   50000000.0000000     
   50000000.0000001     
   50000000.0000001     
   50000000.0000001     
   50000000.0000001     
   50000000.0000001     
   50000000.0000001     
   50000000.0000001     
   50000000.0000001     
   50000000.0000000     
   50000000.0000000     
   50000000.0000000     
   50000000.0000000     
   49999999.9999999     
   49999999.9999999     
   50000000.0000000     
   50000000.0000000     
   49999999.9999999     
   49999999.9999999     
   49999999.9999999     
   50000000.0000000     
   50000000.0000000     
   50000000.0000000     
   50000000.0000000     
   50000000.0000000     
   49999999.9999999     
   49999999.9999999     
   49999999.9999999     
   49999999.9999999     
   49999999.9999998     
   49999999.9999998     
   49999999.9999997     
   49999999.9999996     
   49999999.9999996     
   49999999.9999996     
   49999999.9999996     
   49999999.9999996     
   49999999.9999996     
   50000000.0000002     
   50000000.0000002     
   50000000.0000002     
   50000000.0000002     
   50000000.0000003     
   50000000.0000002     
   50000000.0000002     
   50000000.0000002     
   50000000.0000001     
   50000000.0000000     
   50000000.0000000     
   50000000.0000000     
   50000000.0000000     
   50000000.0000000     
   50000000.0000000     
   50000000.0000000     
   50000000.0000000     
   50000000.0000000     
   50000000.0000000     
   50000000.0000001     
   50000000.0000001     
   50000000.0000000     
   50000000.0000000     
   50000000.0000000     
   50000000.0000000     
   50000000.0000000     
   49999999.9999999     
   49999999.9999999     
   49999999.9999999     
   50000000.0000000     
   50000000.0000000     
   50000000.0000000     
   50000000.0000000     
   50000000.0000000     
   50000000.0000000     
   50000000.0000000     
   50000000.0000000     
   50000000.0000000     
   49999999.9999999     
   49999999.9999999     
   49999999.9999999     
   49999999.9999998     
   49999999.9999998     
   49999999.9999997     
   49999999.9999997     
   49999999.9999996     
   49999999.9999996     
   49999999.9999996     
   49999999.9999996     
   49999999.9999996     
   49999999.9999996     
   50000000.0000002     
   50000000.0000002     
   50000000.0000002     
   50000000.0000002     
   50000000.0000002     
   50000000.0000002     
   50000000.0000002     
   50000000.0000001     
   50000000.0000001     
   50000000.0000000     
   50000000.0000000     
   50000000.0000000     
   50000000.0000000     
   50000000.0000000     
   49999999.9999999     
   49999999.9999999     
   50000000.0000000     
   50000000.0000000     
   50000000.0000000     
   50000000.0000001     
   50000000.0000001     
   50000000.0000001     
   50000000.0000000     
   50000000.0000000     
   49999999.9999999     
   49999999.9999999     
   49999999.9999999     
   49999999.9999999     
   50000000.0000000     
   50000000.0000000     
   50000000.0000000     
   49999999.9999999     
   50000000.0000000     
   50000000.0000000     
   50000000.0000000     
   50000000.0000000     
   50000000.0000000     
   50000000.0000000     
   50000000.0000000     
   49999999.9999999     
   49999999.9999999     
   49999999.9999999     
   49999999.9999998     
   49999999.9999997     
   49999999.9999996     
   49999999.9999996     
   49999999.9999996     
   49999999.9999995     
   49999999.9999995     
   49999999.9999995     
   49999999.9999995     
   50000000.0000002     
   50000000.0000001     
   50000000.0000002     
   50000000.0000002     
   50000000.0000002     
   50000000.0000002     
   50000000.0000002     
   50000000.0000001     
   50000000.0000001     
   50000000.0000001     
   50000000.0000001     
   50000000.0000000     
   50000000.0000000     
   50000000.0000000     
   50000000.0000000     
   50000000.0000000     
   50000000.0000000     
   50000000.0000000     
   50000000.0000000     
   50000000.0000000     
   50000000.0000000     
   50000000.0000000     
   50000000.0000000     
   49999999.9999999     
   49999999.9999999     
   49999999.9999999     
   49999999.9999999     
   49999999.9999999     
   49999999.9999999     
   49999999.9999999     
   49999999.9999999     
   49999999.9999999     
   49999999.9999999     
   49999999.9999999     
   49999999.9999999     
   50000000.0000000     
   50000000.0000000     
   50000000.0000000     
   50000000.0000000     
   49999999.9999999     
   49999999.9999999     
   49999999.9999999     
   49999999.9999998     
   49999999.9999998     
   49999999.9999997     
   49999999.9999996     
   49999999.9999996     
   49999999.9999996     
   49999999.9999996     
   49999999.9999996     
   49999999.9999996     
   50000000.0000001     
   50000000.0000001     
   50000000.0000002     
   50000000.0000002     
   50000000.0000002     
   50000000.0000002     
   50000000.0000002     
   50000000.0000001     
   50000000.0000000     
   50000000.0000000     
   49999999.9999999     
   49999999.9999999     
   49999999.9999999     
   49999999.9999999     
   49999999.9999999     
   49999999.9999999     
   49999999.9999999     
   50000000.0000000     
   50000000.0000000     
   50000000.0000000     
   50000000.0000000     
   50000000.0000000     
   50000000.0000000     
   50000000.0000000     
   49999999.9999999     
   49999999.9999999     
   49999999.9999999     
   49999999.9999999     
   49999999.9999999     
   49999999.9999999     
   49999999.9999999     
   49999999.9999999     
   50000000.0000000     
   50000000.0000000     
   50000000.0000000     
   50000000.0000000     
   50000000.0000000     
   50000000.0000000     
   50000000.0000000     
   50000000.0000000     
   49999999.9999999     
   49999999.9999999     
   49999999.9999998     
   49999999.9999997     
   49999999.9999997     
   49999999.9999996     
   49999999.9999996     
   49999999.9999995     
   49999999.9999995     
   49999999.9999995     
   49999999.9999995     
   50000000.0000002     
   50000000.0000002     
   50000000.0000002     
   50000000.0000002     
   50000000.0000001     
   50000000.0000001     
   50000000.0000001     
   50000000.0000000     
   50000000.0000000     
   50000000.0000000     
   49999999.9999999     
   49999999.9999999     
   49999999.9999999     
   49999999.9999999     
   49999999.9999999     
   49999999.9999999     
   49999999.9999999     
   49999999.9999999     
   50000000.0000000     
   50000000.0000000     
   50000000.0000000     
   50000000.0000000     
   50000000.0000000     
   49999999.9999999     
   49999999.9999999     
   49999999.9999999     
   49999999.9999999     
   49999999.9999999     
   49999999.9999999     
   49999999.9999999     
   50000000.0000000     
   50000000.0000000     
   50000000.0000000     
   50000000.0000001     
   50000000.0000001     
   50000000.0000001     
   50000000.0000001     
   50000000.0000001     
   50000000.0000000     
   50000000.0000000     
   49999999.9999999     
   49999999.9999998     
   49999999.9999998     
   49999999.9999997     
   49999999.9999996     
   49999999.9999996     
   49999999.9999996     
   49999999.9999995     
   49999999.9999995     
   49999999.9999995     
   49999999.9999995     
   50000000.0000002     
   50000000.0000002     
   50000000.0000002     
   50000000.0000002     
   50000000.0000002     
   50000000.0000002     
   50000000.0000001     
   50000000.0000001     
   50000000.0000000     
   50000000.0000000     
   50000000.0000000     
   49999999.9999999     
   49999999.9999999     
   49999999.9999999     
   49999999.9999999     
   49999999.9999999     
   49999999.9999999     
   49999999.9999999     
   50000000.0000000     
   50000000.0000000     
   50000000.0000000     
   49999999.9999999     
   49999999.9999999     
   49999999.9999999     
   49999999.9999999     
   49999999.9999998     
   49999999.9999999     
   49999999.9999998     
   49999999.9999999     
   49999999.9999999     
   49999999.9999999     
   49999999.9999999     
   49999999.9999999     
   50000000.0000000     
   50000000.0000000     
   50000000.0000000     
   50000000.0000000     
   50000000.0000000     
   49999999.9999999     
   49999999.9999999     
   49999999.9999998     
   49999999.9999998     
   49999999.9999997     
   49999999.9999996     
   49999999.9999996     
   49999999.9999995     
   49999999.9999995     
   49999999.9999994     
   49999999.9999994     
   49999999.9999994     
   49999999.9999994     
   50000000.0000002     
   50000000.0000002     
   50000000.0000002     
   50000000.0000002     
   50000000.0000002     
   50000000.0000002     
   50000000.0000002     
   50000000.0000001     
   50000000.0000000     
   50000000.0000000     
   49999999.9999999     
   49999999.9999999     
   49999999.9999999     
   49999999.9999999     
   49999999.9999999     
   49999999.9999999     
   49999999.9999999     
   50000000.0000000     
   50000000.0000000     
   50000000.0000001     
   50000000.0000001     
   50000000.0000000     
   50000000.0000000     
   50000000.0000000     
   49999999.9999999     
   49999999.9999999     
   49999999.9999999     
   49999999.9999999     
   49999999.9999999     
   49999999.9999999     
   49999999.9999999     
   49999999.9999999     
   49999999.9999999     
   50000000.0000000     
   50000000.0000000     
   50000000.0000000     
   50000000.0000000     
   49999999.9999999     
   49999999.9999999     
   49999999.9999999     
   49999999.9999998     
   49999999.9999998     
   49999999.9999998     
   49999999.9999997     
   49999999.9999996     
   49999999.9999996     
   49999999.9999996     
   49999999.9999995     
   49999999.9999995     
   49999999.9999995     
   49999999.9999995     
   50000000.0000002     
   50000000.0000002     
   50000000.0000002     
   50000000.0000002     
   50000000.0000002     
   50000000.0000002     
   50000000.0000002     
   50000000.0000001     
   50000000.0000000     
   50000000.0000000     
   49999999.9999999     
   49999999.9999999     
   49999999.9999999     
   49999999.9999998     
   49999999.9999999     
   49999999.9999999     
   49999999.9999999     
   50000000.0000000     
   50000000.0000000     
   50000000.0000000     
   50000000.0000000     
   50000000.0000000     
   50000000.0000000     
   49999999.9999999     
   49999999.9999999     
   49999999.9999999     
   49999999.9999999     
   49999999.9999999     
   49999999.9999999     
   49999999.9999999     
   49999999.9999999     
   49999999.9999999     
   49999999.9999999     
   49999999.9999999     
   49999999.9999999     
   49999999.9999999     
   49999999.9999999     
   49999999.9999999     
   49999999.9999999     
   49999999.9999998     
   49999999.9999998     
   49999999.9999998     
   49999999.9999997     
   49999999.9999997     
   49999999.9999996     
   49999999.9999996     
   49999999.9999996     
   49999999.9999996     
   49999999.9999995     
   49999999.9999995     
   49999999.9999995     
   50000000.0000001     
   50000000.0000001     
   50000000.0000001     
   50000000.0000001     
   50000000.0000002     
   50000000.0000001     
   50000000.0000001     
   50000000.0000001     
   50000000.0000000     
   50000000.0000000     
   49999999.9999999     
   49999999.9999999     
   49999999.9999999     
   49999999.9999999     
   49999999.9999999     
   49999999.9999999     
   50000000.0000000     
   50000000.0000000     
   50000000.0000000     
   50000000.0000000     
   50000000.0000000     
   49999999.9999999     
   49999999.9999999     
   49999999.9999999     
   49999999.9999998     
   49999999.9999998     
   49999999.9999998     
   49999999.9999998     
   49999999.9999999     
   49999999.9999999     
   49999999.9999999     
   49999999.9999999     
   49999999.9999999     
   49999999.9999999     
   49999999.9999999     
   49999999.9999999     
   49999999.9999999     
   49999999.9999999     
   49999999.9999999     
   49999999.9999999     
   49999999.9999999     
   49999999.9999999     
   49999999.9999998     
   49999999.9999998     
   49999999.9999997     
   49999999.9999997     
   49999999.9999996     
   49999999.9999996     
   49999999.9999996     
   49999999.9999996     
   49999999.9999996     
   50000000.0000001     
   50000000.0000001     
   50000000.0000001     
   50000000.0000001     
   50000000.0000001     
   50000000.0000000     
   50000000.0000000     
   50000000.0000000     
   49999999.9999999     
   49999999.9999999     
   49999999.9999999     
   49999999.9999999     
   49999999.9999999     
   50000000.0000000     
   50000000.0000000     
   50000000.0000000     
   50000000.0000000     
   50000000.0000000     
   50000000.0000001     
   50000000.0000001     
   50000000.0000000     
   50000000.0000000     
   49999999.9999999     
   49999999.9999999     
   49999999.9999998     
   49999999.9999998     
   49999999.9999998     
   49999999.9999998     
   49999999.9999999     
   49999999.9999999     
   49999999.9999999     
   49999999.9999999     
   49999999.9999999     
   49999999.9999999     
   49999999.9999999     
   49999999.9999999     
   49999999.9999999     
   49999999.9999999     
   49999999.9999999     
   49999999.9999999     
   49999999.9999998     
   49999999.9999998     
   49999999.9999998     
   49999999.9999997     
   49999999.9999997     
   49999999.9999996     
   49999999.9999996     
   49999999.9999996     
   49999999.9999996     
   49999999.9999996     
   49999999.9999996     
   49999999.9999999     
   49999999.9999999     
   49999999.9999999     
   50000000.0000000     
   50000000.0000000     
   50000000.0000000     
   50000000.0000000     
   50000000.0000000     
   50000000.0000000     
   50000000.0000000     
   50000000.0000000     
   49999999.9999999     
   50000000.0000000     
   50000000.0000000     
   50000000.0000000     
   50000000.0000000     
   50000000.0000000     
   50000000.0000001     
   50000000.0000001     
   50000000.0000001     
   50000000.0000001     
   50000000.0000001     
   50000000.0000000     
   49999999.9999999     
   49999999.9999999     
   49999999.9999999     
   49999999.9999999     
   49999999.9999999     
   49999999.9999999     
   49999999.9999999     
   49999999.9999998     
   49999999.9999998     
   49999999.9999998     
   49999999.9999998     
   49999999.9999999     
   49999999.9999999     
   49999999.9999999     
   49999999.9999999     
   49999999.9999999     
   49999999.9999999     
   49999999.9999999     
   49999999.9999998     
   49999999.9999998     
   49999999.9999997     
   49999999.9999997     
   49999999.9999996     
   49999999.9999996     
   49999999.9999996     
   49999999.9999995     
   49999999.9999995     
   49999999.9999995     
   50000000.0000001     
   50000000.0000001     
   50000000.0000001     
   50000000.0000001     
   50000000.0000001     
   50000000.0000001     
   50000000.0000000     
   50000000.0000000     
   49999999.9999999     
   49999999.9999999     
   49999999.9999999     
   49999999.9999999     
   49999999.9999999     
   49999999.9999999     
   49999999.9999999     
   50000000.0000000     
   50000000.0000000     
   50000000.0000000     
   50000000.0000001     
   50000000.0000001     
   50000000.0000001     
   50000000.0000000     
   50000000.0000000     
   49999999.9999999     
   49999999.9999999     
   49999999.9999999     
   49999999.9999998     
   49999999.9999998     
   49999999.9999999     
   49999999.9999999     
   49999999.9999999     
   49999999.9999998     
   49999999.9999998     
   49999999.9999998     
   49999999.9999998     
   49999999.9999998     
   49999999.9999998     
   49999999.9999999     
   49999999.9999998     
   49999999.9999998     
   49999999.9999998     
   49999999.9999998     
   49999999.9999997     
   49999999.9999997     
   49999999.9999996     
   49999999.9999996     
   49999999.9999996     
   49999999.9999996     
   49999999.9999995     
   49999999.9999995     
   49999999.9999995     
   49999999.9999999     
   49999999.9999999     
   49999999.9999999     
   49999999.9999999     
   49999999.9999999     
   49999999.9999999     
   49999999.9999998     
   49999999.9999997     
   49999999.9999997     
   49999999.9999996     
   49999999.9999996     
   49999999.9999996     
   49999999.9999996     
   49999999.9999996     
   49999999.9999997     
   49999999.9999997     
   49999999.9999997     
   49999999.9999997     
   49999999.9999998     
   49999999.9999998     
   49999999.9999997     
   49999999.9999997     
   49999999.9999997     
   49999999.9999996     
   49999999.9999996     
   49999999.9999996     
   49999999.9999996     
   49999999.9999996     
   49999999.9999996     
   49999999.9999996     
   49999999.9999996     
   49999999.9999996     
   49999999.9999996     
   49999999.9999996     
   49999999.9999996     
   49999999.9999996     
   49999999.9999996     
   49999999.9999996     
   49999999.9999996     
   49999999.9999996     
   49999999.9999996     
   49999999.9999995     
   49999999.9999995     
   49999999.9999994     
   49999999.9999994     
   49999999.9999993     
   49999999.9999993     
   49999999.9999993     
   49999999.9999993     
   49999999.9999993     
   49999999.9999993     
   49999999.9999983     
   49999999.9999983     
   49999999.9999983     
   49999999.9999983     
   49999999.9999983     
   49999999.9999983     
   49999999.9999982     
   49999999.9999982     
   49999999.9999981     
   49999999.9999981     
   49999999.9999980     
   49999999.9999980     
   49999999.9999980     
   49999999.9999979     
   49999999.9999980     
   49999999.9999980     
   49999999.9999980     
   49999999.9999980     
   49999999.9999980     
   49999999.9999981     
   49999999.9999981     
   49999999.9999980     
   49999999.9999980     
   49999999.9999980     
   49999999.9999980     
   49999999.9999980     
   49999999.9999980     
   49999999.9999980     
   49999999.9999980     
   49999999.9999980     
   49999999.9999980     
   49999999.9999980     
   49999999.9999980     
   49999999.9999980     
   49999999.9999980     
   49999999.9999980     
   49999999.9999981     
   49999999.9999981     
   49999999.9999980     
   49999999.9999980     
   49999999.9999980     
   49999999.9999979     
   49999999.9999978     
   49999999.9999978     
   49999999.9999977     
   49999999.9999977     
   49999999.9999977     
   49999999.9999976     
   49999999.9999976     
   49999999.9999976     
   49999999.9999976     
   49999999.9999879     
   49999999.9999880     
   49999999.9999880     
   49999999.9999880     
   49999999.9999880     
   49999999.9999880     
   49999999.9999880     
   49999999.9999879     
   49999999.9999879     
   49999999.9999878     
   49999999.9999877     
   49999999.9999877     
   49999999.9999877     
   49999999.9999877     
   49999999.9999877     
   49999999.9999876     
   49999999.9999877     
   49999999.9999877     
   49999999.9999877     
   49999999.9999878     
   49999999.9999878     
   49999999.9999877     
   49999999.9999877     
   49999999.9999877     
   49999999.9999876     
   49999999.9999876     
   49999999.9999876     
   49999999.9999876     
   49999999.9999877     
   49999999.9999877     
   49999999.9999877     
   49999999.9999877     
   49999999.9999877     
   49999999.9999877     
   49999999.9999877     
   49999999.9999877     
   49999999.9999877     
   49999999.9999876     
   49999999.9999876     
   49999999.9999876     
   49999999.9999876     
   49999999.9999875     
   49999999.9999875     
   49999999.9999875     
   49999999.9999874     
   49999999.9999873     
   49999999.9999873     
   49999999.9999873     
   49999999.9999873     
   49999999.9999873     
   49999999.9999873     
   49999999.9999233     
   49999999.9999233     
   49999999.9999233     
   49999999.9999234     
   49999999.9999234     
   49999999.9999233     
   49999999.9999233     
   49999999.9999232     
   49999999.9999232     
   49999999.9999231     
   49999999.9999231     
   49999999.9999230     
   49999999.9999230     
   49999999.9999230     
   49999999.9999230     
   49999999.9999230     
   49999999.9999230     
   49999999.9999231     
   49999999.9999231     
   49999999.9999231     
   49999999.9999231     
   49999999.9999230     
   49999999.9999230     
   49999999.9999229     
   49999999.9999229     
   49999999.9999229     
   49999999.9999229     
   49999999.9999229     
   49999999.9999230     
   49999999.9999230     
   49999999.9999230     
   49999999.9999230     
   49999999.9999230     
   49999999.9999230     
   49999999.9999230     
   49999999.9999230     
   49999999.9999230     
   49999999.9999230     
   49999999.9999230     
   49999999.9999230     
   49999999.9999230     
   49999999.9999229     
   49999999.9999229     
   49999999.9999229     
   49999999.9999228     
   49999999.9999228     
   49999999.9999228     
   49999999.9999227     
   49999999.9999227     
   49999999.9999227     
   49999999.9999227     
   49999999.9995233     
   49999999.9995233     
   49999999.9995233     
   49999999.9995233     
   49999999.9995232     
   49999999.9995232     
   49999999.9995232     
   49999999.9995231     
   49999999.9995230     
   49999999.9995230     
   49999999.9995229     
   49999999.9995229     
   49999999.9995229     
   49999999.9995229     
   49999999.9995229     
   49999999.9995229     
   49999999.9995230     
   49999999.9995230     
   49999999.9995230     
   49999999.9995231     
   49999999.9995231     
   49999999.9995230     
   49999999.9995230     
   49999999.9995229     
   49999999.9995229     
   49999999.9995228     
   49999999.9995228     
   49999999.9995228     
   49999999.9995229     
   49999999.9995229     
   49999999.9995229     
   49999999.9995229     
   49999999.9995229     
   49999999.9995229     
   49999999.9995229     
   49999999.9995230     
   49999999.9995229     
   49999999.9995229     
   49999999.9995229     
   49999999.9995229     
   49999999.9995229     
   49999999.9995229     
   49999999.9995229     
   49999999.9995228     
   49999999.9995227     
   49999999.9995227     
   49999999.9995227     
   49999999.9995227     
   49999999.9995226     
   49999999.9995226     
   49999999.9995226     
   49999999.9970827     
   49999999.9970827     
   49999999.9970827     
   49999999.9970828     
   49999999.9970828     
   49999999.9970828     
   49999999.9970827     
   49999999.9970826     
   49999999.9970826     
   49999999.9970825     
   49999999.9970825     
   49999999.9970824     
   49999999.9970824     
   49999999.9970824     
   49999999.9970824     
   49999999.9970824     
   49999999.9970824     
   49999999.9970825     
   49999999.9970825     
   49999999.9970826     
   49999999.9970826     
   49999999.9970826     
   49999999.9970826     
   49999999.9970825     
   49999999.9970824     
   49999999.9970824     
   49999999.9970824     
   49999999.9970824     
   49999999.9970824     
   49999999.9970824     
   49999999.9970824     
   49999999.9970824     
   49999999.9970824     
   49999999.9970824     
   49999999.9970824     
   49999999.9970824     
   49999999.9970825     
   49999999.9970825     
   49999999.9970825     
   49999999.9970825     
   49999999.9970824     
   49999999.9970824     
   49999999.9970824     
   49999999.9970823     
   49999999.9970822     
   49999999.9970822     
   49999999.9970822     
   49999999.9970822     
   49999999.9970821     
   49999999.9970821     
   49999999.9970821     
   49999999.9824162     
   49999999.9824162     
   49999999.9824162     
   49999999.9824162     
   49999999.9824162     
   49999999.9824162     
   49999999.9824162     
   49999999.9824161     
   49999999.9824161     
   49999999.9824160     
   49999999.9824160     
   49999999.9824159     
   49999999.9824159     
   49999999.9824159     
   49999999.9824159     
   49999999.9824159     
   49999999.9824160     
   49999999.9824160     
   49999999.9824161     
   49999999.9824162     
   49999999.9824162     
   49999999.9824161     
   49999999.9824161     
   49999999.9824160     
   49999999.9824160     
   49999999.9824160     
   49999999.9824160     
   49999999.9824160     
   49999999.9824160     
   49999999.9824160     
   49999999.9824160     
   49999999.9824160     
   49999999.9824159     
   49999999.9824160     
   49999999.9824160     
   49999999.9824160     
   49999999.9824160     
   49999999.9824160     
   49999999.9824160     
   49999999.9824160     
   49999999.9824159     
   49999999.9824159     
   49999999.9824159     
   49999999.9824158     
   49999999.9824158     
   49999999.9824158     
   49999999.9824157     
   49999999.9824157     
   49999999.9824157     
   49999999.9824157     
   49999999.9824157     
   49999999.8957556     
   49999999.8957556     
   49999999.8957556     
   49999999.8957556     
   49999999.8957556     
   49999999.8957556     
   49999999.8957556     
   49999999.8957556     
   49999999.8957555     
   49999999.8957555     
   49999999.8957554     
   49999999.8957554     
   49999999.8957554     
   49999999.8957553     
   49999999.8957554     
   49999999.8957554     
   49999999.8957554     
   49999999.8957554     
   49999999.8957555     
   49999999.8957555     
   49999999.8957555     
   49999999.8957555     
   49999999.8957555     
   49999999.8957555     
   49999999.8957554     
   49999999.8957554     
   49999999.8957554     
   49999999.8957554     
   49999999.8957555     
   49999999.8957555     
   49999999.8957555     
   49999999.8957555     
   49999999.8957555     
   49999999.8957555     
   49999999.8957555     
   49999999.8957555     
   49999999.8957555     
   49999999.8957555     
   49999999.8957555     
   49999999.8957555     
   49999999.8957554     
   49999999.8957554     
   49999999.8957554     
   49999999.8957553     
   49999999.8957553     
   49999999.8957552     
   49999999.8957552     
   49999999.8957551     
   49999999.8957551     
   49999999.8957551     
   49999999.8957551     
   49999999.3935065     
   49999999.3935065     
   49999999.3935065     
   49999999.3935065     
   49999999.3935065     
   49999999.3935065     
   49999999.3935065     
   49999999.3935065     
   49999999.3935064     
   49999999.3935063     
   49999999.3935063     
   49999999.3935063     
   49999999.3935063     
   49999999.3935062     
   49999999.3935063     
   49999999.3935063     
   49999999.3935063     
   49999999.3935063     
   49999999.3935064     
   49999999.3935064     
   49999999.3935064     
   49999999.3935064     
   49999999.3935064     
   49999999.3935063     
   49999999.3935063     
   49999999.3935063     
   49999999.3935063     
   49999999.3935063     
   49999999.3935063     
   49999999.3935064     
   49999999.3935064     
   49999999.3935063     
   49999999.3935064     
   49999999.3935064     
   49999999.3935064     
   49999999.3935064     
   49999999.3935064     
   49999999.3935064     
   49999999.3935064     
   49999999.3935064     
   49999999.3935063     
   49999999.3935063     
   49999999.3935062     
   49999999.3935062     
   49999999.3935061     
   49999999.3935061     
   49999999.3935061     
   49999999.3935061     
   49999999.3935061     
   49999999.3935061     
   49999999.3935061     
   49999996.5467876     
   49999996.5467876     
   49999996.5467876     
   49999996.5467876     
   49999996.5467876     
   49999996.5467876     
   49999996.5467876     
   49999996.5467876     
   49999996.5467876     
   49999996.5467875     
   49999996.5467875     
   49999996.5467874     
   49999996.5467874     
   49999996.5467874     
   49999996.5467874     
   49999996.5467874     
   49999996.5467874     
   49999996.5467874     
   49999996.5467875     
   49999996.5467875     
   49999996.5467875     
   49999996.5467874     
   49999996.5467874     
   49999996.5467874     
   49999996.5467874     
   49999996.5467873     
   49999996.5467873     
   49999996.5467873     
   49999996.5467874     
   49999996.5467874     
   49999996.5467874     
   49999996.5467874     
   49999996.5467874     
   49999996.5467874     
   49999996.5467874     
   49999996.5467874     
   49999996.5467875     
   49999996.5467875     
   49999996.5467875     
   49999996.5467874     
   49999996.5467874     
   49999996.5467874     
   49999996.5467873     
   49999996.5467873     
   49999996.5467872     
   49999996.5467872     
   49999996.5467872     
   49999996.5467872     
   49999996.5467872     
   49999996.5467872     
   49999996.5467872     
   49999980.8244103     
   49999980.8244103     
   49999980.8244103     
   49999980.8244103     
   49999980.8244103     
   49999980.8244103     
   49999980.8244103     
   49999980.8244103     
   49999980.8244102     
   49999980.8244102     
   49999980.8244102     
   49999980.8244101     
   49999980.8244101     
   49999980.8244101     
   49999980.8244101     
   49999980.8244101     
   49999980.8244101     
   49999980.8244101     
   49999980.8244101     
   49999980.8244101     
   49999980.8244101     
   49999980.8244101     
   49999980.8244101     
   49999980.8244101     
   49999980.8244101     
   49999980.8244101     
   49999980.8244101     
   49999980.8244101     
   49999980.8244101     
   49999980.8244101     
   49999980.8244101     
   49999980.8244101     
   49999980.8244101     
   49999980.8244101     
   49999980.8244101     
   49999980.8244102     
   49999980.8244102     
   49999980.8244102     
   49999980.8244101     
   49999980.8244101     
   49999980.8244101     
   49999980.8244101     
   49999980.8244101     
   49999980.8244100     
   49999980.8244100     
   49999980.8244099     
   49999980.8244099     
   49999980.8244099     
   49999980.8244099     
   49999980.8244099     
   49999980.8244099     
   49999896.5976246     
   49999896.5976246     
   49999896.5976246     
   49999896.5976246     
   49999896.5976247     
   49999896.5976246     
   49999896.5976246     
   49999896.5976246     
   49999896.5976245     
   49999896.5976245     
   49999896.5976244     
   49999896.5976244     
   49999896.5976244     
   49999896.5976244     
   49999896.5976245     
   49999896.5976245     
   49999896.5976245     
   49999896.5976245     
   49999896.5976245     
   49999896.5976246     
   49999896.5976246     
   49999896.5976245     
   49999896.5976245     
   49999896.5976245     
   49999896.5976245     
   49999896.5976244     
   49999896.5976244     
   49999896.5976244     
   49999896.5976244     
   49999896.5976244     
   49999896.5976244     
   49999896.5976244     
   49999896.5976244     
   49999896.5976244     
   49999896.5976244     
   49999896.5976244     
   49999896.5976244     
   49999896.5976244     
   49999896.5976245     
   49999896.5976245     
   49999896.5976244     
   49999896.5976243     
   49999896.5976243     
   49999896.5976242     
   49999896.5976242     
   49999896.5976242     
   49999896.5976242     
   49999896.5976242     
   49999896.5976242     
   49999896.5976242     
   49999896.5976242     
   49999461.4962135     
   49999461.4962136     
   49999461.4962136     
   49999461.4962136     
   49999461.4962136     
   49999461.4962136     
   49999461.4962135     
   49999461.4962135     
   49999461.4962135     
   49999461.4962134     
   49999461.4962134     
   49999461.4962134     
   49999461.4962134     
   49999461.4962134     
   49999461.4962134     
   49999461.4962134     
   49999461.4962134     
   49999461.4962135     
   49999461.4962135     
   49999461.4962135     
   49999461.4962135     
   49999461.4962135     
   49999461.4962134     
   49999461.4962134     
   49999461.4962133     
   49999461.4962133     
   49999461.4962133     
   49999461.4962133     
   49999461.4962134     
   49999461.4962134     
   49999461.4962133     
   49999461.4962133     
   49999461.4962133     
   49999461.4962133     
   49999461.4962133     
   49999461.4962134     
   49999461.4962134     
   49999461.4962134     
   49999461.4962134     
   49999461.4962133     
   49999461.4962133     
   49999461.4962133     
   49999461.4962132     
   49999461.4962131     
   49999461.4962131     
   49999461.4962131     
   49999461.4962131     
   49999461.4962131     
   49999461.4962130     
   49999461.4962130     
   49999461.4962130     
   49997310.6593709     
   49997310.6593709     
   49997310.6593709     
   49997310.6593709     
   49997310.6593709     
   49997310.6593709     
   49997310.6593708     
   49997310.6593708     
   49997310.6593708     
   49997310.6593707     
   49997310.6593707     
   49997310.6593707     
   49997310.6593707     
   49997310.6593707     
   49997310.6593707     
   49997310.6593707     
   49997310.6593707     
   49997310.6593707     
   49997310.6593708     
   49997310.6593708     
   49997310.6593708     
   49997310.6593707     
   49997310.6593707     
   49997310.6593707     
   49997310.6593706     
   49997310.6593706     
   49997310.6593706     
   49997310.6593706     
   49997310.6593706     
   49997310.6593706     
   49997310.6593706     
   49997310.6593706     
   49997310.6593706     
   49997310.6593706     
   49997310.6593706     
   49997310.6593706     
   49997310.6593706     
   49997310.6593706     
   49997310.6593706     
   49997310.6593706     
   49997310.6593705     
   49997310.6593705     
   49997310.6593704     
   49997310.6593704     
   49997310.6593704     
   49997310.6593704     
   49997310.6593703     
   49997310.6593703     
   49997310.6593703     
   49997310.6593703     
   49997310.6593703     
   49987240.0541792     
   49987240.0541792     
   49987240.0541793     
   49987240.0541792     
   49987240.0541793     
   49987240.0541793     
   49987240.0541792     
   49987240.0541792     
   49987240.0541792     
   49987240.0541791     
   49987240.0541791     
   49987240.0541790     
   49987240.0541791     
   49987240.0541791     
   49987240.0541791     
   49987240.0541791     
   49987240.0541791     
   49987240.0541791     
   49987240.0541792     
   49987240.0541792     
   49987240.0541792     
   49987240.0541791     
   49987240.0541791     
   49987240.0541791     
   49987240.0541790     
   49987240.0541790     
   49987240.0541790     
   49987240.0541790     
   49987240.0541790     
   49987240.0541790     
   49987240.0541790     
   49987240.0541790     
   49987240.0541790     
   49987240.0541790     
   49987240.0541790     
   49987240.0541790     
   49987240.0541790     
   49987240.0541790     
   49987240.0541790     
   49987240.0541789     
   49987240.0541789     
   49987240.0541789     
   49987240.0541789     
   49987240.0541788     
   49987240.0541788     
   49987240.0541788     
   49987240.0541787     
   49987240.0541788     
   49987240.0541787     
   49987240.0541787     
   49987240.0541787     
   49943198.0164094     
   49943198.0164094     
   49943198.0164095     
   49943198.0164095     
   49943198.0164095     
   49943198.0164095     
   49943198.0164095     
   49943198.0164094     
   49943198.0164094     
   49943198.0164093     
   49943198.0164093     
   49943198.0164093     
   49943198.0164093     
   49943198.0164093     
   49943198.0164093     
   49943198.0164093     
   49943198.0164093     
   49943198.0164094     
   49943198.0164094     
   49943198.0164094     
   49943198.0164094     
   49943198.0164094     
   49943198.0164094     
   49943198.0164093     
   49943198.0164093     
   49943198.0164092     
   49943198.0164092     
   49943198.0164092     
   49943198.0164093     
   49943198.0164093     
   49943198.0164094     
   49943198.0164093     
   49943198.0164093     
   49943198.0164093     
   49943198.0164093     
   49943198.0164093     
   49943198.0164093     
   49943198.0164093     
   49943198.0164092     
   49943198.0164092     
   49943198.0164091     
   49943198.0164091     
   49943198.0164091     
   49943198.0164090     
   49943198.0164090     
   49943198.0164089     
   49943198.0164089     
   49943198.0164089     
   49943198.0164089     
   49943198.0164089     
   49943198.0164089     
   49766764.6339077     
   49766764.6339078     
   49766764.6339077     
   49766764.6339078     
   49766764.6339078     
   49766764.6339078     
   49766764.6339077     
   49766764.6339077     
   49766764.6339076     
   49766764.6339076     
   49766764.6339075     
   49766764.6339075     
   49766764.6339075     
   49766764.6339074     
   49766764.6339075     
   49766764.6339075     
   49766764.6339075     
   49766764.6339075     
   49766764.6339076     
   49766764.6339076     
   49766764.6339076     
   49766764.6339076     
   49766764.6339075     
   49766764.6339075     
   49766764.6339075     
   49766764.6339075     
   49766764.6339075     
   49766764.6339075     
   49766764.6339076     
   49766764.6339075     
   49766764.6339075     
   49766764.6339075     
   49766764.6339075     
   49766764.6339075     
   49766764.6339075     
   49766764.6339075     
   49766764.6339075     
   49766764.6339075     
   49766764.6339074     
   49766764.6339074     
   49766764.6339073     
   49766764.6339073     
   49766764.6339073     
   49766764.6339072     
   49766764.6339071     
   49766764.6339071     
   49766764.6339071     
   49766764.6339071     
   49766764.6339071     
   49766764.6339071     
   49766764.6339071     
   49136933.8591587     
   49136933.8591587     
   49136933.8591587     
   49136933.8591587     
   49136933.8591587     
   49136933.8591587     
   49136933.8591587     
   49136933.8591586     
   49136933.8591586     
   49136933.8591585     
   49136933.8591584     
   49136933.8591584     
   49136933.8591584     
   49136933.8591584     
   49136933.8591584     
   49136933.8591584     
   49136933.8591584     
   49136933.8591584     
   49136933.8591585     
   49136933.8591585     
   49136933.8591585     
   49136933.8591585     
   49136933.8591585     
   49136933.8591584     
   49136933.8591584     
   49136933.8591584     
   49136933.8591584     
   49136933.8591584     
   49136933.8591584     
   49136933.8591584     
   49136933.8591584     
   49136933.8591584     
   49136933.8591584     
   49136933.8591584     
   49136933.8591584     
   49136933.8591584     
   49136933.8591584     
   49136933.8591584     
   49136933.8591583     
   49136933.8591584     
   49136933.8591583     
   49136933.8591582     
   49136933.8591582     
   49136933.8591581     
   49136933.8591581     
   49136933.8591581     
   49136933.8591581     
   49136933.8591581     
   49136933.8591581     
   49136933.8591581     
   49136933.8591581     
   47209176.4679936     
   47209176.4679937     
   47209176.4679936     
   47209176.4679937     
   47209176.4679936     
   47209176.4679936     
   47209176.4679935     
   47209176.4679935     
   47209176.4679934     
   47209176.4679935     
   47209176.4679934     
   47209176.4679934     
   47209176.4679933     
   47209176.4679934     
   47209176.4679934     
   47209176.4679934     
   47209176.4679934     
   47209176.4679934     
   47209176.4679934     
   47209176.4679934     
   47209176.4679934     
   47209176.4679934     
   47209176.4679934     
   47209176.4679933     
   47209176.4679932     
   47209176.4679932     
   47209176.4679933     
   47209176.4679932     
   47209176.4679933     
   47209176.4679933     
   47209176.4679933     
   47209176.4679933     
   47209176.4679933     
   47209176.4679933     
   47209176.4679933     
   47209176.4679933     
   47209176.4679933     
   47209176.4679933     
   47209176.4679933     
   47209176.4679933     
   47209176.4679932     
   47209176.4679932     
   47209176.4679932     
   47209176.4679931     
   47209176.4679931     
   47209176.4679930     
   47209176.4679930     
   47209176.4679930     
   47209176.4679930     
   47209176.4679930     
   47209176.4679930     
   42395110.4112113     
   42395110.4112114     
   42395110.4112113     
   42395110.4112113     
   42395110.4112114     
   42395110.4112114     
   42395110.4112113     
   42395110.4112112     
   42395110.4112111     
   42395110.4112111     
   42395110.4112110     
   42395110.4112110     
   42395110.4112110     
   42395110.4112110     
   42395110.4112110     
   42395110.4112110     
   42395110.4112110     
   42395110.4112110     
   42395110.4112110     
   42395110.4112111     
   42395110.4112111     
   42395110.4112111     
   42395110.4112110     
   42395110.4112110     
   42395110.4112109     
   42395110.4112109     
   42395110.4112109     
   42395110.4112109     
   42395110.4112110     
   42395110.4112110     
   42395110.4112110     
   42395110.4112110     
   42395110.4112111     
   42395110.4112110     
   42395110.4112111     
   42395110.4112110     
   42395110.4112110     
   42395110.4112110     
   42395110.4112111     
   42395110.4112110     
   42395110.4112109     
   42395110.4112110     
   42395110.4112108     
   42395110.4112108     
   42395110.4112108     
   42395110.4112108     
   42395110.4112108     
   42395110.4112108     
   42395110.4112108     
   42395110.4112108     
   42395110.4112108     
   33114480.0066798     
   33114480.0066798     
   33114480.0066798     
   33114480.0066798     
   33114480.0066798     
   33114480.0066798     
   33114480.0066797     
   33114480.0066795     
   33114480.0066796     
   33114480.0066796     
   33114480.0066796     
   33114480.0066795     
   33114480.0066795     
   33114480.0066795     
   33114480.0066796     
   33114480.0066796     
   33114480.0066796     
   33114480.0066796     
   33114480.0066796     
   33114480.0066797     
   33114480.0066796     
   33114480.0066796     
   33114480.0066796     
   33114480.0066796     
   33114480.0066795     
   33114480.0066795     
   33114480.0066795     
   33114480.0066795     
   33114480.0066796     
   33114480.0066796     
   33114480.0066796     
   33114480.0066795     
   33114480.0066797     
   33114480.0066796     
   33114480.0066796     
   33114480.0066796     
   33114480.0066796     
   33114480.0066796     
   33114480.0066796     
   33114480.0066795     
   33114480.0066795     
   33114480.0066795     
   33114480.0066795     
   33114480.0066795     
   33114480.0066795     
   33114480.0066795     
   33114480.0066795     
   33114480.0066795     
   33114480.0066795     
   33114480.0066795     
   33114480.0066793     
   20000000.0000000     
   20000000.0000000     
   20000000.0000000     
   20000000.0000000     
   20000000.0000000     
   20000000.0000000     
   20000000.0000000     
   20000000.0000000     
   20000000.0000000     
   20000000.0000000     
   20000000.0000000     
   20000000.0000000     
   20000000.0000000     
   20000000.0000000     
   20000000.0000000     
   20000000.0000000     
   20000000.0000000     
   20000000.0000000     
   20000000.0000000     
   20000000.0000000     
   20000000.0000000     
   20000000.0000000     
   20000000.0000000     
   20000000.0000000     
   20000000.0000000     
   20000000.0000000     
   20000000.0000000     
   20000000.0000000     
   20000000.0000000     
   20000000.0000000     
   20000000.0000000     
   20000000.0000000     
   20000000.0000000     
   20000000.0000000     
   20000000.0000000     
   20000000.0000000     
   20000000.0000000     
   20000000.0000000     
   20000000.0000000     
   20000000.0000000     
   20000000.0000000     
   20000000.0000000     
   20000000.0000000     
   20000000.0000000     
   20000000.0000000     
   20000000.0000000     
   20000000.0000000     
   20000000.0000000     
   20000000.0000000     
   20000000.0000000     
   20000000.0000000     
VECTORS u double 
    0.00000E+00         0.29988E+01         0.00000E+00
    0.00000E+00         0.28751E+01         0.00000E+00
    0.00000E+00         0.27556E+01         0.00000E+00
    0.00000E+00         0.26422E+01         0.00000E+00
    0.00000E+00         0.25362E+01         0.00000E+00
    0.00000E+00         0.24377E+01         0.00000E+00
    0.00000E+00         0.23451E+01         0.00000E+00
    0.00000E+00         0.22566E+01         0.00000E+00
    0.00000E+00         0.21721E+01         0.00000E+00
    0.00000E+00         0.20915E+01         0.00000E+00
    0.00000E+00         0.20143E+01         0.00000E+00
    0.00000E+00         0.19405E+01         0.00000E+00
    0.00000E+00         0.18698E+01         0.00000E+00
    0.00000E+00         0.18018E+01         0.00000E+00
    0.00000E+00         0.17365E+01         0.00000E+00
    0.00000E+00         0.16737E+01         0.00000E+00
    0.00000E+00         0.16130E+01         0.00000E+00
    0.00000E+00         0.15545E+01         0.00000E+00
    0.00000E+00         0.14979E+01         0.00000E+00
    0.00000E+00         0.14431E+01         0.00000E+00
    0.00000E+00         0.13900E+01         0.00000E+00
    0.00000E+00         0.13384E+01         0.00000E+00
    0.00000E+00         0.12882E+01         0.00000E+00
    0.00000E+00         0.12394E+01         0.00000E+00
    0.00000E+00         0.11919E+01         0.00000E+00
    0.00000E+00         0.11454E+01         0.00000E+00
    0.00000E+00         0.11001E+01         0.00000E+00
    0.00000E+00         0.10557E+01         0.00000E+00
    0.00000E+00         0.10122E+01         0.00000E+00
    0.00000E+00         0.96945E+00         0.00000E+00
    0.00000E+00         0.92747E+00         0.00000E+00
    0.00000E+00         0.88613E+00         0.00000E+00
    0.00000E+00         0.84536E+00         0.00000E+00
    0.00000E+00         0.80507E+00         0.00000E+00
    0.00000E+00         0.76517E+00         0.00000E+00
    0.00000E+00         0.72556E+00         0.00000E+00
    0.00000E+00         0.68613E+00         0.00000E+00
    0.00000E+00         0.64677E+00         0.00000E+00
    0.00000E+00         0.60734E+00         0.00000E+00
    0.00000E+00         0.56769E+00         0.00000E+00
    0.00000E+00         0.52763E+00         0.00000E+00
    0.00000E+00         0.48694E+00         0.00000E+00
    0.00000E+00         0.44533E+00         0.00000E+00
    0.00000E+00         0.40246E+00         0.00000E+00
    0.00000E+00         0.35788E+00         0.00000E+00
    0.00000E+00         0.31101E+00         0.00000E+00
    0.00000E+00         0.26106E+00         0.00000E+00
    0.00000E+00         0.20695E+00         0.00000E+00
    0.00000E+00         0.14713E+00         0.00000E+00
    0.00000E+00         0.79327E-01         0.00000E+00
    0.00000E+00         0.00000E+00         0.00000E+00
    0.91932E+00         0.25264E+01         0.00000E+00
    0.80981E+00         0.24703E+01         0.00000E+00
    0.72584E+00         0.24098E+01         0.00000E+00
    0.66101E+00         0.23469E+01         0.00000E+00
    0.61138E+00         0.22826E+01         0.00000E+00
    0.57412E+00         0.22169E+01         0.00000E+00
    0.54642E+00         0.21506E+01         0.00000E+00
    0.52569E+00         0.20844E+01         0.00000E+00
    0.50994E+00         0.20190E+01         0.00000E+00
    0.49784E+00         0.19545E+01         0.00000E+00
    0.48846E+00         0.18912E+01         0.00000E+00
    0.48113E+00         0.18294E+01         0.00000E+00
    0.47536E+00         0.17689E+01         0.00000E+00
    0.47078E+00         0.17100E+01         0.00000E+00
    0.46712E+00         0.16526E+01         0.00000E+00
    0.46417E+00         0.15966E+01         0.00000E+00
    0.46175E+00         0.15421E+01         0.00000E+00
    0.45973E+00         0.14890E+01         0.00000E+00
    0.45802E+00         0.14372E+01         0.00000E+00
    0.45651E+00         0.13866E+01         0.00000E+00
    0.45514E+00         0.13373E+01         0.00000E+00
    0.45385E+00         0.12891E+01         0.00000E+00
    0.45258E+00         0.12420E+01         0.00000E+00
    0.45128E+00         0.11959E+01         0.00000E+00
    0.44993E+00         0.11508E+01         0.00000E+00
    0.44846E+00         0.11065E+01         0.00000E+00
    0.44685E+00         0.10631E+01         0.00000E+00
    0.44505E+00         0.10204E+01         0.00000E+00
    0.44303E+00         0.97840E+00         0.00000E+00
    0.44074E+00         0.93702E+00         0.00000E+00
    0.43813E+00         0.89619E+00         0.00000E+00
    0.43515E+00         0.85583E+00         0.00000E+00
    0.43174E+00         0.81589E+00         0.00000E+00
    0.42783E+00         0.77626E+00         0.00000E+00
    0.42333E+00         0.73688E+00         0.00000E+00
    0.41815E+00         0.69765E+00         0.00000E+00
    0.41217E+00         0.65847E+00         0.00000E+00
    0.40525E+00         0.61923E+00         0.00000E+00
    0.39720E+00         0.57979E+00         0.00000E+00
    0.38782E+00         0.54001E+00         0.00000E+00
    0.37683E+00         0.49973E+00         0.00000E+00
    0.36389E+00         0.45875E+00         0.00000E+00
    0.34856E+00         0.41682E+00         0.00000E+00
    0.33026E+00         0.37368E+00         0.00000E+00
    0.30826E+00         0.32898E+00         0.00000E+00
    0.28153E+00         0.28233E+00         0.00000E+00
    0.24870E+00         0.23324E+00         0.00000E+00
    0.20781E+00         0.18114E+00         0.00000E+00
    0.15602E+00         0.12537E+00         0.00000E+00
    0.89040E-01         0.65200E-01         0.00000E+00
    0.00000E+00         0.00000E+00         0.00000E+00
    0.12694E+01         0.19384E+01         0.00000E+00
    0.11655E+01         0.19082E+01         0.00000E+00
    0.10756E+01         0.18789E+01         0.00000E+00
    0.99947E+00         0.18491E+01         0.00000E+00
    0.93561E+00         0.18181E+01         0.00000E+00
    0.88239E+00         0.17858E+01         0.00000E+00
    0.83835E+00         0.17519E+01         0.00000E+00
    0.80210E+00         0.17164E+01         0.00000E+00
    0.77234E+00         0.16795E+01         0.00000E+00
    0.74790E+00         0.16414E+01         0.00000E+00
    0.72780E+00         0.16022E+01         0.00000E+00
    0.71123E+00         0.15624E+01         0.00000E+00
    0.69750E+00         0.15220E+01         0.00000E+00
    0.68607E+00         0.14812E+01         0.00000E+00
    0.67651E+00         0.14403E+01         0.00000E+00
    0.66843E+00         0.13993E+01         0.00000E+00
    0.66155E+00         0.13583E+01         0.00000E+00
    0.65561E+00         0.13175E+01         0.00000E+00
    0.65041E+00         0.12769E+01         0.00000E+00
    0.64577E+00         0.12364E+01         0.00000E+00
    0.64155E+00         0.11963E+01         0.00000E+00
    0.63761E+00         0.11565E+01         0.00000E+00
    0.63383E+00         0.11169E+01         0.00000E+00
    0.63013E+00         0.10777E+01         0.00000E+00
    0.62641E+00         0.10388E+01         0.00000E+00
    0.62258E+00         0.10002E+01         0.00000E+00
    0.61856E+00         0.96185E+00         0.00000E+00
    0.61427E+00         0.92376E+00         0.00000E+00
    0.60963E+00         0.88588E+00         0.00000E+00
    0.60455E+00         0.84820E+00         0.00000E+00
    0.59894E+00         0.81066E+00         0.00000E+00
    0.59270E+00         0.77322E+00         0.00000E+00
    0.58574E+00         0.73584E+00         0.00000E+00
    0.57792E+00         0.69846E+00         0.00000E+00
    0.56910E+00         0.66101E+00         0.00000E+00
    0.55913E+00         0.62344E+00         0.00000E+00
    0.54782E+00         0.58566E+00         0.00000E+00
    0.53494E+00         0.54760E+00         0.00000E+00
    0.52026E+00         0.50918E+00         0.00000E+00
    0.50344E+00         0.47029E+00         0.00000E+00
    0.48413E+00         0.43086E+00         0.00000E+00
    0.46189E+00         0.39078E+00         0.00000E+00
    0.43618E+00         0.34994E+00         0.00000E+00
    0.40635E+00         0.30828E+00         0.00000E+00
    0.37163E+00         0.26572E+00         0.00000E+00
    0.33109E+00         0.22225E+00         0.00000E+00
    0.28361E+00         0.17791E+00         0.00000E+00
    0.22795E+00         0.13290E+00         0.00000E+00
    0.16274E+00         0.87638E-01         0.00000E+00
    0.86836E-01         0.42884E-01         0.00000E+00
    0.00000E+00         0.00000E+00         0.00000E+00
    0.13539E+01         0.14319E+01         0.00000E+00
    0.12692E+01         0.14183E+01         0.00000E+00
    0.11926E+01         0.14048E+01         0.00000E+00
    0.11236E+01         0.13914E+01         0.00000E+00
    0.10620E+01         0.13775E+01         0.00000E+00
    0.10073E+01         0.13628E+01         0.00000E+00
    0.95911E+00         0.13470E+01         0.00000E+00
    0.91681E+00         0.13301E+01         0.00000E+00
    0.87985E+00         0.13118E+01         0.00000E+00
    0.84766E+00         0.12921E+01         0.00000E+00
    0.81967E+00         0.12711E+01         0.00000E+00
    0.79535E+00         0.12488E+01         0.00000E+00
    0.77418E+00         0.12253E+01         0.00000E+00
    0.75573E+00         0.12007E+01         0.00000E+00
    0.73959E+00         0.11750E+01         0.00000E+00
    0.72540E+00         0.11485E+01         0.00000E+00
    0.71285E+00         0.11211E+01         0.00000E+00
    0.70166E+00         0.10931E+01         0.00000E+00
    0.69159E+00         0.10644E+01         0.00000E+00
    0.68242E+00         0.10352E+01         0.00000E+00
    0.67396E+00         0.10055E+01         0.00000E+00
    0.66604E+00         0.97539E+00         0.00000E+00
    0.65851E+00         0.94491E+00         0.00000E+00
    0.65122E+00         0.91409E+00         0.00000E+00
    0.64405E+00         0.88299E+00         0.00000E+00
    0.63687E+00         0.85161E+00         0.00000E+00
    0.62957E+00         0.81998E+00         0.00000E+00
    0.62204E+00         0.78811E+00         0.00000E+00
    0.61416E+00         0.75600E+00         0.00000E+00
    0.60582E+00         0.72366E+00         0.00000E+00
    0.59690E+00         0.69107E+00         0.00000E+00
    0.58729E+00         0.65823E+00         0.00000E+00
    0.57685E+00         0.62513E+00         0.00000E+00
    0.56545E+00         0.59175E+00         0.00000E+00
    0.55293E+00         0.55807E+00         0.00000E+00
    0.53912E+00         0.52406E+00         0.00000E+00
    0.52385E+00         0.48972E+00         0.00000E+00
    0.50689E+00         0.45502E+00         0.00000E+00
    0.48804E+00         0.41995E+00         0.00000E+00
    0.46702E+00         0.38452E+00         0.00000E+00
    0.44355E+00         0.34872E+00         0.00000E+00
    0.41733E+00         0.31259E+00         0.00000E+00
    0.38799E+00         0.27618E+00         0.00000E+00
    0.35519E+00         0.23959E+00         0.00000E+00
    0.31853E+00         0.20296E+00         0.00000E+00
    0.27762E+00         0.16649E+00         0.00000E+00
    0.23213E+00         0.13049E+00         0.00000E+00
    0.18176E+00         0.95326E-01         0.00000E+00
    0.12635E+00         0.61493E-01         0.00000E+00
    0.65827E-01         0.29544E-01         0.00000E+00
    0.00000E+00         0.00000E+00         0.00000E+00
    0.13061E+01         0.10529E+01         0.00000E+00
    0.12432E+01         0.10448E+01         0.00000E+00
    0.11832E+01         0.10374E+01         0.00000E+00
    0.11268E+01         0.10305E+01         0.00000E+00
    0.10741E+01         0.10235E+01         0.00000E+00
    0.10252E+01         0.10163E+01         0.00000E+00
    0.98024E+00         0.10087E+01         0.00000E+00
    0.93898E+00         0.10004E+01         0.00000E+00
    0.90131E+00         0.99123E+00         0.00000E+00
    0.86704E+00         0.98119E+00         0.00000E+00
    0.83593E+00         0.97015E+00         0.00000E+00
    0.80774E+00         0.95806E+00         0.00000E+00
    0.78222E+00         0.94489E+00         0.00000E+00
    0.75910E+00         0.93065E+00         0.00000E+00
    0.73812E+00         0.91534E+00         0.00000E+00
    0.71904E+00         0.89900E+00         0.00000E+00
    0.70162E+00         0.88167E+00         0.00000E+00
    0.68565E+00         0.86339E+00         0.00000E+00
    0.67091E+00         0.84421E+00         0.00000E+00
    0.65721E+00         0.82417E+00         0.00000E+00
    0.64437E+00         0.80333E+00         0.00000E+00
    0.63223E+00         0.78174E+00         0.00000E+00
    0.62064E+00         0.75943E+00         0.00000E+00
    0.60943E+00         0.73646E+00         0.00000E+00
    0.59848E+00         0.71285E+00         0.00000E+00
    0.58765E+00         0.68865E+00         0.00000E+00
    0.57682E+00         0.66389E+00         0.00000E+00
    0.56587E+00         0.63859E+00         0.00000E+00
    0.55468E+00         0.61278E+00         0.00000E+00
    0.54312E+00         0.58648E+00         0.00000E+00
    0.53109E+00         0.55972E+00         0.00000E+00
    0.51845E+00         0.53252E+00         0.00000E+00
    0.50510E+00         0.50488E+00         0.00000E+00
    0.49091E+00         0.47684E+00         0.00000E+00
    0.47574E+00         0.44841E+00         0.00000E+00
    0.45947E+00         0.41962E+00         0.00000E+00
    0.44196E+00         0.39050E+00         0.00000E+00
    0.42307E+00         0.36109E+00         0.00000E+00
    0.40265E+00         0.33143E+00         0.00000E+00
    0.38055E+00         0.30158E+00         0.00000E+00
    0.35663E+00         0.27161E+00         0.00000E+00
    0.33075E+00         0.24163E+00         0.00000E+00
    0.30279E+00         0.21175E+00         0.00000E+00
    0.27263E+00         0.18211E+00         0.00000E+00
    0.24019E+00         0.15289E+00         0.00000E+00
    0.20544E+00         0.12430E+00         0.00000E+00
    0.16840E+00         0.96568E-01         0.00000E+00
    0.12913E+00         0.69965E-01         0.00000E+00
    0.87790E-01         0.44781E-01         0.00000E+00
    0.44603E-01         0.21333E-01         0.00000E+00
    0.00000E+00         0.00000E+00         0.00000E+00
    0.12095E+01         0.77772E+00         0.00000E+00
    0.11629E+01         0.77154E+00         0.00000E+00
    0.11173E+01         0.76594E+00         0.00000E+00
    0.10730E+01         0.76077E+00         0.00000E+00
    0.10303E+01         0.75587E+00         0.00000E+00
    0.98934E+00         0.75106E+00         0.00000E+00
    0.95041E+00         0.74618E+00         0.00000E+00
    0.91354E+00         0.74107E+00         0.00000E+00
    0.87877E+00         0.73562E+00         0.00000E+00
    0.84611E+00         0.72969E+00         0.00000E+00
    0.81552E+00         0.72318E+00         0.00000E+00
    0.78690E+00         0.71602E+00         0.00000E+00
    0.76018E+00         0.70814E+00         0.00000E+00
    0.73525E+00         0.69949E+00         0.00000E+00
    0.71196E+00         0.69004E+00         0.00000E+00
    0.69020E+00         0.67977E+00         0.00000E+00
    0.66982E+00         0.66866E+00         0.00000E+00
    0.65069E+00         0.65671E+00         0.00000E+00
    0.63266E+00         0.64393E+00         0.00000E+00
    0.61560E+00         0.63034E+00         0.00000E+00
    0.59937E+00         0.61595E+00         0.00000E+00
    0.58384E+00         0.60078E+00         0.00000E+00
    0.56889E+00         0.58486E+00         0.00000E+00
    0.55438E+00         0.56821E+00         0.00000E+00
    0.54021E+00         0.55086E+00         0.00000E+00
    0.52625E+00         0.53285E+00         0.00000E+00
    0.51241E+00         0.51419E+00         0.00000E+00
    0.49856E+00         0.49493E+00         0.00000E+00
    0.48461E+00         0.47508E+00         0.00000E+00
    0.47046E+00         0.45470E+00         0.00000E+00
    0.45599E+00         0.43379E+00         0.00000E+00
    0.44113E+00         0.41241E+00         0.00000E+00
    0.42577E+00         0.39059E+00         0.00000E+00
    0.40982E+00         0.36837E+00         0.00000E+00
    0.39320E+00         0.34578E+00         0.00000E+00
    0.37581E+00         0.32289E+00         0.00000E+00
    0.35758E+00         0.29974E+00         0.00000E+00
    0.33842E+00         0.27640E+00         0.00000E+00
    0.31829E+00         0.25293E+00         0.00000E+00
    0.29710E+00         0.22941E+00         0.00000E+00
    0.27483E+00         0.20593E+00         0.00000E+00
    0.25144E+00         0.18258E+00         0.00000E+00
    0.22694E+00         0.15949E+00         0.00000E+00
    0.20132E+00         0.13676E+00         0.00000E+00
    0.17465E+00         0.11453E+00         0.00000E+00
    0.14700E+00         0.92953E-01         0.00000E+00
    0.11850E+00         0.72163E-01         0.00000E+00
    0.89300E-01         0.52320E-01         0.00000E+00
    0.59630E-01         0.33580E-01         0.00000E+00
    0.29760E-01         0.16098E-01         0.00000E+00
    0.00000E+00         0.00000E+00         0.00000E+00
    0.11002E+01         0.57533E+00         0.00000E+00
    0.10653E+01         0.56977E+00         0.00000E+00
    0.10304E+01         0.56467E+00         0.00000E+00
    0.99581E+00         0.55993E+00         0.00000E+00
    0.96172E+00         0.55549E+00         0.00000E+00
    0.92833E+00         0.55124E+00         0.00000E+00
    0.89580E+00         0.54709E+00         0.00000E+00
    0.86427E+00         0.54294E+00         0.00000E+00
    0.83381E+00         0.53870E+00         0.00000E+00
    0.80450E+00         0.53428E+00         0.00000E+00
    0.77638E+00         0.52960E+00         0.00000E+00
    0.74944E+00         0.52458E+00         0.00000E+00
    0.72370E+00         0.51915E+00         0.00000E+00
    0.69911E+00         0.51326E+00         0.00000E+00
    0.67563E+00         0.50685E+00         0.00000E+00
    0.65322E+00         0.49990E+00         0.00000E+00
    0.63181E+00         0.49236E+00         0.00000E+00
    0.61132E+00         0.48421E+00         0.00000E+00
    0.59168E+00         0.47544E+00         0.00000E+00
    0.57281E+00         0.46604E+00         0.00000E+00
    0.55462E+00         0.45601E+00         0.00000E+00
    0.53704E+00         0.44534E+00         0.00000E+00
    0.51996E+00         0.43404E+00         0.00000E+00
    0.50331E+00         0.42213E+00         0.00000E+00
    0.48699E+00         0.40962E+00         0.00000E+00
    0.47094E+00         0.39652E+00         0.00000E+00
    0.45506E+00         0.38286E+00         0.00000E+00
    0.43927E+00         0.36867E+00         0.00000E+00
    0.42351E+00         0.35397E+00         0.00000E+00
    0.40768E+00         0.33878E+00         0.00000E+00
    0.39173E+00         0.32315E+00         0.00000E+00
    0.37559E+00         0.30712E+00         0.00000E+00
    0.35919E+00         0.29071E+00         0.00000E+00
    0.34247E+00         0.27397E+00         0.00000E+00
    0.32538E+00         0.25695E+00         0.00000E+00
    0.30788E+00         0.23970E+00         0.00000E+00
    0.28993E+00         0.22228E+00         0.00000E+00
    0.27150E+00         0.20474E+00         0.00000E+00
    0.25256E+00         0.18714E+00         0.00000E+00
    0.23312E+00         0.16957E+00         0.00000E+00
    0.21316E+00         0.15208E+00         0.00000E+00
    0.19273E+00         0.13477E+00         0.00000E+00
    0.17185E+00         0.11770E+00         0.00000E+00
    0.15057E+00         0.10096E+00         0.00000E+00
    0.12898E+00         0.84641E-01         0.00000E+00
    0.10718E+00         0.68826E-01         0.00000E+00
    0.85274E-01         0.53596E-01         0.00000E+00
    0.63424E-01         0.39033E-01         0.00000E+00
    0.41796E-01         0.25207E-01         0.00000E+00
    0.20581E-01         0.12179E-01         0.00000E+00
    0.00000E+00         0.00000E+00         0.00000E+00
    0.99164E+00         0.42342E+00         0.00000E+00
    0.96504E+00         0.41821E+00         0.00000E+00
    0.93810E+00         0.41334E+00         0.00000E+00
    0.91098E+00         0.40877E+00         0.00000E+00
    0.88384E+00         0.40445E+00         0.00000E+00
    0.85681E+00         0.40035E+00         0.00000E+00
    0.83003E+00         0.39640E+00         0.00000E+00
    0.80360E+00         0.39253E+00         0.00000E+00
    0.77761E+00         0.38870E+00         0.00000E+00
    0.75214E+00         0.38485E+00         0.00000E+00
    0.72725E+00         0.38090E+00         0.00000E+00
    0.70297E+00         0.37682E+00         0.00000E+00
    0.67935E+00         0.37254E+00         0.00000E+00
    0.65638E+00         0.36802E+00         0.00000E+00
    0.63408E+00         0.36322E+00         0.00000E+00
    0.61243E+00         0.35809E+00         0.00000E+00
    0.59141E+00         0.35261E+00         0.00000E+00
    0.57101E+00         0.34674E+00         0.00000E+00
    0.55119E+00         0.34046E+00         0.00000E+00
    0.53190E+00         0.33376E+00         0.00000E+00
    0.51312E+00         0.32662E+00         0.00000E+00
    0.49478E+00         0.31904E+00         0.00000E+00
    0.47685E+00         0.31100E+00         0.00000E+00
    0.45926E+00         0.30253E+00         0.00000E+00
    0.44198E+00         0.29360E+00         0.00000E+00
    0.42494E+00         0.28425E+00         0.00000E+00
    0.40811E+00         0.27448E+00         0.00000E+00
    0.39142E+00         0.26430E+00         0.00000E+00
    0.37483E+00         0.25375E+00         0.00000E+00
    0.35829E+00         0.24283E+00         0.00000E+00
    0.34176E+00         0.23158E+00         0.00000E+00
    0.32520E+00         0.22003E+00         0.00000E+00
    0.30858E+00         0.20821E+00         0.00000E+00
    0.29186E+00         0.19615E+00         0.00000E+00
    0.27502E+00         0.18390E+00         0.00000E+00
    0.25804E+00         0.17150E+00         0.00000E+00
    0.24090E+00         0.15898E+00         0.00000E+00
    0.22361E+00         0.14641E+00         0.00000E+00
    0.20615E+00         0.13382E+00         0.00000E+00
    0.18856E+00         0.12127E+00         0.00000E+00
    0.17084E+00         0.10880E+00         0.00000E+00
    0.15304E+00         0.96483E-01         0.00000E+00
    0.13519E+00         0.84358E-01         0.00000E+00
    0.11735E+00         0.72480E-01         0.00000E+00
    0.99586E-01         0.60902E-01         0.00000E+00
    0.81985E-01         0.49668E-01         0.00000E+00
    0.64635E-01         0.38825E-01         0.00000E+00
    0.47641E-01         0.28409E-01         0.00000E+00
    0.31118E-01         0.18452E-01         0.00000E+00
    0.15193E-01         0.89780E-02         0.00000E+00
    0.00000E+00         0.00000E+00         0.00000E+00
    0.88827E+00         0.30814E+00         0.00000E+00
    0.86792E+00         0.30326E+00         0.00000E+00
    0.84704E+00         0.29865E+00         0.00000E+00
    0.82574E+00         0.29427E+00         0.00000E+00
    0.80414E+00         0.29012E+00         0.00000E+00
    0.78233E+00         0.28615E+00         0.00000E+00
    0.76042E+00         0.28234E+00         0.00000E+00
    0.73849E+00         0.27865E+00         0.00000E+00
    0.71662E+00         0.27505E+00         0.00000E+00
    0.69488E+00         0.27150E+00         0.00000E+00
    0.67332E+00         0.26796E+00         0.00000E+00
    0.65200E+00         0.26438E+00         0.00000E+00
    0.63095E+00         0.26075E+00         0.00000E+00
    0.61021E+00         0.25702E+00         0.00000E+00
    0.58980E+00         0.25315E+00         0.00000E+00
    0.56973E+00         0.24913E+00         0.00000E+00
    0.55001E+00         0.24491E+00         0.00000E+00
    0.53064E+00         0.24049E+00         0.00000E+00
    0.51162E+00         0.23583E+00         0.00000E+00
    0.49293E+00         0.23092E+00         0.00000E+00
    0.47457E+00         0.22575E+00         0.00000E+00
    0.45651E+00         0.22031E+00         0.00000E+00
    0.43874E+00         0.21458E+00         0.00000E+00
    0.42122E+00         0.20857E+00         0.00000E+00
    0.40395E+00         0.20228E+00         0.00000E+00
    0.38688E+00         0.19570E+00         0.00000E+00
    0.37000E+00         0.18886E+00         0.00000E+00
    0.35328E+00         0.18175E+00         0.00000E+00
    0.33670E+00         0.17439E+00         0.00000E+00
    0.32023E+00         0.16679E+00         0.00000E+00
    0.30386E+00         0.15898E+00         0.00000E+00
    0.28756E+00         0.15097E+00         0.00000E+00
    0.27132E+00         0.14280E+00         0.00000E+00
    0.25512E+00         0.13447E+00         0.00000E+00
    0.23896E+00         0.12603E+00         0.00000E+00
    0.22284E+00         0.11749E+00         0.00000E+00
    0.20675E+00         0.10890E+00         0.00000E+00
    0.19071E+00         0.10028E+00         0.00000E+00
    0.17471E+00         0.91674E-01         0.00000E+00
    0.15879E+00         0.83104E-01         0.00000E+00
    0.14297E+00         0.74609E-01         0.00000E+00
    0.12727E+00         0.66220E-01         0.00000E+00
    0.11174E+00         0.57971E-01         0.00000E+00
    0.96413E-01         0.49892E-01         0.00000E+00
    0.81347E-01         0.42010E-01         0.00000E+00
    0.66598E-01         0.34351E-01         0.00000E+00
    0.52228E-01         0.26938E-01         0.00000E+00
    0.38308E-01         0.19786E-01         0.00000E+00
    0.24911E-01         0.12909E-01         0.00000E+00
    0.12114E-01         0.63135E-02         0.00000E+00
    0.00000E+00         0.00000E+00         0.00000E+00
    0.79201E+00         0.22066E+00         0.00000E+00
    0.77650E+00         0.21615E+00         0.00000E+00
    0.76036E+00         0.21184E+00         0.00000E+00
    0.74366E+00         0.20773E+00         0.00000E+00
    0.72651E+00         0.20381E+00         0.00000E+00
    0.70898E+00         0.20005E+00         0.00000E+00
    0.69114E+00         0.19644E+00         0.00000E+00
    0.67306E+00         0.19296E+00         0.00000E+00
    0.65482E+00         0.18959E+00         0.00000E+00
    0.63646E+00         0.18631E+00         0.00000E+00
    0.61805E+00         0.18308E+00         0.00000E+00
    0.59963E+00         0.17989E+00         0.00000E+00
    0.58123E+00         0.17672E+00         0.00000E+00
    0.56291E+00         0.17353E+00         0.00000E+00
    0.54468E+00         0.17031E+00         0.00000E+00
    0.52658E+00         0.16705E+00         0.00000E+00
    0.50862E+00         0.16370E+00         0.00000E+00
    0.49082E+00         0.16027E+00         0.00000E+00
    0.47318E+00         0.15673E+00         0.00000E+00
    0.45573E+00         0.15308E+00         0.00000E+00
    0.43845E+00         0.14929E+00         0.00000E+00
    0.42135E+00         0.14536E+00         0.00000E+00
    0.40443E+00         0.14128E+00         0.00000E+00
    0.38768E+00         0.13705E+00         0.00000E+00
    0.37110E+00         0.13267E+00         0.00000E+00
    0.35468E+00         0.12813E+00         0.00000E+00
    0.33842E+00         0.12344E+00         0.00000E+00
    0.32231E+00         0.11861E+00         0.00000E+00
    0.30633E+00         0.11364E+00         0.00000E+00
    0.29049E+00         0.10853E+00         0.00000E+00
    0.27478E+00         0.10331E+00         0.00000E+00
    0.25919E+00         0.97986E-01         0.00000E+00
    0.24371E+00         0.92568E-01         0.00000E+00
    0.22836E+00         0.87077E-01         0.00000E+00
    0.21314E+00         0.81528E-01         0.00000E+00
    0.19804E+00         0.75941E-01         0.00000E+00
    0.18307E+00         0.70336E-01         0.00000E+00
    0.16825E+00         0.64731E-01         0.00000E+00
    0.15359E+00         0.59147E-01         0.00000E+00
    0.13910E+00         0.53605E-01         0.00000E+00
    0.12482E+00         0.48124E-01         0.00000E+00
    0.11075E+00         0.42723E-01         0.00000E+00
    0.96943E-01         0.37420E-01         0.00000E+00
    0.83417E-01         0.32231E-01         0.00000E+00
    0.70210E-01         0.27171E-01         0.00000E+00
    0.57361E-01         0.22253E-01         0.00000E+00
    0.44911E-01         0.17485E-01         0.00000E+00
    0.32903E-01         0.12874E-01         0.00000E+00
    0.21384E-01         0.84242E-02         0.00000E+00
    0.10400E-01         0.41343E-02         0.00000E+00
    0.00000E+00         0.00000E+00         0.00000E+00
    0.70373E+00         0.15478E+00         0.00000E+00
    0.69201E+00         0.15066E+00         0.00000E+00
    0.67962E+00         0.14670E+00         0.00000E+00
    0.66661E+00         0.14291E+00         0.00000E+00
    0.65306E+00         0.13927E+00         0.00000E+00
    0.63903E+00         0.13578E+00         0.00000E+00
    0.62458E+00         0.13243E+00         0.00000E+00
    0.60978E+00         0.12920E+00         0.00000E+00
    0.59466E+00         0.12609E+00         0.00000E+00
    0.57930E+00         0.12308E+00         0.00000E+00
    0.56373E+00         0.12016E+00         0.00000E+00
    0.54799E+00         0.11731E+00         0.00000E+00
    0.53214E+00         0.11452E+00         0.00000E+00
    0.51619E+00         0.11178E+00         0.00000E+00
    0.50020E+00         0.10907E+00         0.00000E+00
    0.48418E+00         0.10637E+00         0.00000E+00
    0.46815E+00         0.10367E+00         0.00000E+00
    0.45215E+00         0.10097E+00         0.00000E+00
    0.43619E+00         0.98248E-01         0.00000E+00
    0.42029E+00         0.95496E-01         0.00000E+00
    0.40446E+00         0.92705E-01         0.00000E+00
    0.38870E+00         0.89868E-01         0.00000E+00
    0.37304E+00         0.86980E-01         0.00000E+00
    0.35748E+00         0.84036E-01         0.00000E+00
    0.34202E+00         0.81034E-01         0.00000E+00
    0.32667E+00         0.77972E-01         0.00000E+00
    0.31144E+00         0.74850E-01         0.00000E+00
    0.29632E+00         0.71670E-01         0.00000E+00
    0.28132E+00         0.68435E-01         0.00000E+00
    0.26645E+00         0.65151E-01         0.00000E+00
    0.25170E+00         0.61823E-01         0.00000E+00
    0.23709E+00         0.58458E-01         0.00000E+00
    0.22261E+00         0.55064E-01         0.00000E+00
    0.20828E+00         0.51650E-01         0.00000E+00
    0.19410E+00         0.48226E-01         0.00000E+00
    0.18008E+00         0.44802E-01         0.00000E+00
    0.16623E+00         0.41390E-01         0.00000E+00
    0.15257E+00         0.38000E-01         0.00000E+00
    0.13910E+00         0.34643E-01         0.00000E+00
    0.12584E+00         0.31330E-01         0.00000E+00
    0.11281E+00         0.28072E-01         0.00000E+00
    0.10003E+00         0.24878E-01         0.00000E+00
    0.87515E-01         0.21758E-01         0.00000E+00
    0.75293E-01         0.18717E-01         0.00000E+00
    0.63386E-01         0.15764E-01         0.00000E+00
    0.51819E-01         0.12903E-01         0.00000E+00
    0.40617E-01         0.10136E-01         0.00000E+00
    0.29807E-01         0.74652E-02         0.00000E+00
    0.19416E-01         0.48883E-02         0.00000E+00
    0.94716E-02         0.24019E-02         0.00000E+00
    0.00000E+00         0.00000E+00         0.00000E+00
    0.62376E+00         0.10581E+00         0.00000E+00
    0.61503E+00         0.10209E+00         0.00000E+00
    0.60561E+00         0.98498E-01         0.00000E+00
    0.59555E+00         0.95042E-01         0.00000E+00
    0.58492E+00         0.91718E-01         0.00000E+00
    0.57376E+00         0.88523E-01         0.00000E+00
    0.56212E+00         0.85455E-01         0.00000E+00
    0.55007E+00         0.82507E-01         0.00000E+00
    0.53763E+00         0.79675E-01         0.00000E+00
    0.52486E+00         0.76950E-01         0.00000E+00
    0.51180E+00         0.74326E-01         0.00000E+00
    0.49848E+00         0.71795E-01         0.00000E+00
    0.48495E+00         0.69349E-01         0.00000E+00
    0.47124E+00         0.66978E-01         0.00000E+00
    0.45737E+00         0.64675E-01         0.00000E+00
    0.44338E+00         0.62432E-01         0.00000E+00
    0.42930E+00         0.60239E-01         0.00000E+00
    0.41515E+00         0.58089E-01         0.00000E+00
    0.40095E+00         0.55976E-01         0.00000E+00
    0.38672E+00         0.53891E-01         0.00000E+00
    0.37248E+00         0.51830E-01         0.00000E+00
    0.35824E+00         0.49786E-01         0.00000E+00
    0.34403E+00         0.47755E-01         0.00000E+00
    0.32986E+00         0.45734E-01         0.00000E+00
    0.31573E+00         0.43720E-01         0.00000E+00
    0.30166E+00         0.41711E-01         0.00000E+00
    0.28767E+00         0.39706E-01         0.00000E+00
    0.27375E+00         0.37704E-01         0.00000E+00
    0.25992E+00         0.35708E-01         0.00000E+00
    0.24619E+00         0.33717E-01         0.00000E+00
    0.23257E+00         0.31735E-01         0.00000E+00
    0.21907E+00         0.29765E-01         0.00000E+00
    0.20569E+00         0.27810E-01         0.00000E+00
    0.19245E+00         0.25875E-01         0.00000E+00
    0.17936E+00         0.23963E-01         0.00000E+00
    0.16642E+00         0.22080E-01         0.00000E+00
    0.15365E+00         0.20232E-01         0.00000E+00
    0.14106E+00         0.18422E-01         0.00000E+00
    0.12866E+00         0.16657E-01         0.00000E+00
    0.11647E+00         0.14940E-01         0.00000E+00
    0.10449E+00         0.13277E-01         0.00000E+00
    0.92743E-01         0.11670E-01         0.00000E+00
    0.81244E-01         0.10125E-01         0.00000E+00
    0.70008E-01         0.86416E-02         0.00000E+00
    0.59050E-01         0.72230E-02         0.00000E+00
    0.48385E-01         0.58692E-02         0.00000E+00
    0.38029E-01         0.45796E-02         0.00000E+00
    0.27998E-01         0.33520E-02         0.00000E+00
    0.18307E-01         0.21830E-02         0.00000E+00
    0.89695E-02         0.10678E-02         0.00000E+00
    0.00000E+00         0.00000E+00         0.00000E+00
    0.55207E+00         0.70003E-01         0.00000E+00
    0.54567E+00         0.66673E-01         0.00000E+00
    0.53859E+00         0.63450E-01         0.00000E+00
    0.53088E+00         0.60335E-01         0.00000E+00
    0.52260E+00         0.57333E-01         0.00000E+00
    0.51378E+00         0.54444E-01         0.00000E+00
    0.50447E+00         0.51667E-01         0.00000E+00
    0.49470E+00         0.49003E-01         0.00000E+00
    0.48453E+00         0.46449E-01         0.00000E+00
    0.47398E+00         0.44002E-01         0.00000E+00
    0.46310E+00         0.41661E-01         0.00000E+00
    0.45191E+00         0.39421E-01         0.00000E+00
    0.44045E+00         0.37277E-01         0.00000E+00
    0.42875E+00         0.35227E-01         0.00000E+00
    0.41685E+00         0.33265E-01         0.00000E+00
    0.40476E+00         0.31386E-01         0.00000E+00
    0.39252E+00         0.29586E-01         0.00000E+00
    0.38014E+00         0.27861E-01         0.00000E+00
    0.36766E+00         0.26204E-01         0.00000E+00
    0.35509E+00         0.24614E-01         0.00000E+00
    0.34245E+00         0.23084E-01         0.00000E+00
    0.32976E+00         0.21612E-01         0.00000E+00
    0.31705E+00         0.20194E-01         0.00000E+00
    0.30432E+00         0.18828E-01         0.00000E+00
    0.29159E+00         0.17510E-01         0.00000E+00
    0.27887E+00         0.16240E-01         0.00000E+00
    0.26619E+00         0.15014E-01         0.00000E+00
    0.25354E+00         0.13833E-01         0.00000E+00
    0.24096E+00         0.12696E-01         0.00000E+00
    0.22843E+00         0.11602E-01         0.00000E+00
    0.21599E+00         0.10552E-01         0.00000E+00
    0.20364E+00         0.95459E-02         0.00000E+00
    0.19138E+00         0.85851E-02         0.00000E+00
    0.17924E+00         0.76705E-02         0.00000E+00
    0.16722E+00         0.68035E-02         0.00000E+00
    0.15533E+00         0.59855E-02         0.00000E+00
    0.14358E+00         0.52179E-02         0.00000E+00
    0.13199E+00         0.45021E-02         0.00000E+00
    0.12056E+00         0.38396E-02         0.00000E+00
    0.10931E+00         0.32314E-02         0.00000E+00
    0.98242E-01         0.26783E-02         0.00000E+00
    0.87372E-01         0.21808E-02         0.00000E+00
    0.76708E-01         0.17390E-02         0.00000E+00
    0.66262E-01         0.13522E-02         0.00000E+00
    0.56043E-01         0.10195E-02         0.00000E+00
    0.46061E-01         0.73884E-03         0.00000E+00
    0.36326E-01         0.50782E-03         0.00000E+00
    0.26844E-01         0.32306E-03         0.00000E+00
    0.17625E-01         0.18037E-03         0.00000E+00
    0.86752E-02         0.74674E-04         0.00000E+00
    0.00000E+00         0.00000E+00         0.00000E+00
    0.48834E+00         0.44340E-01         0.00000E+00
    0.48372E+00         0.41384E-01         0.00000E+00
    0.47847E+00         0.38512E-01         0.00000E+00
    0.47262E+00         0.35730E-01         0.00000E+00
    0.46622E+00         0.33041E-01         0.00000E+00
    0.45929E+00         0.30449E-01         0.00000E+00
    0.45188E+00         0.27958E-01         0.00000E+00
    0.44402E+00         0.25568E-01         0.00000E+00
    0.43573E+00         0.23280E-01         0.00000E+00
    0.42706E+00         0.21096E-01         0.00000E+00
    0.41804E+00         0.19015E-01         0.00000E+00
    0.40869E+00         0.17036E-01         0.00000E+00
    0.39905E+00         0.15158E-01         0.00000E+00
    0.38914E+00         0.13379E-01         0.00000E+00
    0.37898E+00         0.11698E-01         0.00000E+00
    0.36861E+00         0.10112E-01         0.00000E+00
    0.35805E+00         0.86189E-02         0.00000E+00
    0.34732E+00         0.72165E-02         0.00000E+00
    0.33644E+00         0.59021E-02         0.00000E+00
    0.32544E+00         0.46731E-02         0.00000E+00
    0.31433E+00         0.35271E-02         0.00000E+00
    0.30313E+00         0.24615E-02         0.00000E+00
    0.29186E+00         0.14742E-02         0.00000E+00
    0.28054E+00         0.56280E-03         0.00000E+00
    0.26918E+00        -0.27463E-03         0.00000E+00
    0.25779E+00        -0.10400E-02         0.00000E+00
    0.24641E+00        -0.17349E-02         0.00000E+00
    0.23502E+00        -0.23608E-02         0.00000E+00
    0.22366E+00        -0.29192E-02         0.00000E+00
    0.21233E+00        -0.34110E-02         0.00000E+00
    0.20105E+00        -0.38372E-02         0.00000E+00
    0.18982E+00        -0.41986E-02         0.00000E+00
    0.17866E+00        -0.44960E-02         0.00000E+00
    0.16758E+00        -0.47299E-02         0.00000E+00
    0.15659E+00        -0.49009E-02         0.00000E+00
    0.14570E+00        -0.50096E-02         0.00000E+00
    0.13492E+00        -0.50565E-02         0.00000E+00
    0.12425E+00        -0.50423E-02         0.00000E+00
    0.11372E+00        -0.49677E-02         0.00000E+00
    0.10332E+00        -0.48338E-02         0.00000E+00
    0.93067E-01        -0.46415E-02         0.00000E+00
    0.82966E-01        -0.43924E-02         0.00000E+00
    0.73027E-01        -0.40881E-02         0.00000E+00
    0.63255E-01        -0.37307E-02         0.00000E+00
    0.53657E-01        -0.33226E-02         0.00000E+00
    0.44240E-01        -0.28666E-02         0.00000E+00
    0.35007E-01        -0.23661E-02         0.00000E+00
    0.25964E-01        -0.18246E-02         0.00000E+00
    0.17114E-01        -0.12466E-02         0.00000E+00
    0.84588E-02        -0.63664E-03         0.00000E+00
    0.00000E+00         0.00000E+00         0.00000E+00
    0.43205E+00         0.26380E-01         0.00000E+00
    0.42879E+00         0.23772E-01         0.00000E+00
    0.42494E+00         0.21229E-01         0.00000E+00
    0.42055E+00         0.18758E-01         0.00000E+00
    0.41563E+00         0.16365E-01         0.00000E+00
    0.41022E+00         0.14055E-01         0.00000E+00
    0.40434E+00         0.11831E-01         0.00000E+00
    0.39804E+00         0.96984E-02         0.00000E+00
    0.39132E+00         0.76589E-02         0.00000E+00
    0.38422E+00         0.57150E-02         0.00000E+00
    0.37677E+00         0.38683E-02         0.00000E+00
    0.36899E+00         0.21200E-02         0.00000E+00
    0.36091E+00         0.47054E-03         0.00000E+00
    0.35255E+00        -0.10797E-02         0.00000E+00
    0.34393E+00        -0.25308E-02         0.00000E+00
    0.33508E+00        -0.38833E-02         0.00000E+00
    0.32602E+00        -0.51379E-02         0.00000E+00
    0.31676E+00        -0.62955E-02         0.00000E+00
    0.30734E+00        -0.73572E-02         0.00000E+00
    0.29777E+00        -0.83244E-02         0.00000E+00
    0.28806E+00        -0.91983E-02         0.00000E+00
    0.27823E+00        -0.99805E-02         0.00000E+00
    0.26831E+00        -0.10673E-01         0.00000E+00
    0.25831E+00        -0.11276E-01         0.00000E+00
    0.24824E+00        -0.11792E-01         0.00000E+00
    0.23812E+00        -0.12223E-01         0.00000E+00
    0.22796E+00        -0.12570E-01         0.00000E+00
    0.21777E+00        -0.12834E-01         0.00000E+00
    0.20758E+00        -0.13018E-01         0.00000E+00
    0.19738E+00        -0.13122E-01         0.00000E+00
    0.18720E+00        -0.13148E-01         0.00000E+00
    0.17705E+00        -0.13098E-01         0.00000E+00
    0.16693E+00        -0.12972E-01         0.00000E+00
    0.15685E+00        -0.12774E-01         0.00000E+00
    0.14683E+00        -0.12503E-01         0.00000E+00
    0.13688E+00        -0.12161E-01         0.00000E+00
    0.12700E+00        -0.11751E-01         0.00000E+00
    0.11720E+00        -0.11273E-01         0.00000E+00
    0.10749E+00        -0.10730E-01         0.00000E+00
    0.97875E-01        -0.10123E-01         0.00000E+00
    0.88366E-01        -0.94550E-02         0.00000E+00
    0.78967E-01        -0.87278E-02         0.00000E+00
    0.69683E-01        -0.79439E-02         0.00000E+00
    0.60519E-01        -0.71060E-02         0.00000E+00
    0.51480E-01        -0.62169E-02         0.00000E+00
    0.42569E-01        -0.52797E-02         0.00000E+00
    0.33789E-01        -0.42979E-02         0.00000E+00
    0.25142E-01        -0.32751E-02         0.00000E+00
    0.16628E-01        -0.22150E-02         0.00000E+00
    0.82477E-02        -0.11219E-02         0.00000E+00
    0.00000E+00         0.00000E+00         0.00000E+00
    0.38256E+00         0.14173E-01         0.00000E+00
    0.38032E+00         0.11881E-01         0.00000E+00
    0.37754E+00         0.96388E-02         0.00000E+00
    0.37427E+00         0.74541E-02         0.00000E+00
    0.37051E+00         0.53333E-02         0.00000E+00
    0.36630E+00         0.32822E-02         0.00000E+00
    0.36166E+00         0.13059E-02         0.00000E+00
    0.35661E+00        -0.59118E-03         0.00000E+00
    0.35117E+00        -0.24052E-02         0.00000E+00
    0.34538E+00        -0.41327E-02         0.00000E+00
    0.33924E+00        -0.57712E-02         0.00000E+00
    0.33278E+00        -0.73182E-02         0.00000E+00
    0.32602E+00        -0.87720E-02         0.00000E+00
    0.31899E+00        -0.10131E-01         0.00000E+00
    0.31169E+00        -0.11394E-01         0.00000E+00
    0.30416E+00        -0.12561E-01         0.00000E+00
    0.29642E+00        -0.13632E-01         0.00000E+00
    0.28847E+00        -0.14605E-01         0.00000E+00
    0.28033E+00        -0.15482E-01         0.00000E+00
    0.27203E+00        -0.16262E-01         0.00000E+00
    0.26359E+00        -0.16946E-01         0.00000E+00
    0.25500E+00        -0.17536E-01         0.00000E+00
    0.24631E+00        -0.18031E-01         0.00000E+00
    0.23750E+00        -0.18433E-01         0.00000E+00
    0.22861E+00        -0.18743E-01         0.00000E+00
    0.21965E+00        -0.18962E-01         0.00000E+00
    0.21062E+00        -0.19091E-01         0.00000E+00
    0.20154E+00        -0.19133E-01         0.00000E+00
    0.19243E+00        -0.19087E-01         0.00000E+00
    0.18329E+00        -0.18956E-01         0.00000E+00
    0.17414E+00        -0.18742E-01         0.00000E+00
    0.16498E+00        -0.18446E-01         0.00000E+00
    0.15583E+00        -0.18069E-01         0.00000E+00
    0.14669E+00        -0.17614E-01         0.00000E+00
    0.13757E+00        -0.17082E-01         0.00000E+00
    0.12849E+00        -0.16476E-01         0.00000E+00
    0.11945E+00        -0.15796E-01         0.00000E+00
    0.11045E+00        -0.15046E-01         0.00000E+00
    0.10151E+00        -0.14227E-01         0.00000E+00
    0.92631E-01        -0.13342E-01         0.00000E+00
    0.83815E-01        -0.12393E-01         0.00000E+00
    0.75070E-01        -0.11383E-01         0.00000E+00
    0.66399E-01        -0.10314E-01         0.00000E+00
    0.57806E-01        -0.91888E-02         0.00000E+00
    0.49295E-01        -0.80105E-02         0.00000E+00
    0.40867E-01        -0.67821E-02         0.00000E+00
    0.32524E-01        -0.55067E-02         0.00000E+00
    0.24266E-01        -0.41873E-02         0.00000E+00
    0.16094E-01        -0.28275E-02         0.00000E+00
    0.80060E-02        -0.14306E-02         0.00000E+00
    0.00000E+00         0.00000E+00         0.00000E+00
    0.33920E+00         0.61802E-02         0.00000E+00
    0.33770E+00         0.41706E-02         0.00000E+00
    0.33572E+00         0.21990E-02         0.00000E+00
    0.33330E+00         0.27287E-03         0.00000E+00
    0.33044E+00        -0.16013E-02         0.00000E+00
    0.32717E+00        -0.34174E-02         0.00000E+00
    0.32351E+00        -0.51701E-02         0.00000E+00
    0.31947E+00        -0.68545E-02         0.00000E+00
    0.31508E+00        -0.84661E-02         0.00000E+00
    0.31034E+00        -0.10001E-01         0.00000E+00
    0.30528E+00        -0.11456E-01         0.00000E+00
    0.29992E+00        -0.12829E-01         0.00000E+00
    0.29428E+00        -0.14115E-01         0.00000E+00
    0.28837E+00        -0.15315E-01         0.00000E+00
    0.28220E+00        -0.16425E-01         0.00000E+00
    0.27581E+00        -0.17444E-01         0.00000E+00
    0.26919E+00        -0.18372E-01         0.00000E+00
    0.26237E+00        -0.19206E-01         0.00000E+00
    0.25536E+00        -0.19948E-01         0.00000E+00
    0.24819E+00        -0.20596E-01         0.00000E+00
    0.24085E+00        -0.21151E-01         0.00000E+00
    0.23337E+00        -0.21613E-01         0.00000E+00
    0.22576E+00        -0.21981E-01         0.00000E+00
    0.21803E+00        -0.22257E-01         0.00000E+00
    0.21020E+00        -0.22442E-01         0.00000E+00
    0.20228E+00        -0.22535E-01         0.00000E+00
    0.19428E+00        -0.22539E-01         0.00000E+00
    0.18621E+00        -0.22453E-01         0.00000E+00
    0.17808E+00        -0.22280E-01         0.00000E+00
    0.16990E+00        -0.22021E-01         0.00000E+00
    0.16169E+00        -0.21677E-01         0.00000E+00
    0.15344E+00        -0.21250E-01         0.00000E+00
    0.14518E+00        -0.20741E-01         0.00000E+00
    0.13690E+00        -0.20153E-01         0.00000E+00
    0.12863E+00        -0.19486E-01         0.00000E+00
    0.12035E+00        -0.18743E-01         0.00000E+00
    0.11209E+00        -0.17927E-01         0.00000E+00
    0.10384E+00        -0.17037E-01         0.00000E+00
    0.95618E-01        -0.16079E-01         0.00000E+00
    0.87422E-01        -0.15052E-01         0.00000E+00
    0.79259E-01        -0.13960E-01         0.00000E+00
    0.71133E-01        -0.12805E-01         0.00000E+00
    0.63047E-01        -0.11589E-01         0.00000E+00
    0.55003E-01        -0.10316E-01         0.00000E+00
    0.47005E-01        -0.89871E-02         0.00000E+00
    0.39053E-01        -0.76054E-02         0.00000E+00
    0.31149E-01        -0.61736E-02         0.00000E+00
    0.23293E-01        -0.46945E-02         0.00000E+00
    0.15484E-01        -0.31707E-02         0.00000E+00
    0.77200E-02        -0.16050E-02         0.00000E+00
    0.00000E+00         0.00000E+00         0.00000E+00
    0.30126E+00         0.12076E-02         0.00000E+00
    0.30029E+00        -0.55214E-03         0.00000E+00
    0.29891E+00        -0.22833E-02         0.00000E+00
    0.29713E+00        -0.39790E-02         0.00000E+00
    0.29496E+00        -0.56327E-02         0.00000E+00
    0.29242E+00        -0.72386E-02         0.00000E+00
    0.28953E+00        -0.87912E-02         0.00000E+00
    0.28629E+00        -0.10286E-01         0.00000E+00
    0.28273E+00        -0.11717E-01         0.00000E+00
    0.27886E+00        -0.13082E-01         0.00000E+00
    0.27469E+00        -0.14377E-01         0.00000E+00
    0.27023E+00        -0.15598E-01         0.00000E+00
    0.26551E+00        -0.16742E-01         0.00000E+00
    0.26054E+00        -0.17807E-01         0.00000E+00
    0.25533E+00        -0.18791E-01         0.00000E+00
    0.24989E+00        -0.19692E-01         0.00000E+00
    0.24424E+00        -0.20508E-01         0.00000E+00
    0.23839E+00        -0.21238E-01         0.00000E+00
    0.23236E+00        -0.21881E-01         0.00000E+00
    0.22615E+00        -0.22436E-01         0.00000E+00
    0.21978E+00        -0.22904E-01         0.00000E+00
    0.21327E+00        -0.23283E-01         0.00000E+00
    0.20662E+00        -0.23573E-01         0.00000E+00
    0.19984E+00        -0.23775E-01         0.00000E+00
    0.19295E+00        -0.23889E-01         0.00000E+00
    0.18595E+00        -0.23916E-01         0.00000E+00
    0.17887E+00        -0.23855E-01         0.00000E+00
    0.17170E+00        -0.23709E-01         0.00000E+00
    0.16445E+00        -0.23477E-01         0.00000E+00
    0.15715E+00        -0.23161E-01         0.00000E+00
    0.14978E+00        -0.22762E-01         0.00000E+00
    0.14237E+00        -0.22282E-01         0.00000E+00
    0.13492E+00        -0.21721E-01         0.00000E+00
    0.12743E+00        -0.21082E-01         0.00000E+00
    0.11992E+00        -0.20366E-01         0.00000E+00
    0.11239E+00        -0.19574E-01         0.00000E+00
    0.10485E+00        -0.18709E-01         0.00000E+00
    0.97300E-01        -0.17772E-01         0.00000E+00
    0.89747E-01        -0.16765E-01         0.00000E+00
    0.82195E-01        -0.15690E-01         0.00000E+00
    0.74650E-01        -0.14550E-01         0.00000E+00
    0.67114E-01        -0.13346E-01         0.00000E+00
    0.59590E-01        -0.12080E-01         0.00000E+00
    0.52080E-01        -0.10755E-01         0.00000E+00
    0.44587E-01        -0.93726E-02         0.00000E+00
    0.37111E-01        -0.79354E-02         0.00000E+00
    0.29654E-01        -0.64453E-02         0.00000E+00
    0.22215E-01        -0.49046E-02         0.00000E+00
    0.14794E-01        -0.33154E-02         0.00000E+00
    0.73895E-02        -0.16799E-02         0.00000E+00
    0.00000E+00         0.00000E+00         0.00000E+00
    0.26810E+00        -0.16542E-02         0.00000E+00
    0.26750E+00        -0.31950E-02         0.00000E+00
    0.26655E+00        -0.47146E-02         0.00000E+00
    0.26524E+00        -0.62067E-02         0.00000E+00
    0.26359E+00        -0.76653E-02         0.00000E+00
    0.26161E+00        -0.90848E-02         0.00000E+00
    0.25931E+00        -0.10460E-01         0.00000E+00
    0.25671E+00        -0.11786E-01         0.00000E+00
    0.25382E+00        -0.13059E-01         0.00000E+00
    0.25064E+00        -0.14274E-01         0.00000E+00
    0.24719E+00        -0.15428E-01         0.00000E+00
    0.24348E+00        -0.16517E-01         0.00000E+00
    0.23952E+00        -0.17539E-01         0.00000E+00
    0.23533E+00        -0.18490E-01         0.00000E+00
    0.23091E+00        -0.19369E-01         0.00000E+00
    0.22628E+00        -0.20174E-01         0.00000E+00
    0.22145E+00        -0.20901E-01         0.00000E+00
    0.21642E+00        -0.21551E-01         0.00000E+00
    0.21122E+00        -0.22121E-01         0.00000E+00
    0.20585E+00        -0.22611E-01         0.00000E+00
    0.20032E+00        -0.23020E-01         0.00000E+00
    0.19464E+00        -0.23347E-01         0.00000E+00
    0.18882E+00        -0.23592E-01         0.00000E+00
    0.18288E+00        -0.23754E-01         0.00000E+00
    0.17681E+00        -0.23834E-01         0.00000E+00
    0.17064E+00        -0.23832E-01         0.00000E+00
    0.16436E+00        -0.23748E-01         0.00000E+00
    0.15799E+00        -0.23582E-01         0.00000E+00
    0.15154E+00        -0.23336E-01         0.00000E+00
    0.14501E+00        -0.23010E-01         0.00000E+00
    0.13841E+00        -0.22604E-01         0.00000E+00
    0.13175E+00        -0.22121E-01         0.00000E+00
    0.12503E+00        -0.21560E-01         0.00000E+00
    0.11826E+00        -0.20924E-01         0.00000E+00
    0.11146E+00        -0.20213E-01         0.00000E+00
    0.10461E+00        -0.19429E-01         0.00000E+00
    0.97734E-01        -0.18573E-01         0.00000E+00
    0.90830E-01        -0.17647E-01         0.00000E+00
    0.83903E-01        -0.16653E-01         0.00000E+00
    0.76958E-01        -0.15592E-01         0.00000E+00
    0.69997E-01        -0.14466E-01         0.00000E+00
    0.63025E-01        -0.13276E-01         0.00000E+00
    0.56043E-01        -0.12025E-01         0.00000E+00
    0.49053E-01        -0.10713E-01         0.00000E+00
    0.42058E-01        -0.93439E-02         0.00000E+00
    0.35058E-01        -0.79180E-02         0.00000E+00
    0.28054E-01        -0.64373E-02         0.00000E+00
    0.21047E-01        -0.49035E-02         0.00000E+00
    0.14037E-01        -0.33184E-02         0.00000E+00
    0.70212E-02        -0.16834E-02         0.00000E+00
    0.00000E+00         0.00000E+00         0.00000E+00
    0.23908E+00        -0.30856E-02         0.00000E+00
    0.23874E+00        -0.44358E-02         0.00000E+00
    0.23809E+00        -0.57706E-02         0.00000E+00
    0.23713E+00        -0.70842E-02         0.00000E+00
    0.23587E+00        -0.83711E-02         0.00000E+00
    0.23432E+00        -0.96263E-02         0.00000E+00
    0.23248E+00        -0.10845E-01         0.00000E+00
    0.23038E+00        -0.12022E-01         0.00000E+00
    0.22801E+00        -0.13155E-01         0.00000E+00
    0.22539E+00        -0.14238E-01         0.00000E+00
    0.22252E+00        -0.15269E-01         0.00000E+00
    0.21941E+00        -0.16244E-01         0.00000E+00
    0.21608E+00        -0.17160E-01         0.00000E+00
    0.21253E+00        -0.18014E-01         0.00000E+00
    0.20878E+00        -0.18805E-01         0.00000E+00
    0.20482E+00        -0.19529E-01         0.00000E+00
    0.20068E+00        -0.20185E-01         0.00000E+00
    0.19635E+00        -0.20771E-01         0.00000E+00
    0.19185E+00        -0.21287E-01         0.00000E+00
    0.18719E+00        -0.21729E-01         0.00000E+00
    0.18238E+00        -0.22098E-01         0.00000E+00
    0.17742E+00        -0.22393E-01         0.00000E+00
    0.17233E+00        -0.22613E-01         0.00000E+00
    0.16710E+00        -0.22757E-01         0.00000E+00
    0.16176E+00        -0.22826E-01         0.00000E+00
    0.15630E+00        -0.22818E-01         0.00000E+00
    0.15074E+00        -0.22735E-01         0.00000E+00
    0.14508E+00        -0.22577E-01         0.00000E+00
    0.13933E+00        -0.22343E-01         0.00000E+00
    0.13349E+00        -0.22034E-01         0.00000E+00
    0.12757E+00        -0.21651E-01         0.00000E+00
    0.12159E+00        -0.21195E-01         0.00000E+00
    0.11554E+00        -0.20666E-01         0.00000E+00
    0.10942E+00        -0.20065E-01         0.00000E+00
    0.10326E+00        -0.19393E-01         0.00000E+00
    0.97038E-01        -0.18651E-01         0.00000E+00
    0.90774E-01        -0.17841E-01         0.00000E+00
    0.84469E-01        -0.16963E-01         0.00000E+00
    0.78126E-01        -0.16019E-01         0.00000E+00
    0.71750E-01        -0.15010E-01         0.00000E+00
    0.65342E-01        -0.13937E-01         0.00000E+00
    0.58907E-01        -0.12802E-01         0.00000E+00
    0.52446E-01        -0.11606E-01         0.00000E+00
    0.45961E-01        -0.10350E-01         0.00000E+00
    0.39455E-01        -0.90366E-02         0.00000E+00
    0.32928E-01        -0.76657E-02         0.00000E+00
    0.26381E-01        -0.62391E-02         0.00000E+00
    0.19815E-01        -0.47581E-02         0.00000E+00
    0.13229E-01        -0.32239E-02         0.00000E+00
    0.66248E-02        -0.16375E-02         0.00000E+00
    0.00000E+00         0.00000E+00         0.00000E+00
    0.21367E+00        -0.35853E-02         0.00000E+00
    0.21349E+00        -0.47704E-02         0.00000E+00
    0.21305E+00        -0.59444E-02         0.00000E+00
    0.21234E+00        -0.71021E-02         0.00000E+00
    0.21137E+00        -0.82388E-02         0.00000E+00
    0.21014E+00        -0.93498E-02         0.00000E+00
    0.20866E+00        -0.10431E-01         0.00000E+00
    0.20694E+00        -0.11478E-01         0.00000E+00
    0.20499E+00        -0.12487E-01         0.00000E+00
    0.20281E+00        -0.13454E-01         0.00000E+00
    0.20041E+00        -0.14377E-01         0.00000E+00
    0.19779E+00        -0.15251E-01         0.00000E+00
    0.19497E+00        -0.16075E-01         0.00000E+00
    0.19196E+00        -0.16845E-01         0.00000E+00
    0.18875E+00        -0.17560E-01         0.00000E+00
    0.18535E+00        -0.18216E-01         0.00000E+00
    0.18178E+00        -0.18813E-01         0.00000E+00
    0.17805E+00        -0.19348E-01         0.00000E+00
    0.17415E+00        -0.19820E-01         0.00000E+00
    0.17010E+00        -0.20227E-01         0.00000E+00
    0.16590E+00        -0.20568E-01         0.00000E+00
    0.16156E+00        -0.20843E-01         0.00000E+00
    0.15708E+00        -0.21050E-01         0.00000E+00
    0.15249E+00        -0.21189E-01         0.00000E+00
    0.14777E+00        -0.21259E-01         0.00000E+00
    0.14294E+00        -0.21260E-01         0.00000E+00
    0.13800E+00        -0.21192E-01         0.00000E+00
    0.13296E+00        -0.21055E-01         0.00000E+00
    0.12783E+00        -0.20848E-01         0.00000E+00
    0.12261E+00        -0.20572E-01         0.00000E+00
    0.11731E+00        -0.20228E-01         0.00000E+00
    0.11192E+00        -0.19815E-01         0.00000E+00
    0.10647E+00        -0.19335E-01         0.00000E+00
    0.10095E+00        -0.18787E-01         0.00000E+00
    0.95363E-01        -0.18173E-01         0.00000E+00
    0.89718E-01        -0.17493E-01         0.00000E+00
    0.84018E-01        -0.16747E-01         0.00000E+00
    0.78266E-01        -0.15938E-01         0.00000E+00
    0.72467E-01        -0.15065E-01         0.00000E+00
    0.66623E-01        -0.14130E-01         0.00000E+00
    0.60737E-01        -0.13133E-01         0.00000E+00
    0.54812E-01        -0.12076E-01         0.00000E+00
    0.48850E-01        -0.10960E-01         0.00000E+00
    0.42853E-01        -0.97848E-02         0.00000E+00
    0.36823E-01        -0.85524E-02         0.00000E+00
    0.30761E-01        -0.72633E-02         0.00000E+00
    0.24668E-01        -0.59186E-02         0.00000E+00
    0.18545E-01        -0.45192E-02         0.00000E+00
    0.12393E-01        -0.30658E-02         0.00000E+00
    0.62111E-02        -0.15591E-02         0.00000E+00
    0.00000E+00         0.00000E+00         0.00000E+00
    0.19136E+00        -0.35110E-02         0.00000E+00
    0.19129E+00        -0.45533E-02         0.00000E+00
    0.19099E+00        -0.55878E-02         0.00000E+00
    0.19046E+00        -0.66099E-02         0.00000E+00
    0.18969E+00        -0.76153E-02         0.00000E+00
    0.18871E+00        -0.86001E-02         0.00000E+00
    0.18750E+00        -0.95602E-02         0.00000E+00
    0.18609E+00        -0.10492E-01         0.00000E+00
    0.18446E+00        -0.11392E-01         0.00000E+00
    0.18263E+00        -0.12258E-01         0.00000E+00
    0.18061E+00        -0.13085E-01         0.00000E+00
    0.17839E+00        -0.13871E-01         0.00000E+00
    0.17599E+00        -0.14614E-01         0.00000E+00
    0.17340E+00        -0.15311E-01         0.00000E+00
    0.17065E+00        -0.15959E-01         0.00000E+00
    0.16772E+00        -0.16557E-01         0.00000E+00
    0.16463E+00        -0.17103E-01         0.00000E+00
    0.16139E+00        -0.17595E-01         0.00000E+00
    0.15800E+00        -0.18031E-01         0.00000E+00
    0.15446E+00        -0.18410E-01         0.00000E+00
    0.15078E+00        -0.18730E-01         0.00000E+00
    0.14697E+00        -0.18992E-01         0.00000E+00
    0.14303E+00        -0.19193E-01         0.00000E+00
    0.13898E+00        -0.19333E-01         0.00000E+00
    0.13480E+00        -0.19411E-01         0.00000E+00
    0.13052E+00        -0.19427E-01         0.00000E+00
    0.12613E+00        -0.19380E-01         0.00000E+00
    0.12164E+00        -0.19270E-01         0.00000E+00
    0.11706E+00        -0.19098E-01         0.00000E+00
    0.11238E+00        -0.18862E-01         0.00000E+00
    0.10762E+00        -0.18563E-01         0.00000E+00
    0.10278E+00        -0.18202E-01         0.00000E+00
    0.97866E-01        -0.17777E-01         0.00000E+00
    0.92876E-01        -0.17291E-01         0.00000E+00
    0.87819E-01        -0.16742E-01         0.00000E+00
    0.82697E-01        -0.16132E-01         0.00000E+00
    0.77514E-01        -0.15461E-01         0.00000E+00
    0.72273E-01        -0.14729E-01         0.00000E+00
    0.66978E-01        -0.13937E-01         0.00000E+00
    0.61631E-01        -0.13087E-01         0.00000E+00
    0.56235E-01        -0.12177E-01         0.00000E+00
    0.50792E-01        -0.11210E-01         0.00000E+00
    0.45305E-01        -0.10185E-01         0.00000E+00
    0.39776E-01        -0.91037E-02         0.00000E+00
    0.34205E-01        -0.79664E-02         0.00000E+00
    0.28596E-01        -0.67737E-02         0.00000E+00
    0.22949E-01        -0.55263E-02         0.00000E+00
    0.17265E-01        -0.42248E-02         0.00000E+00
    0.11546E-01        -0.28695E-02         0.00000E+00
    0.57903E-02        -0.14612E-02         0.00000E+00
    0.00000E+00         0.00000E+00         0.00000E+00
    0.17173E+00        -0.31124E-02         0.00000E+00
    0.17172E+00        -0.40314E-02         0.00000E+00
    0.17152E+00        -0.49449E-02         0.00000E+00
    0.17111E+00        -0.58490E-02         0.00000E+00
    0.17050E+00        -0.67400E-02         0.00000E+00
    0.16969E+00        -0.76143E-02         0.00000E+00
    0.16870E+00        -0.84685E-02         0.00000E+00
    0.16751E+00        -0.92993E-02         0.00000E+00
    0.16615E+00        -0.10104E-01         0.00000E+00
    0.16460E+00        -0.10879E-01         0.00000E+00
    0.16287E+00        -0.11622E-01         0.00000E+00
    0.16098E+00        -0.12330E-01         0.00000E+00
    0.15892E+00        -0.13001E-01         0.00000E+00
    0.15669E+00        -0.13633E-01         0.00000E+00
    0.15431E+00        -0.14223E-01         0.00000E+00
    0.15177E+00        -0.14769E-01         0.00000E+00
    0.14909E+00        -0.15270E-01         0.00000E+00
    0.14626E+00        -0.15724E-01         0.00000E+00
    0.14329E+00        -0.16129E-01         0.00000E+00
    0.14019E+00        -0.16484E-01         0.00000E+00
    0.13696E+00        -0.16788E-01         0.00000E+00
    0.13360E+00        -0.17039E-01         0.00000E+00
    0.13013E+00        -0.17237E-01         0.00000E+00
    0.12653E+00        -0.17381E-01         0.00000E+00
    0.12283E+00        -0.17469E-01         0.00000E+00
    0.11902E+00        -0.17502E-01         0.00000E+00
    0.11511E+00        -0.17478E-01         0.00000E+00
    0.11111E+00        -0.17398E-01         0.00000E+00
    0.10700E+00        -0.17261E-01         0.00000E+00
    0.10281E+00        -0.17066E-01         0.00000E+00
    0.98539E-01        -0.16814E-01         0.00000E+00
    0.94183E-01        -0.16505E-01         0.00000E+00
    0.89748E-01        -0.16138E-01         0.00000E+00
    0.85240E-01        -0.15714E-01         0.00000E+00
    0.80662E-01        -0.15232E-01         0.00000E+00
    0.76016E-01        -0.14694E-01         0.00000E+00
    0.71306E-01        -0.14098E-01         0.00000E+00
    0.66535E-01        -0.13447E-01         0.00000E+00
    0.61705E-01        -0.12739E-01         0.00000E+00
    0.56820E-01        -0.11975E-01         0.00000E+00
    0.51882E-01        -0.11156E-01         0.00000E+00
    0.46893E-01        -0.10281E-01         0.00000E+00
    0.41855E-01        -0.93525E-02         0.00000E+00
    0.36771E-01        -0.83695E-02         0.00000E+00
    0.31642E-01        -0.73325E-02         0.00000E+00
    0.26469E-01        -0.62422E-02         0.00000E+00
    0.21254E-01        -0.50987E-02         0.00000E+00
    0.15999E-01        -0.39025E-02         0.00000E+00
    0.10704E-01        -0.26538E-02         0.00000E+00
    0.53711E-02        -0.13529E-02         0.00000E+00
    0.00000E+00         0.00000E+00         0.00000E+00
    0.15441E+00        -0.25587E-02         0.00000E+00
    0.15444E+00        -0.33711E-02         0.00000E+00
    0.15429E+00        -0.41797E-02         0.00000E+00
    0.15397E+00        -0.49811E-02         0.00000E+00
    0.15347E+00        -0.57722E-02         0.00000E+00
    0.15280E+00        -0.65498E-02         0.00000E+00
    0.15197E+00        -0.73110E-02         0.00000E+00
    0.15096E+00        -0.80529E-02         0.00000E+00
    0.14980E+00        -0.87728E-02         0.00000E+00
    0.14847E+00        -0.94681E-02         0.00000E+00
    0.14699E+00        -0.10136E-01         0.00000E+00
    0.14536E+00        -0.10775E-01         0.00000E+00
    0.14357E+00        -0.11382E-01         0.00000E+00
    0.14164E+00        -0.11956E-01         0.00000E+00
    0.13957E+00        -0.12493E-01         0.00000E+00
    0.13736E+00        -0.12993E-01         0.00000E+00
    0.13501E+00        -0.13454E-01         0.00000E+00
    0.13253E+00        -0.13874E-01         0.00000E+00
    0.12992E+00        -0.14251E-01         0.00000E+00
    0.12719E+00        -0.14585E-01         0.00000E+00
    0.12434E+00        -0.14874E-01         0.00000E+00
    0.12137E+00        -0.15116E-01         0.00000E+00
    0.11829E+00        -0.15311E-01         0.00000E+00
    0.11511E+00        -0.15459E-01         0.00000E+00
    0.11181E+00        -0.15557E-01         0.00000E+00
    0.10842E+00        -0.15606E-01         0.00000E+00
    0.10493E+00        -0.15604E-01         0.00000E+00
    0.10134E+00        -0.15551E-01         0.00000E+00
    0.97670E-01        -0.15447E-01         0.00000E+00
    0.93909E-01        -0.15292E-01         0.00000E+00
    0.90064E-01        -0.15084E-01         0.00000E+00
    0.86140E-01        -0.14825E-01         0.00000E+00
    0.82138E-01        -0.14513E-01         0.00000E+00
    0.78063E-01        -0.14148E-01         0.00000E+00
    0.73918E-01        -0.13731E-01         0.00000E+00
    0.69705E-01        -0.13261E-01         0.00000E+00
    0.65427E-01        -0.12739E-01         0.00000E+00
    0.61087E-01        -0.12165E-01         0.00000E+00
    0.56687E-01        -0.11538E-01         0.00000E+00
    0.52230E-01        -0.10859E-01         0.00000E+00
    0.47718E-01        -0.10128E-01         0.00000E+00
    0.43153E-01        -0.93453E-02         0.00000E+00
    0.38538E-01        -0.85110E-02         0.00000E+00
    0.33874E-01        -0.76253E-02         0.00000E+00
    0.29164E-01        -0.66884E-02         0.00000E+00
    0.24408E-01        -0.57004E-02         0.00000E+00
    0.19608E-01        -0.46616E-02         0.00000E+00
    0.14766E-01        -0.35720E-02         0.00000E+00
    0.98834E-02        -0.24318E-02         0.00000E+00
    0.49610E-02        -0.12412E-02         0.00000E+00
    0.00000E+00         0.00000E+00         0.00000E+00
    0.13909E+00        -0.19599E-02         0.00000E+00
    0.13913E+00        -0.26800E-02         0.00000E+00
    0.13902E+00        -0.33975E-02         0.00000E+00
    0.13875E+00        -0.41094E-02         0.00000E+00
    0.13834E+00        -0.48131E-02         0.00000E+00
    0.13777E+00        -0.55060E-02         0.00000E+00
    0.13706E+00        -0.61853E-02         0.00000E+00
    0.13620E+00        -0.68487E-02         0.00000E+00
    0.13519E+00        -0.74938E-02         0.00000E+00
    0.13405E+00        -0.81182E-02         0.00000E+00
    0.13276E+00        -0.87198E-02         0.00000E+00
    0.13134E+00        -0.92965E-02         0.00000E+00
    0.12979E+00        -0.98462E-02         0.00000E+00
    0.12810E+00        -0.10367E-01         0.00000E+00
    0.12628E+00        -0.10857E-01         0.00000E+00
    0.12434E+00        -0.11315E-01         0.00000E+00
    0.12228E+00        -0.11739E-01         0.00000E+00
    0.12009E+00        -0.12128E-01         0.00000E+00
    0.11779E+00        -0.12479E-01         0.00000E+00
    0.11538E+00        -0.12793E-01         0.00000E+00
    0.11285E+00        -0.13067E-01         0.00000E+00
    0.11022E+00        -0.13301E-01         0.00000E+00
    0.10748E+00        -0.13493E-01         0.00000E+00
    0.10464E+00        -0.13642E-01         0.00000E+00
    0.10170E+00        -0.13749E-01         0.00000E+00
    0.98673E-01        -0.13811E-01         0.00000E+00
    0.95549E-01        -0.13828E-01         0.00000E+00
    0.92337E-01        -0.13800E-01         0.00000E+00
    0.89039E-01        -0.13726E-01         0.00000E+00
    0.85657E-01        -0.13606E-01         0.00000E+00
    0.82196E-01        -0.13438E-01         0.00000E+00
    0.78657E-01        -0.13224E-01         0.00000E+00
    0.75044E-01        -0.12962E-01         0.00000E+00
    0.71360E-01        -0.12652E-01         0.00000E+00
    0.67606E-01        -0.12294E-01         0.00000E+00
    0.63786E-01        -0.11888E-01         0.00000E+00
    0.59901E-01        -0.11434E-01         0.00000E+00
    0.55956E-01        -0.10931E-01         0.00000E+00
    0.51951E-01        -0.10380E-01         0.00000E+00
    0.47889E-01        -0.97810E-02         0.00000E+00
    0.43772E-01        -0.91333E-02         0.00000E+00
    0.39602E-01        -0.84372E-02         0.00000E+00
    0.35382E-01        -0.76928E-02         0.00000E+00
    0.31112E-01        -0.69001E-02         0.00000E+00
    0.26796E-01        -0.60591E-02         0.00000E+00
    0.22434E-01        -0.51698E-02         0.00000E+00
    0.18029E-01        -0.42323E-02         0.00000E+00
    0.13581E-01        -0.32466E-02         0.00000E+00
    0.90931E-02        -0.22127E-02         0.00000E+00
    0.45655E-02        -0.11305E-02         0.00000E+00
    0.00000E+00         0.00000E+00         0.00000E+00
    0.12550E+00        -0.13836E-02         0.00000E+00
    0.12554E+00        -0.20235E-02         0.00000E+00
    0.12545E+00        -0.26615E-02         0.00000E+00
    0.12523E+00        -0.32953E-02         0.00000E+00
    0.12487E+00        -0.39225E-02         0.00000E+00
    0.12438E+00        -0.45409E-02         0.00000E+00
    0.12376E+00        -0.51481E-02         0.00000E+00
    0.12301E+00        -0.57421E-02         0.00000E+00
    0.12214E+00        -0.63208E-02         0.00000E+00
    0.12114E+00        -0.68821E-02         0.00000E+00
    0.12001E+00        -0.74241E-02         0.00000E+00
    0.11876E+00        -0.79450E-02         0.00000E+00
    0.11740E+00        -0.84429E-02         0.00000E+00
    0.11591E+00        -0.89162E-02         0.00000E+00
    0.11431E+00        -0.93632E-02         0.00000E+00
    0.11260E+00        -0.97824E-02         0.00000E+00
    0.11077E+00        -0.10172E-01         0.00000E+00
    0.10884E+00        -0.10531E-01         0.00000E+00
    0.10679E+00        -0.10859E-01         0.00000E+00
    0.10465E+00        -0.11153E-01         0.00000E+00
    0.10240E+00        -0.11412E-01         0.00000E+00
    0.10006E+00        -0.11636E-01         0.00000E+00
    0.97617E-01        -0.11824E-01         0.00000E+00
    0.95082E-01        -0.11974E-01         0.00000E+00
    0.92456E-01        -0.12086E-01         0.00000E+00
    0.89741E-01        -0.12159E-01         0.00000E+00
    0.86939E-01        -0.12192E-01         0.00000E+00
    0.84055E-01        -0.12184E-01         0.00000E+00
    0.81089E-01        -0.12136E-01         0.00000E+00
    0.78045E-01        -0.12045E-01         0.00000E+00
    0.74925E-01        -0.11913E-01         0.00000E+00
    0.71731E-01        -0.11738E-01         0.00000E+00
    0.68466E-01        -0.11520E-01         0.00000E+00
    0.65133E-01        -0.11259E-01         0.00000E+00
    0.61733E-01        -0.10954E-01         0.00000E+00
    0.58269E-01        -0.10605E-01         0.00000E+00
    0.54743E-01        -0.10212E-01         0.00000E+00
    0.51157E-01        -0.97746E-02         0.00000E+00
    0.47514E-01        -0.92928E-02         0.00000E+00
    0.43815E-01        -0.87663E-02         0.00000E+00
    0.40063E-01        -0.81951E-02         0.00000E+00
    0.36259E-01        -0.75791E-02         0.00000E+00
    0.32406E-01        -0.69180E-02         0.00000E+00
    0.28504E-01        -0.62119E-02         0.00000E+00
    0.24557E-01        -0.54606E-02         0.00000E+00
    0.20565E-01        -0.46641E-02         0.00000E+00
    0.16531E-01        -0.38223E-02         0.00000E+00
    0.12456E-01        -0.29351E-02         0.00000E+00
    0.83415E-02        -0.20024E-02         0.00000E+00
    0.41890E-02        -0.10241E-02         0.00000E+00
    0.00000E+00         0.00000E+00         0.00000E+00
    0.11341E+00        -0.86763E-03         0.00000E+00
    0.11345E+00        -0.14376E-02         0.00000E+00
    0.11337E+00        -0.20062E-02         0.00000E+00
    0.11317E+00        -0.25715E-02         0.00000E+00
    0.11286E+00        -0.31315E-02         0.00000E+00
    0.11243E+00        -0.36842E-02         0.00000E+00
    0.11188E+00        -0.42277E-02         0.00000E+00
    0.11122E+00        -0.47601E-02         0.00000E+00
    0.11045E+00        -0.52797E-02         0.00000E+00
    0.10957E+00        -0.57846E-02         0.00000E+00
    0.10858E+00        -0.62732E-02         0.00000E+00
    0.10747E+00        -0.67438E-02         0.00000E+00
    0.10626E+00        -0.71948E-02         0.00000E+00
    0.10495E+00        -0.76247E-02         0.00000E+00
    0.10353E+00        -0.80321E-02         0.00000E+00
    0.10201E+00        -0.84155E-02         0.00000E+00
    0.10038E+00        -0.87736E-02         0.00000E+00
    0.98661E-01        -0.91051E-02         0.00000E+00
    0.96843E-01        -0.94088E-02         0.00000E+00
    0.94930E-01        -0.96836E-02         0.00000E+00
    0.92924E-01        -0.99283E-02         0.00000E+00
    0.90828E-01        -0.10142E-01         0.00000E+00
    0.88644E-01        -0.10324E-01         0.00000E+00
    0.86372E-01        -0.10472E-01         0.00000E+00
    0.84017E-01        -0.10587E-01         0.00000E+00
    0.81579E-01        -0.10667E-01         0.00000E+00
    0.79062E-01        -0.10712E-01         0.00000E+00
    0.76466E-01        -0.10721E-01         0.00000E+00
    0.73795E-01        -0.10693E-01         0.00000E+00
    0.71051E-01        -0.10628E-01         0.00000E+00
    0.68234E-01        -0.10525E-01         0.00000E+00
    0.65349E-01        -0.10384E-01         0.00000E+00
    0.62397E-01        -0.10204E-01         0.00000E+00
    0.59379E-01        -0.99850E-02         0.00000E+00
    0.56298E-01        -0.97264E-02         0.00000E+00
    0.53157E-01        -0.94278E-02         0.00000E+00
    0.49956E-01        -0.90891E-02         0.00000E+00
    0.46699E-01        -0.87098E-02         0.00000E+00
    0.43386E-01        -0.82898E-02         0.00000E+00
    0.40020E-01        -0.78288E-02         0.00000E+00
    0.36603E-01        -0.73266E-02         0.00000E+00
    0.33136E-01        -0.67831E-02         0.00000E+00
    0.29622E-01        -0.61979E-02         0.00000E+00
    0.26062E-01        -0.55710E-02         0.00000E+00
    0.22458E-01        -0.49022E-02         0.00000E+00
    0.18811E-01        -0.41912E-02         0.00000E+00
    0.15124E-01        -0.34381E-02         0.00000E+00
    0.11398E-01        -0.26426E-02         0.00000E+00
    0.76339E-02        -0.18045E-02         0.00000E+00
    0.38341E-02        -0.92368E-03         0.00000E+00
    0.00000E+00         0.00000E+00         0.00000E+00
    0.10264E+00        -0.42991E-03         0.00000E+00
    0.10267E+00        -0.93855E-03         0.00000E+00
    0.10259E+00        -0.14463E-02         0.00000E+00
    0.10241E+00        -0.19513E-02         0.00000E+00
    0.10213E+00        -0.24520E-02         0.00000E+00
    0.10175E+00        -0.29467E-02         0.00000E+00
    0.10126E+00        -0.34336E-02         0.00000E+00
    0.10068E+00        -0.39113E-02         0.00000E+00
    0.99989E-01        -0.43781E-02         0.00000E+00
    0.99203E-01        -0.48325E-02         0.00000E+00
    0.98318E-01        -0.52730E-02         0.00000E+00
    0.97337E-01        -0.56982E-02         0.00000E+00
    0.96259E-01        -0.61066E-02         0.00000E+00
    0.95086E-01        -0.64968E-02         0.00000E+00
    0.93819E-01        -0.68677E-02         0.00000E+00
    0.92461E-01        -0.72179E-02         0.00000E+00
    0.91011E-01        -0.75462E-02         0.00000E+00
    0.89472E-01        -0.78514E-02         0.00000E+00
    0.87846E-01        -0.81325E-02         0.00000E+00
    0.86133E-01        -0.83883E-02         0.00000E+00
    0.84336E-01        -0.86178E-02         0.00000E+00
    0.82456E-01        -0.88202E-02         0.00000E+00
    0.80495E-01        -0.89943E-02         0.00000E+00
    0.78454E-01        -0.91395E-02         0.00000E+00
    0.76336E-01        -0.92548E-02         0.00000E+00
    0.74143E-01        -0.93395E-02         0.00000E+00
    0.71875E-01        -0.93929E-02         0.00000E+00
    0.69536E-01        -0.94142E-02         0.00000E+00
    0.67126E-01        -0.94029E-02         0.00000E+00
    0.64647E-01        -0.93582E-02         0.00000E+00
    0.62102E-01        -0.92797E-02         0.00000E+00
    0.59493E-01        -0.91668E-02         0.00000E+00
    0.56820E-01        -0.90191E-02         0.00000E+00
    0.54087E-01        -0.88360E-02         0.00000E+00
    0.51294E-01        -0.86172E-02         0.00000E+00
    0.48444E-01        -0.83622E-02         0.00000E+00
    0.45539E-01        -0.80708E-02         0.00000E+00
    0.42579E-01        -0.77424E-02         0.00000E+00
    0.39568E-01        -0.73769E-02         0.00000E+00
    0.36506E-01        -0.69740E-02         0.00000E+00
    0.33396E-01        -0.65333E-02         0.00000E+00
    0.30239E-01        -0.60546E-02         0.00000E+00
    0.27037E-01        -0.55377E-02         0.00000E+00
    0.23792E-01        -0.49823E-02         0.00000E+00
    0.20505E-01        -0.43882E-02         0.00000E+00
    0.17178E-01        -0.37552E-02         0.00000E+00
    0.13813E-01        -0.30832E-02         0.00000E+00
    0.10411E-01        -0.23718E-02         0.00000E+00
    0.69734E-02        -0.16209E-02         0.00000E+00
    0.35027E-02        -0.83041E-03         0.00000E+00
    0.00000E+00         0.00000E+00         0.00000E+00
    0.93017E-01        -0.75170E-04         0.00000E+00
    0.93034E-01        -0.52985E-03         0.00000E+00
    0.92960E-01        -0.98383E-03         0.00000E+00
    0.92795E-01        -0.14357E-02         0.00000E+00
    0.92539E-01        -0.18839E-02         0.00000E+00
    0.92193E-01        -0.23270E-02         0.00000E+00
    0.91756E-01        -0.27637E-02         0.00000E+00
    0.91229E-01        -0.31925E-02         0.00000E+00
    0.90613E-01        -0.36120E-02         0.00000E+00
    0.89908E-01        -0.40210E-02         0.00000E+00
    0.89116E-01        -0.44181E-02         0.00000E+00
    0.88236E-01        -0.48021E-02         0.00000E+00
    0.87270E-01        -0.51717E-02         0.00000E+00
    0.86219E-01        -0.55257E-02         0.00000E+00
    0.85083E-01        -0.58629E-02         0.00000E+00
    0.83864E-01        -0.61822E-02         0.00000E+00
    0.82564E-01        -0.64825E-02         0.00000E+00
    0.81182E-01        -0.67628E-02         0.00000E+00
    0.79722E-01        -0.70220E-02         0.00000E+00
    0.78182E-01        -0.72591E-02         0.00000E+00
    0.76566E-01        -0.74733E-02         0.00000E+00
    0.74875E-01        -0.76636E-02         0.00000E+00
    0.73110E-01        -0.78292E-02         0.00000E+00
    0.71271E-01        -0.79692E-02         0.00000E+00
    0.69362E-01        -0.80828E-02         0.00000E+00
    0.67384E-01        -0.81694E-02         0.00000E+00
    0.65337E-01        -0.82282E-02         0.00000E+00
    0.63224E-01        -0.82585E-02         0.00000E+00
    0.61046E-01        -0.82597E-02         0.00000E+00
    0.58805E-01        -0.82311E-02         0.00000E+00
    0.56502E-01        -0.81723E-02         0.00000E+00
    0.54139E-01        -0.80827E-02         0.00000E+00
    0.51718E-01        -0.79618E-02         0.00000E+00
    0.49240E-01        -0.78091E-02         0.00000E+00
    0.46707E-01        -0.76241E-02         0.00000E+00
    0.44120E-01        -0.74065E-02         0.00000E+00
    0.41481E-01        -0.71558E-02         0.00000E+00
    0.38793E-01        -0.68717E-02         0.00000E+00
    0.36055E-01        -0.65538E-02         0.00000E+00
    0.33271E-01        -0.62018E-02         0.00000E+00
    0.30441E-01        -0.58154E-02         0.00000E+00
    0.27567E-01        -0.53943E-02         0.00000E+00
    0.24652E-01        -0.49381E-02         0.00000E+00
    0.21695E-01        -0.44467E-02         0.00000E+00
    0.18700E-01        -0.39198E-02         0.00000E+00
    0.15667E-01        -0.33572E-02         0.00000E+00
    0.12599E-01        -0.27586E-02         0.00000E+00
    0.94967E-02        -0.21238E-02         0.00000E+00
    0.63616E-02        -0.14525E-02         0.00000E+00
    0.31955E-02        -0.74468E-03         0.00000E+00
    0.00000E+00         0.00000E+00         0.00000E+00
    0.84411E-01         0.19986E-03         0.00000E+00
    0.84418E-01        -0.20708E-03         0.00000E+00
    0.84344E-01        -0.61348E-03         0.00000E+00
    0.84190E-01        -0.10181E-02         0.00000E+00
    0.83954E-01        -0.14196E-02         0.00000E+00
    0.83638E-01        -0.18169E-02         0.00000E+00
    0.83241E-01        -0.22086E-02         0.00000E+00
    0.82764E-01        -0.25937E-02         0.00000E+00
    0.82208E-01        -0.29708E-02         0.00000E+00
    0.81572E-01        -0.33389E-02         0.00000E+00
    0.80857E-01        -0.36968E-02         0.00000E+00
    0.80065E-01        -0.40433E-02         0.00000E+00
    0.79194E-01        -0.43775E-02         0.00000E+00
    0.78248E-01        -0.46981E-02         0.00000E+00
    0.77225E-01        -0.50042E-02         0.00000E+00
    0.76127E-01        -0.52948E-02         0.00000E+00
    0.74956E-01        -0.55689E-02         0.00000E+00
    0.73711E-01        -0.58255E-02         0.00000E+00
    0.72394E-01        -0.60637E-02         0.00000E+00
    0.71006E-01        -0.62826E-02         0.00000E+00
    0.69549E-01        -0.64814E-02         0.00000E+00
    0.68022E-01        -0.66592E-02         0.00000E+00
    0.66429E-01        -0.68152E-02         0.00000E+00
    0.64769E-01        -0.69487E-02         0.00000E+00
    0.63044E-01        -0.70589E-02         0.00000E+00
    0.61255E-01        -0.71451E-02         0.00000E+00
    0.59404E-01        -0.72067E-02         0.00000E+00
    0.57492E-01        -0.72430E-02         0.00000E+00
    0.55521E-01        -0.72534E-02         0.00000E+00
    0.53491E-01        -0.72373E-02         0.00000E+00
    0.51404E-01        -0.71941E-02         0.00000E+00
    0.49262E-01        -0.71233E-02         0.00000E+00
    0.47066E-01        -0.70245E-02         0.00000E+00
    0.44818E-01        -0.68971E-02         0.00000E+00
    0.42518E-01        -0.67407E-02         0.00000E+00
    0.40169E-01        -0.65548E-02         0.00000E+00
    0.37772E-01        -0.63390E-02         0.00000E+00
    0.35328E-01        -0.60931E-02         0.00000E+00
    0.32839E-01        -0.58165E-02         0.00000E+00
    0.30306E-01        -0.55090E-02         0.00000E+00
    0.27732E-01        -0.51701E-02         0.00000E+00
    0.25116E-01        -0.47997E-02         0.00000E+00
    0.22462E-01        -0.43974E-02         0.00000E+00
    0.19770E-01        -0.39630E-02         0.00000E+00
    0.17042E-01        -0.34961E-02         0.00000E+00
    0.14279E-01        -0.29965E-02         0.00000E+00
    0.11483E-01        -0.24639E-02         0.00000E+00
    0.86557E-02        -0.18982E-02         0.00000E+00
    0.57984E-02        -0.12992E-02         0.00000E+00
    0.29126E-02        -0.66648E-03         0.00000E+00
    0.00000E+00         0.00000E+00         0.00000E+00
    0.76706E-01         0.40295E-03         0.00000E+00
    0.76704E-01         0.38448E-04         0.00000E+00
    0.76630E-01        -0.32559E-03         0.00000E+00
    0.76484E-01        -0.68810E-03         0.00000E+00
    0.76265E-01        -0.10480E-02         0.00000E+00
    0.75975E-01        -0.14042E-02         0.00000E+00
    0.75612E-01        -0.17557E-02         0.00000E+00
    0.75178E-01        -0.21015E-02         0.00000E+00
    0.74672E-01        -0.24404E-02         0.00000E+00
    0.74095E-01        -0.27715E-02         0.00000E+00
    0.73448E-01        -0.30938E-02         0.00000E+00
    0.72730E-01        -0.34063E-02         0.00000E+00
    0.71942E-01        -0.37081E-02         0.00000E+00
    0.71086E-01        -0.39981E-02         0.00000E+00
    0.70161E-01        -0.42755E-02         0.00000E+00
    0.69169E-01        -0.45394E-02         0.00000E+00
    0.68109E-01        -0.47889E-02         0.00000E+00
    0.66984E-01        -0.50231E-02         0.00000E+00
    0.65793E-01        -0.52412E-02         0.00000E+00
    0.64538E-01        -0.54424E-02         0.00000E+00
    0.63219E-01        -0.56259E-02         0.00000E+00
    0.61838E-01        -0.57909E-02         0.00000E+00
    0.60396E-01        -0.59368E-02         0.00000E+00
    0.58893E-01        -0.60628E-02         0.00000E+00
    0.57331E-01        -0.61682E-02         0.00000E+00
    0.55710E-01        -0.62523E-02         0.00000E+00
    0.54033E-01        -0.63146E-02         0.00000E+00
    0.52300E-01        -0.63544E-02         0.00000E+00
    0.50512E-01        -0.63712E-02         0.00000E+00
    0.48671E-01        -0.63643E-02         0.00000E+00
    0.46778E-01        -0.63333E-02         0.00000E+00
    0.44833E-01        -0.62776E-02         0.00000E+00
    0.42839E-01        -0.61968E-02         0.00000E+00
    0.40797E-01        -0.60903E-02         0.00000E+00
    0.38708E-01        -0.59578E-02         0.00000E+00
    0.36573E-01        -0.57988E-02         0.00000E+00
    0.34393E-01        -0.56128E-02         0.00000E+00
    0.32171E-01        -0.53996E-02         0.00000E+00
    0.29907E-01        -0.51587E-02         0.00000E+00
    0.27602E-01        -0.48899E-02         0.00000E+00
    0.25259E-01        -0.45927E-02         0.00000E+00
    0.22878E-01        -0.42668E-02         0.00000E+00
    0.20462E-01        -0.39120E-02         0.00000E+00
    0.18010E-01        -0.35279E-02         0.00000E+00
    0.15525E-01        -0.31144E-02         0.00000E+00
    0.13009E-01        -0.26711E-02         0.00000E+00
    0.10462E-01        -0.21978E-02         0.00000E+00
    0.78861E-02        -0.16942E-02         0.00000E+00
    0.52828E-02        -0.11602E-02         0.00000E+00
    0.26537E-02        -0.59554E-03         0.00000E+00
    0.00000E+00         0.00000E+00         0.00000E+00
    0.69803E-01         0.54397E-03         0.00000E+00
    0.69793E-01         0.21740E-03         0.00000E+00
    0.69719E-01        -0.10876E-03         0.00000E+00
    0.69580E-01        -0.43359E-03         0.00000E+00
    0.69377E-01        -0.75616E-03         0.00000E+00
    0.69108E-01        -0.10756E-02         0.00000E+00
    0.68775E-01        -0.13909E-02         0.00000E+00
    0.68378E-01        -0.17012E-02         0.00000E+00
    0.67916E-01        -0.20056E-02         0.00000E+00
    0.67391E-01        -0.23032E-02         0.00000E+00
    0.66802E-01        -0.25932E-02         0.00000E+00
    0.66149E-01        -0.28747E-02         0.00000E+00
    0.65434E-01        -0.31468E-02         0.00000E+00
    0.64656E-01        -0.34087E-02         0.00000E+00
    0.63817E-01        -0.36596E-02         0.00000E+00
    0.62916E-01        -0.38987E-02         0.00000E+00
    0.61955E-01        -0.41251E-02         0.00000E+00
    0.60934E-01        -0.43382E-02         0.00000E+00
    0.59854E-01        -0.45372E-02         0.00000E+00
    0.58716E-01        -0.47213E-02         0.00000E+00
    0.57520E-01        -0.48898E-02         0.00000E+00
    0.56267E-01        -0.50421E-02         0.00000E+00
    0.54958E-01        -0.51774E-02         0.00000E+00
    0.53594E-01        -0.52952E-02         0.00000E+00
    0.52176E-01        -0.53948E-02         0.00000E+00
    0.50706E-01        -0.54755E-02         0.00000E+00
    0.49183E-01        -0.55369E-02         0.00000E+00
    0.47609E-01        -0.55783E-02         0.00000E+00
    0.45985E-01        -0.55992E-02         0.00000E+00
    0.44312E-01        -0.55990E-02         0.00000E+00
    0.42591E-01        -0.55773E-02         0.00000E+00
    0.40824E-01        -0.55335E-02         0.00000E+00
    0.39011E-01        -0.54673E-02         0.00000E+00
    0.37154E-01        -0.53781E-02         0.00000E+00
    0.35253E-01        -0.52655E-02         0.00000E+00
    0.33311E-01        -0.51291E-02         0.00000E+00
    0.31328E-01        -0.49685E-02         0.00000E+00
    0.29305E-01        -0.47834E-02         0.00000E+00
    0.27244E-01        -0.45733E-02         0.00000E+00
    0.25146E-01        -0.43380E-02         0.00000E+00
    0.23012E-01        -0.40771E-02         0.00000E+00
    0.20844E-01        -0.37903E-02         0.00000E+00
    0.18642E-01        -0.34773E-02         0.00000E+00
    0.16409E-01        -0.31379E-02         0.00000E+00
    0.14146E-01        -0.27717E-02         0.00000E+00
    0.11853E-01        -0.23785E-02         0.00000E+00
    0.95322E-02        -0.19581E-02         0.00000E+00
    0.71853E-02        -0.15103E-02         0.00000E+00
    0.48133E-02        -0.10348E-02         0.00000E+00
    0.24177E-02        -0.53140E-03         0.00000E+00
    0.00000E+00         0.00000E+00         0.00000E+00
    0.63618E-01         0.63336E-03         0.00000E+00
    0.63603E-01         0.34084E-03         0.00000E+00
    0.63529E-01         0.48706E-04         0.00000E+00
    0.63397E-01        -0.24225E-03         0.00000E+00
    0.63206E-01        -0.53124E-03         0.00000E+00
    0.62958E-01        -0.81745E-03         0.00000E+00
    0.62651E-01        -0.11001E-02         0.00000E+00
    0.62286E-01        -0.13784E-02         0.00000E+00
    0.61863E-01        -0.16515E-02         0.00000E+00
    0.61382E-01        -0.19188E-02         0.00000E+00
    0.60844E-01        -0.21794E-02         0.00000E+00
    0.60249E-01        -0.24325E-02         0.00000E+00
    0.59597E-01        -0.26775E-02         0.00000E+00
    0.58889E-01        -0.29135E-02         0.00000E+00
    0.58125E-01        -0.31399E-02         0.00000E+00
    0.57305E-01        -0.33559E-02         0.00000E+00
    0.56431E-01        -0.35609E-02         0.00000E+00
    0.55502E-01        -0.37541E-02         0.00000E+00
    0.54519E-01        -0.39349E-02         0.00000E+00
    0.53484E-01        -0.41026E-02         0.00000E+00
    0.52396E-01        -0.42566E-02         0.00000E+00
    0.51256E-01        -0.43963E-02         0.00000E+00
    0.50066E-01        -0.45210E-02         0.00000E+00
    0.48826E-01        -0.46302E-02         0.00000E+00
    0.47536E-01        -0.47233E-02         0.00000E+00
    0.46198E-01        -0.47997E-02         0.00000E+00
    0.44812E-01        -0.48589E-02         0.00000E+00
    0.43380E-01        -0.49004E-02         0.00000E+00
    0.41902E-01        -0.49236E-02         0.00000E+00
    0.40380E-01        -0.49280E-02         0.00000E+00
    0.38813E-01        -0.49133E-02         0.00000E+00
    0.37204E-01        -0.48789E-02         0.00000E+00
    0.35554E-01        -0.48244E-02         0.00000E+00
    0.33862E-01        -0.47493E-02         0.00000E+00
    0.32131E-01        -0.46534E-02         0.00000E+00
    0.30362E-01        -0.45361E-02         0.00000E+00
    0.28555E-01        -0.43971E-02         0.00000E+00
    0.26712E-01        -0.42360E-02         0.00000E+00
    0.24834E-01        -0.40526E-02         0.00000E+00
    0.22922E-01        -0.38464E-02         0.00000E+00
    0.20978E-01        -0.36172E-02         0.00000E+00
    0.19001E-01        -0.33647E-02         0.00000E+00
    0.16995E-01        -0.30885E-02         0.00000E+00
    0.14959E-01        -0.27885E-02         0.00000E+00
    0.12895E-01        -0.24643E-02         0.00000E+00
    0.10805E-01        -0.21158E-02         0.00000E+00
    0.86895E-02        -0.17426E-02         0.00000E+00
    0.65499E-02        -0.13447E-02         0.00000E+00
    0.43876E-02        -0.92171E-03         0.00000E+00
    0.22038E-02        -0.47354E-03         0.00000E+00
    0.00000E+00         0.00000E+00         0.00000E+00
    0.58080E-01         0.68113E-03         0.00000E+00
    0.58060E-01         0.41934E-03         0.00000E+00
    0.57987E-01         0.15790E-03         0.00000E+00
    0.57862E-01        -0.10248E-03         0.00000E+00
    0.57684E-01        -0.36111E-03         0.00000E+00
    0.57453E-01        -0.61731E-03         0.00000E+00
    0.57169E-01        -0.87038E-03         0.00000E+00
    0.56833E-01        -0.11196E-02         0.00000E+00
    0.56444E-01        -0.13644E-02         0.00000E+00
    0.56003E-01        -0.16040E-02         0.00000E+00
    0.55510E-01        -0.18377E-02         0.00000E+00
    0.54966E-01        -0.20649E-02         0.00000E+00
    0.54370E-01        -0.22850E-02         0.00000E+00
    0.53723E-01        -0.24972E-02         0.00000E+00
    0.53025E-01        -0.27010E-02         0.00000E+00
    0.52277E-01        -0.28956E-02         0.00000E+00
    0.51478E-01        -0.30806E-02         0.00000E+00
    0.50631E-01        -0.32552E-02         0.00000E+00
    0.49735E-01        -0.34188E-02         0.00000E+00
    0.48791E-01        -0.35710E-02         0.00000E+00
    0.47799E-01        -0.37111E-02         0.00000E+00
    0.46760E-01        -0.38385E-02         0.00000E+00
    0.45674E-01        -0.39526E-02         0.00000E+00
    0.44544E-01        -0.40531E-02         0.00000E+00
    0.43368E-01        -0.41393E-02         0.00000E+00
    0.42148E-01        -0.42107E-02         0.00000E+00
    0.40885E-01        -0.42668E-02         0.00000E+00
    0.39579E-01        -0.43072E-02         0.00000E+00
    0.38231E-01        -0.43314E-02         0.00000E+00
    0.36843E-01        -0.43389E-02         0.00000E+00
    0.35414E-01        -0.43293E-02         0.00000E+00
    0.33947E-01        -0.43021E-02         0.00000E+00
    0.32441E-01        -0.42571E-02         0.00000E+00
    0.30899E-01        -0.41937E-02         0.00000E+00
    0.29320E-01        -0.41116E-02         0.00000E+00
    0.27705E-01        -0.40104E-02         0.00000E+00
    0.26057E-01        -0.38898E-02         0.00000E+00
    0.24376E-01        -0.37495E-02         0.00000E+00
    0.22662E-01        -0.35890E-02         0.00000E+00
    0.20917E-01        -0.34082E-02         0.00000E+00
    0.19143E-01        -0.32067E-02         0.00000E+00
    0.17339E-01        -0.29843E-02         0.00000E+00
    0.15508E-01        -0.27406E-02         0.00000E+00
    0.13650E-01        -0.24755E-02         0.00000E+00
    0.11767E-01        -0.21887E-02         0.00000E+00
    0.98594E-02        -0.18799E-02         0.00000E+00
    0.79288E-02        -0.15490E-02         0.00000E+00
    0.59764E-02        -0.11957E-02         0.00000E+00
    0.40033E-02        -0.81987E-03         0.00000E+00
    0.20107E-02        -0.42137E-03         0.00000E+00
    0.00000E+00         0.00000E+00         0.00000E+00
    0.53127E-01         0.69635E-03         0.00000E+00
    0.53103E-01         0.46239E-03         0.00000E+00
    0.53032E-01         0.22878E-03         0.00000E+00
    0.52913E-01        -0.38748E-05         0.00000E+00
    0.52746E-01        -0.23498E-03         0.00000E+00
    0.52531E-01        -0.46393E-03         0.00000E+00
    0.52269E-01        -0.69013E-03         0.00000E+00
    0.51958E-01        -0.91297E-03         0.00000E+00
    0.51600E-01        -0.11319E-02         0.00000E+00
    0.51195E-01        -0.13462E-02         0.00000E+00
    0.50742E-01        -0.15554E-02         0.00000E+00
    0.50242E-01        -0.17589E-02         0.00000E+00
    0.49695E-01        -0.19561E-02         0.00000E+00
    0.49102E-01        -0.21464E-02         0.00000E+00
    0.48463E-01        -0.23292E-02         0.00000E+00
    0.47778E-01        -0.25041E-02         0.00000E+00
    0.47048E-01        -0.26704E-02         0.00000E+00
    0.46273E-01        -0.28276E-02         0.00000E+00
    0.45453E-01        -0.29751E-02         0.00000E+00
    0.44590E-01        -0.31125E-02         0.00000E+00
    0.43683E-01        -0.32393E-02         0.00000E+00
    0.42733E-01        -0.33548E-02         0.00000E+00
    0.41741E-01        -0.34587E-02         0.00000E+00
    0.40708E-01        -0.35505E-02         0.00000E+00
    0.39633E-01        -0.36296E-02         0.00000E+00
    0.38518E-01        -0.36956E-02         0.00000E+00
    0.37364E-01        -0.37481E-02         0.00000E+00
    0.36170E-01        -0.37866E-02         0.00000E+00
    0.34939E-01        -0.38107E-02         0.00000E+00
    0.33670E-01        -0.38200E-02         0.00000E+00
    0.32365E-01        -0.38141E-02         0.00000E+00
    0.31024E-01        -0.37926E-02         0.00000E+00
    0.29648E-01        -0.37551E-02         0.00000E+00
    0.28238E-01        -0.37013E-02         0.00000E+00
    0.26795E-01        -0.36308E-02         0.00000E+00
    0.25320E-01        -0.35433E-02         0.00000E+00
    0.23813E-01        -0.34385E-02         0.00000E+00
    0.22276E-01        -0.33160E-02         0.00000E+00
    0.20710E-01        -0.31756E-02         0.00000E+00
    0.19116E-01        -0.30169E-02         0.00000E+00
    0.17494E-01        -0.28398E-02         0.00000E+00
    0.15845E-01        -0.26439E-02         0.00000E+00
    0.14172E-01        -0.24289E-02         0.00000E+00
    0.12474E-01        -0.21948E-02         0.00000E+00
    0.10752E-01        -0.19412E-02         0.00000E+00
    0.90091E-02        -0.16679E-02         0.00000E+00
    0.72448E-02        -0.13747E-02         0.00000E+00
    0.54606E-02        -0.10615E-02         0.00000E+00
    0.36576E-02        -0.72808E-03         0.00000E+00
    0.18371E-02        -0.37430E-03         0.00000E+00
    0.00000E+00         0.00000E+00         0.00000E+00
    0.48704E-01         0.68687E-03         0.00000E+00
    0.48679E-01         0.47825E-03         0.00000E+00
    0.48610E-01         0.26997E-03         0.00000E+00
    0.48497E-01         0.62544E-04         0.00000E+00
    0.48340E-01        -0.14349E-03         0.00000E+00
    0.48140E-01        -0.34762E-03         0.00000E+00
    0.47896E-01        -0.54931E-03         0.00000E+00
    0.47609E-01        -0.74804E-03         0.00000E+00
    0.47278E-01        -0.94329E-03         0.00000E+00
    0.46904E-01        -0.11345E-02         0.00000E+00
    0.46487E-01        -0.13213E-02         0.00000E+00
    0.46027E-01        -0.15030E-02         0.00000E+00
    0.45525E-01        -0.16791E-02         0.00000E+00
    0.44980E-01        -0.18492E-02         0.00000E+00
    0.44393E-01        -0.20127E-02         0.00000E+00
    0.43764E-01        -0.21693E-02         0.00000E+00
    0.43094E-01        -0.23182E-02         0.00000E+00
    0.42383E-01        -0.24592E-02         0.00000E+00
    0.41631E-01        -0.25916E-02         0.00000E+00
    0.40839E-01        -0.27151E-02         0.00000E+00
    0.40008E-01        -0.28292E-02         0.00000E+00
    0.39138E-01        -0.29335E-02         0.00000E+00
    0.38228E-01        -0.30274E-02         0.00000E+00
    0.37281E-01        -0.31106E-02         0.00000E+00
    0.36297E-01        -0.31826E-02         0.00000E+00
    0.35275E-01        -0.32430E-02         0.00000E+00
    0.34217E-01        -0.32915E-02         0.00000E+00
    0.33124E-01        -0.33276E-02         0.00000E+00
    0.31996E-01        -0.33509E-02         0.00000E+00
    0.30834E-01        -0.33611E-02         0.00000E+00
    0.29638E-01        -0.33578E-02         0.00000E+00
    0.28410E-01        -0.33406E-02         0.00000E+00
    0.27149E-01        -0.33093E-02         0.00000E+00
    0.25858E-01        -0.32634E-02         0.00000E+00
    0.24536E-01        -0.32028E-02         0.00000E+00
    0.23185E-01        -0.31269E-02         0.00000E+00
    0.21805E-01        -0.30357E-02         0.00000E+00
    0.20398E-01        -0.29287E-02         0.00000E+00
    0.18963E-01        -0.28057E-02         0.00000E+00
    0.17503E-01        -0.26665E-02         0.00000E+00
    0.16017E-01        -0.25108E-02         0.00000E+00
    0.14508E-01        -0.23384E-02         0.00000E+00
    0.12975E-01        -0.21490E-02         0.00000E+00
    0.11420E-01        -0.19424E-02         0.00000E+00
    0.98440E-02        -0.17184E-02         0.00000E+00
    0.82477E-02        -0.14769E-02         0.00000E+00
    0.66323E-02        -0.12176E-02         0.00000E+00
    0.49988E-02        -0.94044E-03         0.00000E+00
    0.33482E-02        -0.64520E-03         0.00000E+00
    0.16815E-02        -0.33176E-03         0.00000E+00
    0.00000E+00         0.00000E+00         0.00000E+00
    0.44766E-01         0.65926E-03         0.00000E+00
    0.44739E-01         0.47380E-03         0.00000E+00
    0.44672E-01         0.28867E-03         0.00000E+00
    0.44566E-01         0.10432E-03         0.00000E+00
    0.44419E-01        -0.78800E-04         0.00000E+00
    0.44232E-01        -0.26022E-03         0.00000E+00
    0.44006E-01        -0.43948E-03         0.00000E+00
    0.43739E-01        -0.61614E-03         0.00000E+00
    0.43433E-01        -0.78972E-03         0.00000E+00
    0.43087E-01        -0.95978E-03         0.00000E+00
    0.42702E-01        -0.11259E-02         0.00000E+00
    0.42278E-01        -0.12875E-02         0.00000E+00
    0.41814E-01        -0.14443E-02         0.00000E+00
    0.41312E-01        -0.15957E-02         0.00000E+00
    0.40771E-01        -0.17414E-02         0.00000E+00
    0.40192E-01        -0.18809E-02         0.00000E+00
    0.39576E-01        -0.20138E-02         0.00000E+00
    0.38921E-01        -0.21396E-02         0.00000E+00
    0.38230E-01        -0.22579E-02         0.00000E+00
    0.37502E-01        -0.23684E-02         0.00000E+00
    0.36737E-01        -0.24705E-02         0.00000E+00
    0.35937E-01        -0.25640E-02         0.00000E+00
    0.35101E-01        -0.26483E-02         0.00000E+00
    0.34231E-01        -0.27232E-02         0.00000E+00
    0.33326E-01        -0.27883E-02         0.00000E+00
    0.32387E-01        -0.28431E-02         0.00000E+00
    0.31415E-01        -0.28873E-02         0.00000E+00
    0.30411E-01        -0.29206E-02         0.00000E+00
    0.29375E-01        -0.29427E-02         0.00000E+00
    0.28307E-01        -0.29531E-02         0.00000E+00
    0.27209E-01        -0.29515E-02         0.00000E+00
    0.26081E-01        -0.29378E-02         0.00000E+00
    0.24923E-01        -0.29114E-02         0.00000E+00
    0.23737E-01        -0.28722E-02         0.00000E+00
    0.22523E-01        -0.28198E-02         0.00000E+00
    0.21283E-01        -0.27541E-02         0.00000E+00
    0.20015E-01        -0.26746E-02         0.00000E+00
    0.18723E-01        -0.25812E-02         0.00000E+00
    0.17406E-01        -0.24736E-02         0.00000E+00
    0.16065E-01        -0.23515E-02         0.00000E+00
    0.14701E-01        -0.22148E-02         0.00000E+00
    0.13315E-01        -0.20632E-02         0.00000E+00
    0.11908E-01        -0.18966E-02         0.00000E+00
    0.10481E-01        -0.17147E-02         0.00000E+00
    0.90340E-02        -0.15173E-02         0.00000E+00
    0.75688E-02        -0.13044E-02         0.00000E+00
    0.60862E-02        -0.10756E-02         0.00000E+00
    0.45870E-02        -0.83092E-03         0.00000E+00
    0.30722E-02        -0.57017E-03         0.00000E+00
    0.15429E-02        -0.29324E-03         0.00000E+00
    0.00000E+00         0.00000E+00         0.00000E+00
    0.41272E-01         0.61886E-03         0.00000E+00
    0.41244E-01         0.45467E-03         0.00000E+00
    0.41180E-01         0.29079E-03         0.00000E+00
    0.41079E-01         0.12761E-03         0.00000E+00
    0.40941E-01        -0.34459E-04         0.00000E+00
    0.40767E-01        -0.19503E-03         0.00000E+00
    0.40556E-01        -0.35369E-03         0.00000E+00
    0.40308E-01        -0.51005E-03         0.00000E+00
    0.40024E-01        -0.66371E-03         0.00000E+00
    0.39704E-01        -0.81427E-03         0.00000E+00
    0.39347E-01        -0.96133E-03         0.00000E+00
    0.38954E-01        -0.11045E-02         0.00000E+00
    0.38525E-01        -0.12434E-02         0.00000E+00
    0.38061E-01        -0.13776E-02         0.00000E+00
    0.37561E-01        -0.15067E-02         0.00000E+00
    0.37026E-01        -0.16305E-02         0.00000E+00
    0.36457E-01        -0.17483E-02         0.00000E+00
    0.35853E-01        -0.18600E-02         0.00000E+00
    0.35214E-01        -0.19652E-02         0.00000E+00
    0.34543E-01        -0.20634E-02         0.00000E+00
    0.33837E-01        -0.21543E-02         0.00000E+00
    0.33099E-01        -0.22375E-02         0.00000E+00
    0.32328E-01        -0.23128E-02         0.00000E+00
    0.31526E-01        -0.23797E-02         0.00000E+00
    0.30692E-01        -0.24380E-02         0.00000E+00
    0.29826E-01        -0.24873E-02         0.00000E+00
    0.28931E-01        -0.25273E-02         0.00000E+00
    0.28005E-01        -0.25576E-02         0.00000E+00
    0.27050E-01        -0.25780E-02         0.00000E+00
    0.26066E-01        -0.25881E-02         0.00000E+00
    0.25054E-01        -0.25878E-02         0.00000E+00
    0.24015E-01        -0.25766E-02         0.00000E+00
    0.22948E-01        -0.25543E-02         0.00000E+00
    0.21856E-01        -0.25207E-02         0.00000E+00
    0.20737E-01        -0.24755E-02         0.00000E+00
    0.19595E-01        -0.24184E-02         0.00000E+00
    0.18427E-01        -0.23493E-02         0.00000E+00
    0.17237E-01        -0.22678E-02         0.00000E+00
    0.16024E-01        -0.21738E-02         0.00000E+00
    0.14789E-01        -0.20670E-02         0.00000E+00
    0.13533E-01        -0.19473E-02         0.00000E+00
    0.12257E-01        -0.18144E-02         0.00000E+00
    0.10961E-01        -0.16682E-02         0.00000E+00
    0.96472E-02        -0.15085E-02         0.00000E+00
    0.83152E-02        -0.13351E-02         0.00000E+00
    0.69664E-02        -0.11479E-02         0.00000E+00
    0.56015E-02        -0.94673E-03         0.00000E+00
    0.42216E-02        -0.73148E-03         0.00000E+00
    0.28274E-02        -0.50201E-03         0.00000E+00
    0.14199E-02        -0.25822E-03         0.00000E+00
    0.00000E+00         0.00000E+00         0.00000E+00
    0.38185E-01         0.56988E-03         0.00000E+00
    0.38158E-01         0.42531E-03         0.00000E+00
    0.38097E-01         0.28102E-03         0.00000E+00
    0.38001E-01         0.13737E-03         0.00000E+00
    0.37872E-01        -0.52941E-05         0.00000E+00
    0.37709E-01        -0.14663E-03         0.00000E+00
    0.37512E-01        -0.28629E-03         0.00000E+00
    0.37281E-01        -0.42393E-03         0.00000E+00
    0.37016E-01        -0.55920E-03         0.00000E+00
    0.36718E-01        -0.69174E-03         0.00000E+00
    0.36386E-01        -0.82123E-03         0.00000E+00
    0.36022E-01        -0.94730E-03         0.00000E+00
    0.35624E-01        -0.10696E-02         0.00000E+00
    0.35193E-01        -0.11879E-02         0.00000E+00
    0.34729E-01        -0.13017E-02         0.00000E+00
    0.34233E-01        -0.14107E-02         0.00000E+00
    0.33706E-01        -0.15147E-02         0.00000E+00
    0.33146E-01        -0.16132E-02         0.00000E+00
    0.32555E-01        -0.17060E-02         0.00000E+00
    0.31932E-01        -0.17927E-02         0.00000E+00
    0.31279E-01        -0.18730E-02         0.00000E+00
    0.30596E-01        -0.19467E-02         0.00000E+00
    0.29882E-01        -0.20133E-02         0.00000E+00
    0.29140E-01        -0.20727E-02         0.00000E+00
    0.28368E-01        -0.21244E-02         0.00000E+00
    0.27567E-01        -0.21683E-02         0.00000E+00
    0.26738E-01        -0.22040E-02         0.00000E+00
    0.25882E-01        -0.22313E-02         0.00000E+00
    0.24999E-01        -0.22498E-02         0.00000E+00
    0.24089E-01        -0.22594E-02         0.00000E+00
    0.23153E-01        -0.22598E-02         0.00000E+00
    0.22192E-01        -0.22507E-02         0.00000E+00
    0.21205E-01        -0.22318E-02         0.00000E+00
    0.20195E-01        -0.22030E-02         0.00000E+00
    0.19162E-01        -0.21640E-02         0.00000E+00
    0.18105E-01        -0.21146E-02         0.00000E+00
    0.17026E-01        -0.20545E-02         0.00000E+00
    0.15926E-01        -0.19837E-02         0.00000E+00
    0.14804E-01        -0.19018E-02         0.00000E+00
    0.13663E-01        -0.18087E-02         0.00000E+00
    0.12502E-01        -0.17042E-02         0.00000E+00
    0.11323E-01        -0.15882E-02         0.00000E+00
    0.10126E-01        -0.14604E-02         0.00000E+00
    0.89116E-02        -0.13208E-02         0.00000E+00
    0.76810E-02        -0.11691E-02         0.00000E+00
    0.64348E-02        -0.10053E-02         0.00000E+00
    0.51739E-02        -0.82927E-03         0.00000E+00
    0.38992E-02        -0.64080E-03         0.00000E+00
    0.26114E-02        -0.43983E-03         0.00000E+00
    0.13113E-02        -0.22626E-03         0.00000E+00
    0.00000E+00         0.00000E+00         0.00000E+00
    0.35477E-01         0.51554E-03         0.00000E+00
    0.35450E-01         0.38915E-03         0.00000E+00
    0.35391E-01         0.26303E-03         0.00000E+00
    0.35301E-01         0.13747E-03         0.00000E+00
    0.35179E-01         0.12777E-04         0.00000E+00
    0.35026E-01        -0.11075E-03         0.00000E+00
    0.34842E-01        -0.23280E-03         0.00000E+00
    0.34626E-01        -0.35309E-03         0.00000E+00
    0.34379E-01        -0.47130E-03         0.00000E+00
    0.34100E-01        -0.58715E-03         0.00000E+00
    0.33791E-01        -0.70032E-03         0.00000E+00
    0.33451E-01        -0.81052E-03         0.00000E+00
    0.33080E-01        -0.91746E-03         0.00000E+00
    0.32678E-01        -0.10208E-02         0.00000E+00
    0.32247E-01        -0.11204E-02         0.00000E+00
    0.31785E-01        -0.12157E-02         0.00000E+00
    0.31294E-01        -0.13067E-02         0.00000E+00
    0.30773E-01        -0.13929E-02         0.00000E+00
    0.30223E-01        -0.14742E-02         0.00000E+00
    0.29644E-01        -0.15501E-02         0.00000E+00
    0.29037E-01        -0.16205E-02         0.00000E+00
    0.28402E-01        -0.16851E-02         0.00000E+00
    0.27739E-01        -0.17436E-02         0.00000E+00
    0.27048E-01        -0.17957E-02         0.00000E+00
    0.26331E-01        -0.18413E-02         0.00000E+00
    0.25587E-01        -0.18799E-02         0.00000E+00
    0.24817E-01        -0.19115E-02         0.00000E+00
    0.24021E-01        -0.19357E-02         0.00000E+00
    0.23201E-01        -0.19523E-02         0.00000E+00
    0.22355E-01        -0.19611E-02         0.00000E+00
    0.21486E-01        -0.19619E-02         0.00000E+00
    0.20594E-01        -0.19544E-02         0.00000E+00
    0.19678E-01        -0.19384E-02         0.00000E+00
    0.18740E-01        -0.19138E-02         0.00000E+00
    0.17780E-01        -0.18802E-02         0.00000E+00
    0.16799E-01        -0.18376E-02         0.00000E+00
    0.15798E-01        -0.17857E-02         0.00000E+00
    0.14776E-01        -0.17244E-02         0.00000E+00
    0.13735E-01        -0.16534E-02         0.00000E+00
    0.12676E-01        -0.15727E-02         0.00000E+00
    0.11599E-01        -0.14821E-02         0.00000E+00
    0.10505E-01        -0.13813E-02         0.00000E+00
    0.93936E-02        -0.12704E-02         0.00000E+00
    0.82669E-02        -0.11490E-02         0.00000E+00
    0.71250E-02        -0.10172E-02         0.00000E+00
    0.59689E-02        -0.87478E-03         0.00000E+00
    0.47992E-02        -0.72164E-03         0.00000E+00
    0.36166E-02        -0.55767E-03         0.00000E+00
    0.24221E-02        -0.38280E-03         0.00000E+00
    0.12162E-02        -0.19694E-03         0.00000E+00
    0.00000E+00         0.00000E+00         0.00000E+00
    0.33119E-01         0.45824E-03         0.00000E+00
    0.33093E-01         0.34878E-03         0.00000E+00
    0.33037E-01         0.23957E-03         0.00000E+00
    0.32952E-01         0.13086E-03         0.00000E+00
    0.32837E-01         0.22910E-04         0.00000E+00
    0.32693E-01        -0.84026E-04         0.00000E+00
    0.32519E-01        -0.18969E-03         0.00000E+00
    0.32316E-01        -0.29381E-03         0.00000E+00
    0.32085E-01        -0.39615E-03         0.00000E+00
    0.31824E-01        -0.49643E-03         0.00000E+00
    0.31534E-01        -0.59441E-03         0.00000E+00
    0.31215E-01        -0.68981E-03         0.00000E+00
    0.30868E-01        -0.78240E-03         0.00000E+00
    0.30492E-01        -0.87192E-03         0.00000E+00
    0.30088E-01        -0.95811E-03         0.00000E+00
    0.29657E-01        -0.10407E-02         0.00000E+00
    0.29197E-01        -0.11195E-02         0.00000E+00
    0.28710E-01        -0.11942E-02         0.00000E+00
    0.28196E-01        -0.12646E-02         0.00000E+00
    0.27655E-01        -0.13305E-02         0.00000E+00
    0.27088E-01        -0.13916E-02         0.00000E+00
    0.26494E-01        -0.14476E-02         0.00000E+00
    0.25875E-01        -0.14984E-02         0.00000E+00
    0.25230E-01        -0.15437E-02         0.00000E+00
    0.24560E-01        -0.15833E-02         0.00000E+00
    0.23865E-01        -0.16170E-02         0.00000E+00
    0.23146E-01        -0.16445E-02         0.00000E+00
    0.22404E-01        -0.16657E-02         0.00000E+00
    0.21638E-01        -0.16804E-02         0.00000E+00
    0.20849E-01        -0.16883E-02         0.00000E+00
    0.20038E-01        -0.16892E-02         0.00000E+00
    0.19204E-01        -0.16830E-02         0.00000E+00
    0.18350E-01        -0.16695E-02         0.00000E+00
    0.17475E-01        -0.16485E-02         0.00000E+00
    0.16579E-01        -0.16199E-02         0.00000E+00
    0.15664E-01        -0.15833E-02         0.00000E+00
    0.14730E-01        -0.15388E-02         0.00000E+00
    0.13777E-01        -0.14861E-02         0.00000E+00
    0.12806E-01        -0.14252E-02         0.00000E+00
    0.11818E-01        -0.13557E-02         0.00000E+00
    0.10814E-01        -0.12777E-02         0.00000E+00
    0.97932E-02        -0.11910E-02         0.00000E+00
    0.87572E-02        -0.10954E-02         0.00000E+00
    0.77066E-02        -0.99083E-03         0.00000E+00
    0.66420E-02        -0.87723E-03         0.00000E+00
    0.55640E-02        -0.75446E-03         0.00000E+00
    0.44735E-02        -0.62242E-03         0.00000E+00
    0.33711E-02        -0.48103E-03         0.00000E+00
    0.22576E-02        -0.33021E-03         0.00000E+00
    0.11336E-02        -0.16989E-03         0.00000E+00
    0.00000E+00         0.00000E+00         0.00000E+00
    0.31089E-01         0.39966E-03         0.00000E+00
    0.31064E-01         0.30608E-03         0.00000E+00
    0.31010E-01         0.21271E-03         0.00000E+00
    0.30929E-01         0.11978E-03         0.00000E+00
    0.30821E-01         0.27498E-04         0.00000E+00
    0.30685E-01        -0.63907E-04         0.00000E+00
    0.30521E-01        -0.15422E-03         0.00000E+00
    0.30330E-01        -0.24321E-03         0.00000E+00
    0.30111E-01        -0.33068E-03         0.00000E+00
    0.29865E-01        -0.41639E-03         0.00000E+00
    0.29592E-01        -0.50013E-03         0.00000E+00
    0.29292E-01        -0.58168E-03         0.00000E+00
    0.28965E-01        -0.66082E-03         0.00000E+00
    0.28612E-01        -0.73734E-03         0.00000E+00
    0.28232E-01        -0.81102E-03         0.00000E+00
    0.27826E-01        -0.88165E-03         0.00000E+00
    0.27394E-01        -0.94902E-03         0.00000E+00
    0.26936E-01        -0.10129E-02         0.00000E+00
    0.26453E-01        -0.10731E-02         0.00000E+00
    0.25945E-01        -0.11295E-02         0.00000E+00
    0.25412E-01        -0.11817E-02         0.00000E+00
    0.24854E-01        -0.12297E-02         0.00000E+00
    0.24272E-01        -0.12732E-02         0.00000E+00
    0.23667E-01        -0.13120E-02         0.00000E+00
    0.23038E-01        -0.13460E-02         0.00000E+00
    0.22385E-01        -0.13749E-02         0.00000E+00
    0.21710E-01        -0.13986E-02         0.00000E+00
    0.21013E-01        -0.14169E-02         0.00000E+00
    0.20294E-01        -0.14296E-02         0.00000E+00
    0.19554E-01        -0.14365E-02         0.00000E+00
    0.18792E-01        -0.14375E-02         0.00000E+00
    0.18010E-01        -0.14324E-02         0.00000E+00
    0.17209E-01        -0.14211E-02         0.00000E+00
    0.16387E-01        -0.14034E-02         0.00000E+00
    0.15547E-01        -0.13791E-02         0.00000E+00
    0.14689E-01        -0.13481E-02         0.00000E+00
    0.13812E-01        -0.13103E-02         0.00000E+00
    0.12918E-01        -0.12656E-02         0.00000E+00
    0.12008E-01        -0.12137E-02         0.00000E+00
    0.11081E-01        -0.11547E-02         0.00000E+00
    0.10139E-01        -0.10883E-02         0.00000E+00
    0.91818E-02        -0.10145E-02         0.00000E+00
    0.82103E-02        -0.93314E-03         0.00000E+00
    0.72251E-02        -0.84414E-03         0.00000E+00
    0.62268E-02        -0.74739E-03         0.00000E+00
    0.52161E-02        -0.64282E-03         0.00000E+00
    0.41937E-02        -0.53035E-03         0.00000E+00
    0.31602E-02        -0.40989E-03         0.00000E+00
    0.21163E-02        -0.28139E-03         0.00000E+00
    0.10626E-02        -0.14478E-03         0.00000E+00
    0.00000E+00         0.00000E+00         0.00000E+00
    0.29368E-01         0.34095E-03         0.00000E+00
    0.29343E-01         0.26233E-03         0.00000E+00
    0.29292E-01         0.18389E-03         0.00000E+00
    0.29215E-01         0.10583E-03         0.00000E+00
    0.29111E-01         0.28319E-04         0.00000E+00
    0.28982E-01        -0.48453E-04         0.00000E+00
    0.28827E-01        -0.12430E-03         0.00000E+00
    0.28645E-01        -0.19905E-03         0.00000E+00
    0.28438E-01        -0.27250E-03         0.00000E+00
    0.28205E-01        -0.34448E-03         0.00000E+00
    0.27946E-01        -0.41481E-03         0.00000E+00
    0.27662E-01        -0.48330E-03         0.00000E+00
    0.27353E-01        -0.54977E-03         0.00000E+00
    0.27019E-01        -0.61404E-03         0.00000E+00
    0.26659E-01        -0.67593E-03         0.00000E+00
    0.26275E-01        -0.73526E-03         0.00000E+00
    0.25866E-01        -0.79185E-03         0.00000E+00
    0.25433E-01        -0.84554E-03         0.00000E+00
    0.24977E-01        -0.89615E-03         0.00000E+00
    0.24496E-01        -0.94350E-03         0.00000E+00
    0.23992E-01        -0.98742E-03         0.00000E+00
    0.23465E-01        -0.10278E-02         0.00000E+00
    0.22915E-01        -0.10643E-02         0.00000E+00
    0.22342E-01        -0.10970E-02         0.00000E+00
    0.21748E-01        -0.11256E-02         0.00000E+00
    0.21132E-01        -0.11500E-02         0.00000E+00
    0.20494E-01        -0.11699E-02         0.00000E+00
    0.19835E-01        -0.11854E-02         0.00000E+00
    0.19156E-01        -0.11961E-02         0.00000E+00
    0.18456E-01        -0.12021E-02         0.00000E+00
    0.17737E-01        -0.12030E-02         0.00000E+00
    0.16999E-01        -0.11989E-02         0.00000E+00
    0.16242E-01        -0.11895E-02         0.00000E+00
    0.15466E-01        -0.11748E-02         0.00000E+00
    0.14673E-01        -0.11546E-02         0.00000E+00
    0.13862E-01        -0.11287E-02         0.00000E+00
    0.13035E-01        -0.10972E-02         0.00000E+00
    0.12191E-01        -0.10598E-02         0.00000E+00
    0.11332E-01        -0.10164E-02         0.00000E+00
    0.10457E-01        -0.96701E-03         0.00000E+00
    0.95675E-02        -0.91147E-03         0.00000E+00
    0.86641E-02        -0.84969E-03         0.00000E+00
    0.77472E-02        -0.78158E-03         0.00000E+00
    0.68174E-02        -0.70706E-03         0.00000E+00
    0.58753E-02        -0.62605E-03         0.00000E+00
    0.49216E-02        -0.53848E-03         0.00000E+00
    0.39568E-02        -0.44428E-03         0.00000E+00
    0.29816E-02        -0.34338E-03         0.00000E+00
    0.19966E-02        -0.23574E-03         0.00000E+00
    0.10026E-02        -0.12129E-03         0.00000E+00
    0.00000E+00         0.00000E+00         0.00000E+00
    0.27937E-01         0.28281E-03         0.00000E+00
    0.27913E-01         0.21838E-03         0.00000E+00
    0.27864E-01         0.15412E-03         0.00000E+00
    0.27791E-01         0.90164E-04         0.00000E+00
    0.27692E-01         0.26664E-04         0.00000E+00
    0.27568E-01        -0.36228E-04         0.00000E+00
    0.27420E-01        -0.98363E-04         0.00000E+00
    0.27247E-01        -0.15959E-03         0.00000E+00
    0.27049E-01        -0.21976E-03         0.00000E+00
    0.26827E-01        -0.27872E-03         0.00000E+00
    0.26580E-01        -0.33633E-03         0.00000E+00
    0.26309E-01        -0.39243E-03         0.00000E+00
    0.26015E-01        -0.44688E-03         0.00000E+00
    0.25696E-01        -0.49953E-03         0.00000E+00
    0.25353E-01        -0.55023E-03         0.00000E+00
    0.24988E-01        -0.59884E-03         0.00000E+00
    0.24598E-01        -0.64521E-03         0.00000E+00
    0.24186E-01        -0.68920E-03         0.00000E+00
    0.23751E-01        -0.73067E-03         0.00000E+00
    0.23293E-01        -0.76948E-03         0.00000E+00
    0.22814E-01        -0.80549E-03         0.00000E+00
    0.22312E-01        -0.83856E-03         0.00000E+00
    0.21788E-01        -0.86856E-03         0.00000E+00
    0.21244E-01        -0.89536E-03         0.00000E+00
    0.20678E-01        -0.91883E-03         0.00000E+00
    0.20091E-01        -0.93883E-03         0.00000E+00
    0.19484E-01        -0.95525E-03         0.00000E+00
    0.18858E-01        -0.96796E-03         0.00000E+00
    0.18212E-01        -0.97684E-03         0.00000E+00
    0.17546E-01        -0.98177E-03         0.00000E+00
    0.16862E-01        -0.98264E-03         0.00000E+00
    0.16160E-01        -0.97934E-03         0.00000E+00
    0.15440E-01        -0.97175E-03         0.00000E+00
    0.14702E-01        -0.95977E-03         0.00000E+00
    0.13948E-01        -0.94331E-03         0.00000E+00
    0.13177E-01        -0.92225E-03         0.00000E+00
    0.12390E-01        -0.89651E-03         0.00000E+00
    0.11588E-01        -0.86599E-03         0.00000E+00
    0.10771E-01        -0.83061E-03         0.00000E+00
    0.99389E-02        -0.79028E-03         0.00000E+00
    0.90934E-02        -0.74492E-03         0.00000E+00
    0.82346E-02        -0.69446E-03         0.00000E+00
    0.73630E-02        -0.63882E-03         0.00000E+00
    0.64792E-02        -0.57793E-03         0.00000E+00
    0.55838E-02        -0.51173E-03         0.00000E+00
    0.46773E-02        -0.44017E-03         0.00000E+00
    0.37603E-02        -0.36317E-03         0.00000E+00
    0.28335E-02        -0.28070E-03         0.00000E+00
    0.18974E-02        -0.19271E-03         0.00000E+00
    0.95273E-03        -0.99157E-04         0.00000E+00
    0.00000E+00         0.00000E+00         0.00000E+00
    0.26785E-01         0.22558E-03         0.00000E+00
    0.26762E-01         0.17474E-03         0.00000E+00
    0.26714E-01         0.12402E-03         0.00000E+00
    0.26643E-01         0.73551E-04         0.00000E+00
    0.26548E-01         0.23443E-04         0.00000E+00
    0.26429E-01        -0.26184E-04         0.00000E+00
    0.26286E-01        -0.75213E-04         0.00000E+00
    0.26120E-01        -0.12353E-03         0.00000E+00
    0.25930E-01        -0.17100E-03         0.00000E+00
    0.25717E-01        -0.21753E-03         0.00000E+00
    0.25480E-01        -0.26298E-03         0.00000E+00
    0.25220E-01        -0.30725E-03         0.00000E+00
    0.24937E-01        -0.35022E-03         0.00000E+00
    0.24631E-01        -0.39176E-03         0.00000E+00
    0.24302E-01        -0.43177E-03         0.00000E+00
    0.23951E-01        -0.47014E-03         0.00000E+00
    0.23577E-01        -0.50674E-03         0.00000E+00
    0.23182E-01        -0.54146E-03         0.00000E+00
    0.22764E-01        -0.57420E-03         0.00000E+00
    0.22325E-01        -0.60484E-03         0.00000E+00
    0.21865E-01        -0.63327E-03         0.00000E+00
    0.21383E-01        -0.65939E-03         0.00000E+00
    0.20881E-01        -0.68310E-03         0.00000E+00
    0.20359E-01        -0.70427E-03         0.00000E+00
    0.19816E-01        -0.72283E-03         0.00000E+00
    0.19254E-01        -0.73865E-03         0.00000E+00
    0.18672E-01        -0.75165E-03         0.00000E+00
    0.18071E-01        -0.76172E-03         0.00000E+00
    0.17451E-01        -0.76878E-03         0.00000E+00
    0.16813E-01        -0.77273E-03         0.00000E+00
    0.16158E-01        -0.77347E-03         0.00000E+00
    0.15484E-01        -0.77092E-03         0.00000E+00
    0.14794E-01        -0.76500E-03         0.00000E+00
    0.14087E-01        -0.75562E-03         0.00000E+00
    0.13364E-01        -0.74270E-03         0.00000E+00
    0.12625E-01        -0.72616E-03         0.00000E+00
    0.11871E-01        -0.70593E-03         0.00000E+00
    0.11102E-01        -0.68194E-03         0.00000E+00
    0.10319E-01        -0.65411E-03         0.00000E+00
    0.95220E-02        -0.62237E-03         0.00000E+00
    0.87119E-02        -0.58668E-03         0.00000E+00
    0.78890E-02        -0.54695E-03         0.00000E+00
    0.70538E-02        -0.50315E-03         0.00000E+00
    0.62070E-02        -0.45521E-03         0.00000E+00
    0.53491E-02        -0.40308E-03         0.00000E+00
    0.44807E-02        -0.34672E-03         0.00000E+00
    0.36022E-02        -0.28608E-03         0.00000E+00
    0.27143E-02        -0.22112E-03         0.00000E+00
    0.18176E-02        -0.15181E-03         0.00000E+00
    0.91263E-03        -0.78114E-04         0.00000E+00
    0.00000E+00         0.00000E+00         0.00000E+00
    0.25899E-01         0.16936E-03         0.00000E+00
    0.25876E-01         0.13161E-03         0.00000E+00
    0.25830E-01         0.93950E-04         0.00000E+00
    0.25761E-01         0.56477E-04         0.00000E+00
    0.25669E-01         0.19273E-04         0.00000E+00
    0.25554E-01        -0.17573E-04         0.00000E+00
    0.25416E-01        -0.53976E-04         0.00000E+00
    0.25254E-01        -0.89846E-04         0.00000E+00
    0.25070E-01        -0.12510E-03         0.00000E+00
    0.24864E-01        -0.15964E-03         0.00000E+00
    0.24634E-01        -0.19340E-03         0.00000E+00
    0.24383E-01        -0.22627E-03         0.00000E+00
    0.24109E-01        -0.25818E-03         0.00000E+00
    0.23812E-01        -0.28903E-03         0.00000E+00
    0.23494E-01        -0.31875E-03         0.00000E+00
    0.23154E-01        -0.34724E-03         0.00000E+00
    0.22793E-01        -0.37443E-03         0.00000E+00
    0.22410E-01        -0.40023E-03         0.00000E+00
    0.22006E-01        -0.42456E-03         0.00000E+00
    0.21581E-01        -0.44733E-03         0.00000E+00
    0.21136E-01        -0.46847E-03         0.00000E+00
    0.20670E-01        -0.48789E-03         0.00000E+00
    0.20185E-01        -0.50552E-03         0.00000E+00
    0.19679E-01        -0.52128E-03         0.00000E+00
    0.19154E-01        -0.53509E-03         0.00000E+00
    0.18610E-01        -0.54688E-03         0.00000E+00
    0.18048E-01        -0.55657E-03         0.00000E+00
    0.17466E-01        -0.56409E-03         0.00000E+00
    0.16867E-01        -0.56938E-03         0.00000E+00
    0.16250E-01        -0.57236E-03         0.00000E+00
    0.15616E-01        -0.57296E-03         0.00000E+00
    0.14965E-01        -0.57113E-03         0.00000E+00
    0.14298E-01        -0.56679E-03         0.00000E+00
    0.13614E-01        -0.55988E-03         0.00000E+00
    0.12915E-01        -0.55035E-03         0.00000E+00
    0.12201E-01        -0.53813E-03         0.00000E+00
    0.11472E-01        -0.52317E-03         0.00000E+00
    0.10729E-01        -0.50542E-03         0.00000E+00
    0.99720E-02        -0.48482E-03         0.00000E+00
    0.92018E-02        -0.46133E-03         0.00000E+00
    0.84187E-02        -0.43489E-03         0.00000E+00
    0.76234E-02        -0.40546E-03         0.00000E+00
    0.68163E-02        -0.37301E-03         0.00000E+00
    0.59980E-02        -0.33748E-03         0.00000E+00
    0.51689E-02        -0.29885E-03         0.00000E+00
    0.43296E-02        -0.25707E-03         0.00000E+00
    0.34807E-02        -0.21212E-03         0.00000E+00
    0.26228E-02        -0.16396E-03         0.00000E+00
    0.17563E-02        -0.11257E-03         0.00000E+00
    0.88183E-03        -0.57925E-04         0.00000E+00
    0.00000E+00         0.00000E+00         0.00000E+00
    0.25271E-01         0.11403E-03         0.00000E+00
    0.25249E-01         0.89011E-04         0.00000E+00
    0.25204E-01         0.64052E-04         0.00000E+00
    0.25137E-01         0.39214E-04         0.00000E+00
    0.25046E-01         0.14554E-04         0.00000E+00
    0.24934E-01        -0.98699E-05         0.00000E+00
    0.24799E-01        -0.34001E-04         0.00000E+00
    0.24641E-01        -0.57781E-04         0.00000E+00
    0.24461E-01        -0.81153E-04         0.00000E+00
    0.24259E-01        -0.10406E-03         0.00000E+00
    0.24035E-01        -0.12644E-03         0.00000E+00
    0.23790E-01        -0.14824E-03         0.00000E+00
    0.23522E-01        -0.16941E-03         0.00000E+00
    0.23233E-01        -0.18988E-03         0.00000E+00
    0.22922E-01        -0.20960E-03         0.00000E+00
    0.22590E-01        -0.22851E-03         0.00000E+00
    0.22237E-01        -0.24656E-03         0.00000E+00
    0.21863E-01        -0.26369E-03         0.00000E+00
    0.21469E-01        -0.27984E-03         0.00000E+00
    0.21054E-01        -0.29497E-03         0.00000E+00
    0.20619E-01        -0.30902E-03         0.00000E+00
    0.20165E-01        -0.32194E-03         0.00000E+00
    0.19691E-01        -0.33367E-03         0.00000E+00
    0.19197E-01        -0.34416E-03         0.00000E+00
    0.18685E-01        -0.35336E-03         0.00000E+00
    0.18154E-01        -0.36123E-03         0.00000E+00
    0.17605E-01        -0.36770E-03         0.00000E+00
    0.17038E-01        -0.37275E-03         0.00000E+00
    0.16453E-01        -0.37631E-03         0.00000E+00
    0.15851E-01        -0.37834E-03         0.00000E+00
    0.15233E-01        -0.37880E-03         0.00000E+00
    0.14598E-01        -0.37764E-03         0.00000E+00
    0.13946E-01        -0.37482E-03         0.00000E+00
    0.13280E-01        -0.37030E-03         0.00000E+00
    0.12597E-01        -0.36404E-03         0.00000E+00
    0.11901E-01        -0.35600E-03         0.00000E+00
    0.11190E-01        -0.34615E-03         0.00000E+00
    0.10465E-01        -0.33444E-03         0.00000E+00
    0.97261E-02        -0.32084E-03         0.00000E+00
    0.89748E-02        -0.30533E-03         0.00000E+00
    0.82110E-02        -0.28786E-03         0.00000E+00
    0.74352E-02        -0.26841E-03         0.00000E+00
    0.66479E-02        -0.24694E-03         0.00000E+00
    0.58497E-02        -0.22344E-03         0.00000E+00
    0.50411E-02        -0.19788E-03         0.00000E+00
    0.42226E-02        -0.17023E-03         0.00000E+00
    0.33946E-02        -0.14047E-03         0.00000E+00
    0.25579E-02        -0.10859E-03         0.00000E+00
    0.17128E-02        -0.74561E-04         0.00000E+00
    0.85999E-03        -0.38369E-04         0.00000E+00
    0.00000E+00         0.00000E+00         0.00000E+00
    0.24896E-01         0.59350E-04         0.00000E+00
    0.24874E-01         0.46819E-04         0.00000E+00
    0.24829E-01         0.34319E-04         0.00000E+00
    0.24763E-01         0.21878E-04         0.00000E+00
    0.24674E-01         0.95241E-05         0.00000E+00
    0.24563E-01        -0.27143E-05         0.00000E+00
    0.24429E-01        -0.14809E-04         0.00000E+00
    0.24274E-01        -0.26731E-04         0.00000E+00
    0.24097E-01        -0.38452E-04         0.00000E+00
    0.23898E-01        -0.49943E-04         0.00000E+00
    0.23677E-01        -0.61177E-04         0.00000E+00
    0.23435E-01        -0.72123E-04         0.00000E+00
    0.23171E-01        -0.82755E-04         0.00000E+00
    0.22885E-01        -0.93043E-04         0.00000E+00
    0.22579E-01        -0.10296E-03         0.00000E+00
    0.22252E-01        -0.11248E-03         0.00000E+00
    0.21904E-01        -0.12156E-03         0.00000E+00
    0.21536E-01        -0.13020E-03         0.00000E+00
    0.21147E-01        -0.13835E-03         0.00000E+00
    0.20739E-01        -0.14598E-03         0.00000E+00
    0.20310E-01        -0.15308E-03         0.00000E+00
    0.19862E-01        -0.15962E-03         0.00000E+00
    0.19395E-01        -0.16557E-03         0.00000E+00
    0.18909E-01        -0.17089E-03         0.00000E+00
    0.18404E-01        -0.17558E-03         0.00000E+00
    0.17881E-01        -0.17960E-03         0.00000E+00
    0.17340E-01        -0.18292E-03         0.00000E+00
    0.16781E-01        -0.18553E-03         0.00000E+00
    0.16205E-01        -0.18739E-03         0.00000E+00
    0.15612E-01        -0.18849E-03         0.00000E+00
    0.15003E-01        -0.18881E-03         0.00000E+00
    0.14377E-01        -0.18831E-03         0.00000E+00
    0.13736E-01        -0.18698E-03         0.00000E+00
    0.13079E-01        -0.18479E-03         0.00000E+00
    0.12407E-01        -0.18174E-03         0.00000E+00
    0.11720E-01        -0.17779E-03         0.00000E+00
    0.11020E-01        -0.17292E-03         0.00000E+00
    0.10306E-01        -0.16713E-03         0.00000E+00
    0.95786E-02        -0.16038E-03         0.00000E+00
    0.88385E-02        -0.15267E-03         0.00000E+00
    0.80863E-02        -0.14398E-03         0.00000E+00
    0.73222E-02        -0.13428E-03         0.00000E+00
    0.65469E-02        -0.12358E-03         0.00000E+00
    0.57608E-02        -0.11185E-03         0.00000E+00
    0.49644E-02        -0.99077E-04         0.00000E+00
    0.41583E-02        -0.85253E-04         0.00000E+00
    0.33430E-02        -0.70367E-04         0.00000E+00
    0.25189E-02        -0.54407E-04         0.00000E+00
    0.16867E-02        -0.37365E-04         0.00000E+00
    0.84688E-03        -0.19232E-04         0.00000E+00
    0.00000E+00         0.00000E+00         0.00000E+00
    0.24769E-01         0.49475E-05         0.00000E+00
    0.24747E-01         0.47913E-05         0.00000E+00
    0.24703E-01         0.46328E-05         0.00000E+00
    0.24636E-01         0.44712E-05         0.00000E+00
    0.24548E-01         0.43060E-05         0.00000E+00
    0.24437E-01         0.41366E-05         0.00000E+00
    0.24305E-01         0.39626E-05         0.00000E+00
    0.24150E-01         0.37838E-05         0.00000E+00
    0.23973E-01         0.36000E-05         0.00000E+00
    0.23775E-01         0.34110E-05         0.00000E+00
    0.23555E-01         0.32170E-05         0.00000E+00
    0.23314E-01         0.30180E-05         0.00000E+00
    0.23051E-01         0.28142E-05         0.00000E+00
    0.22768E-01         0.26059E-05         0.00000E+00
    0.22463E-01         0.23935E-05         0.00000E+00
    0.22137E-01         0.21776E-05         0.00000E+00
    0.21791E-01         0.19586E-05         0.00000E+00
    0.21424E-01         0.17372E-05         0.00000E+00
    0.21038E-01         0.15142E-05         0.00000E+00
    0.20631E-01         0.12902E-05         0.00000E+00
    0.20205E-01         0.10663E-05         0.00000E+00
    0.19759E-01         0.84313E-06         0.00000E+00
    0.19294E-01         0.62186E-06         0.00000E+00
    0.18810E-01         0.40345E-06         0.00000E+00
    0.18308E-01         0.18898E-06         0.00000E+00
    0.17788E-01        -0.20420E-07         0.00000E+00
    0.17249E-01        -0.22360E-06         0.00000E+00
    0.16693E-01        -0.41937E-06         0.00000E+00
    0.16120E-01        -0.60650E-06         0.00000E+00
    0.15530E-01        -0.78374E-06         0.00000E+00
    0.14924E-01        -0.94982E-06         0.00000E+00
    0.14301E-01        -0.11035E-05         0.00000E+00
    0.13663E-01        -0.12433E-05         0.00000E+00
    0.13010E-01        -0.13682E-05         0.00000E+00
    0.12341E-01        -0.14767E-05         0.00000E+00
    0.11659E-01        -0.15675E-05         0.00000E+00
    0.10962E-01        -0.16394E-05         0.00000E+00
    0.10251E-01        -0.16911E-05         0.00000E+00
    0.95278E-02        -0.17213E-05         0.00000E+00
    0.87917E-02        -0.17288E-05         0.00000E+00
    0.80433E-02        -0.17123E-05         0.00000E+00
    0.72833E-02        -0.16708E-05         0.00000E+00
    0.65121E-02        -0.16031E-05         0.00000E+00
    0.57301E-02        -0.15081E-05         0.00000E+00
    0.49380E-02        -0.13847E-05         0.00000E+00
    0.41361E-02        -0.12321E-05         0.00000E+00
    0.33251E-02        -0.10492E-05         0.00000E+00
    0.25055E-02        -0.83532E-06         0.00000E+00
    0.16777E-02        -0.58959E-06         0.00000E+00
    0.84235E-03        -0.31135E-06         0.00000E+00
    0.00000E+00         0.00000E+00         0.00000E+00
    0.24890E-01        -0.49607E-04         0.00000E+00
    0.24868E-01        -0.37385E-04         0.00000E+00
    0.24823E-01        -0.25199E-04         0.00000E+00
    0.24756E-01        -0.13079E-04         0.00000E+00
    0.24667E-01        -0.10530E-05         0.00000E+00
    0.24556E-01         0.10848E-04         0.00000E+00
    0.24423E-01         0.22596E-04         0.00000E+00
    0.24267E-01         0.34161E-04         0.00000E+00
    0.24090E-01         0.45515E-04         0.00000E+00
    0.23891E-01         0.56628E-04         0.00000E+00
    0.23670E-01         0.67473E-04         0.00000E+00
    0.23427E-01         0.78021E-04         0.00000E+00
    0.23163E-01         0.88244E-04         0.00000E+00
    0.22878E-01         0.98114E-04         0.00000E+00
    0.22572E-01         0.10760E-03         0.00000E+00
    0.22244E-01         0.11669E-03         0.00000E+00
    0.21896E-01         0.12534E-03         0.00000E+00
    0.21528E-01         0.13352E-03         0.00000E+00
    0.21139E-01         0.14122E-03         0.00000E+00
    0.20731E-01         0.14841E-03         0.00000E+00
    0.20302E-01         0.15506E-03         0.00000E+00
    0.19854E-01         0.16115E-03         0.00000E+00
    0.19387E-01         0.16665E-03         0.00000E+00
    0.18901E-01         0.17154E-03         0.00000E+00
    0.18396E-01         0.17580E-03         0.00000E+00
    0.17873E-01         0.17940E-03         0.00000E+00
    0.17332E-01         0.18231E-03         0.00000E+00
    0.16773E-01         0.18453E-03         0.00000E+00
    0.16198E-01         0.18602E-03         0.00000E+00
    0.15605E-01         0.18676E-03         0.00000E+00
    0.14995E-01         0.18675E-03         0.00000E+00
    0.14370E-01         0.18594E-03         0.00000E+00
    0.13729E-01         0.18433E-03         0.00000E+00
    0.13072E-01         0.18190E-03         0.00000E+00
    0.12400E-01         0.17863E-03         0.00000E+00
    0.11714E-01         0.17450E-03         0.00000E+00
    0.11014E-01         0.16950E-03         0.00000E+00
    0.10300E-01         0.16360E-03         0.00000E+00
    0.95732E-02         0.15680E-03         0.00000E+00
    0.88335E-02         0.14908E-03         0.00000E+00
    0.80816E-02         0.14043E-03         0.00000E+00
    0.73179E-02         0.13083E-03         0.00000E+00
    0.65430E-02         0.12027E-03         0.00000E+00
    0.57573E-02         0.10874E-03         0.00000E+00
    0.49614E-02         0.96222E-04         0.00000E+00
    0.41558E-02         0.82716E-04         0.00000E+00
    0.33409E-02         0.68208E-04         0.00000E+00
    0.25173E-02         0.52689E-04         0.00000E+00
    0.16856E-02         0.36153E-04         0.00000E+00
    0.84635E-03         0.18592E-04         0.00000E+00
    0.00000E+00         0.00000E+00         0.00000E+00
    0.25259E-01        -0.10479E-03         0.00000E+00
    0.25237E-01        -0.80067E-04         0.00000E+00
    0.25192E-01        -0.55413E-04         0.00000E+00
    0.25124E-01        -0.30888E-04         0.00000E+00
    0.25033E-01        -0.65508E-05         0.00000E+00
    0.24921E-01         0.17541E-04         0.00000E+00
    0.24785E-01         0.41329E-04         0.00000E+00
    0.24627E-01         0.64754E-04         0.00000E+00
    0.24447E-01         0.87760E-04         0.00000E+00
    0.24245E-01         0.11029E-03         0.00000E+00
    0.24021E-01         0.13228E-03         0.00000E+00
    0.23775E-01         0.15368E-03         0.00000E+00
    0.23507E-01         0.17443E-03         0.00000E+00
    0.23217E-01         0.19448E-03         0.00000E+00
    0.22907E-01         0.21377E-03         0.00000E+00
    0.22574E-01         0.23224E-03         0.00000E+00
    0.22221E-01         0.24985E-03         0.00000E+00
    0.21847E-01         0.26653E-03         0.00000E+00
    0.21453E-01         0.28223E-03         0.00000E+00
    0.21038E-01         0.29691E-03         0.00000E+00
    0.20603E-01         0.31050E-03         0.00000E+00
    0.20149E-01         0.32296E-03         0.00000E+00
    0.19675E-01         0.33424E-03         0.00000E+00
    0.19181E-01         0.34429E-03         0.00000E+00
    0.18669E-01         0.35306E-03         0.00000E+00
    0.18138E-01         0.36051E-03         0.00000E+00
    0.17589E-01         0.36658E-03         0.00000E+00
    0.17022E-01         0.37123E-03         0.00000E+00
    0.16438E-01         0.37441E-03         0.00000E+00
    0.15836E-01         0.37609E-03         0.00000E+00
    0.15218E-01         0.37622E-03         0.00000E+00
    0.14583E-01         0.37476E-03         0.00000E+00
    0.13932E-01         0.37167E-03         0.00000E+00
    0.13266E-01         0.36692E-03         0.00000E+00
    0.12584E-01         0.36045E-03         0.00000E+00
    0.11888E-01         0.35225E-03         0.00000E+00
    0.11177E-01         0.34227E-03         0.00000E+00
    0.10453E-01         0.33048E-03         0.00000E+00
    0.97152E-02         0.31684E-03         0.00000E+00
    0.89646E-02         0.30134E-03         0.00000E+00
    0.82015E-02         0.28393E-03         0.00000E+00
    0.74265E-02         0.26459E-03         0.00000E+00
    0.66401E-02         0.24330E-03         0.00000E+00
    0.58428E-02         0.22003E-03         0.00000E+00
    0.50350E-02         0.19476E-03         0.00000E+00
    0.42174E-02         0.16747E-03         0.00000E+00
    0.33905E-02         0.13813E-03         0.00000E+00
    0.25547E-02         0.10673E-03         0.00000E+00
    0.17107E-02         0.73247E-04         0.00000E+00
    0.85890E-03         0.37676E-04         0.00000E+00
    0.00000E+00         0.00000E+00         0.00000E+00
    0.25881E-01        -0.16110E-03         0.00000E+00
    0.25858E-01        -0.12363E-03         0.00000E+00
    0.25812E-01        -0.86265E-04         0.00000E+00
    0.25742E-01        -0.49093E-04         0.00000E+00
    0.25650E-01        -0.12201E-04         0.00000E+00
    0.25534E-01         0.24320E-04         0.00000E+00
    0.25396E-01         0.60385E-04         0.00000E+00
    0.25234E-01         0.95905E-04         0.00000E+00
    0.25050E-01         0.13079E-03         0.00000E+00
    0.24842E-01         0.16496E-03         0.00000E+00
    0.24613E-01         0.19832E-03         0.00000E+00
    0.24361E-01         0.23079E-03         0.00000E+00
    0.24086E-01         0.26228E-03         0.00000E+00
    0.23790E-01         0.29271E-03         0.00000E+00
    0.23471E-01         0.32199E-03         0.00000E+00
    0.23131E-01         0.35004E-03         0.00000E+00
    0.22769E-01         0.37678E-03         0.00000E+00
    0.22386E-01         0.40212E-03         0.00000E+00
    0.21982E-01         0.42599E-03         0.00000E+00
    0.21557E-01         0.44830E-03         0.00000E+00
    0.21111E-01         0.46897E-03         0.00000E+00
    0.20646E-01         0.48794E-03         0.00000E+00
    0.20160E-01         0.50511E-03         0.00000E+00
    0.19654E-01         0.52043E-03         0.00000E+00
    0.19130E-01         0.53380E-03         0.00000E+00
    0.18586E-01         0.54517E-03         0.00000E+00
    0.18023E-01         0.55446E-03         0.00000E+00
    0.17442E-01         0.56159E-03         0.00000E+00
    0.16844E-01         0.56651E-03         0.00000E+00
    0.16227E-01         0.56915E-03         0.00000E+00
    0.15594E-01         0.56943E-03         0.00000E+00
    0.14943E-01         0.56731E-03         0.00000E+00
    0.14276E-01         0.56271E-03         0.00000E+00
    0.13593E-01         0.55558E-03         0.00000E+00
    0.12895E-01         0.54587E-03         0.00000E+00
    0.12182E-01         0.53351E-03         0.00000E+00
    0.11454E-01         0.51845E-03         0.00000E+00
    0.10711E-01         0.50065E-03         0.00000E+00
    0.99553E-02         0.48005E-03         0.00000E+00
    0.91861E-02         0.45661E-03         0.00000E+00
    0.84042E-02         0.43027E-03         0.00000E+00
    0.76101E-02         0.40101E-03         0.00000E+00
    0.68042E-02         0.36878E-03         0.00000E+00
    0.59872E-02         0.33354E-03         0.00000E+00
    0.51595E-02         0.29526E-03         0.00000E+00
    0.43217E-02         0.25390E-03         0.00000E+00
    0.34743E-02         0.20944E-03         0.00000E+00
    0.26179E-02         0.16184E-03         0.00000E+00
    0.17530E-02         0.11108E-03         0.00000E+00
    0.88015E-03         0.57141E-04         0.00000E+00
    0.00000E+00         0.00000E+00         0.00000E+00
    0.26762E-01        -0.21903E-03         0.00000E+00
    0.26738E-01        -0.16845E-03         0.00000E+00
    0.26690E-01        -0.11800E-03         0.00000E+00
    0.26618E-01        -0.67817E-04         0.00000E+00
    0.26523E-01        -0.18008E-04         0.00000E+00
    0.26403E-01         0.31306E-04         0.00000E+00
    0.26260E-01         0.80005E-04         0.00000E+00
    0.26093E-01         0.12797E-03         0.00000E+00
    0.25902E-01         0.17509E-03         0.00000E+00
    0.25688E-01         0.22123E-03         0.00000E+00
    0.25451E-01         0.26630E-03         0.00000E+00
    0.25190E-01         0.31016E-03         0.00000E+00
    0.24906E-01         0.35270E-03         0.00000E+00
    0.24600E-01         0.39382E-03         0.00000E+00
    0.24271E-01         0.43338E-03         0.00000E+00
    0.23919E-01         0.47130E-03         0.00000E+00
    0.23545E-01         0.50744E-03         0.00000E+00
    0.23149E-01         0.54170E-03         0.00000E+00
    0.22731E-01         0.57397E-03         0.00000E+00
    0.22292E-01         0.60414E-03         0.00000E+00
    0.21831E-01         0.63211E-03         0.00000E+00
    0.21350E-01         0.65778E-03         0.00000E+00
    0.20848E-01         0.68103E-03         0.00000E+00
    0.20325E-01         0.70176E-03         0.00000E+00
    0.19783E-01         0.71988E-03         0.00000E+00
    0.19220E-01         0.73529E-03         0.00000E+00
    0.18639E-01         0.74789E-03         0.00000E+00
    0.18038E-01         0.75759E-03         0.00000E+00
    0.17419E-01         0.76430E-03         0.00000E+00
    0.16782E-01         0.76792E-03         0.00000E+00
    0.16126E-01         0.76837E-03         0.00000E+00
    0.15454E-01         0.76557E-03         0.00000E+00
    0.14764E-01         0.75942E-03         0.00000E+00
    0.14058E-01         0.74985E-03         0.00000E+00
    0.13336E-01         0.73679E-03         0.00000E+00
    0.12598E-01         0.72016E-03         0.00000E+00
    0.11845E-01         0.69988E-03         0.00000E+00
    0.11078E-01         0.67589E-03         0.00000E+00
    0.10296E-01         0.64812E-03         0.00000E+00
    0.95005E-02         0.61650E-03         0.00000E+00
    0.86918E-02         0.58098E-03         0.00000E+00
    0.78706E-02         0.54150E-03         0.00000E+00
    0.70372E-02         0.49800E-03         0.00000E+00
    0.61922E-02         0.45044E-03         0.00000E+00
    0.53362E-02         0.39876E-03         0.00000E+00
    0.44697E-02         0.34292E-03         0.00000E+00
    0.35933E-02         0.28288E-03         0.00000E+00
    0.27075E-02         0.21860E-03         0.00000E+00
    0.18130E-02         0.15005E-03         0.00000E+00
    0.91030E-03         0.77188E-04         0.00000E+00
    0.00000E+00         0.00000E+00         0.00000E+00
    0.27909E-01        -0.27906E-03         0.00000E+00
    0.27885E-01        -0.21486E-03         0.00000E+00
    0.27835E-01        -0.15084E-03         0.00000E+00
    0.27760E-01        -0.87149E-04         0.00000E+00
    0.27661E-01        -0.23931E-04         0.00000E+00
    0.27536E-01         0.38661E-04         0.00000E+00
    0.27387E-01         0.10048E-03         0.00000E+00
    0.27213E-01         0.16136E-03         0.00000E+00
    0.27014E-01         0.22118E-03         0.00000E+00
    0.26791E-01         0.27976E-03         0.00000E+00
    0.26544E-01         0.33698E-03         0.00000E+00
    0.26272E-01         0.39267E-03         0.00000E+00
    0.25976E-01         0.44669E-03         0.00000E+00
    0.25657E-01         0.49890E-03         0.00000E+00
    0.25314E-01         0.54916E-03         0.00000E+00
    0.24947E-01         0.59731E-03         0.00000E+00
    0.24557E-01         0.64322E-03         0.00000E+00
    0.24144E-01         0.68675E-03         0.00000E+00
    0.23709E-01         0.72775E-03         0.00000E+00
    0.23251E-01         0.76610E-03         0.00000E+00
    0.22771E-01         0.80165E-03         0.00000E+00
    0.22269E-01         0.83427E-03         0.00000E+00
    0.21745E-01         0.86383E-03         0.00000E+00
    0.21200E-01         0.89020E-03         0.00000E+00
    0.20634E-01         0.91326E-03         0.00000E+00
    0.20048E-01         0.93287E-03         0.00000E+00
    0.19442E-01         0.94892E-03         0.00000E+00
    0.18815E-01         0.96129E-03         0.00000E+00
    0.18170E-01         0.96985E-03         0.00000E+00
    0.17505E-01         0.97450E-03         0.00000E+00
    0.16822E-01         0.97513E-03         0.00000E+00
    0.16120E-01         0.97161E-03         0.00000E+00
    0.15401E-01         0.96386E-03         0.00000E+00
    0.14665E-01         0.95177E-03         0.00000E+00
    0.13912E-01         0.93523E-03         0.00000E+00
    0.13142E-01         0.91416E-03         0.00000E+00
    0.12357E-01         0.88846E-03         0.00000E+00
    0.11556E-01         0.85804E-03         0.00000E+00
    0.10741E-01         0.82281E-03         0.00000E+00
    0.99108E-02         0.78271E-03         0.00000E+00
    0.90674E-02         0.73764E-03         0.00000E+00
    0.82107E-02         0.68754E-03         0.00000E+00
    0.73413E-02         0.63233E-03         0.00000E+00
    0.64598E-02         0.57196E-03         0.00000E+00
    0.55669E-02         0.50635E-03         0.00000E+00
    0.46629E-02         0.43546E-03         0.00000E+00
    0.37487E-02         0.35923E-03         0.00000E+00
    0.28246E-02         0.27761E-03         0.00000E+00
    0.18914E-02         0.19055E-03         0.00000E+00
    0.94967E-03         0.98030E-04         0.00000E+00
    0.00000E+00         0.00000E+00         0.00000E+00
    0.29336E-01        -0.34159E-03         0.00000E+00
    0.29310E-01        -0.26316E-03         0.00000E+00
    0.29258E-01        -0.18493E-03         0.00000E+00
    0.29179E-01        -0.10710E-03         0.00000E+00
    0.29075E-01        -0.29856E-04         0.00000E+00
    0.28944E-01         0.46631E-04         0.00000E+00
    0.28787E-01         0.12217E-03         0.00000E+00
    0.28605E-01         0.19658E-03         0.00000E+00
    0.28396E-01         0.26969E-03         0.00000E+00
    0.28162E-01         0.34129E-03         0.00000E+00
    0.27902E-01         0.41123E-03         0.00000E+00
    0.27617E-01         0.47931E-03         0.00000E+00
    0.27306E-01         0.54535E-03         0.00000E+00
    0.26971E-01         0.60918E-03         0.00000E+00
    0.26610E-01         0.67063E-03         0.00000E+00
    0.26225E-01         0.72951E-03         0.00000E+00
    0.25816E-01         0.78565E-03         0.00000E+00
    0.25382E-01         0.83888E-03         0.00000E+00
    0.24924E-01         0.88903E-03         0.00000E+00
    0.24443E-01         0.93594E-03         0.00000E+00
    0.23939E-01         0.97943E-03         0.00000E+00
    0.23411E-01         0.10193E-02         0.00000E+00
    0.22861E-01         0.10555E-02         0.00000E+00
    0.22288E-01         0.10878E-02         0.00000E+00
    0.21694E-01         0.11160E-02         0.00000E+00
    0.21078E-01         0.11400E-02         0.00000E+00
    0.20440E-01         0.11597E-02         0.00000E+00
    0.19782E-01         0.11749E-02         0.00000E+00
    0.19104E-01         0.11854E-02         0.00000E+00
    0.18405E-01         0.11911E-02         0.00000E+00
    0.17687E-01         0.11919E-02         0.00000E+00
    0.16949E-01         0.11877E-02         0.00000E+00
    0.16193E-01         0.11782E-02         0.00000E+00
    0.15419E-01         0.11635E-02         0.00000E+00
    0.14628E-01         0.11433E-02         0.00000E+00
    0.13819E-01         0.11176E-02         0.00000E+00
    0.12993E-01         0.10862E-02         0.00000E+00
    0.12151E-01         0.10490E-02         0.00000E+00
    0.11294E-01         0.10060E-02         0.00000E+00
    0.10422E-01         0.95699E-03         0.00000E+00
    0.95347E-02         0.90191E-03         0.00000E+00
    0.86339E-02         0.84068E-03         0.00000E+00
    0.77198E-02         0.77320E-03         0.00000E+00
    0.67930E-02         0.69939E-03         0.00000E+00
    0.58540E-02         0.61918E-03         0.00000E+00
    0.49035E-02         0.53251E-03         0.00000E+00
    0.39421E-02         0.43930E-03         0.00000E+00
    0.29704E-02         0.33949E-03         0.00000E+00
    0.19890E-02         0.23304E-03         0.00000E+00
    0.99869E-03         0.11989E-03         0.00000E+00
    0.00000E+00         0.00000E+00         0.00000E+00
    0.31054E-01        -0.40694E-03         0.00000E+00
    0.31027E-01        -0.31350E-03         0.00000E+00
    0.30972E-01        -0.22031E-03         0.00000E+00
    0.30889E-01        -0.12759E-03         0.00000E+00
    0.30779E-01        -0.35550E-04         0.00000E+00
    0.30641E-01         0.55584E-04         0.00000E+00
    0.30475E-01         0.14560E-03         0.00000E+00
    0.30282E-01         0.23427E-03         0.00000E+00
    0.30062E-01         0.32138E-03         0.00000E+00
    0.29814E-01         0.40672E-03         0.00000E+00
    0.29539E-01         0.49007E-03         0.00000E+00
    0.29238E-01         0.57122E-03         0.00000E+00
    0.28909E-01         0.64994E-03         0.00000E+00
    0.28555E-01         0.72603E-03         0.00000E+00
    0.28173E-01         0.79928E-03         0.00000E+00
    0.27766E-01         0.86948E-03         0.00000E+00
    0.27333E-01         0.93642E-03         0.00000E+00
    0.26874E-01         0.99989E-03         0.00000E+00
    0.26390E-01         0.10597E-02         0.00000E+00
    0.25881E-01         0.11156E-02         0.00000E+00
    0.25347E-01         0.11675E-02         0.00000E+00
    0.24789E-01         0.12151E-02         0.00000E+00
    0.24207E-01         0.12583E-02         0.00000E+00
    0.23601E-01         0.12968E-02         0.00000E+00
    0.22972E-01         0.13304E-02         0.00000E+00
    0.22320E-01         0.13591E-02         0.00000E+00
    0.21645E-01         0.13826E-02         0.00000E+00
    0.20948E-01         0.14007E-02         0.00000E+00
    0.20230E-01         0.14133E-02         0.00000E+00
    0.19491E-01         0.14201E-02         0.00000E+00
    0.18730E-01         0.14211E-02         0.00000E+00
    0.17950E-01         0.14161E-02         0.00000E+00
    0.17149E-01         0.14049E-02         0.00000E+00
    0.16330E-01         0.13873E-02         0.00000E+00
    0.15492E-01         0.13633E-02         0.00000E+00
    0.14635E-01         0.13326E-02         0.00000E+00
    0.13761E-01         0.12952E-02         0.00000E+00
    0.12870E-01         0.12510E-02         0.00000E+00
    0.11962E-01         0.11997E-02         0.00000E+00
    0.11038E-01         0.11413E-02         0.00000E+00
    0.10099E-01         0.10756E-02         0.00000E+00
    0.91447E-02         0.10026E-02         0.00000E+00
    0.81766E-02         0.92213E-03         0.00000E+00
    0.71950E-02         0.83412E-03         0.00000E+00
    0.62005E-02         0.73848E-03         0.00000E+00
    0.51938E-02         0.63512E-03         0.00000E+00
    0.41755E-02         0.52396E-03         0.00000E+00
    0.31463E-02         0.40493E-03         0.00000E+00
    0.21069E-02         0.27796E-03         0.00000E+00
    0.10579E-02         0.14300E-03         0.00000E+00
    0.00000E+00         0.00000E+00         0.00000E+00
    0.33082E-01        -0.47528E-03         0.00000E+00
    0.33053E-01        -0.36593E-03         0.00000E+00
    0.32995E-01        -0.25686E-03         0.00000E+00
    0.32907E-01        -0.14834E-03         0.00000E+00
    0.32790E-01        -0.40608E-04         0.00000E+00
    0.32643E-01         0.66070E-04         0.00000E+00
    0.32467E-01         0.17144E-03         0.00000E+00
    0.32262E-01         0.27525E-03         0.00000E+00
    0.32028E-01         0.37724E-03         0.00000E+00
    0.31764E-01         0.47716E-03         0.00000E+00
    0.31472E-01         0.57475E-03         0.00000E+00
    0.31151E-01         0.66977E-03         0.00000E+00
    0.30802E-01         0.76195E-03         0.00000E+00
    0.30425E-01         0.85106E-03         0.00000E+00
    0.30019E-01         0.93685E-03         0.00000E+00
    0.29585E-01         0.10191E-02         0.00000E+00
    0.29124E-01         0.10975E-02         0.00000E+00
    0.28636E-01         0.11718E-02         0.00000E+00
    0.28121E-01         0.12419E-02         0.00000E+00
    0.27579E-01         0.13074E-02         0.00000E+00
    0.27011E-01         0.13682E-02         0.00000E+00
    0.26416E-01         0.14239E-02         0.00000E+00
    0.25796E-01         0.14745E-02         0.00000E+00
    0.25151E-01         0.15196E-02         0.00000E+00
    0.24481E-01         0.15591E-02         0.00000E+00
    0.23787E-01         0.15927E-02         0.00000E+00
    0.23068E-01         0.16202E-02         0.00000E+00
    0.22326E-01         0.16414E-02         0.00000E+00
    0.21561E-01         0.16562E-02         0.00000E+00
    0.20773E-01         0.16642E-02         0.00000E+00
    0.19963E-01         0.16654E-02         0.00000E+00
    0.19132E-01         0.16595E-02         0.00000E+00
    0.18279E-01         0.16464E-02         0.00000E+00
    0.17406E-01         0.16258E-02         0.00000E+00
    0.16513E-01         0.15977E-02         0.00000E+00
    0.15600E-01         0.15618E-02         0.00000E+00
    0.14668E-01         0.15180E-02         0.00000E+00
    0.13718E-01         0.14661E-02         0.00000E+00
    0.12751E-01         0.14060E-02         0.00000E+00
    0.11766E-01         0.13376E-02         0.00000E+00
    0.10765E-01         0.12606E-02         0.00000E+00
    0.97485E-02         0.11751E-02         0.00000E+00
    0.87166E-02         0.10808E-02         0.00000E+00
    0.76703E-02         0.97766E-03         0.00000E+00
    0.66102E-02         0.86557E-03         0.00000E+00
    0.55371E-02         0.74443E-03         0.00000E+00
    0.44515E-02         0.61414E-03         0.00000E+00
    0.33543E-02         0.47463E-03         0.00000E+00
    0.22462E-02         0.32581E-03         0.00000E+00
    0.11278E-02         0.16762E-03         0.00000E+00
    0.00000E+00         0.00000E+00         0.00000E+00
    0.35438E-01        -0.54659E-03         0.00000E+00
    0.35408E-01        -0.42026E-03         0.00000E+00
    0.35346E-01        -0.29426E-03         0.00000E+00
    0.35253E-01        -0.16886E-03         0.00000E+00
    0.35128E-01        -0.44384E-04         0.00000E+00
    0.34971E-01         0.78887E-04         0.00000E+00
    0.34783E-01         0.20065E-03         0.00000E+00
    0.34564E-01         0.32062E-03         0.00000E+00
    0.34314E-01         0.43850E-03         0.00000E+00
    0.34032E-01         0.55398E-03         0.00000E+00
    0.33720E-01         0.66679E-03         0.00000E+00
    0.33377E-01         0.77662E-03         0.00000E+00
    0.33003E-01         0.88318E-03         0.00000E+00
    0.32599E-01         0.98620E-03         0.00000E+00
    0.32165E-01         0.10854E-02         0.00000E+00
    0.31702E-01         0.11804E-02         0.00000E+00
    0.31208E-01         0.12711E-02         0.00000E+00
    0.30686E-01         0.13570E-02         0.00000E+00
    0.30134E-01         0.14380E-02         0.00000E+00
    0.29554E-01         0.15138E-02         0.00000E+00
    0.28946E-01         0.15841E-02         0.00000E+00
    0.28310E-01         0.16486E-02         0.00000E+00
    0.27646E-01         0.17070E-02         0.00000E+00
    0.26955E-01         0.17592E-02         0.00000E+00
    0.26238E-01         0.18048E-02         0.00000E+00
    0.25494E-01         0.18437E-02         0.00000E+00
    0.24724E-01         0.18755E-02         0.00000E+00
    0.23930E-01         0.19000E-02         0.00000E+00
    0.23110E-01         0.19171E-02         0.00000E+00
    0.22266E-01         0.19264E-02         0.00000E+00
    0.21398E-01         0.19277E-02         0.00000E+00
    0.20507E-01         0.19209E-02         0.00000E+00
    0.19594E-01         0.19057E-02         0.00000E+00
    0.18658E-01         0.18819E-02         0.00000E+00
    0.17701E-01         0.18493E-02         0.00000E+00
    0.16723E-01         0.18077E-02         0.00000E+00
    0.15725E-01         0.17570E-02         0.00000E+00
    0.14707E-01         0.16970E-02         0.00000E+00
    0.13670E-01         0.16274E-02         0.00000E+00
    0.12614E-01         0.15482E-02         0.00000E+00
    0.11541E-01         0.14591E-02         0.00000E+00
    0.10452E-01         0.13601E-02         0.00000E+00
    0.93454E-02         0.12510E-02         0.00000E+00
    0.82237E-02         0.11316E-02         0.00000E+00
    0.70873E-02         0.10019E-02         0.00000E+00
    0.59368E-02         0.86168E-03         0.00000E+00
    0.47729E-02         0.71088E-03         0.00000E+00
    0.35966E-02         0.54940E-03         0.00000E+00
    0.24084E-02         0.37714E-03         0.00000E+00
    0.12093E-02         0.19403E-03         0.00000E+00
    0.00000E+00         0.00000E+00         0.00000E+00
    0.38147E-01        -0.62056E-03         0.00000E+00
    0.38115E-01        -0.47602E-03         0.00000E+00
    0.38049E-01        -0.33184E-03         0.00000E+00
    0.37949E-01        -0.18836E-03         0.00000E+00
    0.37815E-01        -0.45907E-04         0.00000E+00
    0.37647E-01         0.95170E-04         0.00000E+00
    0.37446E-01         0.23453E-03         0.00000E+00
    0.37211E-01         0.37185E-03         0.00000E+00
    0.36942E-01         0.50677E-03         0.00000E+00
    0.36640E-01         0.63897E-03         0.00000E+00
    0.36304E-01         0.76810E-03         0.00000E+00
    0.35936E-01         0.89383E-03         0.00000E+00
    0.35535E-01         0.10158E-02         0.00000E+00
    0.35101E-01         0.11338E-02         0.00000E+00
    0.34634E-01         0.12473E-02         0.00000E+00
    0.34136E-01         0.13561E-02         0.00000E+00
    0.33606E-01         0.14599E-02         0.00000E+00
    0.33044E-01         0.15583E-02         0.00000E+00
    0.32451E-01         0.16511E-02         0.00000E+00
    0.31827E-01         0.17378E-02         0.00000E+00
    0.31173E-01         0.18183E-02         0.00000E+00
    0.30488E-01         0.18921E-02         0.00000E+00
    0.29774E-01         0.19590E-02         0.00000E+00
    0.29031E-01         0.20187E-02         0.00000E+00
    0.28259E-01         0.20710E-02         0.00000E+00
    0.27458E-01         0.21154E-02         0.00000E+00
    0.26630E-01         0.21518E-02         0.00000E+00
    0.25775E-01         0.21798E-02         0.00000E+00
    0.24893E-01         0.21993E-02         0.00000E+00
    0.23984E-01         0.22099E-02         0.00000E+00
    0.23050E-01         0.22114E-02         0.00000E+00
    0.22091E-01         0.22035E-02         0.00000E+00
    0.21107E-01         0.21859E-02         0.00000E+00
    0.20100E-01         0.21586E-02         0.00000E+00
    0.19069E-01         0.21212E-02         0.00000E+00
    0.18016E-01         0.20735E-02         0.00000E+00
    0.16941E-01         0.20153E-02         0.00000E+00
    0.15844E-01         0.19464E-02         0.00000E+00
    0.14728E-01         0.18666E-02         0.00000E+00
    0.13591E-01         0.17757E-02         0.00000E+00
    0.12435E-01         0.16735E-02         0.00000E+00
    0.11261E-01         0.15599E-02         0.00000E+00
    0.10070E-01         0.14348E-02         0.00000E+00
    0.88611E-02         0.12979E-02         0.00000E+00
    0.76367E-02         0.11491E-02         0.00000E+00
    0.63972E-02         0.98825E-03         0.00000E+00
    0.51432E-02         0.81529E-03         0.00000E+00
    0.38756E-02         0.63009E-03         0.00000E+00
    0.25954E-02         0.43253E-03         0.00000E+00
    0.13032E-02         0.22253E-03         0.00000E+00
    0.00000E+00         0.00000E+00         0.00000E+00
    0.41233E-01        -0.69648E-03         0.00000E+00
    0.41199E-01        -0.53233E-03         0.00000E+00
    0.41129E-01        -0.36857E-03         0.00000E+00
    0.41022E-01        -0.20559E-03         0.00000E+00
    0.40878E-01        -0.43770E-04         0.00000E+00
    0.40698E-01         0.11650E-03         0.00000E+00
    0.40482E-01         0.27484E-03         0.00000E+00
    0.40228E-01         0.43085E-03         0.00000E+00
    0.39939E-01         0.58416E-03         0.00000E+00
    0.39614E-01         0.73437E-03         0.00000E+00
    0.39252E-01         0.88111E-03         0.00000E+00
    0.38855E-01         0.10240E-02         0.00000E+00
    0.38422E-01         0.11626E-02         0.00000E+00
    0.37954E-01         0.12966E-02         0.00000E+00
    0.37451E-01         0.14257E-02         0.00000E+00
    0.36913E-01         0.15493E-02         0.00000E+00
    0.36340E-01         0.16673E-02         0.00000E+00
    0.35734E-01         0.17791E-02         0.00000E+00
    0.35094E-01         0.18845E-02         0.00000E+00
    0.34420E-01         0.19830E-02         0.00000E+00
    0.33713E-01         0.20744E-02         0.00000E+00
    0.32974E-01         0.21583E-02         0.00000E+00
    0.32203E-01         0.22343E-02         0.00000E+00
    0.31400E-01         0.23021E-02         0.00000E+00
    0.30566E-01         0.23613E-02         0.00000E+00
    0.29701E-01         0.24118E-02         0.00000E+00
    0.28806E-01         0.24530E-02         0.00000E+00
    0.27881E-01         0.24848E-02         0.00000E+00
    0.26928E-01         0.25068E-02         0.00000E+00
    0.25946E-01         0.25186E-02         0.00000E+00
    0.24936E-01         0.25202E-02         0.00000E+00
    0.23899E-01         0.25110E-02         0.00000E+00
    0.22835E-01         0.24909E-02         0.00000E+00
    0.21746E-01         0.24596E-02         0.00000E+00
    0.20631E-01         0.24169E-02         0.00000E+00
    0.19492E-01         0.23624E-02         0.00000E+00
    0.18329E-01         0.22960E-02         0.00000E+00
    0.17144E-01         0.22174E-02         0.00000E+00
    0.15936E-01         0.21264E-02         0.00000E+00
    0.14706E-01         0.20228E-02         0.00000E+00
    0.13456E-01         0.19064E-02         0.00000E+00
    0.12186E-01         0.17770E-02         0.00000E+00
    0.10897E-01         0.16344E-02         0.00000E+00
    0.95891E-02         0.14784E-02         0.00000E+00
    0.82643E-02         0.13089E-02         0.00000E+00
    0.69230E-02         0.11257E-02         0.00000E+00
    0.55661E-02         0.92864E-03         0.00000E+00
    0.41944E-02         0.71768E-03         0.00000E+00
    0.28089E-02         0.49266E-03         0.00000E+00
    0.14104E-02         0.25346E-03         0.00000E+00
    0.00000E+00         0.00000E+00         0.00000E+00
    0.44727E-01        -0.77318E-03         0.00000E+00
    0.44692E-01        -0.58781E-03         0.00000E+00
    0.44617E-01        -0.40287E-03         0.00000E+00
    0.44503E-01        -0.21878E-03         0.00000E+00
    0.44348E-01        -0.35998E-04         0.00000E+00
    0.44154E-01         0.14505E-03         0.00000E+00
    0.43920E-01         0.32392E-03         0.00000E+00
    0.43647E-01         0.50018E-03         0.00000E+00
    0.43335E-01         0.67338E-03         0.00000E+00
    0.42983E-01         0.84309E-03         0.00000E+00
    0.42592E-01         0.10089E-02         0.00000E+00
    0.42163E-01         0.11703E-02         0.00000E+00
    0.41694E-01         0.13269E-02         0.00000E+00
    0.41188E-01         0.14784E-02         0.00000E+00
    0.40643E-01         0.16241E-02         0.00000E+00
    0.40060E-01         0.17638E-02         0.00000E+00
    0.39441E-01         0.18971E-02         0.00000E+00
    0.38784E-01         0.20234E-02         0.00000E+00
    0.38090E-01         0.21424E-02         0.00000E+00
    0.37360E-01         0.22536E-02         0.00000E+00
    0.36594E-01         0.23568E-02         0.00000E+00
    0.35793E-01         0.24515E-02         0.00000E+00
    0.34957E-01         0.25372E-02         0.00000E+00
    0.34086E-01         0.26137E-02         0.00000E+00
    0.33181E-01         0.26805E-02         0.00000E+00
    0.32244E-01         0.27373E-02         0.00000E+00
    0.31273E-01         0.27837E-02         0.00000E+00
    0.30270E-01         0.28194E-02         0.00000E+00
    0.29236E-01         0.28439E-02         0.00000E+00
    0.28170E-01         0.28571E-02         0.00000E+00
    0.27075E-01         0.28585E-02         0.00000E+00
    0.25949E-01         0.28479E-02         0.00000E+00
    0.24795E-01         0.28248E-02         0.00000E+00
    0.23613E-01         0.27891E-02         0.00000E+00
    0.22403E-01         0.27404E-02         0.00000E+00
    0.21167E-01         0.26785E-02         0.00000E+00
    0.19905E-01         0.26030E-02         0.00000E+00
    0.18618E-01         0.25138E-02         0.00000E+00
    0.17306E-01         0.24105E-02         0.00000E+00
    0.15971E-01         0.22929E-02         0.00000E+00
    0.14614E-01         0.21608E-02         0.00000E+00
    0.13235E-01         0.20140E-02         0.00000E+00
    0.11835E-01         0.18523E-02         0.00000E+00
    0.10415E-01         0.16754E-02         0.00000E+00
    0.89766E-02         0.14833E-02         0.00000E+00
    0.75199E-02         0.12756E-02         0.00000E+00
    0.60461E-02         0.10523E-02         0.00000E+00
    0.45563E-02         0.81324E-03         0.00000E+00
    0.30513E-02         0.55824E-03         0.00000E+00
    0.15322E-02         0.28720E-03         0.00000E+00
    0.00000E+00         0.00000E+00         0.00000E+00
    0.48664E-01        -0.84880E-03         0.00000E+00
    0.48627E-01        -0.64039E-03         0.00000E+00
    0.48548E-01        -0.43245E-03         0.00000E+00
    0.48425E-01        -0.22545E-03         0.00000E+00
    0.48259E-01        -0.19891E-04         0.00000E+00
    0.48049E-01         0.18372E-03         0.00000E+00
    0.47797E-01         0.38490E-03         0.00000E+00
    0.47501E-01         0.58315E-03         0.00000E+00
    0.47163E-01         0.77796E-03         0.00000E+00
    0.46782E-01         0.96885E-03         0.00000E+00
    0.46358E-01         0.11553E-02         0.00000E+00
    0.45892E-01         0.13369E-02         0.00000E+00
    0.45384E-01         0.15131E-02         0.00000E+00
    0.44835E-01         0.16833E-02         0.00000E+00
    0.44243E-01         0.18473E-02         0.00000E+00
    0.43611E-01         0.20043E-02         0.00000E+00
    0.42937E-01         0.21541E-02         0.00000E+00
    0.42224E-01         0.22961E-02         0.00000E+00
    0.41470E-01         0.24298E-02         0.00000E+00
    0.40677E-01         0.25548E-02         0.00000E+00
    0.39844E-01         0.26707E-02         0.00000E+00
    0.38973E-01         0.27770E-02         0.00000E+00
    0.38064E-01         0.28732E-02         0.00000E+00
    0.37117E-01         0.29589E-02         0.00000E+00
    0.36133E-01         0.30338E-02         0.00000E+00
    0.35113E-01         0.30973E-02         0.00000E+00
    0.34057E-01         0.31492E-02         0.00000E+00
    0.32966E-01         0.31889E-02         0.00000E+00
    0.31840E-01         0.32161E-02         0.00000E+00
    0.30681E-01         0.32305E-02         0.00000E+00
    0.29488E-01         0.32316E-02         0.00000E+00
    0.28264E-01         0.32191E-02         0.00000E+00
    0.27008E-01         0.31926E-02         0.00000E+00
    0.25721E-01         0.31519E-02         0.00000E+00
    0.24404E-01         0.30965E-02         0.00000E+00
    0.23058E-01         0.30262E-02         0.00000E+00
    0.21683E-01         0.29406E-02         0.00000E+00
    0.20282E-01         0.28395E-02         0.00000E+00
    0.18854E-01         0.27226E-02         0.00000E+00
    0.17400E-01         0.25896E-02         0.00000E+00
    0.15922E-01         0.24402E-02         0.00000E+00
    0.14419E-01         0.22743E-02         0.00000E+00
    0.12895E-01         0.20915E-02         0.00000E+00
    0.11348E-01         0.18917E-02         0.00000E+00
    0.97809E-02         0.16746E-02         0.00000E+00
    0.81939E-02         0.14401E-02         0.00000E+00
    0.65882E-02         0.11879E-02         0.00000E+00
    0.49649E-02         0.91798E-03         0.00000E+00
    0.33250E-02         0.63011E-03         0.00000E+00
    0.16697E-02         0.32416E-03         0.00000E+00
    0.00000E+00         0.00000E+00         0.00000E+00
    0.53081E-01        -0.92067E-03         0.00000E+00
    0.53044E-01        -0.68717E-03         0.00000E+00
    0.52959E-01        -0.45416E-03         0.00000E+00
    0.52828E-01        -0.22219E-03         0.00000E+00
    0.52649E-01         0.81755E-05         0.00000E+00
    0.52423E-01         0.23638E-03         0.00000E+00
    0.52150E-01         0.46187E-03         0.00000E+00
    0.51830E-01         0.68407E-03         0.00000E+00
    0.51463E-01         0.90243E-03         0.00000E+00
    0.51049E-01         0.11164E-02         0.00000E+00
    0.50589E-01         0.13254E-02         0.00000E+00
    0.50082E-01         0.15289E-02         0.00000E+00
    0.49530E-01         0.17263E-02         0.00000E+00
    0.48932E-01         0.19171E-02         0.00000E+00
    0.48288E-01         0.21007E-02         0.00000E+00
    0.47600E-01         0.22766E-02         0.00000E+00
    0.46867E-01         0.24443E-02         0.00000E+00
    0.46089E-01         0.26033E-02         0.00000E+00
    0.45268E-01         0.27529E-02         0.00000E+00
    0.44404E-01         0.28928E-02         0.00000E+00
    0.43496E-01         0.30223E-02         0.00000E+00
    0.42547E-01         0.31411E-02         0.00000E+00
    0.41555E-01         0.32485E-02         0.00000E+00
    0.40523E-01         0.33442E-02         0.00000E+00
    0.39450E-01         0.34276E-02         0.00000E+00
    0.38338E-01         0.34983E-02         0.00000E+00
    0.37186E-01         0.35558E-02         0.00000E+00
    0.35996E-01         0.35997E-02         0.00000E+00
    0.34768E-01         0.36296E-02         0.00000E+00
    0.33503E-01         0.36449E-02         0.00000E+00
    0.32202E-01         0.36454E-02         0.00000E+00
    0.30865E-01         0.36306E-02         0.00000E+00
    0.29494E-01         0.36001E-02         0.00000E+00
    0.28090E-01         0.35535E-02         0.00000E+00
    0.26652E-01         0.34905E-02         0.00000E+00
    0.25183E-01         0.34107E-02         0.00000E+00
    0.23683E-01         0.33137E-02         0.00000E+00
    0.22152E-01         0.31994E-02         0.00000E+00
    0.20593E-01         0.30672E-02         0.00000E+00
    0.19006E-01         0.29170E-02         0.00000E+00
    0.17392E-01         0.27485E-02         0.00000E+00
    0.15751E-01         0.25613E-02         0.00000E+00
    0.14086E-01         0.23552E-02         0.00000E+00
    0.12397E-01         0.21299E-02         0.00000E+00
    0.10685E-01         0.18853E-02         0.00000E+00
    0.89518E-02         0.16212E-02         0.00000E+00
    0.71978E-02         0.13372E-02         0.00000E+00
    0.54245E-02         0.10333E-02         0.00000E+00
    0.36329E-02         0.70918E-03         0.00000E+00
    0.18244E-02         0.36481E-03         0.00000E+00
    0.00000E+00         0.00000E+00         0.00000E+00
    0.58023E-01        -0.98509E-03         0.00000E+00
    0.57985E-01        -0.72419E-03         0.00000E+00
    0.57896E-01        -0.46379E-03         0.00000E+00
    0.57755E-01        -0.20453E-03         0.00000E+00
    0.57563E-01         0.52959E-04         0.00000E+00
    0.57318E-01         0.30805E-03         0.00000E+00
    0.57023E-01         0.56010E-03         0.00000E+00
    0.56675E-01         0.80847E-03         0.00000E+00
    0.56277E-01         0.10525E-02         0.00000E+00
    0.55827E-01         0.12917E-02         0.00000E+00
    0.55326E-01         0.15252E-02         0.00000E+00
    0.54775E-01         0.17526E-02         0.00000E+00
    0.54173E-01         0.19732E-02         0.00000E+00
    0.53521E-01         0.21863E-02         0.00000E+00
    0.52819E-01         0.23913E-02         0.00000E+00
    0.52068E-01         0.25878E-02         0.00000E+00
    0.51268E-01         0.27749E-02         0.00000E+00
    0.50420E-01         0.29522E-02         0.00000E+00
    0.49523E-01         0.31191E-02         0.00000E+00
    0.48579E-01         0.32750E-02         0.00000E+00
    0.47588E-01         0.34193E-02         0.00000E+00
    0.46551E-01         0.35514E-02         0.00000E+00
    0.45467E-01         0.36709E-02         0.00000E+00
    0.44339E-01         0.37771E-02         0.00000E+00
    0.43167E-01         0.38696E-02         0.00000E+00
    0.41951E-01         0.39477E-02         0.00000E+00
    0.40691E-01         0.40111E-02         0.00000E+00
    0.39390E-01         0.40592E-02         0.00000E+00
    0.38047E-01         0.40915E-02         0.00000E+00
    0.36664E-01         0.41076E-02         0.00000E+00
    0.35241E-01         0.41069E-02         0.00000E+00
    0.33780E-01         0.40891E-02         0.00000E+00
    0.32280E-01         0.40538E-02         0.00000E+00
    0.30744E-01         0.40004E-02         0.00000E+00
    0.29171E-01         0.39286E-02         0.00000E+00
    0.27564E-01         0.38379E-02         0.00000E+00
    0.25923E-01         0.37281E-02         0.00000E+00
    0.24248E-01         0.35988E-02         0.00000E+00
    0.22542E-01         0.34495E-02         0.00000E+00
    0.20805E-01         0.32800E-02         0.00000E+00
    0.19039E-01         0.30900E-02         0.00000E+00
    0.17244E-01         0.28791E-02         0.00000E+00
    0.15421E-01         0.26470E-02         0.00000E+00
    0.13572E-01         0.23936E-02         0.00000E+00
    0.11699E-01         0.21184E-02         0.00000E+00
    0.98012E-02         0.18214E-02         0.00000E+00
    0.78810E-02         0.15022E-02         0.00000E+00
    0.59396E-02         0.11606E-02         0.00000E+00
    0.39781E-02         0.79650E-03         0.00000E+00
    0.19978E-02         0.40969E-03         0.00000E+00
    0.00000E+00         0.00000E+00         0.00000E+00
    0.63538E-01        -0.10371E-02         0.00000E+00
    0.63501E-01        -0.74621E-03         0.00000E+00
    0.63408E-01        -0.45580E-03         0.00000E+00
    0.63257E-01        -0.16662E-03         0.00000E+00
    0.63050E-01         0.12060E-03         0.00000E+00
    0.62786E-01         0.40514E-03         0.00000E+00
    0.62466E-01         0.68630E-03         0.00000E+00
    0.62089E-01         0.96334E-03         0.00000E+00
    0.61655E-01         0.12356E-02         0.00000E+00
    0.61165E-01         0.15022E-02         0.00000E+00
    0.60620E-01         0.17627E-02         0.00000E+00
    0.60018E-01         0.20161E-02         0.00000E+00
    0.59361E-01         0.22619E-02         0.00000E+00
    0.58649E-01         0.24994E-02         0.00000E+00
    0.57883E-01         0.27278E-02         0.00000E+00
    0.57062E-01         0.29465E-02         0.00000E+00
    0.56187E-01         0.31548E-02         0.00000E+00
    0.55259E-01         0.33520E-02         0.00000E+00
    0.54278E-01         0.35375E-02         0.00000E+00
    0.53245E-01         0.37106E-02         0.00000E+00
    0.52161E-01         0.38707E-02         0.00000E+00
    0.51025E-01         0.40172E-02         0.00000E+00
    0.49839E-01         0.41494E-02         0.00000E+00
    0.48604E-01         0.42668E-02         0.00000E+00
    0.47320E-01         0.43687E-02         0.00000E+00
    0.45988E-01         0.44546E-02         0.00000E+00
    0.44609E-01         0.45239E-02         0.00000E+00
    0.43183E-01         0.45761E-02         0.00000E+00
    0.41712E-01         0.46106E-02         0.00000E+00
    0.40197E-01         0.46269E-02         0.00000E+00
    0.38638E-01         0.46245E-02         0.00000E+00
    0.37036E-01         0.46029E-02         0.00000E+00
    0.35393E-01         0.45616E-02         0.00000E+00
    0.33709E-01         0.45001E-02         0.00000E+00
    0.31986E-01         0.44180E-02         0.00000E+00
    0.30224E-01         0.43149E-02         0.00000E+00
    0.28425E-01         0.41904E-02         0.00000E+00
    0.26590E-01         0.40440E-02         0.00000E+00
    0.24720E-01         0.38754E-02         0.00000E+00
    0.22816E-01         0.36841E-02         0.00000E+00
    0.20879E-01         0.34699E-02         0.00000E+00
    0.18911E-01         0.32324E-02         0.00000E+00
    0.16913E-01         0.29713E-02         0.00000E+00
    0.14886E-01         0.26863E-02         0.00000E+00
    0.12831E-01         0.23771E-02         0.00000E+00
    0.10750E-01         0.20434E-02         0.00000E+00
    0.86445E-02         0.16850E-02         0.00000E+00
    0.65152E-02         0.13017E-02         0.00000E+00
    0.43637E-02         0.89321E-03         0.00000E+00
    0.21915E-02         0.45937E-03         0.00000E+00
    0.00000E+00         0.00000E+00         0.00000E+00
    0.69683E-01        -0.10704E-02         0.00000E+00
    0.69648E-01        -0.74649E-03         0.00000E+00
    0.69550E-01        -0.42308E-03         0.00000E+00
    0.69390E-01        -0.10103E-03         0.00000E+00
    0.69167E-01         0.21886E-03         0.00000E+00
    0.68882E-01         0.53578E-03         0.00000E+00
    0.68535E-01         0.84890E-03         0.00000E+00
    0.68125E-01         0.11574E-02         0.00000E+00
    0.67653E-01         0.14605E-02         0.00000E+00
    0.67119E-01         0.17574E-02         0.00000E+00
    0.66523E-01         0.20472E-02         0.00000E+00
    0.65866E-01         0.23292E-02         0.00000E+00
    0.65148E-01         0.26026E-02         0.00000E+00
    0.64369E-01         0.28666E-02         0.00000E+00
    0.63530E-01         0.31205E-02         0.00000E+00
    0.62631E-01         0.33634E-02         0.00000E+00
    0.61673E-01         0.35945E-02         0.00000E+00
    0.60657E-01         0.38133E-02         0.00000E+00
    0.59582E-01         0.40189E-02         0.00000E+00
    0.58449E-01         0.42105E-02         0.00000E+00
    0.57260E-01         0.43876E-02         0.00000E+00
    0.56015E-01         0.45493E-02         0.00000E+00
    0.54715E-01         0.46950E-02         0.00000E+00
    0.53360E-01         0.48241E-02         0.00000E+00
    0.51951E-01         0.49358E-02         0.00000E+00
    0.50490E-01         0.50296E-02         0.00000E+00
    0.48976E-01         0.51048E-02         0.00000E+00
    0.47412E-01         0.51608E-02         0.00000E+00
    0.45798E-01         0.51970E-02         0.00000E+00
    0.44135E-01         0.52128E-02         0.00000E+00
    0.42424E-01         0.52077E-02         0.00000E+00
    0.40666E-01         0.51811E-02         0.00000E+00
    0.38863E-01         0.51325E-02         0.00000E+00
    0.37014E-01         0.50614E-02         0.00000E+00
    0.35123E-01         0.49673E-02         0.00000E+00
    0.33189E-01         0.48497E-02         0.00000E+00
    0.31214E-01         0.47081E-02         0.00000E+00
    0.29200E-01         0.45422E-02         0.00000E+00
    0.27146E-01         0.43515E-02         0.00000E+00
    0.25056E-01         0.41355E-02         0.00000E+00
    0.22930E-01         0.38940E-02         0.00000E+00
    0.20769E-01         0.36266E-02         0.00000E+00
    0.18575E-01         0.33328E-02         0.00000E+00
    0.16349E-01         0.30124E-02         0.00000E+00
    0.14093E-01         0.26650E-02         0.00000E+00
    0.11808E-01         0.22904E-02         0.00000E+00
    0.94953E-02         0.18883E-02         0.00000E+00
    0.71567E-02         0.14585E-02         0.00000E+00
    0.47936E-02         0.10006E-02         0.00000E+00
    0.24075E-02         0.51450E-03         0.00000E+00
    0.00000E+00         0.00000E+00         0.00000E+00
    0.76521E-01        -0.10769E-02         0.00000E+00
    0.76489E-01        -0.71658E-03         0.00000E+00
    0.76388E-01        -0.35679E-03         0.00000E+00
    0.76218E-01         0.15091E-05         0.00000E+00
    0.75979E-01         0.35741E-03         0.00000E+00
    0.75670E-01         0.70998E-03         0.00000E+00
    0.75293E-01         0.10583E-02         0.00000E+00
    0.74847E-01         0.14014E-02         0.00000E+00
    0.74333E-01         0.17385E-02         0.00000E+00
    0.73750E-01         0.20685E-02         0.00000E+00
    0.73099E-01         0.23906E-02         0.00000E+00
    0.72380E-01         0.27039E-02         0.00000E+00
    0.71594E-01         0.30074E-02         0.00000E+00
    0.70740E-01         0.33004E-02         0.00000E+00
    0.69820E-01         0.35819E-02         0.00000E+00
    0.68835E-01         0.38511E-02         0.00000E+00
    0.67783E-01         0.41071E-02         0.00000E+00
    0.66667E-01         0.43491E-02         0.00000E+00
    0.65487E-01         0.45763E-02         0.00000E+00
    0.64244E-01         0.47878E-02         0.00000E+00
    0.62938E-01         0.49829E-02         0.00000E+00
    0.61570E-01         0.51608E-02         0.00000E+00
    0.60142E-01         0.53207E-02         0.00000E+00
    0.58653E-01         0.54619E-02         0.00000E+00
    0.57105E-01         0.55836E-02         0.00000E+00
    0.55500E-01         0.56853E-02         0.00000E+00
    0.53837E-01         0.57661E-02         0.00000E+00
    0.52118E-01         0.58253E-02         0.00000E+00
    0.50344E-01         0.58625E-02         0.00000E+00
    0.48516E-01         0.58768E-02         0.00000E+00
    0.46636E-01         0.58677E-02         0.00000E+00
    0.44704E-01         0.58347E-02         0.00000E+00
    0.42722E-01         0.57771E-02         0.00000E+00
    0.40690E-01         0.56943E-02         0.00000E+00
    0.38611E-01         0.55859E-02         0.00000E+00
    0.36486E-01         0.54513E-02         0.00000E+00
    0.34315E-01         0.52900E-02         0.00000E+00
    0.32101E-01         0.51016E-02         0.00000E+00
    0.29844E-01         0.48855E-02         0.00000E+00
    0.27547E-01         0.46414E-02         0.00000E+00
    0.25210E-01         0.43688E-02         0.00000E+00
    0.22834E-01         0.40674E-02         0.00000E+00
    0.20423E-01         0.37368E-02         0.00000E+00
    0.17976E-01         0.33765E-02         0.00000E+00
    0.15496E-01         0.29863E-02         0.00000E+00
    0.12984E-01         0.25658E-02         0.00000E+00
    0.10441E-01         0.21148E-02         0.00000E+00
    0.78698E-02         0.16330E-02         0.00000E+00
    0.52714E-02         0.11201E-02         0.00000E+00
    0.26476E-02         0.57581E-03         0.00000E+00
    0.00000E+00         0.00000E+00         0.00000E+00
    0.84124E-01        -0.10467E-02         0.00000E+00
    0.84097E-01        -0.64611E-03         0.00000E+00
    0.83993E-01        -0.24611E-03         0.00000E+00
    0.83813E-01         0.15227E-03         0.00000E+00
    0.83556E-01         0.54796E-03         0.00000E+00
    0.83223E-01         0.93991E-03         0.00000E+00
    0.82813E-01         0.13271E-02         0.00000E+00
    0.82328E-01         0.17084E-02         0.00000E+00
    0.81766E-01         0.20828E-02         0.00000E+00
    0.81129E-01         0.24493E-02         0.00000E+00
    0.80416E-01         0.28068E-02         0.00000E+00
    0.79628E-01         0.31544E-02         0.00000E+00
    0.78765E-01         0.34910E-02         0.00000E+00
    0.77829E-01         0.38156E-02         0.00000E+00
    0.76818E-01         0.41272E-02         0.00000E+00
    0.75735E-01         0.44249E-02         0.00000E+00
    0.74580E-01         0.47078E-02         0.00000E+00
    0.73353E-01         0.49748E-02         0.00000E+00
    0.72055E-01         0.52251E-02         0.00000E+00
    0.70688E-01         0.54578E-02         0.00000E+00
    0.69251E-01         0.56720E-02         0.00000E+00
    0.67746E-01         0.58669E-02         0.00000E+00
    0.66175E-01         0.60415E-02         0.00000E+00
    0.64537E-01         0.61951E-02         0.00000E+00
    0.62833E-01         0.63269E-02         0.00000E+00
    0.61066E-01         0.64361E-02         0.00000E+00
    0.59236E-01         0.65220E-02         0.00000E+00
    0.57345E-01         0.65838E-02         0.00000E+00
    0.55393E-01         0.66207E-02         0.00000E+00
    0.53381E-01         0.66322E-02         0.00000E+00
    0.51312E-01         0.66176E-02         0.00000E+00
    0.49186E-01         0.65761E-02         0.00000E+00
    0.47005E-01         0.65072E-02         0.00000E+00
    0.44770E-01         0.64103E-02         0.00000E+00
    0.42482E-01         0.62848E-02         0.00000E+00
    0.40144E-01         0.61302E-02         0.00000E+00
    0.37756E-01         0.59458E-02         0.00000E+00
    0.35320E-01         0.57313E-02         0.00000E+00
    0.32837E-01         0.54861E-02         0.00000E+00
    0.30309E-01         0.52097E-02         0.00000E+00
    0.27738E-01         0.49017E-02         0.00000E+00
    0.25125E-01         0.45617E-02         0.00000E+00
    0.22471E-01         0.41892E-02         0.00000E+00
    0.19780E-01         0.37839E-02         0.00000E+00
    0.17051E-01         0.33454E-02         0.00000E+00
    0.14287E-01         0.28734E-02         0.00000E+00
    0.11490E-01         0.23676E-02         0.00000E+00
    0.86603E-02         0.18276E-02         0.00000E+00
    0.58012E-02         0.12532E-02         0.00000E+00
    0.29138E-02         0.64406E-03         0.00000E+00
    0.00000E+00         0.00000E+00         0.00000E+00
    0.92574E-01        -0.96801E-03         0.00000E+00
    0.92553E-01        -0.52279E-03         0.00000E+00
    0.92448E-01        -0.78156E-04         0.00000E+00
    0.92257E-01         0.36467E-03         0.00000E+00
    0.91982E-01         0.80447E-03         0.00000E+00
    0.91622E-01         0.12400E-02         0.00000E+00
    0.91176E-01         0.16702E-02         0.00000E+00
    0.90647E-01         0.20937E-02         0.00000E+00
    0.90032E-01         0.25093E-02         0.00000E+00
    0.89334E-01         0.29160E-02         0.00000E+00
    0.88552E-01         0.33125E-02         0.00000E+00
    0.87687E-01         0.36976E-02         0.00000E+00
    0.86739E-01         0.40703E-02         0.00000E+00
    0.85709E-01         0.44295E-02         0.00000E+00
    0.84597E-01         0.47739E-02         0.00000E+00
    0.83405E-01         0.51026E-02         0.00000E+00
    0.82132E-01         0.54144E-02         0.00000E+00
    0.80781E-01         0.57083E-02         0.00000E+00
    0.79352E-01         0.59834E-02         0.00000E+00
    0.77845E-01         0.62386E-02         0.00000E+00
    0.76262E-01         0.64729E-02         0.00000E+00
    0.74604E-01         0.66854E-02         0.00000E+00
    0.72871E-01         0.68751E-02         0.00000E+00
    0.71066E-01         0.70412E-02         0.00000E+00
    0.69189E-01         0.71828E-02         0.00000E+00
    0.67242E-01         0.72990E-02         0.00000E+00
    0.65225E-01         0.73890E-02         0.00000E+00
    0.63141E-01         0.74521E-02         0.00000E+00
    0.60990E-01         0.74874E-02         0.00000E+00
    0.58774E-01         0.74942E-02         0.00000E+00
    0.56494E-01         0.74718E-02         0.00000E+00
    0.54153E-01         0.74194E-02         0.00000E+00
    0.51750E-01         0.73365E-02         0.00000E+00
    0.49288E-01         0.72224E-02         0.00000E+00
    0.46769E-01         0.70764E-02         0.00000E+00
    0.44194E-01         0.68980E-02         0.00000E+00
    0.41564E-01         0.66866E-02         0.00000E+00
    0.38882E-01         0.64417E-02         0.00000E+00
    0.36148E-01         0.61627E-02         0.00000E+00
    0.33365E-01         0.58492E-02         0.00000E+00
    0.30535E-01         0.55006E-02         0.00000E+00
    0.27658E-01         0.51165E-02         0.00000E+00
    0.24738E-01         0.46966E-02         0.00000E+00
    0.21774E-01         0.42403E-02         0.00000E+00
    0.18771E-01         0.37473E-02         0.00000E+00
    0.15728E-01         0.32173E-02         0.00000E+00
    0.12649E-01         0.26499E-02         0.00000E+00
    0.95345E-02         0.20447E-02         0.00000E+00
    0.63869E-02         0.14016E-02         0.00000E+00
    0.32081E-02         0.72006E-03         0.00000E+00
    0.00000E+00         0.00000E+00         0.00000E+00
    0.10197E+00        -0.82737E-03         0.00000E+00
    0.10195E+00        -0.33242E-03         0.00000E+00
    0.10185E+00         0.16189E-03         0.00000E+00
    0.10165E+00         0.65417E-03         0.00000E+00
    0.10135E+00         0.11430E-02         0.00000E+00
    0.10096E+00         0.16270E-02         0.00000E+00
    0.10048E+00         0.21048E-02         0.00000E+00
    0.99896E-01         0.25750E-02         0.00000E+00
    0.99223E-01         0.30363E-02         0.00000E+00
    0.98456E-01         0.34873E-02         0.00000E+00
    0.97596E-01         0.39267E-02         0.00000E+00
    0.96644E-01         0.43532E-02         0.00000E+00
    0.95599E-01         0.47654E-02         0.00000E+00
    0.94464E-01         0.51622E-02         0.00000E+00
    0.93238E-01         0.55423E-02         0.00000E+00
    0.91923E-01         0.59044E-02         0.00000E+00
    0.90519E-01         0.62475E-02         0.00000E+00
    0.89027E-01         0.65703E-02         0.00000E+00
    0.87449E-01         0.68716E-02         0.00000E+00
    0.85786E-01         0.71505E-02         0.00000E+00
    0.84039E-01         0.74058E-02         0.00000E+00
    0.82208E-01         0.76364E-02         0.00000E+00
    0.80296E-01         0.78414E-02         0.00000E+00
    0.78303E-01         0.80198E-02         0.00000E+00
    0.76232E-01         0.81706E-02         0.00000E+00
    0.74083E-01         0.82928E-02         0.00000E+00
    0.71858E-01         0.83857E-02         0.00000E+00
    0.69558E-01         0.84484E-02         0.00000E+00
    0.67185E-01         0.84800E-02         0.00000E+00
    0.64741E-01         0.84796E-02         0.00000E+00
    0.62227E-01         0.84467E-02         0.00000E+00
    0.59645E-01         0.83804E-02         0.00000E+00
    0.56996E-01         0.82800E-02         0.00000E+00
    0.54282E-01         0.81448E-02         0.00000E+00
    0.51506E-01         0.79742E-02         0.00000E+00
    0.48668E-01         0.77676E-02         0.00000E+00
    0.45770E-01         0.75244E-02         0.00000E+00
    0.42815E-01         0.72440E-02         0.00000E+00
    0.39804E-01         0.69258E-02         0.00000E+00
    0.36739E-01         0.65694E-02         0.00000E+00
    0.33621E-01         0.61742E-02         0.00000E+00
    0.30453E-01         0.57399E-02         0.00000E+00
    0.27237E-01         0.52659E-02         0.00000E+00
    0.23975E-01         0.47518E-02         0.00000E+00
    0.20667E-01         0.41972E-02         0.00000E+00
    0.17318E-01         0.36018E-02         0.00000E+00
    0.13927E-01         0.29651E-02         0.00000E+00
    0.10498E-01         0.22870E-02         0.00000E+00
    0.70327E-02         0.15669E-02         0.00000E+00
    0.35326E-02         0.80468E-03         0.00000E+00
    0.00000E+00         0.00000E+00         0.00000E+00
    0.11241E+00        -0.60990E-03         0.00000E+00
    0.11241E+00        -0.59359E-04         0.00000E+00
    0.11230E+00         0.49047E-03         0.00000E+00
    0.11209E+00         0.10380E-02         0.00000E+00
    0.11177E+00         0.15815E-02         0.00000E+00
    0.11135E+00         0.21195E-02         0.00000E+00
    0.11082E+00         0.26503E-02         0.00000E+00
    0.11018E+00         0.31724E-02         0.00000E+00
    0.10944E+00         0.36842E-02         0.00000E+00
    0.10860E+00         0.41842E-02         0.00000E+00
    0.10765E+00         0.46709E-02         0.00000E+00
    0.10660E+00         0.51427E-02         0.00000E+00
    0.10544E+00         0.55983E-02         0.00000E+00
    0.10419E+00         0.60362E-02         0.00000E+00
    0.10283E+00         0.64550E-02         0.00000E+00
    0.10138E+00         0.68534E-02         0.00000E+00
    0.99825E-01         0.72300E-02         0.00000E+00
    0.98175E-01         0.75835E-02         0.00000E+00
    0.96429E-01         0.79127E-02         0.00000E+00
    0.94589E-01         0.82164E-02         0.00000E+00
    0.92656E-01         0.84933E-02         0.00000E+00
    0.90632E-01         0.87424E-02         0.00000E+00
    0.88517E-01         0.89625E-02         0.00000E+00
    0.86314E-01         0.91525E-02         0.00000E+00
    0.84024E-01         0.93115E-02         0.00000E+00
    0.81649E-01         0.94385E-02         0.00000E+00
    0.79191E-01         0.95324E-02         0.00000E+00
    0.76650E-01         0.95924E-02         0.00000E+00
    0.74030E-01         0.96175E-02         0.00000E+00
    0.71331E-01         0.96071E-02         0.00000E+00
    0.68555E-01         0.95601E-02         0.00000E+00
    0.65706E-01         0.94760E-02         0.00000E+00
    0.62783E-01         0.93538E-02         0.00000E+00
    0.59790E-01         0.91930E-02         0.00000E+00
    0.56727E-01         0.89928E-02         0.00000E+00
    0.53598E-01         0.87527E-02         0.00000E+00
    0.50404E-01         0.84719E-02         0.00000E+00
    0.47147E-01         0.81500E-02         0.00000E+00
    0.43828E-01         0.77863E-02         0.00000E+00
    0.40451E-01         0.73804E-02         0.00000E+00
    0.37017E-01         0.69317E-02         0.00000E+00
    0.33528E-01         0.64398E-02         0.00000E+00
    0.29986E-01         0.59042E-02         0.00000E+00
    0.26394E-01         0.53245E-02         0.00000E+00
    0.22752E-01         0.47003E-02         0.00000E+00
    0.19064E-01         0.40312E-02         0.00000E+00
    0.15332E-01         0.33169E-02         0.00000E+00
    0.11557E-01         0.25569E-02         0.00000E+00
    0.77421E-02         0.17509E-02         0.00000E+00
    0.38890E-02         0.89875E-03         0.00000E+00
    0.00000E+00         0.00000E+00         0.00000E+00
    0.12403E+00        -0.30024E-03         0.00000E+00
    0.12404E+00         0.31273E-03         0.00000E+00
    0.12394E+00         0.92485E-03         0.00000E+00
    0.12371E+00         0.15342E-02         0.00000E+00
    0.12337E+00         0.21390E-02         0.00000E+00
    0.12290E+00         0.27373E-02         0.00000E+00
    0.12232E+00         0.33273E-02         0.00000E+00
    0.12162E+00         0.39071E-02         0.00000E+00
    0.12080E+00         0.44751E-02         0.00000E+00
    0.11987E+00         0.50293E-02         0.00000E+00
    0.11882E+00         0.55682E-02         0.00000E+00
    0.11766E+00         0.60900E-02         0.00000E+00
    0.11638E+00         0.65930E-02         0.00000E+00
    0.11498E+00         0.70758E-02         0.00000E+00
    0.11348E+00         0.75366E-02         0.00000E+00
    0.11187E+00         0.79741E-02         0.00000E+00
    0.11015E+00         0.83866E-02         0.00000E+00
    0.10832E+00         0.87728E-02         0.00000E+00
    0.10638E+00         0.91313E-02         0.00000E+00
    0.10434E+00         0.94607E-02         0.00000E+00
    0.10220E+00         0.97598E-02         0.00000E+00
    0.99953E-01         0.10027E-01         0.00000E+00
    0.97610E-01         0.10262E-01         0.00000E+00
    0.95170E-01         0.10463E-01         0.00000E+00
    0.92635E-01         0.10629E-01         0.00000E+00
    0.90005E-01         0.10758E-01         0.00000E+00
    0.87285E-01         0.10851E-01         0.00000E+00
    0.84475E-01         0.10905E-01         0.00000E+00
    0.81577E-01         0.10920E-01         0.00000E+00
    0.78594E-01         0.10896E-01         0.00000E+00
    0.75527E-01         0.10831E-01         0.00000E+00
    0.72379E-01         0.10724E-01         0.00000E+00
    0.69152E-01         0.10575E-01         0.00000E+00
    0.65848E-01         0.10383E-01         0.00000E+00
    0.62468E-01         0.10147E-01         0.00000E+00
    0.59016E-01         0.98672E-02         0.00000E+00
    0.55494E-01         0.95423E-02         0.00000E+00
    0.51903E-01         0.91718E-02         0.00000E+00
    0.48246E-01         0.87553E-02         0.00000E+00
    0.44525E-01         0.82923E-02         0.00000E+00
    0.40742E-01         0.77821E-02         0.00000E+00
    0.36899E-01         0.72244E-02         0.00000E+00
    0.32999E-01         0.66188E-02         0.00000E+00
    0.29044E-01         0.59647E-02         0.00000E+00
    0.25036E-01         0.52619E-02         0.00000E+00
    0.20977E-01         0.45099E-02         0.00000E+00
    0.16870E-01         0.37083E-02         0.00000E+00
    0.12716E-01         0.28569E-02         0.00000E+00
    0.85186E-02         0.19552E-02         0.00000E+00
    0.42791E-02         0.10030E-02         0.00000E+00
    0.00000E+00         0.00000E+00         0.00000E+00
    0.13698E+00         0.11603E-03         0.00000E+00
    0.13701E+00         0.79939E-03         0.00000E+00
    0.13690E+00         0.14817E-02         0.00000E+00
    0.13666E+00         0.21607E-02         0.00000E+00
    0.13628E+00         0.28343E-02         0.00000E+00
    0.13577E+00         0.35002E-02         0.00000E+00
    0.13513E+00         0.41564E-02         0.00000E+00
    0.13435E+00         0.48007E-02         0.00000E+00
    0.13345E+00         0.54311E-02         0.00000E+00
    0.13241E+00         0.60455E-02         0.00000E+00
    0.13124E+00         0.66421E-02         0.00000E+00
    0.12994E+00         0.72189E-02         0.00000E+00
    0.12852E+00         0.77741E-02         0.00000E+00
    0.12697E+00         0.83058E-02         0.00000E+00
    0.12530E+00         0.88122E-02         0.00000E+00
    0.12350E+00         0.92918E-02         0.00000E+00
    0.12159E+00         0.97428E-02         0.00000E+00
    0.11955E+00         0.10164E-01         0.00000E+00
    0.11740E+00         0.10553E-01         0.00000E+00
    0.11513E+00         0.10909E-01         0.00000E+00
    0.11275E+00         0.11230E-01         0.00000E+00
    0.11026E+00         0.11516E-01         0.00000E+00
    0.10765E+00         0.11764E-01         0.00000E+00
    0.10495E+00         0.11974E-01         0.00000E+00
    0.10213E+00         0.12145E-01         0.00000E+00
    0.99218E-01         0.12274E-01         0.00000E+00
    0.96203E-01         0.12362E-01         0.00000E+00
    0.93090E-01         0.12407E-01         0.00000E+00
    0.89882E-01         0.12409E-01         0.00000E+00
    0.86581E-01         0.12366E-01         0.00000E+00
    0.83189E-01         0.12277E-01         0.00000E+00
    0.79709E-01         0.12142E-01         0.00000E+00
    0.76143E-01         0.11960E-01         0.00000E+00
    0.72493E-01         0.11730E-01         0.00000E+00
    0.68763E-01         0.11452E-01         0.00000E+00
    0.64954E-01         0.11125E-01         0.00000E+00
    0.61068E-01         0.10748E-01         0.00000E+00
    0.57109E-01         0.10321E-01         0.00000E+00
    0.53078E-01         0.98434E-02         0.00000E+00
    0.48979E-01         0.93145E-02         0.00000E+00
    0.44812E-01         0.87339E-02         0.00000E+00
    0.40582E-01         0.81012E-02         0.00000E+00
    0.36289E-01         0.74160E-02         0.00000E+00
    0.31937E-01         0.66779E-02         0.00000E+00
    0.27528E-01         0.58865E-02         0.00000E+00
    0.23063E-01         0.50414E-02         0.00000E+00
    0.18547E-01         0.41424E-02         0.00000E+00
    0.13980E-01         0.31891E-02         0.00000E+00
    0.93646E-02         0.21811E-02         0.00000E+00
    0.47039E-02         0.11182E-02         0.00000E+00
    0.00000E+00         0.00000E+00         0.00000E+00
    0.15143E+00         0.64995E-03         0.00000E+00
    0.15147E+00         0.14131E-02         0.00000E+00
    0.15136E+00         0.21748E-02         0.00000E+00
    0.15110E+00         0.29325E-02         0.00000E+00
    0.15068E+00         0.36836E-02         0.00000E+00
    0.15012E+00         0.44256E-02         0.00000E+00
    0.14940E+00         0.51560E-02         0.00000E+00
    0.14854E+00         0.58725E-02         0.00000E+00
    0.14752E+00         0.65726E-02         0.00000E+00
    0.14636E+00         0.72540E-02         0.00000E+00
    0.14505E+00         0.79146E-02         0.00000E+00
    0.14360E+00         0.85521E-02         0.00000E+00
    0.14201E+00         0.91644E-02         0.00000E+00
    0.14028E+00         0.97496E-02         0.00000E+00
    0.13841E+00         0.10306E-01         0.00000E+00
    0.13640E+00         0.10830E-01         0.00000E+00
    0.13426E+00         0.11322E-01         0.00000E+00
    0.13199E+00         0.11780E-01         0.00000E+00
    0.12959E+00         0.12201E-01         0.00000E+00
    0.12706E+00         0.12584E-01         0.00000E+00
    0.12441E+00         0.12928E-01         0.00000E+00
    0.12163E+00         0.13231E-01         0.00000E+00
    0.11873E+00         0.13492E-01         0.00000E+00
    0.11572E+00         0.13709E-01         0.00000E+00
    0.11260E+00         0.13881E-01         0.00000E+00
    0.10936E+00         0.14008E-01         0.00000E+00
    0.10601E+00         0.14087E-01         0.00000E+00
    0.10256E+00         0.14119E-01         0.00000E+00
    0.99000E-01         0.14101E-01         0.00000E+00
    0.95343E-01         0.14034E-01         0.00000E+00
    0.91588E-01         0.13916E-01         0.00000E+00
    0.87737E-01         0.13746E-01         0.00000E+00
    0.83794E-01         0.13524E-01         0.00000E+00
    0.79761E-01         0.13249E-01         0.00000E+00
    0.75641E-01         0.12920E-01         0.00000E+00
    0.71437E-01         0.12538E-01         0.00000E+00
    0.67151E-01         0.12100E-01         0.00000E+00
    0.62786E-01         0.11608E-01         0.00000E+00
    0.58344E-01         0.11059E-01         0.00000E+00
    0.53829E-01         0.10455E-01         0.00000E+00
    0.49242E-01         0.97940E-02         0.00000E+00
    0.44587E-01         0.90761E-02         0.00000E+00
    0.39865E-01         0.83010E-02         0.00000E+00
    0.35080E-01         0.74682E-02         0.00000E+00
    0.30233E-01         0.65775E-02         0.00000E+00
    0.25328E-01         0.56286E-02         0.00000E+00
    0.20365E-01         0.46211E-02         0.00000E+00
    0.15349E-01         0.35548E-02         0.00000E+00
    0.10281E-01         0.24294E-02         0.00000E+00
    0.51643E-02         0.12445E-02         0.00000E+00
    0.00000E+00         0.00000E+00         0.00000E+00
    0.16758E+00         0.13056E-02         0.00000E+00
    0.16764E+00         0.21595E-02         0.00000E+00
    0.16752E+00         0.30114E-02         0.00000E+00
    0.16723E+00         0.38584E-02         0.00000E+00
    0.16676E+00         0.46972E-02         0.00000E+00
    0.16613E+00         0.55251E-02         0.00000E+00
    0.16532E+00         0.63392E-02         0.00000E+00
    0.16435E+00         0.71366E-02         0.00000E+00
    0.16320E+00         0.79147E-02         0.00000E+00
    0.16190E+00         0.86709E-02         0.00000E+00
    0.16043E+00         0.94024E-02         0.00000E+00
    0.15879E+00         0.10107E-01         0.00000E+00
    0.15700E+00         0.10782E-01         0.00000E+00
    0.15506E+00         0.11426E-01         0.00000E+00
    0.15295E+00         0.12036E-01         0.00000E+00
    0.15070E+00         0.12609E-01         0.00000E+00
    0.14830E+00         0.13145E-01         0.00000E+00
    0.14575E+00         0.13641E-01         0.00000E+00
    0.14307E+00         0.14095E-01         0.00000E+00
    0.14024E+00         0.14506E-01         0.00000E+00
    0.13727E+00         0.14872E-01         0.00000E+00
    0.13417E+00         0.15192E-01         0.00000E+00
    0.13094E+00         0.15463E-01         0.00000E+00
    0.12758E+00         0.15685E-01         0.00000E+00
    0.12410E+00         0.15856E-01         0.00000E+00
    0.12049E+00         0.15976E-01         0.00000E+00
    0.11677E+00         0.16042E-01         0.00000E+00
    0.11293E+00         0.16055E-01         0.00000E+00
    0.10899E+00         0.16012E-01         0.00000E+00
    0.10493E+00         0.15914E-01         0.00000E+00
    0.10077E+00         0.15760E-01         0.00000E+00
    0.96503E-01         0.15548E-01         0.00000E+00
    0.92141E-01         0.15278E-01         0.00000E+00
    0.87682E-01         0.14949E-01         0.00000E+00
    0.83131E-01         0.14561E-01         0.00000E+00
    0.78490E-01         0.14114E-01         0.00000E+00
    0.73762E-01         0.13606E-01         0.00000E+00
    0.68950E-01         0.13038E-01         0.00000E+00
    0.64058E-01         0.12409E-01         0.00000E+00
    0.59087E-01         0.11718E-01         0.00000E+00
    0.54040E-01         0.10966E-01         0.00000E+00
    0.48921E-01         0.10152E-01         0.00000E+00
    0.43732E-01         0.92761E-02         0.00000E+00
    0.38476E-01         0.83375E-02         0.00000E+00
    0.33154E-01         0.73363E-02         0.00000E+00
    0.27771E-01         0.62721E-02         0.00000E+00
    0.22327E-01         0.51449E-02         0.00000E+00
    0.16826E-01         0.39543E-02         0.00000E+00
    0.11269E-01         0.27001E-02         0.00000E+00
    0.56599E-02         0.13821E-02         0.00000E+00
    0.00000E+00         0.00000E+00         0.00000E+00
    0.18568E+00         0.20747E-02         0.00000E+00
    0.18574E+00         0.30324E-02         0.00000E+00
    0.18561E+00         0.39873E-02         0.00000E+00
    0.18527E+00         0.49358E-02         0.00000E+00
    0.18474E+00         0.58743E-02         0.00000E+00
    0.18402E+00         0.67995E-02         0.00000E+00
    0.18310E+00         0.77080E-02         0.00000E+00
    0.18199E+00         0.85967E-02         0.00000E+00
    0.18069E+00         0.94623E-02         0.00000E+00
    0.17921E+00         0.10302E-01         0.00000E+00
    0.17754E+00         0.11112E-01         0.00000E+00
    0.17569E+00         0.11891E-01         0.00000E+00
    0.17366E+00         0.12636E-01         0.00000E+00
    0.17146E+00         0.13344E-01         0.00000E+00
    0.16909E+00         0.14012E-01         0.00000E+00
    0.16655E+00         0.14638E-01         0.00000E+00
    0.16384E+00         0.15221E-01         0.00000E+00
    0.16098E+00         0.15758E-01         0.00000E+00
    0.15795E+00         0.16246E-01         0.00000E+00
    0.15477E+00         0.16685E-01         0.00000E+00
    0.15145E+00         0.17073E-01         0.00000E+00
    0.14797E+00         0.17407E-01         0.00000E+00
    0.14436E+00         0.17687E-01         0.00000E+00
    0.14060E+00         0.17911E-01         0.00000E+00
    0.13671E+00         0.18078E-01         0.00000E+00
    0.13269E+00         0.18186E-01         0.00000E+00
    0.12855E+00         0.18234E-01         0.00000E+00
    0.12428E+00         0.18222E-01         0.00000E+00
    0.11989E+00         0.18149E-01         0.00000E+00
    0.11538E+00         0.18013E-01         0.00000E+00
    0.11077E+00         0.17814E-01         0.00000E+00
    0.10604E+00         0.17552E-01         0.00000E+00
    0.10121E+00         0.17225E-01         0.00000E+00
    0.96280E-01         0.16833E-01         0.00000E+00
    0.91251E-01         0.16377E-01         0.00000E+00
    0.86128E-01         0.15855E-01         0.00000E+00
    0.80914E-01         0.15266E-01         0.00000E+00
    0.75611E-01         0.14612E-01         0.00000E+00
    0.70224E-01         0.13891E-01         0.00000E+00
    0.64756E-01         0.13104E-01         0.00000E+00
    0.59208E-01         0.12249E-01         0.00000E+00
    0.53585E-01         0.11328E-01         0.00000E+00
    0.47889E-01         0.10340E-01         0.00000E+00
    0.42123E-01         0.92838E-02         0.00000E+00
    0.36289E-01         0.81607E-02         0.00000E+00
    0.30390E-01         0.69701E-02         0.00000E+00
    0.24428E-01         0.57118E-02         0.00000E+00
    0.18406E-01         0.43859E-02         0.00000E+00
    0.12326E-01         0.29920E-02         0.00000E+00
    0.61897E-02         0.15301E-02         0.00000E+00
    0.00000E+00         0.00000E+00         0.00000E+00
    0.20601E+00         0.29290E-02         0.00000E+00
    0.20607E+00         0.40059E-02         0.00000E+00
    0.20590E+00         0.50787E-02         0.00000E+00
    0.20551E+00         0.61432E-02         0.00000E+00
    0.20489E+00         0.71953E-02         0.00000E+00
    0.20405E+00         0.82311E-02         0.00000E+00
    0.20299E+00         0.92466E-02         0.00000E+00
    0.20171E+00         0.10238E-01         0.00000E+00
    0.20022E+00         0.11202E-01         0.00000E+00
    0.19851E+00         0.12135E-01         0.00000E+00
    0.19660E+00         0.13034E-01         0.00000E+00
    0.19449E+00         0.13896E-01         0.00000E+00
    0.19218E+00         0.14717E-01         0.00000E+00
    0.18968E+00         0.15495E-01         0.00000E+00
    0.18698E+00         0.16227E-01         0.00000E+00
    0.18410E+00         0.16911E-01         0.00000E+00
    0.18104E+00         0.17544E-01         0.00000E+00
    0.17779E+00         0.18123E-01         0.00000E+00
    0.17438E+00         0.18648E-01         0.00000E+00
    0.17080E+00         0.19116E-01         0.00000E+00
    0.16705E+00         0.19525E-01         0.00000E+00
    0.16315E+00         0.19873E-01         0.00000E+00
    0.15909E+00         0.20159E-01         0.00000E+00
    0.15488E+00         0.20382E-01         0.00000E+00
    0.15053E+00         0.20540E-01         0.00000E+00
    0.14603E+00         0.20632E-01         0.00000E+00
    0.14140E+00         0.20657E-01         0.00000E+00
    0.13664E+00         0.20614E-01         0.00000E+00
    0.13176E+00         0.20503E-01         0.00000E+00
    0.12675E+00         0.20322E-01         0.00000E+00
    0.12162E+00         0.20071E-01         0.00000E+00
    0.11638E+00         0.19749E-01         0.00000E+00
    0.11103E+00         0.19357E-01         0.00000E+00
    0.10557E+00         0.18893E-01         0.00000E+00
    0.10001E+00         0.18358E-01         0.00000E+00
    0.94359E-01         0.17751E-01         0.00000E+00
    0.88610E-01         0.17072E-01         0.00000E+00
    0.82769E-01         0.16321E-01         0.00000E+00
    0.76842E-01         0.15498E-01         0.00000E+00
    0.70831E-01         0.14602E-01         0.00000E+00
    0.64740E-01         0.13635E-01         0.00000E+00
    0.58571E-01         0.12595E-01         0.00000E+00
    0.52327E-01         0.11483E-01         0.00000E+00
    0.46012E-01         0.10300E-01         0.00000E+00
    0.39627E-01         0.90438E-02         0.00000E+00
    0.33176E-01         0.77161E-02         0.00000E+00
    0.26661E-01         0.63166E-02         0.00000E+00
    0.20083E-01         0.48453E-02         0.00000E+00
    0.13446E-01         0.33021E-02         0.00000E+00
    0.67509E-02         0.16870E-02         0.00000E+00
    0.00000E+00         0.00000E+00         0.00000E+00
    0.22892E+00         0.38097E-02         0.00000E+00
    0.22896E+00         0.50239E-02         0.00000E+00
    0.22873E+00         0.62322E-02         0.00000E+00
    0.22825E+00         0.74297E-02         0.00000E+00
    0.22750E+00         0.86115E-02         0.00000E+00
    0.22651E+00         0.97732E-02         0.00000E+00
    0.22526E+00         0.10910E-01         0.00000E+00
    0.22377E+00         0.12018E-01         0.00000E+00
    0.22203E+00         0.13093E-01         0.00000E+00
    0.22006E+00         0.14132E-01         0.00000E+00
    0.21786E+00         0.15129E-01         0.00000E+00
    0.21543E+00         0.16083E-01         0.00000E+00
    0.21277E+00         0.16989E-01         0.00000E+00
    0.20990E+00         0.17845E-01         0.00000E+00
    0.20682E+00         0.18647E-01         0.00000E+00
    0.20353E+00         0.19393E-01         0.00000E+00
    0.20004E+00         0.20081E-01         0.00000E+00
    0.19636E+00         0.20707E-01         0.00000E+00
    0.19249E+00         0.21269E-01         0.00000E+00
    0.18843E+00         0.21767E-01         0.00000E+00
    0.18420E+00         0.22197E-01         0.00000E+00
    0.17980E+00         0.22558E-01         0.00000E+00
    0.17523E+00         0.22849E-01         0.00000E+00
    0.17049E+00         0.23068E-01         0.00000E+00
    0.16561E+00         0.23213E-01         0.00000E+00
    0.16057E+00         0.23285E-01         0.00000E+00
    0.15539E+00         0.23282E-01         0.00000E+00
    0.15008E+00         0.23202E-01         0.00000E+00
    0.14463E+00         0.23046E-01         0.00000E+00
    0.13905E+00         0.22813E-01         0.00000E+00
    0.13335E+00         0.22503E-01         0.00000E+00
    0.12753E+00         0.22114E-01         0.00000E+00
    0.12160E+00         0.21648E-01         0.00000E+00
    0.11556E+00         0.21103E-01         0.00000E+00
    0.10942E+00         0.20480E-01         0.00000E+00
    0.10318E+00         0.19779E-01         0.00000E+00
    0.96843E-01         0.18999E-01         0.00000E+00
    0.90414E-01         0.18141E-01         0.00000E+00
    0.83898E-01         0.17206E-01         0.00000E+00
    0.77298E-01         0.16193E-01         0.00000E+00
    0.70617E-01         0.15102E-01         0.00000E+00
    0.63860E-01         0.13934E-01         0.00000E+00
    0.57027E-01         0.12690E-01         0.00000E+00
    0.50124E-01         0.11369E-01         0.00000E+00
    0.43152E-01         0.99712E-02         0.00000E+00
    0.36113E-01         0.84979E-02         0.00000E+00
    0.29011E-01         0.69489E-02         0.00000E+00
    0.21846E-01         0.53244E-02         0.00000E+00
    0.14622E-01         0.36247E-02         0.00000E+00
    0.73393E-02         0.18499E-02         0.00000E+00
    0.00000E+00         0.00000E+00         0.00000E+00
    0.25479E+00         0.46130E-02         0.00000E+00
    0.25478E+00         0.59858E-02         0.00000E+00
    0.25446E+00         0.73502E-02         0.00000E+00
    0.25385E+00         0.87004E-02         0.00000E+00
    0.25294E+00         0.10031E-01         0.00000E+00
    0.25174E+00         0.11336E-01         0.00000E+00
    0.25025E+00         0.12611E-01         0.00000E+00
    0.24848E+00         0.13852E-01         0.00000E+00
    0.24644E+00         0.15052E-01         0.00000E+00
    0.24414E+00         0.16209E-01         0.00000E+00
    0.24157E+00         0.17318E-01         0.00000E+00
    0.23874E+00         0.18375E-01         0.00000E+00
    0.23567E+00         0.19376E-01         0.00000E+00
    0.23236E+00         0.20318E-01         0.00000E+00
    0.22881E+00         0.21198E-01         0.00000E+00
    0.22504E+00         0.22013E-01         0.00000E+00
    0.22105E+00         0.22759E-01         0.00000E+00
    0.21684E+00         0.23436E-01         0.00000E+00
    0.21243E+00         0.24040E-01         0.00000E+00
    0.20782E+00         0.24569E-01         0.00000E+00
    0.20301E+00         0.25021E-01         0.00000E+00
    0.19803E+00         0.25395E-01         0.00000E+00
    0.19286E+00         0.25690E-01         0.00000E+00
    0.18753E+00         0.25903E-01         0.00000E+00
    0.18203E+00         0.26034E-01         0.00000E+00
    0.17638E+00         0.26082E-01         0.00000E+00
    0.17057E+00         0.26046E-01         0.00000E+00
    0.16462E+00         0.25926E-01         0.00000E+00
    0.15853E+00         0.25720E-01         0.00000E+00
    0.15232E+00         0.25429E-01         0.00000E+00
    0.14597E+00         0.25053E-01         0.00000E+00
    0.13951E+00         0.24591E-01         0.00000E+00
    0.13294E+00         0.24043E-01         0.00000E+00
    0.12625E+00         0.23410E-01         0.00000E+00
    0.11946E+00         0.22692E-01         0.00000E+00
    0.11257E+00         0.21889E-01         0.00000E+00
    0.10559E+00         0.21001E-01         0.00000E+00
    0.98521E-01         0.20029E-01         0.00000E+00
    0.91365E-01         0.18974E-01         0.00000E+00
    0.84127E-01         0.17835E-01         0.00000E+00
    0.76811E-01         0.16614E-01         0.00000E+00
    0.69422E-01         0.15312E-01         0.00000E+00
    0.61960E-01         0.13928E-01         0.00000E+00
    0.54431E-01         0.12463E-01         0.00000E+00
    0.46836E-01         0.10918E-01         0.00000E+00
    0.39178E-01         0.92944E-02         0.00000E+00
    0.31458E-01         0.75914E-02         0.00000E+00
    0.23679E-01         0.58101E-02         0.00000E+00
    0.15842E-01         0.39508E-02         0.00000E+00
    0.79487E-02         0.20140E-02         0.00000E+00
    0.00000E+00         0.00000E+00         0.00000E+00
    0.28411E+00         0.51708E-02         0.00000E+00
    0.28400E+00         0.67272E-02         0.00000E+00
    0.28354E+00         0.82716E-02         0.00000E+00
    0.28274E+00         0.97974E-02         0.00000E+00
    0.28159E+00         0.11298E-01         0.00000E+00
    0.28012E+00         0.12768E-01         0.00000E+00
    0.27832E+00         0.14201E-01         0.00000E+00
    0.27620E+00         0.15591E-01         0.00000E+00
    0.27377E+00         0.16934E-01         0.00000E+00
    0.27104E+00         0.18225E-01         0.00000E+00
    0.26802E+00         0.19459E-01         0.00000E+00
    0.26471E+00         0.20632E-01         0.00000E+00
    0.26113E+00         0.21739E-01         0.00000E+00
    0.25728E+00         0.22778E-01         0.00000E+00
    0.25318E+00         0.23745E-01         0.00000E+00
    0.24882E+00         0.24636E-01         0.00000E+00
    0.24422E+00         0.25450E-01         0.00000E+00
    0.23940E+00         0.26182E-01         0.00000E+00
    0.23435E+00         0.26832E-01         0.00000E+00
    0.22908E+00         0.27396E-01         0.00000E+00
    0.22361E+00         0.27874E-01         0.00000E+00
    0.21795E+00         0.28263E-01         0.00000E+00
    0.21209E+00         0.28562E-01         0.00000E+00
    0.20606E+00         0.28770E-01         0.00000E+00
    0.19986E+00         0.28886E-01         0.00000E+00
    0.19349E+00         0.28910E-01         0.00000E+00
    0.18697E+00         0.28840E-01         0.00000E+00
    0.18030E+00         0.28676E-01         0.00000E+00
    0.17350E+00         0.28419E-01         0.00000E+00
    0.16656E+00         0.28067E-01         0.00000E+00
    0.15949E+00         0.27622E-01         0.00000E+00
    0.15231E+00         0.27083E-01         0.00000E+00
    0.14501E+00         0.26451E-01         0.00000E+00
    0.13761E+00         0.25726E-01         0.00000E+00
    0.13011E+00         0.24909E-01         0.00000E+00
    0.12251E+00         0.24000E-01         0.00000E+00
    0.11482E+00         0.23001E-01         0.00000E+00
    0.10705E+00         0.21911E-01         0.00000E+00
    0.99201E-01         0.20733E-01         0.00000E+00
    0.91275E-01         0.19466E-01         0.00000E+00
    0.83278E-01         0.18113E-01         0.00000E+00
    0.75213E-01         0.16673E-01         0.00000E+00
    0.67084E-01         0.15148E-01         0.00000E+00
    0.58893E-01         0.13539E-01         0.00000E+00
    0.50643E-01         0.11847E-01         0.00000E+00
    0.42336E-01         0.10073E-01         0.00000E+00
    0.33973E-01         0.82177E-02         0.00000E+00
    0.25558E-01         0.62819E-02         0.00000E+00
    0.17090E-01         0.42666E-02         0.00000E+00
    0.85705E-02         0.21724E-02         0.00000E+00
    0.00000E+00         0.00000E+00         0.00000E+00
    0.31741E+00         0.52256E-02         0.00000E+00
    0.31715E+00         0.69946E-02         0.00000E+00
    0.31647E+00         0.87468E-02         0.00000E+00
    0.31540E+00         0.10475E-01         0.00000E+00
    0.31393E+00         0.12171E-01         0.00000E+00
    0.31209E+00         0.13828E-01         0.00000E+00
    0.30988E+00         0.15441E-01         0.00000E+00
    0.30731E+00         0.17002E-01         0.00000E+00
    0.30439E+00         0.18507E-01         0.00000E+00
    0.30113E+00         0.19950E-01         0.00000E+00
    0.29755E+00         0.21325E-01         0.00000E+00
    0.29365E+00         0.22629E-01         0.00000E+00
    0.28944E+00         0.23857E-01         0.00000E+00
    0.28494E+00         0.25006E-01         0.00000E+00
    0.28015E+00         0.26071E-01         0.00000E+00
    0.27509E+00         0.27049E-01         0.00000E+00
    0.26978E+00         0.27938E-01         0.00000E+00
    0.26421E+00         0.28736E-01         0.00000E+00
    0.25840E+00         0.29438E-01         0.00000E+00
    0.25237E+00         0.30045E-01         0.00000E+00
    0.24612E+00         0.30554E-01         0.00000E+00
    0.23966E+00         0.30963E-01         0.00000E+00
    0.23301E+00         0.31272E-01         0.00000E+00
    0.22617E+00         0.31479E-01         0.00000E+00
    0.21915E+00         0.31584E-01         0.00000E+00
    0.21197E+00         0.31586E-01         0.00000E+00
    0.20463E+00         0.31485E-01         0.00000E+00
    0.19715E+00         0.31281E-01         0.00000E+00
    0.18952E+00         0.30974E-01         0.00000E+00
    0.18177E+00         0.30564E-01         0.00000E+00
    0.17389E+00         0.30052E-01         0.00000E+00
    0.16590E+00         0.29439E-01         0.00000E+00
    0.15780E+00         0.28724E-01         0.00000E+00
    0.14960E+00         0.27910E-01         0.00000E+00
    0.14131E+00         0.26997E-01         0.00000E+00
    0.13294E+00         0.25986E-01         0.00000E+00
    0.12448E+00         0.24878E-01         0.00000E+00
    0.11595E+00         0.23675E-01         0.00000E+00
    0.10735E+00         0.22377E-01         0.00000E+00
    0.98686E-01         0.20988E-01         0.00000E+00
    0.89961E-01         0.19507E-01         0.00000E+00
    0.81178E-01         0.17936E-01         0.00000E+00
    0.72343E-01         0.16277E-01         0.00000E+00
    0.63457E-01         0.14531E-01         0.00000E+00
    0.54524E-01         0.12701E-01         0.00000E+00
    0.45544E-01         0.10786E-01         0.00000E+00
    0.36521E-01         0.87885E-02         0.00000E+00
    0.27454E-01         0.67101E-02         0.00000E+00
    0.18345E-01         0.45518E-02         0.00000E+00
    0.91937E-02         0.23148E-02         0.00000E+00
    0.00000E+00         0.00000E+00         0.00000E+00
    0.35535E+00         0.43982E-02         0.00000E+00
    0.35483E+00         0.64133E-02         0.00000E+00
    0.35383E+00         0.84050E-02         0.00000E+00
    0.35238E+00         0.10365E-01         0.00000E+00
    0.35048E+00         0.12284E-01         0.00000E+00
    0.34816E+00         0.14157E-01         0.00000E+00
    0.34541E+00         0.15974E-01         0.00000E+00
    0.34225E+00         0.17730E-01         0.00000E+00
    0.33871E+00         0.19418E-01         0.00000E+00
    0.33479E+00         0.21033E-01         0.00000E+00
    0.33050E+00         0.22570E-01         0.00000E+00
    0.32586E+00         0.24023E-01         0.00000E+00
    0.32089E+00         0.25388E-01         0.00000E+00
    0.31559E+00         0.26662E-01         0.00000E+00
    0.30999E+00         0.27840E-01         0.00000E+00
    0.30409E+00         0.28920E-01         0.00000E+00
    0.29791E+00         0.29898E-01         0.00000E+00
    0.29146E+00         0.30772E-01         0.00000E+00
    0.28476E+00         0.31540E-01         0.00000E+00
    0.27782E+00         0.32200E-01         0.00000E+00
    0.27065E+00         0.32750E-01         0.00000E+00
    0.26327E+00         0.33191E-01         0.00000E+00
    0.25569E+00         0.33519E-01         0.00000E+00
    0.24792E+00         0.33735E-01         0.00000E+00
    0.23996E+00         0.33839E-01         0.00000E+00
    0.23185E+00         0.33830E-01         0.00000E+00
    0.22357E+00         0.33708E-01         0.00000E+00
    0.21516E+00         0.33474E-01         0.00000E+00
    0.20661E+00         0.33129E-01         0.00000E+00
    0.19793E+00         0.32672E-01         0.00000E+00
    0.18915E+00         0.32104E-01         0.00000E+00
    0.18025E+00         0.31428E-01         0.00000E+00
    0.17127E+00         0.30644E-01         0.00000E+00
    0.16219E+00         0.29752E-01         0.00000E+00
    0.15303E+00         0.28756E-01         0.00000E+00
    0.14380E+00         0.27656E-01         0.00000E+00
    0.13451E+00         0.26454E-01         0.00000E+00
    0.12515E+00         0.25152E-01         0.00000E+00
    0.11575E+00         0.23752E-01         0.00000E+00
    0.10629E+00         0.22256E-01         0.00000E+00
    0.96788E-01         0.20665E-01         0.00000E+00
    0.87248E-01         0.18981E-01         0.00000E+00
    0.77671E-01         0.17207E-01         0.00000E+00
    0.68062E-01         0.15345E-01         0.00000E+00
    0.58421E-01         0.13397E-01         0.00000E+00
    0.48752E-01         0.11364E-01         0.00000E+00
    0.39056E-01         0.92487E-02         0.00000E+00
    0.29332E-01         0.70530E-02         0.00000E+00
    0.19582E-01         0.47785E-02         0.00000E+00
    0.98054E-02         0.24270E-02         0.00000E+00
    0.00000E+00         0.00000E+00         0.00000E+00
    0.39865E+00         0.21471E-02         0.00000E+00
    0.39774E+00         0.44461E-02         0.00000E+00
    0.39628E+00         0.67130E-02         0.00000E+00
    0.39431E+00         0.89385E-02         0.00000E+00
    0.39183E+00         0.11114E-01         0.00000E+00
    0.38885E+00         0.13230E-01         0.00000E+00
    0.38541E+00         0.15281E-01         0.00000E+00
    0.38151E+00         0.17258E-01         0.00000E+00
    0.37717E+00         0.19155E-01         0.00000E+00
    0.37241E+00         0.20966E-01         0.00000E+00
    0.36725E+00         0.22686E-01         0.00000E+00
    0.36171E+00         0.24309E-01         0.00000E+00
    0.35580E+00         0.25832E-01         0.00000E+00
    0.34954E+00         0.27251E-01         0.00000E+00
    0.34294E+00         0.28561E-01         0.00000E+00
    0.33603E+00         0.29760E-01         0.00000E+00
    0.32883E+00         0.30845E-01         0.00000E+00
    0.32134E+00         0.31814E-01         0.00000E+00
    0.31358E+00         0.32666E-01         0.00000E+00
    0.30558E+00         0.33397E-01         0.00000E+00
    0.29734E+00         0.34008E-01         0.00000E+00
    0.28888E+00         0.34498E-01         0.00000E+00
    0.28022E+00         0.34865E-01         0.00000E+00
    0.27136E+00         0.35110E-01         0.00000E+00
    0.26234E+00         0.35233E-01         0.00000E+00
    0.25315E+00         0.35234E-01         0.00000E+00
    0.24381E+00         0.35113E-01         0.00000E+00
    0.23434E+00         0.34871E-01         0.00000E+00
    0.22475E+00         0.34510E-01         0.00000E+00
    0.21504E+00         0.34029E-01         0.00000E+00
    0.20523E+00         0.33432E-01         0.00000E+00
    0.19533E+00         0.32718E-01         0.00000E+00
    0.18536E+00         0.31891E-01         0.00000E+00
    0.17531E+00         0.30950E-01         0.00000E+00
    0.16520E+00         0.29900E-01         0.00000E+00
    0.15504E+00         0.28741E-01         0.00000E+00
    0.14483E+00         0.27476E-01         0.00000E+00
    0.13458E+00         0.26107E-01         0.00000E+00
    0.12431E+00         0.24636E-01         0.00000E+00
    0.11401E+00         0.23067E-01         0.00000E+00
    0.10368E+00         0.21400E-01         0.00000E+00
    0.93345E-01         0.19640E-01         0.00000E+00
    0.82995E-01         0.17789E-01         0.00000E+00
    0.72636E-01         0.15849E-01         0.00000E+00
    0.62271E-01         0.13823E-01         0.00000E+00
    0.51902E-01         0.11713E-01         0.00000E+00
    0.41529E-01         0.95222E-02         0.00000E+00
    0.31153E-01         0.72532E-02         0.00000E+00
    0.20774E-01         0.49083E-02         0.00000E+00
    0.10390E-01         0.24898E-02         0.00000E+00
    0.00000E+00         0.00000E+00         0.00000E+00
    0.44814E+00        -0.22817E-02         0.00000E+00
    0.44666E+00         0.34328E-03         0.00000E+00
    0.44456E+00         0.29251E-02         0.00000E+00
    0.44186E+00         0.54536E-02         0.00000E+00
    0.43860E+00         0.79192E-02         0.00000E+00
    0.43478E+00         0.10313E-01         0.00000E+00
    0.43043E+00         0.12627E-01         0.00000E+00
    0.42558E+00         0.14855E-01         0.00000E+00
    0.42025E+00         0.16989E-01         0.00000E+00
    0.41445E+00         0.19023E-01         0.00000E+00
    0.40821E+00         0.20952E-01         0.00000E+00
    0.40155E+00         0.22772E-01         0.00000E+00
    0.39450E+00         0.24477E-01         0.00000E+00
    0.38707E+00         0.26065E-01         0.00000E+00
    0.37929E+00         0.27532E-01         0.00000E+00
    0.37117E+00         0.28876E-01         0.00000E+00
    0.36274E+00         0.30094E-01         0.00000E+00
    0.35402E+00         0.31184E-01         0.00000E+00
    0.34502E+00         0.32145E-01         0.00000E+00
    0.33577E+00         0.32977E-01         0.00000E+00
    0.32628E+00         0.33677E-01         0.00000E+00
    0.31657E+00         0.34246E-01         0.00000E+00
    0.30667E+00         0.34684E-01         0.00000E+00
    0.29658E+00         0.34991E-01         0.00000E+00
    0.28632E+00         0.35168E-01         0.00000E+00
    0.27591E+00         0.35215E-01         0.00000E+00
    0.26537E+00         0.35133E-01         0.00000E+00
    0.25470E+00         0.34923E-01         0.00000E+00
    0.24393E+00         0.34587E-01         0.00000E+00
    0.23306E+00         0.34127E-01         0.00000E+00
    0.22211E+00         0.33544E-01         0.00000E+00
    0.21110E+00         0.32840E-01         0.00000E+00
    0.20003E+00         0.32017E-01         0.00000E+00
    0.18891E+00         0.31078E-01         0.00000E+00
    0.17775E+00         0.30025E-01         0.00000E+00
    0.16657E+00         0.28860E-01         0.00000E+00
    0.15538E+00         0.27587E-01         0.00000E+00
    0.14417E+00         0.26207E-01         0.00000E+00
    0.13296E+00         0.24723E-01         0.00000E+00
    0.12176E+00         0.23140E-01         0.00000E+00
    0.11057E+00         0.21459E-01         0.00000E+00
    0.99395E-01         0.19683E-01         0.00000E+00
    0.88241E-01         0.17817E-01         0.00000E+00
    0.77111E-01         0.15863E-01         0.00000E+00
    0.66008E-01         0.13825E-01         0.00000E+00
    0.54934E-01         0.11705E-01         0.00000E+00
    0.43890E-01         0.95068E-02         0.00000E+00
    0.32876E-01         0.72342E-02         0.00000E+00
    0.21891E-01         0.48901E-02         0.00000E+00
    0.10933E-01         0.24777E-02         0.00000E+00
    0.00000E+00         0.00000E+00         0.00000E+00
    0.50472E+00        -0.99151E-02         0.00000E+00
    0.50243E+00        -0.69182E-02         0.00000E+00
    0.49944E+00        -0.39788E-02         0.00000E+00
    0.49578E+00        -0.11075E-02         0.00000E+00
    0.49148E+00         0.16859E-02         0.00000E+00
    0.48656E+00         0.43925E-02         0.00000E+00
    0.48106E+00         0.70043E-02         0.00000E+00
    0.47500E+00         0.95142E-02         0.00000E+00
    0.46841E+00         0.11916E-01         0.00000E+00
    0.46132E+00         0.14203E-01         0.00000E+00
    0.45376E+00         0.16372E-01         0.00000E+00
    0.44574E+00         0.18417E-01         0.00000E+00
    0.43730E+00         0.20336E-01         0.00000E+00
    0.42847E+00         0.22124E-01         0.00000E+00
    0.41927E+00         0.23780E-01         0.00000E+00
    0.40972E+00         0.25302E-01         0.00000E+00
    0.39984E+00         0.26688E-01         0.00000E+00
    0.38967E+00         0.27936E-01         0.00000E+00
    0.37922E+00         0.29046E-01         0.00000E+00
    0.36852E+00         0.30018E-01         0.00000E+00
    0.35759E+00         0.30852E-01         0.00000E+00
    0.34645E+00         0.31548E-01         0.00000E+00
    0.33511E+00         0.32106E-01         0.00000E+00
    0.32361E+00         0.32527E-01         0.00000E+00
    0.31195E+00         0.32813E-01         0.00000E+00
    0.30016E+00         0.32965E-01         0.00000E+00
    0.28825E+00         0.32984E-01         0.00000E+00
    0.27624E+00         0.32871E-01         0.00000E+00
    0.26415E+00         0.32629E-01         0.00000E+00
    0.25199E+00         0.32260E-01         0.00000E+00
    0.23978E+00         0.31765E-01         0.00000E+00
    0.22753E+00         0.31147E-01         0.00000E+00
    0.21525E+00         0.30409E-01         0.00000E+00
    0.20295E+00         0.29553E-01         0.00000E+00
    0.19066E+00         0.28581E-01         0.00000E+00
    0.17837E+00         0.27497E-01         0.00000E+00
    0.16610E+00         0.26303E-01         0.00000E+00
    0.15386E+00         0.25003E-01         0.00000E+00
    0.14166E+00         0.23599E-01         0.00000E+00
    0.12950E+00         0.22095E-01         0.00000E+00
    0.11739E+00         0.20495E-01         0.00000E+00
    0.10534E+00         0.18801E-01         0.00000E+00
    0.93352E-01         0.17018E-01         0.00000E+00
    0.81431E-01         0.15149E-01         0.00000E+00
    0.69580E-01         0.13199E-01         0.00000E+00
    0.57801E-01         0.11170E-01         0.00000E+00
    0.46096E-01         0.90680E-02         0.00000E+00
    0.34464E-01         0.68956E-02         0.00000E+00
    0.22906E-01         0.46575E-02         0.00000E+00
    0.11419E-01         0.23576E-02         0.00000E+00
    0.00000E+00         0.00000E+00         0.00000E+00
    0.56939E+00        -0.22124E-01         0.00000E+00
    0.56597E+00        -0.18707E-01         0.00000E+00
    0.56177E+00        -0.15365E-01         0.00000E+00
    0.55683E+00        -0.12110E-01         0.00000E+00
    0.55117E+00        -0.89498E-02         0.00000E+00
    0.54484E+00        -0.58941E-02         0.00000E+00
    0.53787E+00        -0.29500E-02         0.00000E+00
    0.53030E+00        -0.12393E-03         0.00000E+00
    0.52215E+00         0.25785E-02         0.00000E+00
    0.51347E+00         0.51526E-02         0.00000E+00
    0.50428E+00         0.75943E-02         0.00000E+00
    0.49462E+00         0.99005E-02         0.00000E+00
    0.48452E+00         0.12068E-01         0.00000E+00
    0.47401E+00         0.14096E-01         0.00000E+00
    0.46312E+00         0.15982E-01         0.00000E+00
    0.45188E+00         0.17726E-01         0.00000E+00
    0.44032E+00         0.19327E-01         0.00000E+00
    0.42846E+00         0.20784E-01         0.00000E+00
    0.41633E+00         0.22099E-01         0.00000E+00
    0.40396E+00         0.23272E-01         0.00000E+00
    0.39137E+00         0.24304E-01         0.00000E+00
    0.37859E+00         0.25195E-01         0.00000E+00
    0.36563E+00         0.25947E-01         0.00000E+00
    0.35253E+00         0.26562E-01         0.00000E+00
    0.33929E+00         0.27042E-01         0.00000E+00
    0.32595E+00         0.27388E-01         0.00000E+00
    0.31252E+00         0.27601E-01         0.00000E+00
    0.29901E+00         0.27685E-01         0.00000E+00
    0.28546E+00         0.27642E-01         0.00000E+00
    0.27187E+00         0.27472E-01         0.00000E+00
    0.25826E+00         0.27180E-01         0.00000E+00
    0.24465E+00         0.26766E-01         0.00000E+00
    0.23105E+00         0.26235E-01         0.00000E+00
    0.21747E+00         0.25587E-01         0.00000E+00
    0.20393E+00         0.24827E-01         0.00000E+00
    0.19044E+00         0.23956E-01         0.00000E+00
    0.17702E+00         0.22977E-01         0.00000E+00
    0.16366E+00         0.21895E-01         0.00000E+00
    0.15039E+00         0.20711E-01         0.00000E+00
    0.13722E+00         0.19429E-01         0.00000E+00
    0.12414E+00         0.18053E-01         0.00000E+00
    0.11117E+00         0.16586E-01         0.00000E+00
    0.98312E-01         0.15032E-01         0.00000E+00
    0.85576E-01         0.13396E-01         0.00000E+00
    0.72964E-01         0.11680E-01         0.00000E+00
    0.60479E-01         0.98912E-02         0.00000E+00
    0.48124E-01         0.80324E-02         0.00000E+00
    0.35899E-01         0.61088E-02         0.00000E+00
    0.23805E-01         0.41255E-02         0.00000E+00
    0.11839E-01         0.20875E-02         0.00000E+00
    0.00000E+00         0.00000E+00         0.00000E+00
    0.64315E+00        -0.40705E-01         0.00000E+00
    0.63820E+00        -0.36819E-01         0.00000E+00
    0.63239E+00        -0.33030E-01         0.00000E+00
    0.62576E+00        -0.29350E-01         0.00000E+00
    0.61836E+00        -0.25786E-01         0.00000E+00
    0.61022E+00        -0.22345E-01         0.00000E+00
    0.60141E+00        -0.19035E-01         0.00000E+00
    0.59194E+00        -0.15858E-01         0.00000E+00
    0.58188E+00        -0.12821E-01         0.00000E+00
    0.57125E+00        -0.99246E-02         0.00000E+00
    0.56010E+00        -0.71725E-02         0.00000E+00
    0.54847E+00        -0.45657E-02         0.00000E+00
    0.53639E+00        -0.21052E-02         0.00000E+00
    0.52390E+00         0.20910E-03         0.00000E+00
    0.51103E+00         0.23773E-02         0.00000E+00
    0.49783E+00         0.44004E-02         0.00000E+00
    0.48431E+00         0.62794E-02         0.00000E+00
    0.47051E+00         0.80158E-02         0.00000E+00
    0.45646E+00         0.96115E-02         0.00000E+00
    0.44219E+00         0.11068E-01         0.00000E+00
    0.42773E+00         0.12389E-01         0.00000E+00
    0.41309E+00         0.13574E-01         0.00000E+00
    0.39832E+00         0.14628E-01         0.00000E+00
    0.38343E+00         0.15552E-01         0.00000E+00
    0.36844E+00         0.16348E-01         0.00000E+00
    0.35338E+00         0.17019E-01         0.00000E+00
    0.33826E+00         0.17567E-01         0.00000E+00
    0.32312E+00         0.17994E-01         0.00000E+00
    0.30796E+00         0.18303E-01         0.00000E+00
    0.29280E+00         0.18495E-01         0.00000E+00
    0.27767E+00         0.18574E-01         0.00000E+00
    0.26257E+00         0.18540E-01         0.00000E+00
    0.24753E+00         0.18395E-01         0.00000E+00
    0.23257E+00         0.18143E-01         0.00000E+00
    0.21768E+00         0.17785E-01         0.00000E+00
    0.20290E+00         0.17323E-01         0.00000E+00
    0.18823E+00         0.16759E-01         0.00000E+00
    0.17368E+00         0.16097E-01         0.00000E+00
    0.15926E+00         0.15338E-01         0.00000E+00
    0.14500E+00         0.14485E-01         0.00000E+00
    0.13089E+00         0.13542E-01         0.00000E+00
    0.11695E+00         0.12511E-01         0.00000E+00
    0.10318E+00         0.11396E-01         0.00000E+00
    0.89598E-01         0.10201E-01         0.00000E+00
    0.76201E-01         0.89306E-02         0.00000E+00
    0.62999E-01         0.75889E-02         0.00000E+00
    0.49995E-01         0.61809E-02         0.00000E+00
    0.37192E-01         0.47121E-02         0.00000E+00
    0.24592E-01         0.31882E-02         0.00000E+00
    0.12195E-01         0.16154E-02         0.00000E+00
    0.00000E+00         0.00000E+00         0.00000E+00
    0.72702E+00        -0.67971E-01         0.00000E+00
    0.72002E+00        -0.63570E-01         0.00000E+00
    0.71209E+00        -0.59294E-01         0.00000E+00
    0.70328E+00        -0.55152E-01         0.00000E+00
    0.69364E+00        -0.51150E-01         0.00000E+00
    0.68324E+00        -0.47293E-01         0.00000E+00
    0.67211E+00        -0.43584E-01         0.00000E+00
    0.66032E+00        -0.40026E-01         0.00000E+00
    0.64792E+00        -0.36620E-01         0.00000E+00
    0.63494E+00        -0.33366E-01         0.00000E+00
    0.62145E+00        -0.30265E-01         0.00000E+00
    0.60747E+00        -0.27313E-01         0.00000E+00
    0.59307E+00        -0.24510E-01         0.00000E+00
    0.57827E+00        -0.21853E-01         0.00000E+00
    0.56311E+00        -0.19339E-01         0.00000E+00
    0.54764E+00        -0.16964E-01         0.00000E+00
    0.53189E+00        -0.14724E-01         0.00000E+00
    0.51589E+00        -0.12617E-01         0.00000E+00
    0.49968E+00        -0.10638E-01         0.00000E+00
    0.48329E+00        -0.87828E-02         0.00000E+00
    0.46674E+00        -0.70482E-02         0.00000E+00
    0.45007E+00        -0.54304E-02         0.00000E+00
    0.43329E+00        -0.39259E-02         0.00000E+00
    0.41645E+00        -0.25316E-02         0.00000E+00
    0.39955E+00        -0.12444E-02         0.00000E+00
    0.38262E+00        -0.61568E-04         0.00000E+00
    0.36568E+00         0.10192E-02         0.00000E+00
    0.34876E+00         0.20000E-02         0.00000E+00
    0.33186E+00         0.28827E-02         0.00000E+00
    0.31502E+00         0.36687E-02         0.00000E+00
    0.29825E+00         0.43595E-02         0.00000E+00
    0.28157E+00         0.49559E-02         0.00000E+00
    0.26499E+00         0.54589E-02         0.00000E+00
    0.24853E+00         0.58693E-02         0.00000E+00
    0.23220E+00         0.61876E-02         0.00000E+00
    0.21603E+00         0.64146E-02         0.00000E+00
    0.20002E+00         0.65508E-02         0.00000E+00
    0.18418E+00         0.65972E-02         0.00000E+00
    0.16854E+00         0.65546E-02         0.00000E+00
    0.15311E+00         0.64243E-02         0.00000E+00
    0.13789E+00         0.62078E-02         0.00000E+00
    0.12291E+00         0.59071E-02         0.00000E+00
    0.10816E+00         0.55246E-02         0.00000E+00
    0.93673E-01         0.50631E-02         0.00000E+00
    0.79445E-01         0.45261E-02         0.00000E+00
    0.65488E-01         0.39179E-02         0.00000E+00
    0.51809E-01         0.32431E-02         0.00000E+00
    0.38417E-01         0.25072E-02         0.00000E+00
    0.25316E-01         0.17167E-02         0.00000E+00
    0.12509E-01         0.87832E-03         0.00000E+00
    0.00000E+00         0.00000E+00         0.00000E+00
    0.82191E+00        -0.10685E+00         0.00000E+00
    0.81222E+00        -0.10190E+00         0.00000E+00
    0.80154E+00        -0.97101E-01         0.00000E+00
    0.78994E+00        -0.92469E-01         0.00000E+00
    0.77748E+00        -0.88004E-01         0.00000E+00
    0.76424E+00        -0.83706E-01         0.00000E+00
    0.75028E+00        -0.79576E-01         0.00000E+00
    0.73565E+00        -0.75612E-01         0.00000E+00
    0.72042E+00        -0.71810E-01         0.00000E+00
    0.70464E+00        -0.68167E-01         0.00000E+00
    0.68836E+00        -0.64677E-01         0.00000E+00
    0.67165E+00        -0.61335E-01         0.00000E+00
    0.65454E+00        -0.58135E-01         0.00000E+00
    0.63709E+00        -0.55069E-01         0.00000E+00
    0.61933E+00        -0.52131E-01         0.00000E+00
    0.60131E+00        -0.49314E-01         0.00000E+00
    0.58306E+00        -0.46610E-01         0.00000E+00
    0.56463E+00        -0.44012E-01         0.00000E+00
    0.54604E+00        -0.41513E-01         0.00000E+00
    0.52732E+00        -0.39108E-01         0.00000E+00
    0.50851E+00        -0.36789E-01         0.00000E+00
    0.48964E+00        -0.34552E-01         0.00000E+00
    0.47072E+00        -0.32391E-01         0.00000E+00
    0.45179E+00        -0.30303E-01         0.00000E+00
    0.43286E+00        -0.28283E-01         0.00000E+00
    0.41396E+00        -0.26330E-01         0.00000E+00
    0.39510E+00        -0.24440E-01         0.00000E+00
    0.37631E+00        -0.22612E-01         0.00000E+00
    0.35761E+00        -0.20846E-01         0.00000E+00
    0.33900E+00        -0.19142E-01         0.00000E+00
    0.32051E+00        -0.17500E-01         0.00000E+00
    0.30216E+00        -0.15921E-01         0.00000E+00
    0.28395E+00        -0.14407E-01         0.00000E+00
    0.26592E+00        -0.12959E-01         0.00000E+00
    0.24806E+00        -0.11581E-01         0.00000E+00
    0.23040E+00        -0.10274E-01         0.00000E+00
    0.21296E+00        -0.90404E-02         0.00000E+00
    0.19575E+00        -0.78833E-02         0.00000E+00
    0.17878E+00        -0.68047E-02         0.00000E+00
    0.16207E+00        -0.58064E-02         0.00000E+00
    0.14565E+00        -0.48900E-02         0.00000E+00
    0.12951E+00        -0.40563E-02         0.00000E+00
    0.11369E+00        -0.33057E-02         0.00000E+00
    0.98188E-01        -0.26374E-02         0.00000E+00
    0.83030E-01        -0.20501E-02         0.00000E+00
    0.68228E-01        -0.15411E-02         0.00000E+00
    0.53795E-01        -0.11069E-02         0.00000E+00
    0.39744E-01        -0.74248E-03         0.00000E+00
    0.26088E-01        -0.44176E-03         0.00000E+00
    0.12837E-01        -0.19723E-03         0.00000E+00
    0.00000E+00         0.00000E+00         0.00000E+00
    0.92856E+00        -0.16101E+00         0.00000E+00
    0.91537E+00        -0.15548E+00         0.00000E+00
    0.90118E+00        -0.15014E+00         0.00000E+00
    0.88605E+00        -0.14500E+00         0.00000E+00
    0.87007E+00        -0.14007E+00         0.00000E+00
    0.85333E+00        -0.13532E+00         0.00000E+00
    0.83589E+00        -0.13076E+00         0.00000E+00
    0.81784E+00        -0.12637E+00         0.00000E+00
    0.79923E+00        -0.12216E+00         0.00000E+00
    0.78014E+00        -0.11810E+00         0.00000E+00
    0.76063E+00        -0.11419E+00         0.00000E+00
    0.74075E+00        -0.11041E+00         0.00000E+00
    0.72057E+00        -0.10676E+00         0.00000E+00
    0.70012E+00        -0.10321E+00         0.00000E+00
    0.67946E+00        -0.99757E-01         0.00000E+00
    0.65862E+00        -0.96387E-01         0.00000E+00
    0.63766E+00        -0.93087E-01         0.00000E+00
    0.61659E+00        -0.89845E-01         0.00000E+00
    0.59546E+00        -0.86651E-01         0.00000E+00
    0.57430E+00        -0.83494E-01         0.00000E+00
    0.55313E+00        -0.80366E-01         0.00000E+00
    0.53197E+00        -0.77258E-01         0.00000E+00
    0.51085E+00        -0.74164E-01         0.00000E+00
    0.48979E+00        -0.71078E-01         0.00000E+00
    0.46880E+00        -0.67998E-01         0.00000E+00
    0.44790E+00        -0.64919E-01         0.00000E+00
    0.42711E+00        -0.61842E-01         0.00000E+00
    0.40644E+00        -0.58766E-01         0.00000E+00
    0.38590E+00        -0.55692E-01         0.00000E+00
    0.36551E+00        -0.52624E-01         0.00000E+00
    0.34529E+00        -0.49566E-01         0.00000E+00
    0.32523E+00        -0.46521E-01         0.00000E+00
    0.30537E+00        -0.43497E-01         0.00000E+00
    0.28570E+00        -0.40499E-01         0.00000E+00
    0.26626E+00        -0.37536E-01         0.00000E+00
    0.24704E+00        -0.34613E-01         0.00000E+00
    0.22808E+00        -0.31741E-01         0.00000E+00
    0.20938E+00        -0.28925E-01         0.00000E+00
    0.19096E+00        -0.26175E-01         0.00000E+00
    0.17285E+00        -0.23498E-01         0.00000E+00
    0.15506E+00        -0.20900E-01         0.00000E+00
    0.13761E+00        -0.18388E-01         0.00000E+00
    0.12054E+00        -0.15967E-01         0.00000E+00
    0.10386E+00        -0.13641E-01         0.00000E+00
    0.87586E-01        -0.11412E-01         0.00000E+00
    0.71755E-01        -0.92813E-02         0.00000E+00
    0.56386E-01        -0.72481E-02         0.00000E+00
    0.41504E-01        -0.53095E-02         0.00000E+00
    0.27131E-01        -0.34604E-02         0.00000E+00
    0.13289E-01        -0.16937E-02         0.00000E+00
    0.00000E+00         0.00000E+00         0.00000E+00
    0.10474E+01        -0.23497E+00         0.00000E+00
    0.10297E+01        -0.22885E+00         0.00000E+00
    0.10111E+01        -0.22298E+00         0.00000E+00
    0.99152E+00        -0.21735E+00         0.00000E+00
    0.97118E+00        -0.21195E+00         0.00000E+00
    0.95015E+00        -0.20676E+00         0.00000E+00
    0.92851E+00        -0.20179E+00         0.00000E+00
    0.90636E+00        -0.19699E+00         0.00000E+00
    0.88377E+00        -0.19237E+00         0.00000E+00
    0.86083E+00        -0.18789E+00         0.00000E+00
    0.83760E+00        -0.18353E+00         0.00000E+00
    0.81414E+00        -0.17928E+00         0.00000E+00
    0.79051E+00        -0.17511E+00         0.00000E+00
    0.76677E+00        -0.17099E+00         0.00000E+00
    0.74296E+00        -0.16692E+00         0.00000E+00
    0.71912E+00        -0.16286E+00         0.00000E+00
    0.69530E+00        -0.15879E+00         0.00000E+00
    0.67152E+00        -0.15471E+00         0.00000E+00
    0.64780E+00        -0.15059E+00         0.00000E+00
    0.62418E+00        -0.14641E+00         0.00000E+00
    0.60067E+00        -0.14217E+00         0.00000E+00
    0.57728E+00        -0.13786E+00         0.00000E+00
    0.55404E+00        -0.13346E+00         0.00000E+00
    0.53094E+00        -0.12897E+00         0.00000E+00
    0.50800E+00        -0.12438E+00         0.00000E+00
    0.48522E+00        -0.11970E+00         0.00000E+00
    0.46261E+00        -0.11493E+00         0.00000E+00
    0.44017E+00        -0.11006E+00         0.00000E+00
    0.41792E+00        -0.10511E+00         0.00000E+00
    0.39584E+00        -0.10008E+00         0.00000E+00
    0.37396E+00        -0.94978E-01         0.00000E+00
    0.35227E+00        -0.89819E-01         0.00000E+00
    0.33078E+00        -0.84614E-01         0.00000E+00
    0.30950E+00        -0.79378E-01         0.00000E+00
    0.28844E+00        -0.74125E-01         0.00000E+00
    0.26762E+00        -0.68871E-01         0.00000E+00
    0.24705E+00        -0.63634E-01         0.00000E+00
    0.22674E+00        -0.58430E-01         0.00000E+00
    0.20673E+00        -0.53276E-01         0.00000E+00
    0.18702E+00        -0.48188E-01         0.00000E+00
    0.16766E+00        -0.43183E-01         0.00000E+00
    0.14866E+00        -0.38275E-01         0.00000E+00
    0.13006E+00        -0.33479E-01         0.00000E+00
    0.11189E+00        -0.28805E-01         0.00000E+00
    0.94188E-01        -0.24263E-01         0.00000E+00
    0.76992E-01        -0.19861E-01         0.00000E+00
    0.60340E-01        -0.15604E-01         0.00000E+00
    0.44274E-01        -0.11493E-01         0.00000E+00
    0.28835E-01        -0.75260E-02         0.00000E+00
    0.14063E-01        -0.36980E-02         0.00000E+00
    0.00000E+00         0.00000E+00         0.00000E+00
    0.11784E+01        -0.33433E+00         0.00000E+00
    0.11550E+01        -0.32764E+00         0.00000E+00
    0.11307E+01        -0.32126E+00         0.00000E+00
    0.11057E+01        -0.31517E+00         0.00000E+00
    0.10800E+01        -0.30936E+00         0.00000E+00
    0.10537E+01        -0.30379E+00         0.00000E+00
    0.10270E+01        -0.29844E+00         0.00000E+00
    0.10000E+01        -0.29328E+00         0.00000E+00
    0.97279E+00        -0.28827E+00         0.00000E+00
    0.94542E+00        -0.28337E+00         0.00000E+00
    0.91798E+00        -0.27856E+00         0.00000E+00
    0.89055E+00        -0.27379E+00         0.00000E+00
    0.86319E+00        -0.26903E+00         0.00000E+00
    0.83595E+00        -0.26425E+00         0.00000E+00
    0.80887E+00        -0.25941E+00         0.00000E+00
    0.78198E+00        -0.25448E+00         0.00000E+00
    0.75533E+00        -0.24942E+00         0.00000E+00
    0.72891E+00        -0.24423E+00         0.00000E+00
    0.70276E+00        -0.23886E+00         0.00000E+00
    0.67687E+00        -0.23330E+00         0.00000E+00
    0.65126E+00        -0.22754E+00         0.00000E+00
    0.62592E+00        -0.22156E+00         0.00000E+00
    0.60084E+00        -0.21535E+00         0.00000E+00
    0.57603E+00        -0.20890E+00         0.00000E+00
    0.55146E+00        -0.20222E+00         0.00000E+00
    0.52713E+00        -0.19530E+00         0.00000E+00
    0.50303E+00        -0.18815E+00         0.00000E+00
    0.47915E+00        -0.18077E+00         0.00000E+00
    0.45547E+00        -0.17319E+00         0.00000E+00
    0.43198E+00        -0.16540E+00         0.00000E+00
    0.40867E+00        -0.15744E+00         0.00000E+00
    0.38554E+00        -0.14931E+00         0.00000E+00
    0.36258E+00        -0.14105E+00         0.00000E+00
    0.33979E+00        -0.13267E+00         0.00000E+00
    0.31718E+00        -0.12421E+00         0.00000E+00
    0.29475E+00        -0.11569E+00         0.00000E+00
    0.27251E+00        -0.10715E+00         0.00000E+00
    0.25048E+00        -0.98607E-01         0.00000E+00
    0.22868E+00        -0.90097E-01         0.00000E+00
    0.20713E+00        -0.81652E-01         0.00000E+00
    0.18588E+00        -0.73300E-01         0.00000E+00
    0.16495E+00        -0.65071E-01         0.00000E+00
    0.14439E+00        -0.56992E-01         0.00000E+00
    0.12425E+00        -0.49087E-01         0.00000E+00
    0.10458E+00        -0.41379E-01         0.00000E+00
    0.85445E-01        -0.33887E-01         0.00000E+00
    0.66899E-01        -0.26625E-01         0.00000E+00
    0.49011E-01        -0.19602E-01         0.00000E+00
    0.31851E-01        -0.12826E-01         0.00000E+00
    0.15490E-01        -0.62935E-02         0.00000E+00
    0.00000E+00         0.00000E+00         0.00000E+00
    0.13209E+01        -0.46612E+00         0.00000E+00
    0.12903E+01        -0.45891E+00         0.00000E+00
    0.12590E+01        -0.45209E+00         0.00000E+00
    0.12270E+01        -0.44562E+00         0.00000E+00
    0.11947E+01        -0.43948E+00         0.00000E+00
    0.11621E+01        -0.43362E+00         0.00000E+00
    0.11293E+01        -0.42798E+00         0.00000E+00
    0.10966E+01        -0.42251E+00         0.00000E+00
    0.10640E+01        -0.41715E+00         0.00000E+00
    0.10317E+01        -0.41186E+00         0.00000E+00
    0.99960E+00        -0.40656E+00         0.00000E+00
    0.96792E+00        -0.40121E+00         0.00000E+00
    0.93668E+00        -0.39575E+00         0.00000E+00
    0.90591E+00        -0.39013E+00         0.00000E+00
    0.87566E+00        -0.38429E+00         0.00000E+00
    0.84593E+00        -0.37820E+00         0.00000E+00
    0.81673E+00        -0.37181E+00         0.00000E+00
    0.78807E+00        -0.36509E+00         0.00000E+00
    0.75993E+00        -0.35801E+00         0.00000E+00
    0.73230E+00        -0.35055E+00         0.00000E+00
    0.70514E+00        -0.34267E+00         0.00000E+00
    0.67844E+00        -0.33438E+00         0.00000E+00
    0.65216E+00        -0.32566E+00         0.00000E+00
    0.62627E+00        -0.31651E+00         0.00000E+00
    0.60072E+00        -0.30692E+00         0.00000E+00
    0.57548E+00        -0.29691E+00         0.00000E+00
    0.55051E+00        -0.28649E+00         0.00000E+00
    0.52577E+00        -0.27566E+00         0.00000E+00
    0.50122E+00        -0.26446E+00         0.00000E+00
    0.47682E+00        -0.25291E+00         0.00000E+00
    0.45255E+00        -0.24103E+00         0.00000E+00
    0.42839E+00        -0.22886E+00         0.00000E+00
    0.40429E+00        -0.21643E+00         0.00000E+00
    0.38025E+00        -0.20379E+00         0.00000E+00
    0.35625E+00        -0.19097E+00         0.00000E+00
    0.33229E+00        -0.17802E+00         0.00000E+00
    0.30837E+00        -0.16498E+00         0.00000E+00
    0.28451E+00        -0.15191E+00         0.00000E+00
    0.26070E+00        -0.13885E+00         0.00000E+00
    0.23700E+00        -0.12586E+00         0.00000E+00
    0.21342E+00        -0.11298E+00         0.00000E+00
    0.19002E+00        -0.10026E+00         0.00000E+00
    0.16686E+00        -0.87766E-01         0.00000E+00
    0.14400E+00        -0.75526E-01         0.00000E+00
    0.12152E+00        -0.63588E-01         0.00000E+00
    0.99499E-01        -0.51990E-01         0.00000E+00
    0.78042E-01        -0.40765E-01         0.00000E+00
    0.57248E-01        -0.29938E-01         0.00000E+00
    0.37231E-01        -0.19530E-01         0.00000E+00
    0.18107E-01        -0.95502E-02         0.00000E+00
    0.00000E+00         0.00000E+00         0.00000E+00
    0.14736E+01        -0.63960E+00         0.00000E+00
    0.14336E+01        -0.63192E+00         0.00000E+00
    0.13932E+01        -0.62475E+00         0.00000E+00
    0.13526E+01        -0.61802E+00         0.00000E+00
    0.13120E+01        -0.61167E+00         0.00000E+00
    0.12716E+01        -0.60561E+00         0.00000E+00
    0.12317E+01        -0.59977E+00         0.00000E+00
    0.11924E+01        -0.59404E+00         0.00000E+00
    0.11537E+01        -0.58834E+00         0.00000E+00
    0.11159E+01        -0.58259E+00         0.00000E+00
    0.10790E+01        -0.57668E+00         0.00000E+00
    0.10430E+01        -0.57053E+00         0.00000E+00
    0.10081E+01        -0.56408E+00         0.00000E+00
    0.97413E+00        -0.55724E+00         0.00000E+00
    0.94118E+00        -0.54995E+00         0.00000E+00
    0.90923E+00        -0.54216E+00         0.00000E+00
    0.87824E+00        -0.53382E+00         0.00000E+00
    0.84816E+00        -0.52488E+00         0.00000E+00
    0.81894E+00        -0.51532E+00         0.00000E+00
    0.79053E+00        -0.50511E+00         0.00000E+00
    0.76285E+00        -0.49423E+00         0.00000E+00
    0.73583E+00        -0.48268E+00         0.00000E+00
    0.70940E+00        -0.47044E+00         0.00000E+00
    0.68348E+00        -0.45753E+00         0.00000E+00
    0.65799E+00        -0.44396E+00         0.00000E+00
    0.63286E+00        -0.42974E+00         0.00000E+00
    0.60800E+00        -0.41489E+00         0.00000E+00
    0.58334E+00        -0.39943E+00         0.00000E+00
    0.55881E+00        -0.38340E+00         0.00000E+00
    0.53434E+00        -0.36684E+00         0.00000E+00
    0.50987E+00        -0.34978E+00         0.00000E+00
    0.48533E+00        -0.33227E+00         0.00000E+00
    0.46067E+00        -0.31437E+00         0.00000E+00
    0.43585E+00        -0.29611E+00         0.00000E+00
    0.41083E+00        -0.27758E+00         0.00000E+00
    0.38558E+00        -0.25881E+00         0.00000E+00
    0.36008E+00        -0.23989E+00         0.00000E+00
    0.33432E+00        -0.22088E+00         0.00000E+00
    0.30832E+00        -0.20186E+00         0.00000E+00
    0.28208E+00        -0.18290E+00         0.00000E+00
    0.25564E+00        -0.16408E+00         0.00000E+00
    0.22906E+00        -0.14548E+00         0.00000E+00
    0.20239E+00        -0.12718E+00         0.00000E+00
    0.17573E+00        -0.10926E+00         0.00000E+00
    0.14917E+00        -0.91794E-01         0.00000E+00
    0.12283E+00        -0.74853E-01         0.00000E+00
    0.96861E-01        -0.58503E-01         0.00000E+00
    0.71411E-01        -0.42801E-01         0.00000E+00
    0.46655E-01        -0.27796E-01         0.00000E+00
    0.22785E-01        -0.13522E-01         0.00000E+00
    0.00000E+00         0.00000E+00         0.00000E+00
    0.16332E+01        -0.86798E+00         0.00000E+00
    0.15808E+01        -0.85983E+00         0.00000E+00
    0.15285E+01        -0.85234E+00         0.00000E+00
    0.14768E+01        -0.84541E+00         0.00000E+00
    0.14259E+01        -0.83888E+00         0.00000E+00
    0.13762E+01        -0.83263E+00         0.00000E+00
    0.13278E+01        -0.82651E+00         0.00000E+00
    0.12810E+01        -0.82035E+00         0.00000E+00
    0.12359E+01        -0.81403E+00         0.00000E+00
    0.11926E+01        -0.80740E+00         0.00000E+00
    0.11510E+01        -0.80033E+00         0.00000E+00
    0.11113E+01        -0.79273E+00         0.00000E+00
    0.10734E+01        -0.78449E+00         0.00000E+00
    0.10372E+01        -0.77552E+00         0.00000E+00
    0.10028E+01        -0.76575E+00         0.00000E+00
    0.96986E+00        -0.75514E+00         0.00000E+00
    0.93845E+00        -0.74363E+00         0.00000E+00
    0.90842E+00        -0.73119E+00         0.00000E+00
    0.87964E+00        -0.71781E+00         0.00000E+00
    0.85198E+00        -0.70346E+00         0.00000E+00
    0.82533E+00        -0.68816E+00         0.00000E+00
    0.79954E+00        -0.67191E+00         0.00000E+00
    0.77448E+00        -0.65472E+00         0.00000E+00
    0.75003E+00        -0.63660E+00         0.00000E+00
    0.72606E+00        -0.61759E+00         0.00000E+00
    0.70245E+00        -0.59771E+00         0.00000E+00
    0.67906E+00        -0.57699E+00         0.00000E+00
    0.65579E+00        -0.55548E+00         0.00000E+00
    0.63251E+00        -0.53321E+00         0.00000E+00
    0.60912E+00        -0.51023E+00         0.00000E+00
    0.58552E+00        -0.48659E+00         0.00000E+00
    0.56160E+00        -0.46235E+00         0.00000E+00
    0.53726E+00        -0.43756E+00         0.00000E+00
    0.51243E+00        -0.41230E+00         0.00000E+00
    0.48703E+00        -0.38662E+00         0.00000E+00
    0.46098E+00        -0.36060E+00         0.00000E+00
    0.43423E+00        -0.33433E+00         0.00000E+00
    0.40674E+00        -0.30790E+00         0.00000E+00
    0.37848E+00        -0.28140E+00         0.00000E+00
    0.34943E+00        -0.25494E+00         0.00000E+00
    0.31961E+00        -0.22862E+00         0.00000E+00
    0.28905E+00        -0.20256E+00         0.00000E+00
    0.25779E+00        -0.17688E+00         0.00000E+00
    0.22594E+00        -0.15170E+00         0.00000E+00
    0.19359E+00        -0.12716E+00         0.00000E+00
    0.16090E+00        -0.10339E+00         0.00000E+00
    0.12805E+00        -0.80497E-01         0.00000E+00
    0.95267E-01        -0.58615E-01         0.00000E+00
    0.62798E-01        -0.37846E-01         0.00000E+00
    0.30932E-01        -0.18282E-01         0.00000E+00
    0.00000E+00         0.00000E+00         0.00000E+00
    0.17925E+01        -0.11719E+01         0.00000E+00
    0.17228E+01        -0.11629E+01         0.00000E+00
    0.16546E+01        -0.11548E+01         0.00000E+00
    0.15884E+01        -0.11472E+01         0.00000E+00
    0.15249E+01        -0.11401E+01         0.00000E+00
    0.14641E+01        -0.11330E+01         0.00000E+00
    0.14065E+01        -0.11258E+01         0.00000E+00
    0.13521E+01        -0.11181E+01         0.00000E+00
    0.13009E+01        -0.11099E+01         0.00000E+00
    0.12529E+01        -0.11009E+01         0.00000E+00
    0.12080E+01        -0.10911E+01         0.00000E+00
    0.11662E+01        -0.10801E+01         0.00000E+00
    0.11272E+01        -0.10681E+01         0.00000E+00
    0.10908E+01        -0.10548E+01         0.00000E+00
    0.10569E+01        -0.10404E+01         0.00000E+00
    0.10253E+01        -0.10246E+01         0.00000E+00
    0.99564E+00        -0.10076E+01         0.00000E+00
    0.96784E+00        -0.98935E+00         0.00000E+00
    0.94163E+00        -0.96983E+00         0.00000E+00
    0.91683E+00        -0.94909E+00         0.00000E+00
    0.89321E+00        -0.92717E+00         0.00000E+00
    0.87059E+00        -0.90408E+00         0.00000E+00
    0.84878E+00        -0.87989E+00         0.00000E+00
    0.82759E+00        -0.85462E+00         0.00000E+00
    0.80685E+00        -0.82832E+00         0.00000E+00
    0.78640E+00        -0.80103E+00         0.00000E+00
    0.76607E+00        -0.77281E+00         0.00000E+00
    0.74569E+00        -0.74369E+00         0.00000E+00
    0.72512E+00        -0.71372E+00         0.00000E+00
    0.70421E+00        -0.68295E+00         0.00000E+00
    0.68281E+00        -0.65143E+00         0.00000E+00
    0.66077E+00        -0.61921E+00         0.00000E+00
    0.63797E+00        -0.58634E+00         0.00000E+00
    0.61425E+00        -0.55288E+00         0.00000E+00
    0.58950E+00        -0.51891E+00         0.00000E+00
    0.56358E+00        -0.48448E+00         0.00000E+00
    0.53637E+00        -0.44968E+00         0.00000E+00
    0.50776E+00        -0.41460E+00         0.00000E+00
    0.47765E+00        -0.37934E+00         0.00000E+00
    0.44595E+00        -0.34402E+00         0.00000E+00
    0.41261E+00        -0.30876E+00         0.00000E+00
    0.37757E+00        -0.27372E+00         0.00000E+00
    0.34084E+00        -0.23907E+00         0.00000E+00
    0.30243E+00        -0.20497E+00         0.00000E+00
    0.26241E+00        -0.17164E+00         0.00000E+00
    0.22091E+00        -0.13927E+00         0.00000E+00
    0.17811E+00        -0.10811E+00         0.00000E+00
    0.13426E+00        -0.78366E-01         0.00000E+00
    0.89669E-01        -0.50288E-01         0.00000E+00
    0.44763E-01        -0.24102E-01         0.00000E+00
    0.00000E+00         0.00000E+00         0.00000E+00
    0.19309E+01        -0.15847E+01         0.00000E+00
    0.18366E+01        -0.15730E+01         0.00000E+00
    0.17472E+01        -0.15623E+01         0.00000E+00
    0.16634E+01        -0.15521E+01         0.00000E+00
    0.15854E+01        -0.15419E+01         0.00000E+00
    0.15134E+01        -0.15313E+01         0.00000E+00
    0.14473E+01        -0.15198E+01         0.00000E+00
    0.13870E+01        -0.15073E+01         0.00000E+00
    0.13321E+01        -0.14934E+01         0.00000E+00
    0.12824E+01        -0.14781E+01         0.00000E+00
    0.12374E+01        -0.14611E+01         0.00000E+00
    0.11968E+01        -0.14425E+01         0.00000E+00
    0.11601E+01        -0.14223E+01         0.00000E+00
    0.11269E+01        -0.14004E+01         0.00000E+00
    0.10968E+01        -0.13769E+01         0.00000E+00
    0.10695E+01        -0.13518E+01         0.00000E+00
    0.10445E+01        -0.13253E+01         0.00000E+00
    0.10216E+01        -0.12974E+01         0.00000E+00
    0.10004E+01        -0.12681E+01         0.00000E+00
    0.98070E+00        -0.12377E+01         0.00000E+00
    0.96220E+00        -0.12060E+01         0.00000E+00
    0.94467E+00        -0.11732E+01         0.00000E+00
    0.92787E+00        -0.11395E+01         0.00000E+00
    0.91159E+00        -0.11047E+01         0.00000E+00
    0.89564E+00        -0.10691E+01         0.00000E+00
    0.87982E+00        -0.10325E+01         0.00000E+00
    0.86394E+00        -0.99520E+00         0.00000E+00
    0.84784E+00        -0.95710E+00         0.00000E+00
    0.83134E+00        -0.91826E+00         0.00000E+00
    0.81426E+00        -0.87871E+00         0.00000E+00
    0.79643E+00        -0.83849E+00         0.00000E+00
    0.77767E+00        -0.79762E+00         0.00000E+00
    0.75782E+00        -0.75613E+00         0.00000E+00
    0.73667E+00        -0.71404E+00         0.00000E+00
    0.71404E+00        -0.67140E+00         0.00000E+00
    0.68974E+00        -0.62822E+00         0.00000E+00
    0.66356E+00        -0.58457E+00         0.00000E+00
    0.63528E+00        -0.54048E+00         0.00000E+00
    0.60469E+00        -0.49604E+00         0.00000E+00
    0.57158E+00        -0.45132E+00         0.00000E+00
    0.53572E+00        -0.40644E+00         0.00000E+00
    0.49691E+00        -0.36154E+00         0.00000E+00
    0.45494E+00        -0.31679E+00         0.00000E+00
    0.40967E+00        -0.27242E+00         0.00000E+00
    0.36097E+00        -0.22869E+00         0.00000E+00
    0.30879E+00        -0.18589E+00         0.00000E+00
    0.25314E+00        -0.14440E+00         0.00000E+00
    0.19413E+00        -0.10460E+00         0.00000E+00
    0.13200E+00        -0.66938E-01         0.00000E+00
    0.67073E-01        -0.31881E-01         0.00000E+00
    0.00000E+00         0.00000E+00         0.00000E+00
    0.19918E+01        -0.21528E+01         0.00000E+00
    0.18656E+01        -0.21327E+01         0.00000E+00
    0.17518E+01        -0.21131E+01         0.00000E+00
    0.16501E+01        -0.20934E+01         0.00000E+00
    0.15598E+01        -0.20729E+01         0.00000E+00
    0.14805E+01        -0.20509E+01         0.00000E+00
    0.14112E+01        -0.20269E+01         0.00000E+00
    0.13509E+01        -0.20009E+01         0.00000E+00
    0.12985E+01        -0.19727E+01         0.00000E+00
    0.12531E+01        -0.19423E+01         0.00000E+00
    0.12137E+01        -0.19098E+01         0.00000E+00
    0.11796E+01        -0.18754E+01         0.00000E+00
    0.11499E+01        -0.18392E+01         0.00000E+00
    0.11241E+01        -0.18015E+01         0.00000E+00
    0.11014E+01        -0.17622E+01         0.00000E+00
    0.10815E+01        -0.17217E+01         0.00000E+00
    0.10638E+01        -0.16801E+01         0.00000E+00
    0.10480E+01        -0.16375E+01         0.00000E+00
    0.10338E+01        -0.15941E+01         0.00000E+00
    0.10207E+01        -0.15499E+01         0.00000E+00
    0.10087E+01        -0.15051E+01         0.00000E+00
    0.99733E+00        -0.14597E+01         0.00000E+00
    0.98649E+00        -0.14138E+01         0.00000E+00
    0.97594E+00        -0.13674E+01         0.00000E+00
    0.96552E+00        -0.13207E+01         0.00000E+00
    0.95504E+00        -0.12736E+01         0.00000E+00
    0.94433E+00        -0.12261E+01         0.00000E+00
    0.93324E+00        -0.11783E+01         0.00000E+00
    0.92159E+00        -0.11302E+01         0.00000E+00
    0.90923E+00        -0.10818E+01         0.00000E+00
    0.89598E+00        -0.10330E+01         0.00000E+00
    0.88167E+00        -0.98387E+00         0.00000E+00
    0.86610E+00        -0.93434E+00         0.00000E+00
    0.84906E+00        -0.88441E+00         0.00000E+00
    0.83033E+00        -0.83403E+00         0.00000E+00
    0.80966E+00        -0.78319E+00         0.00000E+00
    0.78677E+00        -0.73184E+00         0.00000E+00
    0.76136E+00        -0.67997E+00         0.00000E+00
    0.73307E+00        -0.62755E+00         0.00000E+00
    0.70154E+00        -0.57458E+00         0.00000E+00
    0.66632E+00        -0.52107E+00         0.00000E+00
    0.62695E+00        -0.46707E+00         0.00000E+00
    0.58290E+00        -0.41266E+00         0.00000E+00
    0.53364E+00        -0.35797E+00         0.00000E+00
    0.47857E+00        -0.30322E+00         0.00000E+00
    0.41713E+00        -0.24873E+00         0.00000E+00
    0.34879E+00        -0.19492E+00         0.00000E+00
    0.27312E+00        -0.14238E+00         0.00000E+00
    0.18987E+00        -0.91836E-01         0.00000E+00
    0.98924E-01        -0.44115E-01         0.00000E+00
    0.00000E+00         0.00000E+00         0.00000E+00
    0.18450E+01        -0.29086E+01         0.00000E+00
    0.16900E+01        -0.28660E+01         0.00000E+00
    0.15591E+01        -0.28234E+01         0.00000E+00
    0.14507E+01        -0.27789E+01         0.00000E+00
    0.13618E+01        -0.27316E+01         0.00000E+00
    0.12890E+01        -0.26815E+01         0.00000E+00
    0.12294E+01        -0.26286E+01         0.00000E+00
    0.11807E+01        -0.25733E+01         0.00000E+00
    0.11407E+01        -0.25160E+01         0.00000E+00
    0.11078E+01        -0.24572E+01         0.00000E+00
    0.10807E+01        -0.23972E+01         0.00000E+00
    0.10582E+01        -0.23363E+01         0.00000E+00
    0.10395E+01        -0.22749E+01         0.00000E+00
    0.10239E+01        -0.22131E+01         0.00000E+00
    0.10108E+01        -0.21513E+01         0.00000E+00
    0.99970E+00        -0.20895E+01         0.00000E+00
    0.99017E+00        -0.20279E+01         0.00000E+00
    0.98190E+00        -0.19666E+01         0.00000E+00
    0.97462E+00        -0.19056E+01         0.00000E+00
    0.96807E+00        -0.18451E+01         0.00000E+00
    0.96207E+00        -0.17851E+01         0.00000E+00
    0.95643E+00        -0.17256E+01         0.00000E+00
    0.95100E+00        -0.16665E+01         0.00000E+00
    0.94562E+00        -0.16080E+01         0.00000E+00
    0.94019E+00        -0.15499E+01         0.00000E+00
    0.93456E+00        -0.14923E+01         0.00000E+00
    0.92862E+00        -0.14351E+01         0.00000E+00
    0.92226E+00        -0.13782E+01         0.00000E+00
    0.91536E+00        -0.13218E+01         0.00000E+00
    0.90778E+00        -0.12656E+01         0.00000E+00
    0.89940E+00        -0.12096E+01         0.00000E+00
    0.89008E+00        -0.11538E+01         0.00000E+00
    0.87964E+00        -0.10981E+01         0.00000E+00
    0.86792E+00        -0.10423E+01         0.00000E+00
    0.85469E+00        -0.98652E+00         0.00000E+00
    0.83973E+00        -0.93049E+00         0.00000E+00
    0.82275E+00        -0.87416E+00         0.00000E+00
    0.80343E+00        -0.81741E+00         0.00000E+00
    0.78137E+00        -0.76010E+00         0.00000E+00
    0.75612E+00        -0.70211E+00         0.00000E+00
    0.72712E+00        -0.64328E+00         0.00000E+00
    0.69371E+00        -0.58347E+00         0.00000E+00
    0.65509E+00        -0.52254E+00         0.00000E+00
    0.61029E+00        -0.46036E+00         0.00000E+00
    0.55814E+00        -0.39683E+00         0.00000E+00
    0.49724E+00        -0.33192E+00         0.00000E+00
    0.42594E+00        -0.26572E+00         0.00000E+00
    0.34233E+00        -0.19850E+00         0.00000E+00
    0.24440E+00        -0.13089E+00         0.00000E+00
    0.13041E+00        -0.64048E-01         0.00000E+00
    0.00000E+00         0.00000E+00         0.00000E+00
    0.12622E+01        -0.37777E+01         0.00000E+00
    0.11155E+01        -0.36913E+01         0.00000E+00
    0.10110E+01        -0.35982E+01         0.00000E+00
    0.93454E+00        -0.35007E+01         0.00000E+00
    0.87761E+00        -0.34008E+01         0.00000E+00
    0.83455E+00        -0.33001E+01         0.00000E+00
    0.80161E+00        -0.31995E+01         0.00000E+00
    0.77616E+00        -0.30999E+01         0.00000E+00
    0.75636E+00        -0.30018E+01         0.00000E+00
    0.74084E+00        -0.29056E+01         0.00000E+00
    0.72861E+00        -0.28114E+01         0.00000E+00
    0.71892E+00        -0.27195E+01         0.00000E+00
    0.71121E+00        -0.26299E+01         0.00000E+00
    0.70504E+00        -0.25425E+01         0.00000E+00
    0.70005E+00        -0.24574E+01         0.00000E+00
    0.69599E+00        -0.23745E+01         0.00000E+00
    0.69264E+00        -0.22937E+01         0.00000E+00
    0.68983E+00        -0.22150E+01         0.00000E+00
    0.68740E+00        -0.21383E+01         0.00000E+00
    0.68525E+00        -0.20634E+01         0.00000E+00
    0.68328E+00        -0.19903E+01         0.00000E+00
    0.68140E+00        -0.19188E+01         0.00000E+00
    0.67954E+00        -0.18490E+01         0.00000E+00
    0.67764E+00        -0.17806E+01         0.00000E+00
    0.67562E+00        -0.17137E+01         0.00000E+00
    0.67343E+00        -0.16480E+01         0.00000E+00
    0.67102E+00        -0.15835E+01         0.00000E+00
    0.66833E+00        -0.15201E+01         0.00000E+00
    0.66530E+00        -0.14578E+01         0.00000E+00
    0.66186E+00        -0.13963E+01         0.00000E+00
    0.65794E+00        -0.13356E+01         0.00000E+00
    0.65346E+00        -0.12757E+01         0.00000E+00
    0.64833E+00        -0.12163E+01         0.00000E+00
    0.64245E+00        -0.11574E+01         0.00000E+00
    0.63569E+00        -0.10988E+01         0.00000E+00
    0.62790E+00        -0.10405E+01         0.00000E+00
    0.61891E+00        -0.98216E+00         0.00000E+00
    0.60850E+00        -0.92375E+00         0.00000E+00
    0.59641E+00        -0.86505E+00         0.00000E+00
    0.58231E+00        -0.80583E+00         0.00000E+00
    0.56580E+00        -0.74583E+00         0.00000E+00
    0.54636E+00        -0.68477E+00         0.00000E+00
    0.52332E+00        -0.62229E+00         0.00000E+00
    0.49584E+00        -0.55798E+00         0.00000E+00
    0.46279E+00        -0.49132E+00         0.00000E+00
    0.42265E+00        -0.42173E+00         0.00000E+00
    0.37335E+00        -0.34847E+00         0.00000E+00
    0.31195E+00        -0.27068E+00         0.00000E+00
    0.23421E+00        -0.18737E+00         0.00000E+00
    0.13365E+00        -0.97465E-01         0.00000E+00
    0.00000E+00         0.00000E+00         0.00000E+00
    0.00000E+00        -0.43501E+01         0.00000E+00
    0.00000E+00        -0.41909E+01         0.00000E+00
    0.00000E+00        -0.40339E+01         0.00000E+00
    0.00000E+00        -0.38819E+01         0.00000E+00
    0.00000E+00        -0.37358E+01         0.00000E+00
    0.00000E+00        -0.35959E+01         0.00000E+00
    0.00000E+00        -0.34621E+01         0.00000E+00
    0.00000E+00        -0.33342E+01         0.00000E+00
    0.00000E+00        -0.32119E+01         0.00000E+00
    0.00000E+00        -0.30949E+01         0.00000E+00
    0.00000E+00        -0.29827E+01         0.00000E+00
    0.00000E+00        -0.28751E+01         0.00000E+00
    0.00000E+00        -0.27717E+01         0.00000E+00
    0.00000E+00        -0.26723E+01         0.00000E+00
    0.00000E+00        -0.25766E+01         0.00000E+00
    0.00000E+00        -0.24843E+01         0.00000E+00
    0.00000E+00        -0.23952E+01         0.00000E+00
    0.00000E+00        -0.23090E+01         0.00000E+00
    0.00000E+00        -0.22256E+01         0.00000E+00
    0.00000E+00        -0.21448E+01         0.00000E+00
    0.00000E+00        -0.20664E+01         0.00000E+00
    0.00000E+00        -0.19902E+01         0.00000E+00
    0.00000E+00        -0.19161E+01         0.00000E+00
    0.00000E+00        -0.18439E+01         0.00000E+00
    0.00000E+00        -0.17735E+01         0.00000E+00
    0.00000E+00        -0.17048E+01         0.00000E+00
    0.00000E+00        -0.16376E+01         0.00000E+00
    0.00000E+00        -0.15718E+01         0.00000E+00
    0.00000E+00        -0.15073E+01         0.00000E+00
    0.00000E+00        -0.14439E+01         0.00000E+00
    0.00000E+00        -0.13817E+01         0.00000E+00
    0.00000E+00        -0.13203E+01         0.00000E+00
    0.00000E+00        -0.12598E+01         0.00000E+00
    0.00000E+00        -0.11999E+01         0.00000E+00
    0.00000E+00        -0.11407E+01         0.00000E+00
    0.00000E+00        -0.10818E+01         0.00000E+00
    0.00000E+00        -0.10232E+01         0.00000E+00
    0.00000E+00        -0.96466E+00         0.00000E+00
    0.00000E+00        -0.90602E+00         0.00000E+00
    0.00000E+00        -0.84702E+00         0.00000E+00
    0.00000E+00        -0.78740E+00         0.00000E+00
    0.00000E+00        -0.72681E+00         0.00000E+00
    0.00000E+00        -0.66484E+00         0.00000E+00
    0.00000E+00        -0.60097E+00         0.00000E+00
    0.00000E+00        -0.53452E+00         0.00000E+00
    0.00000E+00        -0.46463E+00         0.00000E+00
    0.00000E+00        -0.39010E+00         0.00000E+00
    0.00000E+00        -0.30932E+00         0.00000E+00
    0.00000E+00        -0.21997E+00         0.00000E+00
    0.00000E+00        -0.11864E+00         0.00000E+00
    0.00000E+00         0.00000E+00         0.00000E+00
CELL_DATA       5000
VECTORS vDarcy double 
    0.87430E-06        -0.23283E-20         0.00000E+00
    0.87430E-06        -0.41910E-20         0.00000E+00
    0.87430E-06         0.23283E-20         0.00000E+00
    0.87430E-06        -0.93132E-21         0.00000E+00
    0.87430E-06         0.60536E-20         0.00000E+00
    0.87430E-06         0.41910E-20         0.00000E+00
    0.87430E-06        -0.39581E-20         0.00000E+00
    0.87430E-06        -0.46566E-20         0.00000E+00
    0.87430E-06        -0.41910E-20         0.00000E+00
    0.87430E-06         0.27940E-20         0.00000E+00
    0.87430E-06        -0.41910E-20         0.00000E+00
    0.87430E-06        -0.60536E-20         0.00000E+00
    0.87430E-06        -0.11176E-19         0.00000E+00
    0.87430E-06        -0.13970E-20         0.00000E+00
    0.87430E-06         0.27940E-20         0.00000E+00
    0.87430E-06        -0.46566E-21         0.00000E+00
    0.87430E-06        -0.46566E-20         0.00000E+00
    0.87430E-06         0.23283E-20         0.00000E+00
    0.87430E-06         0.23283E-20         0.00000E+00
    0.87430E-06         0.00000E+00         0.00000E+00
    0.87430E-06         0.00000E+00         0.00000E+00
    0.87430E-06         0.46566E-20         0.00000E+00
    0.87430E-06         0.46566E-21         0.00000E+00
    0.87430E-06         0.39581E-20         0.00000E+00
    0.87430E-06        -0.93132E-21         0.00000E+00
    0.87430E-06        -0.16298E-20         0.00000E+00
    0.87430E-06         0.51223E-20         0.00000E+00
    0.87430E-06         0.00000E+00         0.00000E+00
    0.87430E-06         0.00000E+00         0.00000E+00
    0.87430E-06        -0.46566E-20         0.00000E+00
    0.87430E-06         0.00000E+00         0.00000E+00
    0.87430E-06         0.46566E-20         0.00000E+00
    0.87430E-06         0.51223E-20         0.00000E+00
    0.87430E-06         0.13970E-19         0.00000E+00
    0.87430E-06         0.46566E-21         0.00000E+00
    0.87430E-06         0.00000E+00         0.00000E+00
    0.87430E-06        -0.23283E-20         0.00000E+00
    0.87430E-06         0.00000E+00         0.00000E+00
    0.87430E-06        -0.18626E-20         0.00000E+00
    0.87430E-06         0.00000E+00         0.00000E+00
    0.87430E-06        -0.32596E-20         0.00000E+00
    0.87430E-06         0.46566E-21         0.00000E+00
    0.87430E-06         0.00000E+00         0.00000E+00
    0.87430E-06         0.23283E-20         0.00000E+00
    0.87430E-06        -0.18626E-20         0.00000E+00
    0.87430E-06         0.00000E+00         0.00000E+00
    0.87430E-06        -0.23283E-20         0.00000E+00
    0.87430E-06         0.00000E+00         0.00000E+00
    0.87430E-06         0.23283E-20         0.00000E+00
    0.87430E-06         0.32596E-20         0.00000E+00
    0.61871E-06         0.51223E-20         0.00000E+00
    0.61871E-06         0.79162E-20         0.00000E+00
    0.61871E-06        -0.51223E-20         0.00000E+00
    0.61871E-06        -0.69849E-20         0.00000E+00
    0.61871E-06        -0.23283E-20         0.00000E+00
    0.61871E-06        -0.18626E-20         0.00000E+00
    0.61871E-06        -0.74506E-20         0.00000E+00
    0.61871E-06        -0.10710E-19         0.00000E+00
    0.61871E-06         0.46566E-21         0.00000E+00
    0.61871E-06        -0.60536E-20         0.00000E+00
    0.61871E-06        -0.65193E-20         0.00000E+00
    0.61871E-06         0.93132E-21         0.00000E+00
    0.61871E-06         0.27940E-20         0.00000E+00
    0.61871E-06         0.23283E-20         0.00000E+00
    0.61871E-06         0.10012E-19         0.00000E+00
    0.61871E-06        -0.74506E-20         0.00000E+00
    0.61871E-06         0.74506E-20         0.00000E+00
    0.61871E-06        -0.46566E-21         0.00000E+00
    0.61871E-06         0.65193E-20         0.00000E+00
    0.61871E-06         0.74506E-20         0.00000E+00
    0.61871E-06         0.41910E-20         0.00000E+00
    0.61871E-06        -0.16764E-19         0.00000E+00
    0.61871E-06        -0.74506E-20         0.00000E+00
    0.61871E-06        -0.10245E-19         0.00000E+00
    0.61871E-06        -0.46566E-20         0.00000E+00
    0.61871E-06        -0.83819E-20         0.00000E+00
    0.61871E-06         0.93132E-21         0.00000E+00
    0.61871E-06        -0.51223E-20         0.00000E+00
    0.61871E-06         0.00000E+00         0.00000E+00
    0.61871E-06         0.10245E-19         0.00000E+00
    0.61871E-06         0.97789E-20         0.00000E+00
    0.61871E-06         0.18161E-19         0.00000E+00
    0.61871E-06         0.13039E-19         0.00000E+00
    0.61871E-06         0.10710E-19         0.00000E+00
    0.61871E-06         0.00000E+00         0.00000E+00
    0.61871E-06         0.00000E+00         0.00000E+00
    0.61871E-06        -0.18626E-20         0.00000E+00
    0.61871E-06         0.23283E-20         0.00000E+00
    0.61871E-06         0.46566E-20         0.00000E+00
    0.61871E-06         0.27940E-20         0.00000E+00
    0.61871E-06        -0.18626E-20         0.00000E+00
    0.61871E-06         0.46566E-20         0.00000E+00
    0.61871E-06        -0.69849E-20         0.00000E+00
    0.61871E-06        -0.39581E-20         0.00000E+00
    0.61871E-06        -0.18161E-19         0.00000E+00
    0.61871E-06        -0.51223E-20         0.00000E+00
    0.61871E-06        -0.46566E-20         0.00000E+00
    0.61871E-06        -0.23283E-20         0.00000E+00
    0.61871E-06        -0.27940E-20         0.00000E+00
    0.61871E-06         0.32596E-20         0.00000E+00
    0.32094E-06         0.46566E-21         0.00000E+00
    0.32094E-06         0.37253E-20         0.00000E+00
    0.32094E-06        -0.88476E-20         0.00000E+00
    0.32094E-06        -0.81491E-20         0.00000E+00
    0.32094E-06        -0.14435E-19         0.00000E+00
    0.32094E-06        -0.12573E-19         0.00000E+00
    0.32094E-06        -0.16531E-19         0.00000E+00
    0.32094E-06        -0.69849E-21         0.00000E+00
    0.32094E-06         0.11642E-19         0.00000E+00
    0.32094E-06         0.15832E-19         0.00000E+00
    0.32094E-06         0.14435E-19         0.00000E+00
    0.32094E-06         0.34925E-20         0.00000E+00
    0.32094E-06         0.12573E-19         0.00000E+00
    0.32094E-06         0.58208E-20         0.00000E+00
    0.32094E-06         0.37253E-20         0.00000E+00
    0.32094E-06        -0.12107E-19         0.00000E+00
    0.32094E-06         0.13970E-19         0.00000E+00
    0.32094E-06         0.46566E-20         0.00000E+00
    0.32094E-06         0.74506E-20         0.00000E+00
    0.32094E-06         0.12107E-19         0.00000E+00
    0.32094E-06        -0.30268E-20         0.00000E+00
    0.32094E-06        -0.22817E-19         0.00000E+00
    0.32094E-06        -0.10012E-19         0.00000E+00
    0.32094E-06        -0.15134E-19         0.00000E+00
    0.32094E-06        -0.93132E-20         0.00000E+00
    0.32094E-06         0.23283E-20         0.00000E+00
    0.32094E-06        -0.23283E-20         0.00000E+00
    0.32094E-06         0.30268E-20         0.00000E+00
    0.32094E-06         0.46566E-20         0.00000E+00
    0.32094E-06         0.22119E-19         0.00000E+00
    0.32094E-06         0.93132E-20         0.00000E+00
    0.32094E-06         0.23516E-19         0.00000E+00
    0.32094E-06         0.79162E-20         0.00000E+00
    0.32094E-06         0.23283E-20         0.00000E+00
    0.32094E-06         0.00000E+00         0.00000E+00
    0.32094E-06        -0.11642E-19         0.00000E+00
    0.32094E-06        -0.16997E-19         0.00000E+00
    0.32094E-06        -0.93132E-20         0.00000E+00
    0.32094E-06        -0.32596E-20         0.00000E+00
    0.32094E-06        -0.51223E-20         0.00000E+00
    0.32094E-06        -0.27940E-20         0.00000E+00
    0.32094E-06         0.13970E-20         0.00000E+00
    0.32094E-06        -0.46566E-20         0.00000E+00
    0.32094E-06        -0.15832E-19         0.00000E+00
    0.32094E-06        -0.13271E-19         0.00000E+00
    0.32094E-06        -0.93132E-21         0.00000E+00
    0.32094E-06         0.18626E-20         0.00000E+00
    0.32094E-06         0.67521E-20         0.00000E+00
    0.32094E-06        -0.55879E-20         0.00000E+00
    0.32094E-06        -0.23283E-21         0.00000E+00
    0.12852E-06        -0.74506E-20         0.00000E+00
    0.12852E-06        -0.74506E-20         0.00000E+00
    0.12852E-06        -0.46566E-20         0.00000E+00
    0.12852E-06         0.46566E-21         0.00000E+00
    0.12852E-06        -0.55879E-20         0.00000E+00
    0.12852E-06        -0.18626E-20         0.00000E+00
    0.12852E-06         0.39581E-20         0.00000E+00
    0.12852E-06         0.12107E-19         0.00000E+00
    0.12852E-06         0.93132E-20         0.00000E+00
    0.12852E-06         0.16764E-19         0.00000E+00
    0.12852E-06         0.14901E-19         0.00000E+00
    0.12852E-06         0.74506E-20         0.00000E+00
    0.12852E-06         0.13504E-19         0.00000E+00
    0.12852E-06         0.10710E-19         0.00000E+00
    0.12852E-06         0.69849E-20         0.00000E+00
    0.12852E-06        -0.93132E-21         0.00000E+00
    0.12852E-06         0.11176E-19         0.00000E+00
    0.12852E-06         0.58208E-20         0.00000E+00
    0.12852E-06         0.34925E-20         0.00000E+00
    0.12852E-06        -0.37253E-20         0.00000E+00
    0.12852E-06        -0.18626E-19         0.00000E+00
    0.12852E-06        -0.13970E-20         0.00000E+00
    0.12852E-06         0.93132E-20         0.00000E+00
    0.12852E-06        -0.60536E-20         0.00000E+00
    0.12852E-06         0.67521E-20         0.00000E+00
    0.12852E-06         0.13504E-19         0.00000E+00
    0.12852E-06         0.13970E-19         0.00000E+00
    0.12852E-06         0.00000E+00         0.00000E+00
    0.12852E-06         0.32596E-20         0.00000E+00
    0.12852E-06         0.46566E-20         0.00000E+00
    0.12852E-06         0.65193E-20         0.00000E+00
    0.12852E-06         0.74506E-20         0.00000E+00
    0.12852E-06         0.00000E+00         0.00000E+00
    0.12852E-06        -0.65193E-20         0.00000E+00
    0.12852E-06         0.00000E+00         0.00000E+00
    0.12852E-06        -0.16298E-19         0.00000E+00
    0.12852E-06        -0.14435E-19         0.00000E+00
    0.12852E-06        -0.69849E-20         0.00000E+00
    0.12852E-06         0.23283E-20         0.00000E+00
    0.12852E-06        -0.13970E-19         0.00000E+00
    0.12852E-06        -0.13039E-19         0.00000E+00
    0.12852E-06        -0.18626E-20         0.00000E+00
    0.12852E-06        -0.13970E-20         0.00000E+00
    0.12852E-06        -0.55879E-20         0.00000E+00
    0.12852E-06        -0.27940E-20         0.00000E+00
    0.12852E-06        -0.60536E-20         0.00000E+00
    0.12852E-06        -0.79162E-20         0.00000E+00
    0.12852E-06        -0.18626E-20         0.00000E+00
    0.12852E-06         0.93132E-21         0.00000E+00
    0.12852E-06        -0.32596E-20         0.00000E+00
    0.41989E-07        -0.32596E-20         0.00000E+00
    0.41989E-07        -0.51223E-20         0.00000E+00
    0.41989E-07         0.13970E-20         0.00000E+00
    0.41989E-07         0.97789E-20         0.00000E+00
    0.41989E-07         0.10710E-19         0.00000E+00
    0.41989E-07         0.37253E-20         0.00000E+00
    0.41989E-07         0.13504E-19         0.00000E+00
    0.41989E-07         0.55879E-20         0.00000E+00
    0.41989E-07        -0.74506E-20         0.00000E+00
    0.41989E-07         0.18626E-20         0.00000E+00
    0.41989E-07         0.88476E-20         0.00000E+00
    0.41989E-07        -0.16298E-20         0.00000E+00
    0.41989E-07         0.20023E-19         0.00000E+00
    0.41989E-07         0.18161E-19         0.00000E+00
    0.41989E-07         0.16531E-19         0.00000E+00
    0.41989E-07         0.88476E-20         0.00000E+00
    0.41989E-07         0.10245E-19         0.00000E+00
    0.41989E-07         0.74506E-20         0.00000E+00
    0.41989E-07         0.27940E-20         0.00000E+00
    0.41989E-07        -0.51223E-20         0.00000E+00
    0.41989E-07        -0.69849E-20         0.00000E+00
    0.41989E-07         0.65193E-20         0.00000E+00
    0.41989E-07         0.27940E-20         0.00000E+00
    0.41989E-07         0.65193E-20         0.00000E+00
    0.41989E-07         0.93132E-20         0.00000E+00
    0.41989E-07         0.14901E-19         0.00000E+00
    0.41989E-07         0.74506E-20         0.00000E+00
    0.41989E-07        -0.18626E-19         0.00000E+00
    0.41989E-07         0.46566E-21         0.00000E+00
    0.41989E-07         0.32596E-20         0.00000E+00
    0.41989E-07         0.55879E-20         0.00000E+00
    0.41989E-07        -0.88476E-20         0.00000E+00
    0.41989E-07         0.46566E-20         0.00000E+00
    0.41989E-07        -0.69849E-20         0.00000E+00
    0.41989E-07        -0.11642E-19         0.00000E+00
    0.41989E-07        -0.74506E-20         0.00000E+00
    0.41989E-07         0.74506E-20         0.00000E+00
    0.41989E-07         0.13039E-19         0.00000E+00
    0.41989E-07         0.79162E-20         0.00000E+00
    0.41989E-07         0.37253E-20         0.00000E+00
    0.41989E-07        -0.74506E-20         0.00000E+00
    0.41989E-07        -0.17695E-19         0.00000E+00
    0.41989E-07        -0.24680E-19         0.00000E+00
    0.41989E-07        -0.11176E-19         0.00000E+00
    0.41989E-07        -0.15367E-19         0.00000E+00
    0.41989E-07        -0.88476E-20         0.00000E+00
    0.41989E-07        -0.16065E-19         0.00000E+00
    0.41989E-07        -0.20955E-19         0.00000E+00
    0.41989E-07        -0.27940E-20         0.00000E+00
    0.41989E-07        -0.11642E-20         0.00000E+00
    0.11762E-07        -0.55879E-20         0.00000E+00
    0.11762E-07        -0.46566E-21         0.00000E+00
    0.11762E-07         0.76834E-20         0.00000E+00
    0.11762E-07         0.16298E-19         0.00000E+00
    0.11762E-07         0.37253E-20         0.00000E+00
    0.11762E-07        -0.65193E-20         0.00000E+00
    0.11762E-07        -0.46566E-20         0.00000E+00
    0.11762E-07        -0.27940E-20         0.00000E+00
    0.11762E-07        -0.88476E-20         0.00000E+00
    0.11762E-07         0.65193E-20         0.00000E+00
    0.11762E-07         0.62864E-20         0.00000E+00
    0.11762E-07        -0.46566E-21         0.00000E+00
    0.11762E-07         0.83819E-20         0.00000E+00
    0.11762E-07         0.15832E-19         0.00000E+00
    0.11762E-07         0.60536E-20         0.00000E+00
    0.11762E-07         0.16764E-19         0.00000E+00
    0.11762E-07         0.15832E-19         0.00000E+00
    0.11762E-07         0.13970E-19         0.00000E+00
    0.11762E-07         0.93132E-21         0.00000E+00
    0.11762E-07         0.65193E-20         0.00000E+00
    0.11762E-07         0.93132E-21         0.00000E+00
    0.11762E-07         0.32596E-20         0.00000E+00
    0.11762E-07        -0.46566E-21         0.00000E+00
    0.11762E-07         0.13970E-20         0.00000E+00
    0.11762E-07        -0.93132E-21         0.00000E+00
    0.11762E-07         0.83819E-20         0.00000E+00
    0.11762E-07         0.97789E-20         0.00000E+00
    0.11762E-07         0.23283E-20         0.00000E+00
    0.11762E-07         0.00000E+00         0.00000E+00
    0.11762E-07         0.32596E-20         0.00000E+00
    0.11762E-07        -0.23283E-20         0.00000E+00
    0.11762E-07        -0.93132E-20         0.00000E+00
    0.11762E-07         0.10245E-19         0.00000E+00
    0.11762E-07         0.65193E-20         0.00000E+00
    0.11762E-07        -0.88476E-20         0.00000E+00
    0.11762E-07        -0.11642E-19         0.00000E+00
    0.11762E-07        -0.23283E-20         0.00000E+00
    0.11762E-07        -0.27940E-20         0.00000E+00
    0.11762E-07        -0.10710E-19         0.00000E+00
    0.11762E-07         0.27940E-20         0.00000E+00
    0.11762E-07        -0.23283E-20         0.00000E+00
    0.11762E-07        -0.16298E-19         0.00000E+00
    0.11762E-07        -0.21420E-19         0.00000E+00
    0.11762E-07        -0.24680E-19         0.00000E+00
    0.11762E-07        -0.17695E-19         0.00000E+00
    0.11762E-07        -0.69849E-20         0.00000E+00
    0.11762E-07        -0.65193E-20         0.00000E+00
    0.11762E-07        -0.18161E-19         0.00000E+00
    0.11762E-07        -0.65193E-20         0.00000E+00
    0.11762E-07        -0.11642E-20         0.00000E+00
    0.29361E-08         0.18626E-20         0.00000E+00
    0.29361E-08        -0.13970E-20         0.00000E+00
    0.29361E-08        -0.46566E-20         0.00000E+00
    0.29361E-08         0.93132E-20         0.00000E+00
    0.29361E-08         0.69849E-21         0.00000E+00
    0.29361E-08        -0.14435E-19         0.00000E+00
    0.29361E-08        -0.10245E-19         0.00000E+00
    0.29361E-08        -0.20023E-19         0.00000E+00
    0.29361E-08        -0.16764E-19         0.00000E+00
    0.29361E-08        -0.41910E-20         0.00000E+00
    0.29361E-08        -0.27940E-20         0.00000E+00
    0.29361E-08         0.10245E-19         0.00000E+00
    0.29361E-08         0.93132E-20         0.00000E+00
    0.29361E-08         0.22352E-19         0.00000E+00
    0.29361E-08         0.11642E-19         0.00000E+00
    0.29361E-08         0.74506E-20         0.00000E+00
    0.29361E-08         0.15832E-19         0.00000E+00
    0.29361E-08         0.48894E-20         0.00000E+00
    0.29361E-08        -0.20955E-20         0.00000E+00
    0.29361E-08        -0.97789E-20         0.00000E+00
    0.29361E-08        -0.12107E-19         0.00000E+00
    0.29361E-08        -0.18626E-20         0.00000E+00
    0.29361E-08         0.11176E-19         0.00000E+00
    0.29361E-08        -0.74506E-20         0.00000E+00
    0.29361E-08         0.46566E-20         0.00000E+00
    0.29361E-08         0.10710E-19         0.00000E+00
    0.29361E-08         0.28405E-19         0.00000E+00
    0.29361E-08         0.27474E-19         0.00000E+00
    0.29361E-08         0.51223E-20         0.00000E+00
    0.29361E-08         0.00000E+00         0.00000E+00
    0.29361E-08         0.51223E-20         0.00000E+00
    0.29361E-08        -0.16298E-19         0.00000E+00
    0.29361E-08        -0.11176E-19         0.00000E+00
    0.29361E-08        -0.11409E-19         0.00000E+00
    0.29361E-08         0.18626E-20         0.00000E+00
    0.29361E-08        -0.11176E-19         0.00000E+00
    0.29361E-08        -0.55879E-20         0.00000E+00
    0.29361E-08        -0.12107E-19         0.00000E+00
    0.29361E-08        -0.39581E-20         0.00000E+00
    0.29361E-08         0.34925E-20         0.00000E+00
    0.29361E-08        -0.16298E-20         0.00000E+00
    0.29361E-08        -0.46566E-21         0.00000E+00
    0.29361E-08        -0.12340E-19         0.00000E+00
    0.29361E-08        -0.23749E-19         0.00000E+00
    0.29361E-08        -0.21188E-19         0.00000E+00
    0.29361E-08        -0.19092E-19         0.00000E+00
    0.29361E-08        -0.25611E-20         0.00000E+00
    0.29361E-08        -0.20023E-19         0.00000E+00
    0.29361E-08        -0.41910E-20         0.00000E+00
    0.29361E-08        -0.27940E-20         0.00000E+00
    0.67137E-09         0.93132E-21         0.00000E+00
    0.67137E-09        -0.65193E-20         0.00000E+00
    0.67137E-09        -0.55879E-20         0.00000E+00
    0.67137E-09         0.41910E-20         0.00000E+00
    0.67137E-09        -0.83819E-20         0.00000E+00
    0.67137E-09        -0.19325E-19         0.00000E+00
    0.67137E-09        -0.17462E-19         0.00000E+00
    0.67137E-09        -0.14901E-19         0.00000E+00
    0.67137E-09        -0.16764E-19         0.00000E+00
    0.67137E-09        -0.65193E-20         0.00000E+00
    0.67137E-09        -0.60536E-20         0.00000E+00
    0.67137E-09        -0.46566E-20         0.00000E+00
    0.67137E-09         0.23283E-20         0.00000E+00
    0.67137E-09         0.93132E-20         0.00000E+00
    0.67137E-09         0.51223E-20         0.00000E+00
    0.67137E-09         0.13504E-19         0.00000E+00
    0.67137E-09         0.79162E-20         0.00000E+00
    0.67137E-09         0.23283E-20         0.00000E+00
    0.67137E-09        -0.55879E-20         0.00000E+00
    0.67137E-09        -0.11642E-19         0.00000E+00
    0.67137E-09        -0.13039E-19         0.00000E+00
    0.67137E-09         0.46566E-20         0.00000E+00
    0.67137E-09         0.14901E-19         0.00000E+00
    0.67137E-09         0.44238E-20         0.00000E+00
    0.67137E-09         0.88476E-20         0.00000E+00
    0.67137E-09         0.18394E-19         0.00000E+00
    0.67137E-09         0.31199E-19         0.00000E+00
    0.67137E-09         0.33062E-19         0.00000E+00
    0.67137E-09         0.10245E-19         0.00000E+00
    0.67137E-09         0.00000E+00         0.00000E+00
    0.67137E-09         0.27940E-20         0.00000E+00
    0.67137E-09        -0.20023E-19         0.00000E+00
    0.67137E-09        -0.23749E-19         0.00000E+00
    0.67137E-09        -0.60536E-20         0.00000E+00
    0.67137E-09        -0.46566E-20         0.00000E+00
    0.67137E-09         0.23283E-20         0.00000E+00
    0.67137E-09         0.41910E-20         0.00000E+00
    0.67137E-09         0.51223E-20         0.00000E+00
    0.67137E-09         0.41910E-20         0.00000E+00
    0.67137E-09         0.88476E-20         0.00000E+00
    0.67137E-09        -0.11642E-19         0.00000E+00
    0.67137E-09        -0.12107E-19         0.00000E+00
    0.67137E-09        -0.19092E-19         0.00000E+00
    0.67137E-09        -0.20023E-19         0.00000E+00
    0.67137E-09        -0.20955E-19         0.00000E+00
    0.67137E-09        -0.23749E-19         0.00000E+00
    0.67137E-09        -0.65193E-20         0.00000E+00
    0.67137E-09        -0.14435E-19         0.00000E+00
    0.67137E-09        -0.18626E-20         0.00000E+00
    0.67137E-09        -0.27940E-20         0.00000E+00
    0.14339E-09         0.69849E-21         0.00000E+00
    0.14339E-09         0.41910E-20         0.00000E+00
    0.14339E-09         0.69849E-20         0.00000E+00
    0.14339E-09         0.65193E-20         0.00000E+00
    0.14339E-09        -0.65193E-20         0.00000E+00
    0.14339E-09        -0.21420E-19         0.00000E+00
    0.14339E-09        -0.14203E-19         0.00000E+00
    0.14339E-09        -0.14435E-19         0.00000E+00
    0.14339E-09        -0.11642E-19         0.00000E+00
    0.14339E-09        -0.10710E-19         0.00000E+00
    0.14339E-09        -0.21886E-19         0.00000E+00
    0.14339E-09        -0.97789E-20         0.00000E+00
    0.14339E-09        -0.90804E-20         0.00000E+00
    0.14339E-09        -0.48894E-20         0.00000E+00
    0.14339E-09        -0.48894E-20         0.00000E+00
    0.14339E-09         0.55879E-20         0.00000E+00
    0.14339E-09        -0.27940E-20         0.00000E+00
    0.14339E-09         0.13970E-20         0.00000E+00
    0.14339E-09        -0.69849E-20         0.00000E+00
    0.14339E-09        -0.23283E-20         0.00000E+00
    0.14339E-09        -0.11642E-19         0.00000E+00
    0.14339E-09        -0.13970E-20         0.00000E+00
    0.14339E-09        -0.46566E-21         0.00000E+00
    0.14339E-09         0.46566E-20         0.00000E+00
    0.14339E-09         0.20955E-19         0.00000E+00
    0.14339E-09         0.21188E-19         0.00000E+00
    0.14339E-09         0.79162E-20         0.00000E+00
    0.14339E-09         0.22352E-19         0.00000E+00
    0.14339E-09         0.10710E-19         0.00000E+00
    0.14339E-09         0.93132E-20         0.00000E+00
    0.14339E-09         0.32596E-20         0.00000E+00
    0.14339E-09        -0.51223E-20         0.00000E+00
    0.14339E-09        -0.12806E-19         0.00000E+00
    0.14339E-09         0.00000E+00         0.00000E+00
    0.14339E-09        -0.18626E-20         0.00000E+00
    0.14339E-09        -0.93132E-21         0.00000E+00
    0.14339E-09        -0.13970E-20         0.00000E+00
    0.14339E-09         0.13039E-19         0.00000E+00
    0.14339E-09         0.46566E-20         0.00000E+00
    0.14339E-09         0.23283E-20         0.00000E+00
    0.14339E-09        -0.17229E-19         0.00000E+00
    0.14339E-09        -0.25611E-20         0.00000E+00
    0.14339E-09        -0.16764E-19         0.00000E+00
    0.14339E-09        -0.19558E-19         0.00000E+00
    0.14339E-09        -0.20489E-19         0.00000E+00
    0.14339E-09        -0.19558E-19         0.00000E+00
    0.14339E-09        -0.69849E-21         0.00000E+00
    0.14339E-09        -0.37253E-20         0.00000E+00
    0.14339E-09        -0.46566E-21         0.00000E+00
    0.14339E-09         0.20955E-20         0.00000E+00
    0.29007E-10         0.53551E-20         0.00000E+00
    0.29007E-10         0.65193E-20         0.00000E+00
    0.29007E-10         0.79162E-20         0.00000E+00
    0.29007E-10         0.79162E-20         0.00000E+00
    0.29007E-10         0.13970E-20         0.00000E+00
    0.29007E-10        -0.18161E-19         0.00000E+00
    0.29007E-10        -0.15367E-19         0.00000E+00
    0.29007E-10        -0.28405E-19         0.00000E+00
    0.29007E-10        -0.27940E-19         0.00000E+00
    0.29007E-10        -0.18394E-19         0.00000E+00
    0.29007E-10        -0.18394E-19         0.00000E+00
    0.29007E-10        -0.16298E-20         0.00000E+00
    0.29007E-10        -0.13039E-19         0.00000E+00
    0.29007E-10        -0.23283E-20         0.00000E+00
    0.29007E-10        -0.97789E-20         0.00000E+00
    0.29007E-10        -0.51223E-20         0.00000E+00
    0.29007E-10         0.93132E-21         0.00000E+00
    0.29007E-10         0.23283E-20         0.00000E+00
    0.29007E-10         0.88476E-20         0.00000E+00
    0.29007E-10        -0.46566E-20         0.00000E+00
    0.29007E-10        -0.16298E-19         0.00000E+00
    0.29007E-10        -0.13039E-19         0.00000E+00
    0.29007E-10        -0.18626E-19         0.00000E+00
    0.29007E-10         0.46566E-20         0.00000E+00
    0.29007E-10         0.20955E-19         0.00000E+00
    0.29007E-10         0.18859E-19         0.00000E+00
    0.29007E-10         0.90804E-20         0.00000E+00
    0.29007E-10         0.16764E-19         0.00000E+00
    0.29007E-10         0.14435E-19         0.00000E+00
    0.29007E-10         0.69849E-20         0.00000E+00
    0.29007E-10        -0.18626E-20         0.00000E+00
    0.29007E-10         0.23283E-20         0.00000E+00
    0.29007E-10        -0.16764E-19         0.00000E+00
    0.29007E-10        -0.97789E-20         0.00000E+00
    0.29007E-10        -0.11642E-19         0.00000E+00
    0.29007E-10         0.93132E-21         0.00000E+00
    0.29007E-10         0.16298E-20         0.00000E+00
    0.29007E-10         0.46566E-20         0.00000E+00
    0.29007E-10        -0.18626E-20         0.00000E+00
    0.29007E-10        -0.16298E-20         0.00000E+00
    0.29007E-10        -0.11409E-19         0.00000E+00
    0.29007E-10        -0.13970E-20         0.00000E+00
    0.29007E-10        -0.13504E-19         0.00000E+00
    0.29007E-10        -0.27474E-19         0.00000E+00
    0.29007E-10        -0.93132E-20         0.00000E+00
    0.29007E-10        -0.10245E-19         0.00000E+00
    0.29007E-10         0.39581E-20         0.00000E+00
    0.29007E-10        -0.20955E-20         0.00000E+00
    0.29007E-10        -0.46566E-20         0.00000E+00
    0.29007E-10         0.55879E-20         0.00000E+00
    0.56151E-11         0.65193E-20         0.00000E+00
    0.56151E-11         0.93132E-20         0.00000E+00
    0.56151E-11         0.10012E-19         0.00000E+00
    0.56151E-11         0.11874E-19         0.00000E+00
    0.56151E-11         0.00000E+00         0.00000E+00
    0.56151E-11        -0.14668E-19         0.00000E+00
    0.56151E-11        -0.28871E-19         0.00000E+00
    0.56151E-11        -0.29802E-19         0.00000E+00
    0.56151E-11        -0.35856E-19         0.00000E+00
    0.56151E-11        -0.18161E-19         0.00000E+00
    0.56151E-11        -0.13737E-19         0.00000E+00
    0.56151E-11        -0.34925E-20         0.00000E+00
    0.56151E-11        -0.16764E-19         0.00000E+00
    0.56151E-11        -0.65193E-20         0.00000E+00
    0.56151E-11        -0.13970E-19         0.00000E+00
    0.56151E-11         0.37253E-20         0.00000E+00
    0.56151E-11         0.13970E-20         0.00000E+00
    0.56151E-11         0.10245E-19         0.00000E+00
    0.56151E-11         0.10710E-19         0.00000E+00
    0.56151E-11        -0.83819E-20         0.00000E+00
    0.56151E-11        -0.13504E-19         0.00000E+00
    0.56151E-11        -0.13970E-19         0.00000E+00
    0.56151E-11        -0.16298E-19         0.00000E+00
    0.56151E-11        -0.13970E-20         0.00000E+00
    0.56151E-11         0.10245E-19         0.00000E+00
    0.56151E-11         0.51223E-20         0.00000E+00
    0.56151E-11         0.65193E-20         0.00000E+00
    0.56151E-11         0.16298E-19         0.00000E+00
    0.56151E-11         0.14435E-19         0.00000E+00
    0.56151E-11         0.00000E+00         0.00000E+00
    0.56151E-11        -0.11409E-19         0.00000E+00
    0.56151E-11         0.53551E-20         0.00000E+00
    0.56151E-11        -0.93132E-20         0.00000E+00
    0.56151E-11        -0.46566E-20         0.00000E+00
    0.56151E-11        -0.83819E-20         0.00000E+00
    0.56151E-11         0.13970E-20         0.00000E+00
    0.56151E-11         0.60536E-20         0.00000E+00
    0.56151E-11        -0.15367E-19         0.00000E+00
    0.56151E-11        -0.37253E-20         0.00000E+00
    0.56151E-11        -0.10245E-19         0.00000E+00
    0.56151E-11        -0.17229E-19         0.00000E+00
    0.56151E-11        -0.97789E-20         0.00000E+00
    0.56151E-11        -0.19092E-19         0.00000E+00
    0.56151E-11        -0.18161E-19         0.00000E+00
    0.56151E-11        -0.74506E-20         0.00000E+00
    0.56151E-11        -0.10245E-19         0.00000E+00
    0.56151E-11         0.18626E-20         0.00000E+00
    0.56151E-11        -0.18626E-20         0.00000E+00
    0.56151E-11        -0.55879E-20         0.00000E+00
    0.56151E-11         0.74506E-20         0.00000E+00
    0.10482E-11         0.11176E-19         0.00000E+00
    0.10482E-11         0.51223E-20         0.00000E+00
    0.10482E-11         0.83819E-20         0.00000E+00
    0.10482E-11         0.55879E-20         0.00000E+00
    0.10482E-11        -0.69849E-20         0.00000E+00
    0.10482E-11        -0.16298E-19         0.00000E+00
    0.10482E-11        -0.29802E-19         0.00000E+00
    0.10482E-11        -0.33295E-19         0.00000E+00
    0.10482E-11        -0.31432E-19         0.00000E+00
    0.10482E-11        -0.16997E-19         0.00000E+00
    0.10482E-11        -0.19558E-19         0.00000E+00
    0.10482E-11        -0.13970E-20         0.00000E+00
    0.10482E-11        -0.12340E-19         0.00000E+00
    0.10482E-11        -0.20955E-20         0.00000E+00
    0.10482E-11        -0.44238E-20         0.00000E+00
    0.10482E-11         0.00000E+00         0.00000E+00
    0.10482E-11         0.16298E-20         0.00000E+00
    0.10482E-11         0.93132E-20         0.00000E+00
    0.10482E-11         0.83819E-20         0.00000E+00
    0.10482E-11        -0.11874E-19         0.00000E+00
    0.10482E-11        -0.97789E-20         0.00000E+00
    0.10482E-11        -0.13970E-20         0.00000E+00
    0.10482E-11        -0.17928E-19         0.00000E+00
    0.10482E-11        -0.13970E-19         0.00000E+00
    0.10482E-11         0.23283E-21         0.00000E+00
    0.10482E-11        -0.11642E-20         0.00000E+00
    0.10482E-11         0.13970E-20         0.00000E+00
    0.10482E-11         0.14901E-19         0.00000E+00
    0.10482E-11         0.10245E-19         0.00000E+00
    0.10482E-11         0.46566E-20         0.00000E+00
    0.10482E-11        -0.46566E-20         0.00000E+00
    0.10482E-11         0.37253E-20         0.00000E+00
    0.10482E-11         0.32596E-20         0.00000E+00
    0.10482E-11        -0.13970E-20         0.00000E+00
    0.10482E-11         0.65193E-20         0.00000E+00
    0.10482E-11        -0.41910E-20         0.00000E+00
    0.10482E-11        -0.10012E-19         0.00000E+00
    0.10482E-11        -0.15367E-19         0.00000E+00
    0.10482E-11        -0.55879E-20         0.00000E+00
    0.10482E-11        -0.19558E-19         0.00000E+00
    0.10482E-11        -0.19791E-19         0.00000E+00
    0.10482E-11        -0.88476E-20         0.00000E+00
    0.10482E-11        -0.16764E-19         0.00000E+00
    0.10482E-11        -0.26077E-19         0.00000E+00
    0.10482E-11        -0.24680E-19         0.00000E+00
    0.10482E-11        -0.72177E-20         0.00000E+00
    0.10482E-11         0.93132E-21         0.00000E+00
    0.10482E-11        -0.55879E-20         0.00000E+00
    0.10482E-11         0.37253E-20         0.00000E+00
    0.10482E-11         0.25611E-20         0.00000E+00
    0.18978E-12         0.74506E-20         0.00000E+00
    0.18978E-12         0.27940E-20         0.00000E+00
    0.18978E-12         0.51223E-20         0.00000E+00
    0.18978E-12         0.41910E-20         0.00000E+00
    0.18978E-12        -0.97789E-20         0.00000E+00
    0.18978E-12        -0.27008E-19         0.00000E+00
    0.18978E-12        -0.34925E-19         0.00000E+00
    0.18978E-12        -0.26077E-19         0.00000E+00
    0.18978E-12        -0.24680E-19         0.00000E+00
    0.18978E-12        -0.20955E-19         0.00000E+00
    0.18978E-12        -0.13970E-19         0.00000E+00
    0.18978E-12         0.41910E-20         0.00000E+00
    0.18978E-12        -0.15134E-19         0.00000E+00
    0.18978E-12         0.48894E-20         0.00000E+00
    0.18978E-12        -0.46566E-20         0.00000E+00
    0.18978E-12         0.00000E+00         0.00000E+00
    0.18978E-12         0.46566E-20         0.00000E+00
    0.18978E-12         0.11409E-19         0.00000E+00
    0.18978E-12         0.10943E-19         0.00000E+00
    0.18978E-12        -0.81491E-20         0.00000E+00
    0.18978E-12        -0.97789E-20         0.00000E+00
    0.18978E-12        -0.55879E-20         0.00000E+00
    0.18978E-12        -0.20489E-19         0.00000E+00
    0.18978E-12        -0.14435E-19         0.00000E+00
    0.18978E-12        -0.32596E-20         0.00000E+00
    0.18978E-12        -0.11642E-19         0.00000E+00
    0.18978E-12         0.55879E-20         0.00000E+00
    0.18978E-12         0.19558E-19         0.00000E+00
    0.18978E-12         0.18626E-20         0.00000E+00
    0.18978E-12        -0.65193E-20         0.00000E+00
    0.18978E-12        -0.12573E-19         0.00000E+00
    0.18978E-12         0.88476E-20         0.00000E+00
    0.18978E-12         0.18626E-20         0.00000E+00
    0.18978E-12         0.41910E-20         0.00000E+00
    0.18978E-12         0.93132E-20         0.00000E+00
    0.18978E-12        -0.18626E-20         0.00000E+00
    0.18978E-12        -0.12107E-19         0.00000E+00
    0.18978E-12        -0.16531E-19         0.00000E+00
    0.18978E-12        -0.11642E-19         0.00000E+00
    0.18978E-12        -0.24680E-19         0.00000E+00
    0.18978E-12        -0.22817E-19         0.00000E+00
    0.18978E-12        -0.17229E-19         0.00000E+00
    0.18978E-12        -0.14435E-19         0.00000E+00
    0.18978E-12        -0.21886E-19         0.00000E+00
    0.18978E-12        -0.11642E-19         0.00000E+00
    0.18978E-12        -0.97789E-20         0.00000E+00
    0.18978E-12         0.00000E+00         0.00000E+00
    0.18978E-12        -0.13504E-19         0.00000E+00
    0.18978E-12        -0.32596E-20         0.00000E+00
    0.18978E-12         0.00000E+00         0.00000E+00
    0.33483E-13         0.44238E-20         0.00000E+00
    0.33483E-13         0.67521E-20         0.00000E+00
    0.33483E-13         0.55879E-20         0.00000E+00
    0.33483E-13         0.18626E-20         0.00000E+00
    0.33483E-13        -0.65193E-20         0.00000E+00
    0.33483E-13        -0.15832E-19         0.00000E+00
    0.33483E-13        -0.29337E-19         0.00000E+00
    0.33483E-13        -0.25611E-19         0.00000E+00
    0.33483E-13        -0.22817E-19         0.00000E+00
    0.33483E-13        -0.22817E-19         0.00000E+00
    0.33483E-13        -0.11642E-19         0.00000E+00
    0.33483E-13         0.37253E-20         0.00000E+00
    0.33483E-13        -0.60536E-20         0.00000E+00
    0.33483E-13         0.41910E-20         0.00000E+00
    0.33483E-13        -0.27940E-20         0.00000E+00
    0.33483E-13         0.46566E-20         0.00000E+00
    0.33483E-13         0.14901E-19         0.00000E+00
    0.33483E-13         0.19092E-19         0.00000E+00
    0.33483E-13         0.67521E-20         0.00000E+00
    0.33483E-13        -0.83819E-20         0.00000E+00
    0.33483E-13        -0.13039E-19         0.00000E+00
    0.33483E-13        -0.16298E-19         0.00000E+00
    0.33483E-13        -0.27940E-19         0.00000E+00
    0.33483E-13        -0.16298E-19         0.00000E+00
    0.33483E-13        -0.13970E-20         0.00000E+00
    0.33483E-13        -0.11176E-19         0.00000E+00
    0.33483E-13         0.23283E-20         0.00000E+00
    0.33483E-13         0.18161E-19         0.00000E+00
    0.33483E-13         0.00000E+00         0.00000E+00
    0.33483E-13        -0.11176E-19         0.00000E+00
    0.33483E-13        -0.16298E-19         0.00000E+00
    0.33483E-13         0.74506E-20         0.00000E+00
    0.33483E-13         0.23283E-20         0.00000E+00
    0.33483E-13        -0.46566E-21         0.00000E+00
    0.33483E-13         0.12573E-19         0.00000E+00
    0.33483E-13        -0.46566E-20         0.00000E+00
    0.33483E-13         0.93132E-21         0.00000E+00
    0.33483E-13        -0.15600E-19         0.00000E+00
    0.33483E-13        -0.11874E-19         0.00000E+00
    0.33483E-13        -0.20489E-19         0.00000E+00
    0.33483E-13        -0.21886E-19         0.00000E+00
    0.33483E-13        -0.11642E-19         0.00000E+00
    0.33483E-13        -0.19558E-19         0.00000E+00
    0.33483E-13        -0.21420E-19         0.00000E+00
    0.33483E-13        -0.65193E-20         0.00000E+00
    0.33483E-13        -0.13970E-19         0.00000E+00
    0.33483E-13         0.46566E-21         0.00000E+00
    0.33483E-13        -0.10012E-19         0.00000E+00
    0.33483E-13        -0.13970E-20         0.00000E+00
    0.33483E-13         0.00000E+00         0.00000E+00
    0.57774E-14         0.79162E-20         0.00000E+00
    0.57774E-14        -0.69849E-21         0.00000E+00
    0.57774E-14         0.46566E-21         0.00000E+00
    0.57774E-14         0.00000E+00         0.00000E+00
    0.57774E-14        -0.12107E-19         0.00000E+00
    0.57774E-14        -0.16298E-19         0.00000E+00
    0.57774E-14        -0.34226E-19         0.00000E+00
    0.57774E-14        -0.31199E-19         0.00000E+00
    0.57774E-14        -0.26776E-19         0.00000E+00
    0.57774E-14        -0.22817E-19         0.00000E+00
    0.57774E-14        -0.20256E-19         0.00000E+00
    0.57774E-14         0.13970E-20         0.00000E+00
    0.57774E-14        -0.51223E-20         0.00000E+00
    0.57774E-14         0.74506E-20         0.00000E+00
    0.57774E-14         0.34925E-20         0.00000E+00
    0.57774E-14         0.14435E-19         0.00000E+00
    0.57774E-14         0.12107E-19         0.00000E+00
    0.57774E-14         0.21420E-19         0.00000E+00
    0.57774E-14         0.93132E-20         0.00000E+00
    0.57774E-14        -0.18626E-20         0.00000E+00
    0.57774E-14        -0.17928E-19         0.00000E+00
    0.57774E-14        -0.10245E-19         0.00000E+00
    0.57774E-14        -0.30734E-19         0.00000E+00
    0.57774E-14        -0.16764E-19         0.00000E+00
    0.57774E-14        -0.12340E-19         0.00000E+00
    0.57774E-14         0.23283E-21         0.00000E+00
    0.57774E-14        -0.93132E-21         0.00000E+00
    0.57774E-14         0.14435E-19         0.00000E+00
    0.57774E-14         0.00000E+00         0.00000E+00
    0.57774E-14        -0.93132E-20         0.00000E+00
    0.57774E-14        -0.10710E-19         0.00000E+00
    0.57774E-14         0.41910E-20         0.00000E+00
    0.57774E-14         0.74506E-20         0.00000E+00
    0.57774E-14         0.27940E-20         0.00000E+00
    0.57774E-14         0.10245E-19         0.00000E+00
    0.57774E-14        -0.13970E-20         0.00000E+00
    0.57774E-14         0.32596E-20         0.00000E+00
    0.57774E-14        -0.69849E-20         0.00000E+00
    0.57774E-14        -0.93132E-20         0.00000E+00
    0.57774E-14        -0.19791E-19         0.00000E+00
    0.57774E-14        -0.27474E-19         0.00000E+00
    0.57774E-14        -0.93132E-20         0.00000E+00
    0.57774E-14        -0.27940E-19         0.00000E+00
    0.57774E-14        -0.29337E-19         0.00000E+00
    0.57774E-14        -0.15367E-19         0.00000E+00
    0.57774E-14        -0.12573E-19         0.00000E+00
    0.57774E-14         0.23283E-21         0.00000E+00
    0.57774E-14         0.55879E-20         0.00000E+00
    0.57774E-14         0.46566E-20         0.00000E+00
    0.57774E-14         0.23283E-20         0.00000E+00
    0.97776E-15         0.65193E-20         0.00000E+00
    0.97776E-15         0.44238E-20         0.00000E+00
    0.97776E-15        -0.81491E-20         0.00000E+00
    0.97776E-15        -0.95461E-20         0.00000E+00
    0.97776E-15        -0.15832E-19         0.00000E+00
    0.97776E-15        -0.23516E-19         0.00000E+00
    0.97776E-15        -0.25146E-19         0.00000E+00
    0.97776E-15        -0.26077E-19         0.00000E+00
    0.97776E-15        -0.30035E-19         0.00000E+00
    0.97776E-15        -0.21420E-19         0.00000E+00
    0.97776E-15        -0.21886E-19         0.00000E+00
    0.97776E-15         0.27940E-20         0.00000E+00
    0.97776E-15        -0.62864E-20         0.00000E+00
    0.97776E-15         0.20955E-20         0.00000E+00
    0.97776E-15         0.69849E-21         0.00000E+00
    0.97776E-15         0.11874E-19         0.00000E+00
    0.97776E-15         0.15367E-19         0.00000E+00
    0.97776E-15         0.30966E-19         0.00000E+00
    0.97776E-15         0.18626E-19         0.00000E+00
    0.97776E-15        -0.23283E-20         0.00000E+00
    0.97775E-15        -0.88476E-20         0.00000E+00
    0.97776E-15        -0.17229E-19         0.00000E+00
    0.97776E-15        -0.22352E-19         0.00000E+00
    0.97776E-15        -0.20722E-19         0.00000E+00
    0.97776E-15        -0.55879E-20         0.00000E+00
    0.97776E-15        -0.37253E-20         0.00000E+00
    0.97776E-15        -0.53551E-20         0.00000E+00
    0.97776E-15         0.12107E-19         0.00000E+00
    0.97776E-15         0.00000E+00         0.00000E+00
    0.97776E-15        -0.88476E-20         0.00000E+00
    0.97776E-15        -0.81491E-20         0.00000E+00
    0.97776E-15         0.32596E-20         0.00000E+00
    0.97776E-15         0.32596E-20         0.00000E+00
    0.97776E-15         0.79162E-20         0.00000E+00
    0.97776E-15         0.37253E-20         0.00000E+00
    0.97776E-15        -0.27940E-20         0.00000E+00
    0.97776E-15         0.00000E+00         0.00000E+00
    0.97777E-15        -0.67521E-20         0.00000E+00
    0.97777E-15        -0.79162E-20         0.00000E+00
    0.97777E-15        -0.22817E-19         0.00000E+00
    0.97776E-15        -0.27940E-19         0.00000E+00
    0.97776E-15        -0.10710E-19         0.00000E+00
    0.97776E-15        -0.30268E-19         0.00000E+00
    0.97776E-15        -0.28173E-19         0.00000E+00
    0.97776E-15        -0.22352E-19         0.00000E+00
    0.97776E-15        -0.17229E-19         0.00000E+00
    0.97776E-15        -0.20955E-20         0.00000E+00
    0.97776E-15        -0.13970E-20         0.00000E+00
    0.97777E-15         0.60536E-20         0.00000E+00
    0.97777E-15         0.55879E-20         0.00000E+00
    0.16270E-15         0.79162E-20         0.00000E+00
    0.16270E-15         0.10710E-19         0.00000E+00
    0.16270E-15        -0.79162E-20         0.00000E+00
    0.16269E-15        -0.25611E-20         0.00000E+00
    0.16269E-15        -0.16298E-19         0.00000E+00
    0.16269E-15        -0.22352E-19         0.00000E+00
    0.16269E-15        -0.26776E-19         0.00000E+00
    0.16270E-15        -0.21420E-19         0.00000E+00
    0.16270E-15        -0.20023E-19         0.00000E+00
    0.16269E-15        -0.19092E-19         0.00000E+00
    0.16269E-15        -0.26543E-19         0.00000E+00
    0.16269E-15         0.93132E-21         0.00000E+00
    0.16269E-15        -0.14901E-19         0.00000E+00
    0.16270E-15         0.00000E+00         0.00000E+00
    0.16270E-15        -0.69849E-20         0.00000E+00
    0.16270E-15         0.12340E-19         0.00000E+00
    0.16270E-15         0.13039E-19         0.00000E+00
    0.16270E-15         0.31199E-19         0.00000E+00
    0.16270E-15         0.18626E-19         0.00000E+00
    0.16270E-15         0.11642E-20         0.00000E+00
    0.16270E-15        -0.11642E-19         0.00000E+00
    0.16270E-15        -0.14668E-19         0.00000E+00
    0.16270E-15        -0.25611E-19         0.00000E+00
    0.16270E-15        -0.19325E-19         0.00000E+00
    0.16270E-15        -0.93132E-21         0.00000E+00
    0.16270E-15        -0.60536E-20         0.00000E+00
    0.16270E-15         0.32596E-20         0.00000E+00
    0.16270E-15         0.13504E-19         0.00000E+00
    0.16270E-15         0.18626E-20         0.00000E+00
    0.16269E-15        -0.93132E-21         0.00000E+00
    0.16269E-15        -0.81491E-20         0.00000E+00
    0.16269E-15         0.93132E-21         0.00000E+00
    0.16269E-15         0.93132E-20         0.00000E+00
    0.16269E-15        -0.41910E-20         0.00000E+00
    0.16269E-15         0.37253E-20         0.00000E+00
    0.16269E-15        -0.46566E-20         0.00000E+00
    0.16269E-15        -0.41910E-20         0.00000E+00
    0.16269E-15        -0.11642E-19         0.00000E+00
    0.16269E-15        -0.97789E-20         0.00000E+00
    0.16269E-15        -0.22817E-19         0.00000E+00
    0.16269E-15        -0.32829E-19         0.00000E+00
    0.16270E-15        -0.16997E-19         0.00000E+00
    0.16270E-15        -0.34459E-19         0.00000E+00
    0.16270E-15        -0.29802E-19         0.00000E+00
    0.16271E-15        -0.25379E-19         0.00000E+00
    0.16271E-15        -0.16298E-19         0.00000E+00
    0.16271E-15        -0.69849E-20         0.00000E+00
    0.16271E-15        -0.74506E-20         0.00000E+00
    0.16271E-15         0.37253E-20         0.00000E+00
    0.16271E-15         0.93132E-21         0.00000E+00
    0.26676E-16         0.37253E-20         0.00000E+00
    0.26676E-16         0.93132E-20         0.00000E+00
    0.26676E-16        -0.46566E-21         0.00000E+00
    0.26677E-16         0.30268E-20         0.00000E+00
    0.26678E-16        -0.18394E-19         0.00000E+00
    0.26681E-16        -0.31199E-19         0.00000E+00
    0.26680E-16        -0.31199E-19         0.00000E+00
    0.26679E-16        -0.22352E-19         0.00000E+00
    0.26679E-16        -0.20489E-19         0.00000E+00
    0.26680E-16        -0.72177E-20         0.00000E+00
    0.26677E-16        -0.11176E-19         0.00000E+00
    0.26672E-16         0.51223E-20         0.00000E+00
    0.26669E-16        -0.15367E-19         0.00000E+00
    0.26666E-16         0.93132E-20         0.00000E+00
    0.26665E-16        -0.10245E-19         0.00000E+00
    0.26664E-16         0.18626E-19         0.00000E+00
    0.26663E-16         0.46566E-20         0.00000E+00
    0.26666E-16         0.14901E-19         0.00000E+00
    0.26668E-16         0.16298E-19         0.00000E+00
    0.26670E-16        -0.46566E-21         0.00000E+00
    0.26671E-16        -0.18626E-19         0.00000E+00
    0.26671E-16        -0.11642E-19         0.00000E+00
    0.26669E-16        -0.31665E-19         0.00000E+00
    0.26668E-16        -0.16764E-19         0.00000E+00
    0.26668E-16        -0.23283E-20         0.00000E+00
    0.26670E-16        -0.55879E-20         0.00000E+00
    0.26672E-16         0.72177E-20         0.00000E+00
    0.26673E-16         0.16764E-19         0.00000E+00
    0.26673E-16        -0.46566E-21         0.00000E+00
    0.26674E-16         0.23283E-20         0.00000E+00
    0.26674E-16        -0.83819E-20         0.00000E+00
    0.26673E-16         0.60536E-20         0.00000E+00
    0.26674E-16         0.12573E-19         0.00000E+00
    0.26673E-16         0.23283E-21         0.00000E+00
    0.26670E-16         0.51223E-20         0.00000E+00
    0.26671E-16        -0.69849E-20         0.00000E+00
    0.26672E-16        -0.93132E-20         0.00000E+00
    0.26674E-16        -0.10710E-19         0.00000E+00
    0.26675E-16        -0.14203E-19         0.00000E+00
    0.26675E-16        -0.22352E-19         0.00000E+00
    0.26671E-16        -0.35157E-19         0.00000E+00
    0.26668E-16        -0.20489E-19         0.00000E+00
    0.26666E-16        -0.36322E-19         0.00000E+00
    0.26666E-16        -0.37253E-19         0.00000E+00
    0.26667E-16        -0.30035E-19         0.00000E+00
    0.26669E-16        -0.23283E-19         0.00000E+00
    0.26670E-16        -0.65193E-20         0.00000E+00
    0.26671E-16        -0.11176E-19         0.00000E+00
    0.26672E-16        -0.13970E-20         0.00000E+00
    0.26673E-16         0.27940E-20         0.00000E+00
    0.43134E-17         0.72177E-20         0.00000E+00
    0.43130E-17         0.11409E-19         0.00000E+00
    0.43113E-17         0.46566E-20         0.00000E+00
    0.43099E-17         0.23283E-20         0.00000E+00
    0.43082E-17        -0.16764E-19         0.00000E+00
    0.43069E-17        -0.30734E-19         0.00000E+00
    0.43059E-17        -0.23749E-19         0.00000E+00
    0.43057E-17        -0.23283E-19         0.00000E+00
    0.43077E-17        -0.32131E-19         0.00000E+00
    0.43108E-17        -0.17695E-19         0.00000E+00
    0.43169E-17        -0.16065E-19         0.00000E+00
    0.43208E-17         0.97789E-20         0.00000E+00
    0.43219E-17        -0.13970E-20         0.00000E+00
    0.43192E-17         0.18626E-19         0.00000E+00
    0.43152E-17         0.93132E-20         0.00000E+00
    0.43126E-17         0.23749E-19         0.00000E+00
    0.43109E-17         0.13504E-19         0.00000E+00
    0.43077E-17         0.88476E-20         0.00000E+00
    0.43076E-17         0.12107E-19         0.00000E+00
    0.43076E-17        -0.12573E-19         0.00000E+00
    0.43097E-17        -0.19558E-19         0.00000E+00
    0.43109E-17        -0.16764E-19         0.00000E+00
    0.43121E-17        -0.23283E-19         0.00000E+00
    0.43121E-17        -0.14901E-19         0.00000E+00
    0.43131E-17        -0.88476E-20         0.00000E+00
    0.43145E-17        -0.12107E-19         0.00000E+00
    0.43153E-17        -0.72177E-20         0.00000E+00
    0.43190E-17         0.11642E-19         0.00000E+00
    0.43207E-17        -0.41910E-20         0.00000E+00
    0.43215E-17        -0.23283E-20         0.00000E+00
    0.43230E-17        -0.65193E-20         0.00000E+00
    0.43229E-17         0.10477E-19         0.00000E+00
    0.43229E-17         0.60536E-20         0.00000E+00
    0.43249E-17         0.48894E-20         0.00000E+00
    0.43275E-17         0.18626E-20         0.00000E+00
    0.43266E-17        -0.46566E-20         0.00000E+00
    0.43231E-17        -0.46566E-20         0.00000E+00
    0.43217E-17        -0.14435E-19         0.00000E+00
    0.43212E-17        -0.16298E-19         0.00000E+00
    0.43215E-17        -0.16764E-19         0.00000E+00
    0.43201E-17        -0.22352E-19         0.00000E+00
    0.43194E-17        -0.12107E-19         0.00000E+00
    0.43188E-17        -0.33062E-19         0.00000E+00
    0.43176E-17        -0.33993E-19         0.00000E+00
    0.43169E-17        -0.33528E-19         0.00000E+00
    0.43153E-17        -0.22352E-19         0.00000E+00
    0.43140E-17        -0.79162E-20         0.00000E+00
    0.43134E-17        -0.13737E-19         0.00000E+00
    0.43121E-17        -0.13970E-20         0.00000E+00
    0.43110E-17         0.69849E-20         0.00000E+00
    0.69337E-18         0.41910E-20         0.00000E+00
    0.69453E-18         0.97789E-20         0.00000E+00
    0.69558E-18         0.69849E-20         0.00000E+00
    0.69453E-18         0.14901E-19         0.00000E+00
    0.69063E-18        -0.46566E-20         0.00000E+00
    0.68726E-18        -0.20489E-19         0.00000E+00
    0.68685E-18        -0.21420E-19         0.00000E+00
    0.68638E-18        -0.24214E-19         0.00000E+00
    0.68359E-18        -0.28405E-19         0.00000E+00
    0.68150E-18        -0.24214E-19         0.00000E+00
    0.67975E-18        -0.27241E-19         0.00000E+00
    0.67975E-18        -0.37253E-20         0.00000E+00
    0.68184E-18        -0.46566E-21         0.00000E+00
    0.68330E-18         0.22817E-19         0.00000E+00
    0.68470E-18         0.15832E-19         0.00000E+00
    0.68668E-18         0.16065E-19         0.00000E+00
    0.68871E-18         0.11642E-19         0.00000E+00
    0.69157E-18         0.14435E-19         0.00000E+00
    0.69011E-18         0.13039E-19         0.00000E+00
    0.68883E-18        -0.10710E-19         0.00000E+00
    0.69069E-18        -0.33528E-19         0.00000E+00
    0.69197E-18        -0.19092E-19         0.00000E+00
    0.69168E-18        -0.24680E-19         0.00000E+00
    0.69104E-18        -0.12107E-19         0.00000E+00
    0.69017E-18        -0.14435E-19         0.00000E+00
    0.69005E-18        -0.14901E-19         0.00000E+00
    0.68935E-18        -0.79162E-20         0.00000E+00
    0.68726E-18         0.11642E-19         0.00000E+00
    0.68458E-18         0.46566E-21         0.00000E+00
    0.68510E-18        -0.88476E-20         0.00000E+00
    0.68685E-18        -0.17695E-19         0.00000E+00
    0.68877E-18         0.83819E-20         0.00000E+00
    0.68924E-18         0.55879E-20         0.00000E+00
    0.69052E-18        -0.88476E-20         0.00000E+00
    0.69075E-18         0.23283E-20         0.00000E+00
    0.69075E-18        -0.46566E-20         0.00000E+00
    0.69180E-18         0.41910E-20         0.00000E+00
    0.69221E-18        -0.12107E-19         0.00000E+00
    0.69092E-18        -0.13970E-19         0.00000E+00
    0.68988E-18        -0.12107E-19         0.00000E+00
    0.68947E-18        -0.18626E-19         0.00000E+00
    0.68970E-18        -0.12573E-19         0.00000E+00
    0.68865E-18        -0.25146E-19         0.00000E+00
    0.68906E-18        -0.35856E-19         0.00000E+00
    0.69127E-18        -0.34925E-19         0.00000E+00
    0.69285E-18        -0.16764E-19         0.00000E+00
    0.69366E-18        -0.13970E-19         0.00000E+00
    0.69453E-18        -0.13970E-19         0.00000E+00
    0.69523E-18         0.18626E-20         0.00000E+00
    0.69739E-18         0.32596E-20         0.00000E+00
    0.10763E-18         0.18626E-20         0.00000E+00
    0.10763E-18         0.25611E-20         0.00000E+00
    0.10763E-18         0.93132E-20         0.00000E+00
    0.10931E-18         0.12573E-19         0.00000E+00
    0.11327E-18        -0.13970E-20         0.00000E+00
    0.11397E-18        -0.97789E-20         0.00000E+00
    0.11025E-18        -0.15832E-19         0.00000E+00
    0.10908E-18        -0.18394E-19         0.00000E+00
    0.10856E-18        -0.16298E-19         0.00000E+00
    0.10646E-18        -0.15832E-19         0.00000E+00
    0.10594E-18        -0.24680E-19         0.00000E+00
    0.10547E-18         0.46566E-21         0.00000E+00
    0.10571E-18        -0.10710E-19         0.00000E+00
    0.10844E-18         0.67521E-20         0.00000E+00
    0.11286E-18         0.37253E-20         0.00000E+00
    0.11409E-18         0.15832E-19         0.00000E+00
    0.11275E-18         0.27940E-20         0.00000E+00
    0.11228E-18         0.13970E-19         0.00000E+00
    0.11281E-18         0.17462E-19         0.00000E+00
    0.11304E-18        -0.10012E-19         0.00000E+00
    0.10949E-18        -0.25146E-19         0.00000E+00
    0.10629E-18        -0.18626E-19         0.00000E+00
    0.10693E-18        -0.26776E-19         0.00000E+00
    0.10902E-18        -0.16065E-19         0.00000E+00
    0.10966E-18        -0.11642E-19         0.00000E+00
    0.10751E-18        -0.74506E-20         0.00000E+00
    0.10594E-18        -0.23283E-20         0.00000E+00
    0.10745E-18         0.16298E-19         0.00000E+00
    0.10856E-18        -0.27940E-20         0.00000E+00
    0.10949E-18        -0.11409E-19         0.00000E+00
    0.10664E-18        -0.13039E-19         0.00000E+00
    0.10553E-18         0.55879E-20         0.00000E+00
    0.10576E-18         0.69849E-20         0.00000E+00
    0.10396E-18        -0.79162E-20         0.00000E+00
    0.10466E-18        -0.27940E-20         0.00000E+00
    0.10559E-18        -0.37253E-20         0.00000E+00
    0.10338E-18         0.23283E-20         0.00000E+00
    0.10303E-18        -0.10710E-19         0.00000E+00
    0.10355E-18        -0.10012E-19         0.00000E+00
    0.10466E-18        -0.16531E-19         0.00000E+00
    0.10629E-18        -0.27940E-19         0.00000E+00
    0.10867E-18        -0.14901E-19         0.00000E+00
    0.11042E-18        -0.28871E-19         0.00000E+00
    0.10990E-18        -0.34459E-19         0.00000E+00
    0.10594E-18        -0.29569E-19         0.00000E+00
    0.10309E-18        -0.13970E-19         0.00000E+00
    0.10274E-18        -0.16298E-19         0.00000E+00
    0.10349E-18        -0.16764E-19         0.00000E+00
    0.10309E-18         0.00000E+00         0.00000E+00
    0.10245E-18         0.00000E+00         0.00000E+00
    0.19150E-19         0.27940E-20         0.00000E+00
    0.18685E-19         0.41910E-20         0.00000E+00
    0.20140E-19         0.55879E-20         0.00000E+00
    0.20489E-19         0.13970E-20         0.00000E+00
    0.19150E-19        -0.69849E-20         0.00000E+00
    0.21479E-19        -0.15367E-19         0.00000E+00
    0.26019E-19        -0.17695E-19         0.00000E+00
    0.27008E-19        -0.17695E-19         0.00000E+00
    0.25844E-19        -0.16764E-19         0.00000E+00
    0.26601E-19        -0.90804E-20         0.00000E+00
    0.25495E-19        -0.20722E-19         0.00000E+00
    0.24796E-19         0.23283E-20         0.00000E+00
    0.25146E-19        -0.19092E-19         0.00000E+00
    0.24389E-19         0.32596E-20         0.00000E+00
    0.23225E-19        -0.10245E-19         0.00000E+00
    0.25204E-19         0.16298E-19         0.00000E+00
    0.26950E-19         0.83819E-20         0.00000E+00
    0.25320E-19         0.21420E-19         0.00000E+00
    0.22817E-19         0.20023E-19         0.00000E+00
    0.20256E-19        -0.23283E-21         0.00000E+00
    0.18452E-19        -0.12573E-19         0.00000E+00
    0.17346E-19        -0.97789E-20         0.00000E+00
    0.14144E-19        -0.18161E-19         0.00000E+00
    0.10827E-19        -0.11642E-19         0.00000E+00
    0.89058E-20        -0.69849E-20         0.00000E+00
    0.96043E-20        -0.32596E-20         0.00000E+00
    0.10477E-19        -0.60536E-20         0.00000E+00
    0.10303E-19         0.12107E-19         0.00000E+00
    0.10245E-19         0.46566E-21         0.00000E+00
    0.97789E-20        -0.95461E-20         0.00000E+00
    0.10885E-19        -0.65193E-20         0.00000E+00
    0.11118E-19         0.00000E+00         0.00000E+00
    0.11292E-19         0.10245E-19         0.00000E+00
    0.11234E-19        -0.18626E-20         0.00000E+00
    0.10186E-19        -0.51223E-20         0.00000E+00
    0.10361E-19         0.00000E+00         0.00000E+00
    0.12689E-19        -0.55879E-20         0.00000E+00
    0.14785E-19        -0.12573E-19         0.00000E+00
    0.14785E-19        -0.14435E-19         0.00000E+00
    0.14901E-19        -0.17229E-19         0.00000E+00
    0.13970E-19        -0.30734E-19         0.00000E+00
    0.11816E-19        -0.16065E-19         0.00000E+00
    0.10710E-19        -0.28871E-19         0.00000E+00
    0.11467E-19        -0.33528E-19         0.00000E+00
    0.14610E-19        -0.28405E-19         0.00000E+00
    0.16822E-19        -0.15367E-19         0.00000E+00
    0.17637E-19        -0.14435E-19         0.00000E+00
    0.16997E-19        -0.16298E-19         0.00000E+00
    0.16415E-19        -0.23283E-20         0.00000E+00
    0.17579E-19         0.18626E-20         0.00000E+00
    0.16298E-20         0.32596E-20         0.00000E+00
    0.32596E-20        -0.93132E-21         0.00000E+00
    0.42492E-20        -0.27940E-20         0.00000E+00
    0.43074E-20         0.97789E-20         0.00000E+00
    0.34925E-20        -0.44238E-20         0.00000E+00
    0.16298E-20        -0.24214E-19         0.00000E+00
    0.87311E-21        -0.23283E-19         0.00000E+00
    0.21537E-20        -0.16065E-19         0.00000E+00
    0.40745E-20        -0.19092E-19         0.00000E+00
    0.55879E-20        -0.19092E-19         0.00000E+00
    0.68103E-20        -0.16764E-19         0.00000E+00
    0.76834E-20         0.18626E-20         0.00000E+00
    0.53551E-20        -0.11176E-19         0.00000E+00
    0.42492E-20        -0.13970E-20         0.00000E+00
    0.48894E-20         0.18626E-20         0.00000E+00
    0.75670E-21         0.13737E-19         0.00000E+00
   -0.23283E-21         0.14435E-19         0.00000E+00
   -0.40745E-21         0.20489E-19         0.00000E+00
    0.87311E-21         0.16298E-19         0.00000E+00
    0.41910E-20         0.58208E-20         0.00000E+00
    0.40163E-20        -0.88476E-20         0.00000E+00
    0.39581E-20        -0.41910E-20         0.00000E+00
    0.51223E-20        -0.15134E-19         0.00000E+00
    0.79744E-20        -0.12340E-19         0.00000E+00
    0.82073E-20        -0.37253E-20         0.00000E+00
    0.71013E-20        -0.37253E-20         0.00000E+00
    0.54715E-20        -0.30268E-20         0.00000E+00
    0.33178E-20         0.18161E-19         0.00000E+00
    0.27940E-20        -0.46566E-21         0.00000E+00
    0.14552E-20        -0.67521E-20         0.00000E+00
    0.64028E-21        -0.11642E-19         0.00000E+00
    0.00000E+00         0.65193E-20         0.00000E+00
   -0.14552E-20         0.60536E-20         0.00000E+00
   -0.81491E-21        -0.27940E-20         0.00000E+00
   -0.25029E-20         0.34925E-20         0.00000E+00
   -0.37253E-20        -0.93132E-21         0.00000E+00
   -0.48312E-20        -0.14435E-19         0.00000E+00
   -0.47730E-20        -0.10710E-19         0.00000E+00
   -0.50641E-20        -0.13039E-19         0.00000E+00
   -0.48312E-20        -0.17229E-19         0.00000E+00
   -0.51223E-20        -0.26543E-19         0.00000E+00
   -0.22701E-20        -0.19558E-19         0.00000E+00
   -0.58208E-22        -0.29337E-19         0.00000E+00
   -0.11059E-20        -0.32829E-19         0.00000E+00
   -0.24447E-20        -0.33993E-19         0.00000E+00
   -0.32014E-20        -0.20955E-19         0.00000E+00
   -0.36089E-20        -0.83819E-20         0.00000E+00
   -0.42492E-20        -0.14435E-19         0.00000E+00
   -0.43656E-20        -0.18626E-20         0.00000E+00
   -0.48312E-20         0.00000E+00         0.00000E+00
   -0.12806E-19         0.27940E-20         0.00000E+00
   -0.13737E-19        -0.23283E-21         0.00000E+00
   -0.12456E-19        -0.93132E-20         0.00000E+00
   -0.11409E-19         0.13970E-20         0.00000E+00
   -0.90804E-20        -0.65193E-20         0.00000E+00
   -0.71013E-20        -0.21420E-19         0.00000E+00
   -0.68685E-20        -0.20256E-19         0.00000E+00
   -0.70431E-20        -0.23516E-19         0.00000E+00
   -0.68685E-20        -0.26776E-19         0.00000E+00
   -0.47730E-20        -0.26310E-19         0.00000E+00
   -0.31432E-20        -0.21420E-19         0.00000E+00
   -0.23283E-20         0.51223E-20         0.00000E+00
   -0.18626E-20        -0.90804E-20         0.00000E+00
   -0.12806E-20         0.93132E-21         0.00000E+00
   -0.11059E-20         0.37253E-20         0.00000E+00
    0.17462E-21         0.15134E-19         0.00000E+00
    0.20373E-20         0.10477E-19         0.00000E+00
    0.34925E-20         0.16298E-19         0.00000E+00
    0.23865E-20         0.15832E-19         0.00000E+00
    0.12806E-20         0.00000E+00         0.00000E+00
    0.32596E-20        -0.14901E-19         0.00000E+00
    0.50059E-20        -0.46566E-20         0.00000E+00
    0.39581E-20        -0.19092E-19         0.00000E+00
    0.19791E-20        -0.12107E-19         0.00000E+00
    0.17462E-20        -0.13970E-20         0.00000E+00
    0.29686E-20        -0.60536E-20         0.00000E+00
    0.47730E-20        -0.46566E-21         0.00000E+00
    0.48894E-20         0.22119E-19         0.00000E+00
    0.23283E-20         0.74506E-20         0.00000E+00
    0.21537E-20        -0.44238E-20         0.00000E+00
    0.15134E-20        -0.51223E-20         0.00000E+00
    0.23510E-37         0.14435E-19         0.00000E+00
   -0.64028E-21         0.11176E-19         0.00000E+00
   -0.19791E-20         0.27940E-20         0.00000E+00
   -0.30268E-20         0.79162E-20         0.00000E+00
   -0.34925E-21        -0.30268E-20         0.00000E+00
   -0.25611E-20        -0.16298E-20         0.00000E+00
   -0.47148E-20        -0.46566E-20         0.00000E+00
   -0.47148E-20        -0.15134E-19         0.00000E+00
   -0.55879E-20        -0.74506E-20         0.00000E+00
   -0.64611E-20        -0.33062E-19         0.00000E+00
   -0.65193E-20        -0.26077E-19         0.00000E+00
   -0.68103E-20        -0.33993E-19         0.00000E+00
   -0.43656E-20        -0.37951E-19         0.00000E+00
   -0.30850E-20        -0.33295E-19         0.00000E+00
   -0.41910E-20        -0.16997E-19         0.00000E+00
   -0.45402E-20        -0.72177E-20         0.00000E+00
   -0.72177E-20        -0.79162E-20         0.00000E+00
   -0.85565E-20         0.27940E-20         0.00000E+00
   -0.78580E-20        -0.46566E-20         0.00000E+00
   -0.52969E-20         0.23283E-20         0.00000E+00
   -0.57044E-20         0.51223E-20         0.00000E+00
   -0.83819E-20        -0.55879E-20         0.00000E+00
   -0.10652E-19         0.13970E-20         0.00000E+00
   -0.10186E-19        -0.14203E-19         0.00000E+00
   -0.90222E-20        -0.27008E-19         0.00000E+00
   -0.59372E-20        -0.32596E-19         0.00000E+00
   -0.32596E-20        -0.25611E-19         0.00000E+00
   -0.25611E-20        -0.33993E-19         0.00000E+00
   -0.19791E-20        -0.28405E-19         0.00000E+00
   -0.24447E-20        -0.27241E-19         0.00000E+00
   -0.29104E-20         0.37253E-20         0.00000E+00
   -0.14552E-20        -0.14435E-19         0.00000E+00
   -0.11059E-20         0.69849E-21         0.00000E+00
    0.40745E-21        -0.46566E-20         0.00000E+00
    0.75670E-21         0.11176E-19         0.00000E+00
   -0.64028E-21         0.10710E-19         0.00000E+00
   -0.27940E-20         0.19558E-19         0.00000E+00
   -0.11059E-20         0.14901E-19         0.00000E+00
    0.58208E-21        -0.46566E-20         0.00000E+00
    0.12224E-20        -0.20023E-19         0.00000E+00
   -0.10477E-20        -0.62864E-20         0.00000E+00
   -0.75670E-21        -0.19558E-19         0.00000E+00
    0.23283E-21        -0.60536E-20         0.00000E+00
   -0.11642E-21         0.46566E-21         0.00000E+00
   -0.21537E-20        -0.46566E-21         0.00000E+00
   -0.58208E-20         0.13970E-20         0.00000E+00
   -0.66357E-20         0.23749E-19         0.00000E+00
   -0.62282E-20         0.60536E-20         0.00000E+00
   -0.45984E-20        -0.12573E-19         0.00000E+00
   -0.25029E-20        -0.27940E-20         0.00000E+00
   -0.26776E-20         0.16764E-19         0.00000E+00
   -0.25029E-20         0.74506E-20         0.00000E+00
   -0.11642E-20         0.55879E-20         0.00000E+00
   -0.46566E-21         0.51223E-20         0.00000E+00
   -0.32596E-20         0.93132E-21         0.00000E+00
   -0.29686E-20        -0.23283E-20         0.00000E+00
   -0.12224E-20        -0.11176E-19         0.00000E+00
   -0.11642E-21        -0.14901E-19         0.00000E+00
    0.29104E-20        -0.19092E-19         0.00000E+00
    0.50641E-20        -0.28871E-19         0.00000E+00
    0.40745E-20        -0.18161E-19         0.00000E+00
    0.93132E-21        -0.30268E-19         0.00000E+00
   -0.20373E-20        -0.35856E-19         0.00000E+00
   -0.56461E-20        -0.28405E-19         0.00000E+00
   -0.69267E-20        -0.10710E-19         0.00000E+00
   -0.67521E-20        -0.74506E-20         0.00000E+00
   -0.27940E-20        -0.97789E-20         0.00000E+00
    0.23510E-37         0.18626E-20         0.00000E+00
   -0.20955E-20         0.37253E-20         0.00000E+00
   -0.47730E-20        -0.46566E-21         0.00000E+00
   -0.25611E-20         0.46566E-21         0.00000E+00
   -0.11642E-21        -0.46566E-21         0.00000E+00
    0.25611E-20        -0.41910E-20         0.00000E+00
    0.20955E-20        -0.14901E-19         0.00000E+00
    0.15134E-20        -0.30734E-19         0.00000E+00
   -0.46566E-21        -0.34925E-19         0.00000E+00
   -0.11059E-20        -0.29337E-19         0.00000E+00
   -0.29104E-20        -0.30268E-19         0.00000E+00
   -0.47730E-20        -0.24680E-19         0.00000E+00
   -0.48894E-20        -0.29569E-19         0.00000E+00
   -0.34343E-20        -0.27940E-20         0.00000E+00
   -0.16298E-20        -0.19558E-19         0.00000E+00
   -0.40745E-21        -0.46566E-20         0.00000E+00
    0.00000E+00        -0.55879E-20         0.00000E+00
   -0.87311E-21         0.13504E-19         0.00000E+00
    0.17462E-20         0.74506E-20         0.00000E+00
    0.32596E-20         0.18626E-19         0.00000E+00
    0.23865E-20         0.15134E-19         0.00000E+00
    0.15134E-20        -0.10012E-19         0.00000E+00
    0.21537E-20        -0.19092E-19         0.00000E+00
    0.37253E-20         0.00000E+00         0.00000E+00
    0.26776E-20        -0.21886E-19         0.00000E+00
    0.30268E-20        -0.10710E-19         0.00000E+00
    0.37835E-20        -0.13970E-20         0.00000E+00
    0.51805E-20         0.37253E-20         0.00000E+00
    0.84983E-20        -0.51223E-20         0.00000E+00
    0.11933E-19         0.22352E-19         0.00000E+00
    0.13912E-19        -0.23283E-20         0.00000E+00
    0.13621E-19        -0.83819E-20         0.00000E+00
    0.13155E-19        -0.79162E-20         0.00000E+00
    0.13679E-19         0.13970E-19         0.00000E+00
    0.11933E-19         0.17695E-19         0.00000E+00
    0.83819E-20         0.46566E-20         0.00000E+00
    0.72177E-20         0.79162E-20         0.00000E+00
    0.80327E-20         0.18626E-20         0.00000E+00
    0.87311E-20        -0.41910E-20         0.00000E+00
    0.71595E-20        -0.74506E-20         0.00000E+00
    0.40745E-20        -0.79162E-20         0.00000E+00
    0.52387E-21        -0.23283E-19         0.00000E+00
   -0.11059E-20        -0.27474E-19         0.00000E+00
   -0.16298E-20        -0.12107E-19         0.00000E+00
   -0.18044E-20        -0.25611E-19         0.00000E+00
    0.15716E-20        -0.32131E-19         0.00000E+00
    0.26193E-20        -0.20955E-19         0.00000E+00
    0.34343E-20        -0.65193E-20         0.00000E+00
    0.26193E-20        -0.12107E-19         0.00000E+00
    0.98953E-21        -0.18161E-19         0.00000E+00
   -0.34925E-21         0.00000E+00         0.00000E+00
    0.81491E-21         0.51223E-20         0.00000E+00
   -0.64028E-21         0.16298E-20         0.00000E+00
   -0.20373E-20         0.46566E-21         0.00000E+00
   -0.29104E-20        -0.65193E-20         0.00000E+00
   -0.20955E-20        -0.11176E-19         0.00000E+00
   -0.52387E-21        -0.17229E-19         0.00000E+00
    0.13970E-20        -0.29337E-19         0.00000E+00
    0.19791E-20        -0.31665E-19         0.00000E+00
    0.23283E-20        -0.31199E-19         0.00000E+00
    0.35507E-20        -0.28871E-19         0.00000E+00
    0.47148E-20        -0.23283E-19         0.00000E+00
    0.52387E-20        -0.28871E-19         0.00000E+00
    0.37253E-20        -0.37253E-20         0.00000E+00
    0.19791E-20        -0.20489E-19         0.00000E+00
    0.34925E-21        -0.13970E-20         0.00000E+00
    0.14552E-20        -0.69849E-20         0.00000E+00
    0.35507E-20         0.65193E-20         0.00000E+00
    0.29686E-20         0.72177E-20         0.00000E+00
    0.17462E-20         0.15832E-19         0.00000E+00
    0.58790E-20         0.60536E-20         0.00000E+00
    0.71013E-20        -0.51223E-20         0.00000E+00
    0.64028E-20        -0.18626E-19         0.00000E+00
    0.62864E-20        -0.88476E-20         0.00000E+00
    0.77416E-20        -0.16764E-19         0.00000E+00
    0.79744E-20        -0.12573E-19         0.00000E+00
    0.83819E-20        -0.46566E-20         0.00000E+00
    0.92550E-20        -0.18626E-20         0.00000E+00
    0.56461E-20        -0.46566E-21         0.00000E+00
    0.22701E-20         0.17229E-19         0.00000E+00
    0.29104E-21         0.46566E-20         0.00000E+00
    0.23510E-37        -0.11176E-19         0.00000E+00
    0.81491E-21        -0.79162E-20         0.00000E+00
    0.87311E-21         0.13970E-19         0.00000E+00
    0.23865E-20         0.23749E-19         0.00000E+00
    0.33760E-20         0.14901E-19         0.00000E+00
    0.19209E-20         0.10710E-19         0.00000E+00
    0.12806E-20         0.27940E-20         0.00000E+00
    0.00000E+00        -0.65193E-20         0.00000E+00
    0.20955E-20        -0.51223E-20         0.00000E+00
    0.50059E-20        -0.93132E-20         0.00000E+00
    0.70431E-20        -0.15367E-19         0.00000E+00
    0.70431E-20        -0.27474E-19         0.00000E+00
    0.71595E-20        -0.10710E-19         0.00000E+00
    0.79744E-20        -0.30734E-19         0.00000E+00
    0.72760E-20        -0.36787E-19         0.00000E+00
    0.73342E-20        -0.23283E-19         0.00000E+00
    0.82073E-20        -0.16065E-19         0.00000E+00
    0.86729E-20         0.18626E-20         0.00000E+00
    0.66939E-20        -0.13039E-19         0.00000E+00
    0.65775E-20        -0.93132E-21         0.00000E+00
    0.54715E-20         0.23283E-20         0.00000E+00
    0.62864E-20         0.74506E-20         0.00000E+00
    0.65193E-20         0.27940E-20         0.00000E+00
    0.65193E-20        -0.60536E-20         0.00000E+00
    0.44238E-20        -0.74506E-20         0.00000E+00
    0.28522E-20        -0.21188E-19         0.00000E+00
    0.26776E-20        -0.30734E-19         0.00000E+00
    0.31432E-20        -0.36089E-19         0.00000E+00
    0.51223E-20        -0.38883E-19         0.00000E+00
    0.57044E-20        -0.27940E-19         0.00000E+00
    0.25611E-20        -0.13504E-19         0.00000E+00
   -0.40745E-21        -0.20023E-19         0.00000E+00
   -0.58208E-21        -0.27940E-20         0.00000E+00
   -0.23283E-21        -0.14435E-19         0.00000E+00
   -0.75670E-21         0.41910E-20         0.00000E+00
   -0.22701E-20        -0.74506E-20         0.00000E+00
   -0.46566E-20         0.53551E-20         0.00000E+00
   -0.54133E-20         0.11409E-19         0.00000E+00
   -0.38417E-20         0.83819E-20         0.00000E+00
   -0.61700E-20         0.55879E-20         0.00000E+00
   -0.81491E-20        -0.69849E-20         0.00000E+00
   -0.52969E-20        -0.23283E-19         0.00000E+00
   -0.40745E-20        -0.14435E-19         0.00000E+00
   -0.23865E-20        -0.25146E-19         0.00000E+00
   -0.12806E-20        -0.10710E-19         0.00000E+00
   -0.75670E-21        -0.14901E-19         0.00000E+00
    0.69849E-21        -0.46566E-20         0.00000E+00
    0.27940E-20         0.74506E-20         0.00000E+00
    0.34925E-20         0.25611E-19         0.00000E+00
    0.27940E-20         0.10710E-19         0.00000E+00
   -0.34925E-21        -0.27940E-20         0.00000E+00
   -0.39581E-20        -0.93132E-21         0.00000E+00
   -0.57044E-20         0.13504E-19         0.00000E+00
   -0.68685E-20         0.16764E-19         0.00000E+00
   -0.51805E-20         0.13504E-19         0.00000E+00
   -0.36089E-20         0.88476E-20         0.00000E+00
   -0.13970E-20         0.32596E-20         0.00000E+00
    0.23283E-21        -0.10245E-19         0.00000E+00
    0.52387E-21        -0.12107E-19         0.00000E+00
    0.81491E-21        -0.20023E-19         0.00000E+00
    0.18626E-20        -0.20489E-19         0.00000E+00
    0.26776E-20        -0.29802E-19         0.00000E+00
    0.44820E-20        -0.16764E-19         0.00000E+00
    0.45402E-20        -0.31665E-19         0.00000E+00
    0.50641E-20        -0.33528E-19         0.00000E+00
    0.40163E-20        -0.20489E-19         0.00000E+00
    0.29104E-21        -0.69849E-20         0.00000E+00
   -0.58208E-21        -0.53551E-20         0.00000E+00
    0.22119E-20        -0.93132E-20         0.00000E+00
    0.26193E-20        -0.27940E-20         0.00000E+00
    0.28522E-20         0.37253E-20         0.00000E+00
    0.15541E-19         0.11642E-20         0.00000E+00
    0.15716E-19         0.72177E-20         0.00000E+00
    0.14552E-19         0.27940E-20         0.00000E+00
    0.10652E-19         0.10710E-19         0.00000E+00
    0.61700E-20        -0.10710E-19         0.00000E+00
    0.32596E-20        -0.28405E-19         0.00000E+00
    0.24447E-20        -0.31199E-19         0.00000E+00
   -0.11642E-20        -0.31665E-19         0.00000E+00
   -0.30268E-20        -0.27008E-19         0.00000E+00
   -0.12224E-20        -0.13737E-19         0.00000E+00
    0.18044E-20        -0.20489E-19         0.00000E+00
    0.29104E-21         0.23283E-20         0.00000E+00
   -0.24447E-20        -0.83819E-20         0.00000E+00
   -0.51805E-20         0.48894E-20         0.00000E+00
   -0.43656E-20        -0.41910E-20         0.00000E+00
   -0.33760E-20         0.97789E-20         0.00000E+00
   -0.29104E-20         0.65193E-20         0.00000E+00
   -0.30268E-20         0.83819E-20         0.00000E+00
   -0.20373E-20         0.16298E-19         0.00000E+00
   -0.27940E-20        -0.39581E-20         0.00000E+00
   -0.62282E-20        -0.24214E-19         0.00000E+00
   -0.59372E-20        -0.16764E-19         0.00000E+00
   -0.72760E-20        -0.26543E-19         0.00000E+00
   -0.71595E-20        -0.16298E-19         0.00000E+00
   -0.10245E-19        -0.46566E-20         0.00000E+00
   -0.13155E-19        -0.41910E-20         0.00000E+00
   -0.12282E-19        -0.65193E-20         0.00000E+00
   -0.83819E-20         0.15367E-19         0.00000E+00
   -0.49477E-20         0.97789E-20         0.00000E+00
   -0.36671E-20         0.27940E-20         0.00000E+00
   -0.20955E-20         0.79162E-20         0.00000E+00
   -0.13970E-20         0.16298E-19         0.00000E+00
   -0.98953E-21         0.16298E-19         0.00000E+00
   -0.23283E-21         0.41910E-20         0.00000E+00
    0.12224E-20         0.18626E-20         0.00000E+00
    0.69849E-21        -0.32596E-20         0.00000E+00
   -0.34925E-21        -0.12107E-19         0.00000E+00
    0.75670E-21        -0.14901E-19         0.00000E+00
    0.64028E-21        -0.17695E-19         0.00000E+00
   -0.13388E-20        -0.15367E-19         0.00000E+00
   -0.45984E-20        -0.28871E-19         0.00000E+00
   -0.53551E-20        -0.18859E-19         0.00000E+00
   -0.50641E-20        -0.31665E-19         0.00000E+00
   -0.63446E-20        -0.30734E-19         0.00000E+00
   -0.59954E-20        -0.19092E-19         0.00000E+00
   -0.10477E-20        -0.10245E-19         0.00000E+00
    0.21537E-20        -0.17462E-19         0.00000E+00
    0.30850E-20        -0.13039E-19         0.00000E+00
    0.33178E-20        -0.18626E-20         0.00000E+00
    0.34343E-20         0.18626E-20         0.00000E+00
   -0.40163E-20         0.72177E-20         0.00000E+00
   -0.59372E-20         0.76834E-20         0.00000E+00
   -0.57626E-20         0.10943E-19         0.00000E+00
   -0.38417E-20         0.12340E-19         0.00000E+00
   -0.11059E-20        -0.97789E-20         0.00000E+00
    0.23283E-21        -0.21420E-19         0.00000E+00
   -0.12806E-20        -0.21653E-19         0.00000E+00
   -0.18626E-20        -0.19092E-19         0.00000E+00
   -0.29104E-21        -0.34925E-19         0.00000E+00
    0.46566E-21        -0.19791E-19         0.00000E+00
    0.81491E-21        -0.28871E-19         0.00000E+00
    0.24447E-20         0.65193E-20         0.00000E+00
    0.43656E-20        -0.74506E-20         0.00000E+00
    0.57626E-20         0.79162E-20         0.00000E+00
    0.39581E-20         0.23283E-21         0.00000E+00
    0.29104E-20         0.62864E-20         0.00000E+00
    0.32014E-20         0.37253E-20         0.00000E+00
    0.43656E-20         0.11409E-19         0.00000E+00
    0.45402E-20         0.97789E-20         0.00000E+00
    0.64028E-20        -0.23283E-20         0.00000E+00
    0.68103E-20        -0.18394E-19         0.00000E+00
    0.54715E-20        -0.13970E-19         0.00000E+00
    0.38999E-20        -0.18161E-19         0.00000E+00
    0.19791E-20        -0.74506E-20         0.00000E+00
    0.18626E-20         0.30268E-20         0.00000E+00
    0.29686E-20        -0.37253E-20         0.00000E+00
    0.19791E-20        -0.55879E-20         0.00000E+00
   -0.98953E-21         0.13504E-19         0.00000E+00
   -0.11059E-20        -0.11642E-20         0.00000E+00
    0.14552E-20        -0.81491E-20         0.00000E+00
    0.31432E-20        -0.37253E-20         0.00000E+00
    0.47148E-20         0.16298E-19         0.00000E+00
    0.49477E-20         0.11176E-19         0.00000E+00
    0.48894E-20         0.41910E-20         0.00000E+00
    0.37835E-20         0.23283E-20         0.00000E+00
    0.25611E-20         0.41910E-20         0.00000E+00
    0.93132E-21        -0.97789E-20         0.00000E+00
   -0.16880E-20        -0.10245E-19         0.00000E+00
   -0.30268E-20        -0.15134E-19         0.00000E+00
   -0.20373E-20        -0.81491E-20         0.00000E+00
   -0.16880E-20        -0.18626E-19         0.00000E+00
   -0.42492E-20        -0.10943E-19         0.00000E+00
   -0.60536E-20        -0.34459E-19         0.00000E+00
   -0.33178E-20        -0.34459E-19         0.00000E+00
   -0.11642E-20        -0.29337E-19         0.00000E+00
   -0.87311E-21        -0.24214E-19         0.00000E+00
   -0.27358E-20        -0.16065E-19         0.00000E+00
   -0.30268E-20        -0.13970E-19         0.00000E+00
   -0.34343E-20         0.00000E+00         0.00000E+00
   -0.27940E-20        -0.23283E-20         0.00000E+00
   -0.55879E-20         0.55879E-20         0.00000E+00
   -0.33760E-20         0.46566E-20         0.00000E+00
   -0.98953E-21         0.13970E-20         0.00000E+00
    0.18044E-20        -0.27940E-20         0.00000E+00
    0.16298E-20        -0.13970E-19         0.00000E+00
    0.16880E-20        -0.23749E-19         0.00000E+00
    0.52387E-20        -0.24680E-19         0.00000E+00
    0.67521E-20        -0.31432E-19         0.00000E+00
    0.71013E-20        -0.36089E-19         0.00000E+00
    0.58208E-20        -0.18394E-19         0.00000E+00
    0.40745E-20        -0.20489E-19         0.00000E+00
    0.20373E-20         0.41910E-20         0.00000E+00
    0.46566E-21        -0.74506E-20         0.00000E+00
   -0.26193E-20         0.15367E-19         0.00000E+00
   -0.18044E-20        -0.18626E-20         0.00000E+00
   -0.20955E-20         0.11642E-19         0.00000E+00
   -0.36671E-20         0.69849E-20         0.00000E+00
   -0.45984E-20         0.11642E-19         0.00000E+00
   -0.62864E-20         0.67521E-20         0.00000E+00
   -0.73342E-20        -0.55879E-20         0.00000E+00
   -0.75670E-20        -0.17462E-19         0.00000E+00
   -0.52387E-20        -0.17695E-19         0.00000E+00
   -0.17462E-20        -0.24214E-19         0.00000E+00
    0.13970E-20        -0.62864E-20         0.00000E+00
    0.22119E-20        -0.39581E-20         0.00000E+00
    0.18044E-20         0.93132E-21         0.00000E+00
    0.46566E-21         0.41910E-20         0.00000E+00
   -0.52387E-21         0.21886E-19         0.00000E+00
   -0.13970E-20         0.93132E-21         0.00000E+00
   -0.34925E-20        -0.11642E-19         0.00000E+00
   -0.45402E-20        -0.65193E-20         0.00000E+00
   -0.57044E-20         0.15832E-19         0.00000E+00
   -0.57044E-20         0.53551E-20         0.00000E+00
   -0.52969E-20         0.18626E-20         0.00000E+00
   -0.38999E-20         0.79162E-20         0.00000E+00
   -0.22119E-20         0.93132E-21         0.00000E+00
    0.11642E-21        -0.13504E-19         0.00000E+00
    0.42492E-20        -0.10245E-19         0.00000E+00
    0.66939E-20        -0.19092E-19         0.00000E+00
    0.71013E-20        -0.12573E-19         0.00000E+00
    0.70431E-20        -0.23283E-19         0.00000E+00
    0.87311E-20        -0.46566E-20         0.00000E+00
    0.66939E-20        -0.21886E-19         0.00000E+00
    0.13970E-20        -0.35856E-19         0.00000E+00
   -0.15716E-20        -0.28405E-19         0.00000E+00
   -0.29104E-20        -0.14435E-19         0.00000E+00
   -0.34925E-20        -0.15134E-19         0.00000E+00
   -0.41327E-20        -0.10943E-19         0.00000E+00
   -0.55297E-20         0.46566E-21         0.00000E+00
   -0.60536E-20        -0.18626E-20         0.00000E+00
   -0.47730E-20        -0.23283E-20         0.00000E+00
   -0.43074E-20         0.00000E+00         0.00000E+00
   -0.41910E-20        -0.41910E-20         0.00000E+00
   -0.55879E-20        -0.20955E-20         0.00000E+00
   -0.55297E-20        -0.17928E-19         0.00000E+00
   -0.30850E-20        -0.28405E-19         0.00000E+00
   -0.27358E-20        -0.28871E-19         0.00000E+00
   -0.38417E-20        -0.29104E-19         0.00000E+00
   -0.61700E-20        -0.26776E-19         0.00000E+00
   -0.71013E-20        -0.16531E-19         0.00000E+00
   -0.62864E-20        -0.17229E-19         0.00000E+00
   -0.44238E-20        -0.93132E-21         0.00000E+00
   -0.32596E-20        -0.93132E-21         0.00000E+00
   -0.23283E-20         0.15367E-19         0.00000E+00
   -0.30268E-20         0.20955E-20         0.00000E+00
   -0.41910E-20         0.90804E-20         0.00000E+00
   -0.98953E-21         0.46566E-21         0.00000E+00
    0.25611E-20         0.10245E-19         0.00000E+00
    0.51223E-20         0.72177E-20         0.00000E+00
    0.64028E-20        -0.65193E-20         0.00000E+00
    0.76834E-20        -0.16298E-19         0.00000E+00
    0.46566E-20        -0.13737E-19         0.00000E+00
   -0.46566E-21        -0.19558E-19         0.00000E+00
   -0.28522E-20        -0.16531E-19         0.00000E+00
   -0.22119E-20        -0.69849E-20         0.00000E+00
   -0.13388E-20        -0.93132E-21         0.00000E+00
   -0.46566E-21         0.69849E-20         0.00000E+00
   -0.93132E-21         0.28173E-19         0.00000E+00
   -0.58208E-21         0.60536E-20         0.00000E+00
   -0.18044E-20        -0.37253E-20         0.00000E+00
   -0.37253E-20         0.32596E-20         0.00000E+00
   -0.58790E-20         0.21653E-19         0.00000E+00
   -0.83237E-20         0.17462E-19         0.00000E+00
   -0.10419E-19         0.00000E+00         0.00000E+00
   -0.10594E-19         0.41910E-20         0.00000E+00
   -0.11176E-19        -0.41910E-20         0.00000E+00
   -0.12165E-19        -0.13970E-19         0.00000E+00
   -0.15425E-19        -0.11642E-19         0.00000E+00
   -0.17579E-19        -0.16298E-19         0.00000E+00
   -0.17055E-19        -0.13504E-19         0.00000E+00
   -0.15949E-19        -0.23283E-19         0.00000E+00
   -0.15367E-19        -0.15367E-19         0.00000E+00
   -0.13795E-19        -0.13504E-19         0.00000E+00
   -0.97207E-20        -0.31665E-19         0.00000E+00
   -0.59372E-20        -0.27940E-19         0.00000E+00
   -0.21537E-20        -0.24214E-19         0.00000E+00
   -0.40745E-21        -0.13039E-19         0.00000E+00
    0.23865E-20        -0.14668E-19         0.00000E+00
    0.56461E-20        -0.93132E-20         0.00000E+00
    0.77998E-20         0.18626E-20         0.00000E+00
   -0.57626E-20         0.37253E-20         0.00000E+00
   -0.65193E-20        -0.37253E-20         0.00000E+00
   -0.41910E-20        -0.11176E-19         0.00000E+00
   -0.17462E-20        -0.18626E-20         0.00000E+00
   -0.81491E-21        -0.23283E-19         0.00000E+00
   -0.35507E-20        -0.26543E-19         0.00000E+00
   -0.46566E-20        -0.28871E-19         0.00000E+00
   -0.26776E-20        -0.30268E-19         0.00000E+00
   -0.11642E-20        -0.25611E-19         0.00000E+00
    0.58208E-21        -0.21420E-19         0.00000E+00
    0.12224E-20        -0.22352E-19         0.00000E+00
    0.12806E-20        -0.27940E-20         0.00000E+00
    0.69849E-21        -0.48894E-20         0.00000E+00
    0.17462E-20         0.86147E-20         0.00000E+00
    0.50641E-20        -0.23283E-20         0.00000E+00
    0.69849E-20         0.69849E-20         0.00000E+00
    0.38417E-20         0.00000E+00         0.00000E+00
    0.69849E-21         0.88476E-20         0.00000E+00
   -0.13970E-20         0.27940E-20         0.00000E+00
   -0.50059E-20        -0.37253E-20         0.00000E+00
   -0.62864E-20        -0.16764E-19         0.00000E+00
   -0.52387E-20        -0.46566E-20         0.00000E+00
   -0.29686E-20        -0.13039E-19         0.00000E+00
   -0.41910E-20        -0.72177E-20         0.00000E+00
   -0.59372E-20        -0.11642E-20         0.00000E+00
   -0.77416E-20        -0.44238E-20         0.00000E+00
   -0.58790E-20        -0.51223E-20         0.00000E+00
   -0.32014E-20         0.21886E-19         0.00000E+00
   -0.22701E-20         0.65193E-20         0.00000E+00
   -0.23865E-20         0.00000E+00         0.00000E+00
   -0.52387E-21         0.93132E-21         0.00000E+00
    0.18044E-20         0.22817E-19         0.00000E+00
    0.33760E-20         0.18161E-19         0.00000E+00
    0.41910E-20         0.69849E-20         0.00000E+00
    0.18044E-20         0.65193E-20         0.00000E+00
    0.00000E+00         0.41910E-20         0.00000E+00
   -0.18626E-20        -0.69849E-20         0.00000E+00
   -0.16880E-20        -0.10245E-19         0.00000E+00
   -0.23865E-20        -0.10245E-19         0.00000E+00
   -0.27940E-20        -0.15367E-19         0.00000E+00
   -0.33178E-20        -0.36322E-19         0.00000E+00
   -0.58208E-21        -0.19092E-19         0.00000E+00
    0.87311E-21        -0.25611E-19         0.00000E+00
   -0.58208E-22        -0.37253E-19         0.00000E+00
   -0.20955E-20        -0.33528E-19         0.00000E+00
   -0.47730E-20        -0.25611E-19         0.00000E+00
   -0.71595E-20        -0.16997E-19         0.00000E+00
   -0.71013E-20        -0.22817E-19         0.00000E+00
   -0.86729E-20        -0.13039E-19         0.00000E+00
   -0.93132E-20        -0.93132E-21         0.00000E+00
    0.12456E-19         0.86147E-20         0.00000E+00
    0.11525E-19         0.32596E-20         0.00000E+00
    0.66357E-20        -0.44238E-20         0.00000E+00
    0.22119E-20        -0.69849E-20         0.00000E+00
   -0.11642E-21        -0.12107E-19         0.00000E+00
   -0.46566E-21        -0.20955E-19         0.00000E+00
   -0.93132E-21        -0.27707E-19         0.00000E+00
   -0.27940E-20        -0.30268E-19         0.00000E+00
   -0.46566E-20        -0.30035E-19         0.00000E+00
   -0.47730E-20        -0.19325E-19         0.00000E+00
   -0.58790E-20        -0.28638E-19         0.00000E+00
   -0.46566E-20         0.20955E-20         0.00000E+00
   -0.40745E-20        -0.10943E-19         0.00000E+00
   -0.23283E-20         0.30268E-20         0.00000E+00
   -0.17462E-20        -0.16764E-19         0.00000E+00
   -0.28522E-20         0.13737E-19         0.00000E+00
   -0.26776E-20         0.10943E-19         0.00000E+00
   -0.18626E-20         0.19092E-19         0.00000E+00
   -0.28522E-20         0.60536E-20         0.00000E+00
   -0.30268E-20         0.32596E-20         0.00000E+00
   -0.15134E-20        -0.13271E-19         0.00000E+00
   -0.16298E-20        -0.93132E-20         0.00000E+00
   -0.26776E-20        -0.18626E-19         0.00000E+00
   -0.15716E-20        -0.41910E-20         0.00000E+00
   -0.64028E-21         0.18626E-20         0.00000E+00
   -0.75670E-21        -0.11642E-20         0.00000E+00
   -0.18044E-20        -0.65193E-20         0.00000E+00
   -0.25029E-20         0.11176E-19         0.00000E+00
   -0.87311E-21         0.18626E-20         0.00000E+00
    0.75670E-21        -0.44238E-20         0.00000E+00
    0.12806E-20        -0.46566E-20         0.00000E+00
    0.22119E-20         0.17695E-19         0.00000E+00
    0.26193E-20         0.11409E-19         0.00000E+00
    0.32596E-20         0.65193E-20         0.00000E+00
    0.51223E-20         0.69849E-20         0.00000E+00
    0.68685E-20         0.74506E-20         0.00000E+00
    0.67521E-20        -0.20955E-20         0.00000E+00
    0.41910E-20        -0.60536E-20         0.00000E+00
    0.59954E-20        -0.14203E-19         0.00000E+00
    0.73342E-20        -0.12806E-19         0.00000E+00
    0.40745E-20        -0.27940E-19         0.00000E+00
    0.12806E-20        -0.16997E-19         0.00000E+00
    0.29104E-21        -0.33062E-19         0.00000E+00
    0.18044E-20        -0.33760E-19         0.00000E+00
    0.29104E-20        -0.31199E-19         0.00000E+00
    0.28522E-20        -0.16298E-19         0.00000E+00
    0.29686E-20        -0.15832E-19         0.00000E+00
    0.17462E-20        -0.17695E-19         0.00000E+00
    0.16298E-20        -0.93132E-20         0.00000E+00
    0.18044E-20        -0.32596E-20         0.00000E+00
    0.19791E-20         0.18626E-20         0.00000E+00
    0.32596E-20         0.34925E-20         0.00000E+00
    0.54715E-20         0.76834E-20         0.00000E+00
    0.69267E-20         0.13970E-20         0.00000E+00
    0.82655E-20        -0.97789E-20         0.00000E+00
    0.77998E-20        -0.17695E-19         0.00000E+00
    0.64028E-20        -0.20722E-19         0.00000E+00
    0.60536E-20        -0.22817E-19         0.00000E+00
    0.58208E-20        -0.32363E-19         0.00000E+00
    0.56461E-20        -0.12806E-19         0.00000E+00
    0.31432E-20        -0.22585E-19         0.00000E+00
    0.15716E-20         0.00000E+00         0.00000E+00
    0.34925E-21        -0.10710E-19         0.00000E+00
    0.58208E-22        -0.69849E-21         0.00000E+00
   -0.75670E-21        -0.11176E-19         0.00000E+00
   -0.20373E-20         0.14668E-19         0.00000E+00
   -0.14552E-20         0.90804E-20         0.00000E+00
   -0.98953E-21         0.19791E-19         0.00000E+00
   -0.12806E-20         0.13039E-19         0.00000E+00
   -0.14552E-20        -0.41910E-20         0.00000E+00
    0.58208E-21        -0.20722E-19         0.00000E+00
    0.26776E-20        -0.95461E-20         0.00000E+00
    0.43656E-20        -0.21420E-19         0.00000E+00
    0.38999E-20        -0.51223E-20         0.00000E+00
    0.41910E-20        -0.46566E-20         0.00000E+00
    0.56461E-20        -0.23283E-20         0.00000E+00
    0.61700E-20         0.46566E-21         0.00000E+00
    0.33178E-20         0.20722E-19         0.00000E+00
   -0.11059E-20         0.93132E-20         0.00000E+00
   -0.16880E-20        -0.81491E-20         0.00000E+00
   -0.14552E-20        -0.55879E-20         0.00000E+00
   -0.10477E-20         0.13737E-19         0.00000E+00
   -0.93132E-21         0.17229E-19         0.00000E+00
   -0.29686E-20         0.62864E-20         0.00000E+00
   -0.54133E-20         0.72177E-20         0.00000E+00
   -0.50059E-20         0.27940E-20         0.00000E+00
   -0.49477E-20        -0.46566E-21         0.00000E+00
   -0.31432E-20        -0.65193E-20         0.00000E+00
   -0.35507E-20        -0.13970E-19         0.00000E+00
   -0.30850E-20        -0.14203E-19         0.00000E+00
   -0.23283E-20        -0.26077E-19         0.00000E+00
   -0.52387E-21        -0.12806E-19         0.00000E+00
    0.46566E-21        -0.36554E-19         0.00000E+00
    0.17462E-21        -0.37253E-19         0.00000E+00
   -0.17462E-21        -0.31432E-19         0.00000E+00
    0.75670E-21        -0.17229E-19         0.00000E+00
    0.10477E-20        -0.14435E-19         0.00000E+00
    0.12224E-20        -0.17229E-19         0.00000E+00
    0.69849E-21        -0.32596E-20         0.00000E+00
   -0.17462E-21        -0.18626E-20         0.00000E+00
    0.12573E-19         0.11642E-20         0.00000E+00
    0.11059E-19         0.46566E-20         0.00000E+00
    0.10827E-19        -0.46566E-21         0.00000E+00
    0.10943E-19         0.46566E-21         0.00000E+00
    0.95461E-20        -0.10477E-19         0.00000E+00
    0.88476E-20        -0.13970E-19         0.00000E+00
    0.91968E-20        -0.15367E-19         0.00000E+00
    0.74506E-20        -0.15367E-19         0.00000E+00
    0.43656E-20        -0.24214E-19         0.00000E+00
    0.33760E-20        -0.14203E-19         0.00000E+00
    0.32596E-20        -0.97789E-20         0.00000E+00
    0.19791E-20         0.46566E-20         0.00000E+00
    0.18626E-20        -0.10710E-19         0.00000E+00
    0.17462E-21         0.79162E-20         0.00000E+00
   -0.19209E-20        -0.18626E-20         0.00000E+00
   -0.26193E-20         0.12107E-19         0.00000E+00
   -0.22119E-20         0.83819E-20         0.00000E+00
   -0.39581E-20         0.19092E-19         0.00000E+00
   -0.39581E-20         0.13970E-19         0.00000E+00
   -0.23283E-20        -0.10245E-19         0.00000E+00
   -0.30268E-20        -0.22352E-19         0.00000E+00
   -0.40745E-20        -0.12573E-19         0.00000E+00
   -0.52969E-20        -0.13970E-19         0.00000E+00
   -0.52969E-20        -0.11176E-19         0.00000E+00
   -0.39581E-20        -0.46566E-20         0.00000E+00
   -0.31432E-20        -0.62864E-20         0.00000E+00
   -0.27940E-20        -0.46566E-21         0.00000E+00
    0.23283E-21         0.21420E-19         0.00000E+00
    0.38999E-20         0.13970E-19         0.00000E+00
    0.37835E-20        -0.79162E-20         0.00000E+00
    0.16880E-20        -0.18626E-20         0.00000E+00
    0.87311E-21         0.12340E-19         0.00000E+00
    0.93132E-21         0.16065E-19         0.00000E+00
    0.21537E-20         0.11874E-19         0.00000E+00
    0.23283E-20         0.10012E-19         0.00000E+00
    0.93132E-21         0.60536E-20         0.00000E+00
    0.10477E-20        -0.18626E-20         0.00000E+00
   -0.40745E-21        -0.83819E-20         0.00000E+00
    0.69849E-21        -0.19092E-19         0.00000E+00
    0.25611E-20        -0.17462E-19         0.00000E+00
    0.17462E-20        -0.32829E-19         0.00000E+00
    0.30268E-20        -0.16764E-19         0.00000E+00
    0.26776E-20        -0.30734E-19         0.00000E+00
    0.18626E-20        -0.36322E-19         0.00000E+00
    0.19209E-20        -0.30966E-19         0.00000E+00
    0.81491E-21        -0.17229E-19         0.00000E+00
   -0.11642E-21        -0.14668E-19         0.00000E+00
   -0.81491E-21        -0.14435E-19         0.00000E+00
   -0.87311E-21         0.23283E-20         0.00000E+00
   -0.18626E-20         0.13970E-20         0.00000E+00
    0.91968E-20         0.48894E-20         0.00000E+00
    0.87311E-20         0.86147E-20         0.00000E+00
    0.61118E-20         0.86147E-20         0.00000E+00
    0.29104E-20         0.86147E-20         0.00000E+00
    0.19209E-20        -0.69849E-20         0.00000E+00
    0.93132E-21        -0.14668E-19         0.00000E+00
    0.15134E-20        -0.16531E-19         0.00000E+00
    0.27358E-20        -0.13504E-19         0.00000E+00
    0.54133E-20        -0.15367E-19         0.00000E+00
    0.43656E-20        -0.16531E-19         0.00000E+00
    0.55297E-20        -0.13504E-19         0.00000E+00
    0.75670E-20         0.14435E-19         0.00000E+00
    0.61700E-20        -0.13970E-19         0.00000E+00
    0.58208E-20         0.16764E-19         0.00000E+00
    0.54715E-20         0.41910E-20         0.00000E+00
    0.28522E-20         0.17229E-19         0.00000E+00
    0.27940E-20         0.10245E-19         0.00000E+00
    0.41910E-20         0.18626E-19         0.00000E+00
    0.47730E-20         0.79162E-20         0.00000E+00
    0.38417E-20        -0.74506E-20         0.00000E+00
    0.20955E-20        -0.15832E-19         0.00000E+00
    0.69849E-21        -0.60536E-20         0.00000E+00
    0.52387E-21        -0.14901E-19         0.00000E+00
    0.00000E+00        -0.15134E-19         0.00000E+00
    0.64028E-21        -0.55879E-20         0.00000E+00
   -0.11642E-20        -0.41910E-20         0.00000E+00
   -0.87311E-21        -0.69849E-20         0.00000E+00
   -0.18626E-20         0.15832E-19         0.00000E+00
   -0.34925E-20         0.60536E-20         0.00000E+00
   -0.37253E-20         0.00000E+00         0.00000E+00
   -0.35507E-20        -0.41910E-20         0.00000E+00
   -0.21537E-20         0.16298E-19         0.00000E+00
   -0.15716E-20         0.13271E-19         0.00000E+00
   -0.26193E-20         0.12573E-19         0.00000E+00
   -0.34343E-20         0.16298E-19         0.00000E+00
   -0.24447E-20         0.41910E-20         0.00000E+00
   -0.25611E-20        -0.37253E-20         0.00000E+00
   -0.69849E-21        -0.88476E-20         0.00000E+00
   -0.20955E-20        -0.14668E-19         0.00000E+00
   -0.98953E-21        -0.21420E-19         0.00000E+00
   -0.69849E-21        -0.35390E-19         0.00000E+00
   -0.58208E-22        -0.20955E-19         0.00000E+00
    0.98953E-21        -0.27940E-19         0.00000E+00
    0.17462E-20        -0.37486E-19         0.00000E+00
    0.23283E-20        -0.28173E-19         0.00000E+00
    0.13970E-20        -0.14901E-19         0.00000E+00
    0.00000E+00        -0.97789E-20         0.00000E+00
   -0.10477E-20        -0.12340E-19         0.00000E+00
    0.23283E-21        -0.93132E-21         0.00000E+00
    0.23283E-20         0.13970E-20         0.00000E+00
   -0.15018E-19         0.41910E-20         0.00000E+00
   -0.15600E-19         0.11642E-19         0.00000E+00
   -0.13097E-19         0.11409E-19         0.00000E+00
   -0.10245E-19         0.51223E-20         0.00000E+00
   -0.70431E-20        -0.13737E-19         0.00000E+00
   -0.38999E-20        -0.20023E-19         0.00000E+00
   -0.24447E-20        -0.16298E-19         0.00000E+00
   -0.37253E-20        -0.18626E-19         0.00000E+00
   -0.40745E-20        -0.20955E-19         0.00000E+00
   -0.50059E-20        -0.55879E-20         0.00000E+00
   -0.55297E-20        -0.20489E-19         0.00000E+00
   -0.47730E-20         0.39581E-20         0.00000E+00
   -0.20373E-20        -0.65193E-20         0.00000E+00
   -0.93132E-21         0.13504E-19         0.00000E+00
   -0.17462E-21         0.69849E-20         0.00000E+00
    0.52387E-21         0.20023E-19         0.00000E+00
    0.10477E-20         0.11642E-19         0.00000E+00
   -0.46566E-21         0.19092E-19         0.00000E+00
   -0.34925E-20         0.19558E-19         0.00000E+00
   -0.45984E-20        -0.46566E-20         0.00000E+00
   -0.37253E-20        -0.12573E-19         0.00000E+00
   -0.20955E-20        -0.11642E-19         0.00000E+00
    0.46566E-21        -0.19558E-19         0.00000E+00
    0.23865E-20        -0.13737E-19         0.00000E+00
    0.27358E-20        -0.32596E-20         0.00000E+00
    0.23865E-20        -0.23283E-20         0.00000E+00
    0.16298E-20        -0.60536E-20         0.00000E+00
    0.14552E-20         0.26543E-19         0.00000E+00
    0.20373E-20         0.37253E-20         0.00000E+00
    0.24447E-20         0.00000E+00         0.00000E+00
    0.16880E-20        -0.13970E-20         0.00000E+00
   -0.58208E-22         0.14901E-19         0.00000E+00
    0.11642E-21         0.12107E-19         0.00000E+00
    0.98953E-21         0.90804E-20         0.00000E+00
    0.16298E-20         0.16531E-19         0.00000E+00
    0.22701E-20         0.37253E-20         0.00000E+00
    0.23283E-20        -0.25611E-20         0.00000E+00
   -0.58208E-22        -0.74506E-20         0.00000E+00
    0.00000E+00        -0.13737E-19         0.00000E+00
    0.75670E-21        -0.24680E-19         0.00000E+00
   -0.81491E-21        -0.31199E-19         0.00000E+00
   -0.15716E-20        -0.18394E-19         0.00000E+00
   -0.33178E-20        -0.30035E-19         0.00000E+00
   -0.35507E-20        -0.37253E-19         0.00000E+00
   -0.36671E-20        -0.29337E-19         0.00000E+00
   -0.34343E-20        -0.19558E-19         0.00000E+00
    0.29104E-21        -0.13504E-19         0.00000E+00
    0.24447E-20        -0.93132E-20         0.00000E+00
    0.16880E-20        -0.37253E-20         0.00000E+00
   -0.23283E-21         0.48894E-20         0.00000E+00
   -0.60536E-20         0.23283E-20         0.00000E+00
   -0.65193E-20         0.12573E-19         0.00000E+00
   -0.80909E-20         0.88476E-20         0.00000E+00
   -0.10245E-19         0.32596E-20         0.00000E+00
   -0.12922E-19        -0.11642E-19         0.00000E+00
   -0.14668E-19        -0.32363E-19         0.00000E+00
   -0.11700E-19        -0.24214E-19         0.00000E+00
   -0.79162E-20        -0.26077E-19         0.00000E+00
   -0.50059E-20        -0.26077E-19         0.00000E+00
   -0.16880E-20        -0.15367E-19         0.00000E+00
    0.18044E-20        -0.18626E-19         0.00000E+00
    0.00000E+00         0.23283E-20         0.00000E+00
   -0.23865E-20        -0.10477E-19         0.00000E+00
   -0.64028E-21         0.69849E-21         0.00000E+00
    0.22119E-20        -0.93132E-21         0.00000E+00
    0.18626E-20         0.18859E-19         0.00000E+00
    0.17462E-20         0.14901E-19         0.00000E+00
    0.13970E-20         0.22817E-19         0.00000E+00
    0.19209E-20         0.22817E-19         0.00000E+00
    0.12806E-20        -0.13970E-20         0.00000E+00
   -0.23283E-21        -0.10710E-19         0.00000E+00
   -0.24447E-20        -0.11176E-19         0.00000E+00
   -0.48312E-20        -0.24680E-19         0.00000E+00
   -0.64028E-20        -0.13970E-19         0.00000E+00
   -0.66939E-20        -0.41910E-20         0.00000E+00
   -0.56461E-20        -0.69849E-20         0.00000E+00
   -0.50059E-20        -0.27940E-20         0.00000E+00
   -0.34343E-20         0.22817E-19         0.00000E+00
   -0.47148E-20         0.69849E-20         0.00000E+00
   -0.53551E-20        -0.69849E-20         0.00000E+00
   -0.33178E-20        -0.27940E-20         0.00000E+00
   -0.19209E-20         0.18161E-19         0.00000E+00
   -0.29686E-20         0.17229E-19         0.00000E+00
   -0.51805E-20         0.10943E-19         0.00000E+00
   -0.57044E-20         0.11176E-19         0.00000E+00
   -0.37253E-20        -0.25611E-20         0.00000E+00
   -0.23865E-20        -0.53551E-20         0.00000E+00
    0.75670E-21        -0.11642E-19         0.00000E+00
    0.22119E-20        -0.17229E-19         0.00000E+00
    0.25029E-20        -0.25611E-19         0.00000E+00
    0.25611E-20        -0.29802E-19         0.00000E+00
    0.26193E-20        -0.14901E-19         0.00000E+00
    0.28522E-20        -0.29337E-19         0.00000E+00
    0.34925E-20        -0.33528E-19         0.00000E+00
    0.15716E-20        -0.26077E-19         0.00000E+00
   -0.12806E-20        -0.15832E-19         0.00000E+00
   -0.44820E-20        -0.16531E-19         0.00000E+00
   -0.66357E-20        -0.74506E-20         0.00000E+00
   -0.61700E-20         0.93132E-21         0.00000E+00
   -0.56461E-20         0.20955E-20         0.00000E+00
   -0.79162E-20         0.00000E+00         0.00000E+00
   -0.68685E-20         0.97789E-20         0.00000E+00
   -0.26193E-20         0.34925E-20         0.00000E+00
    0.19791E-20         0.93132E-21         0.00000E+00
    0.36671E-20        -0.62864E-20         0.00000E+00
    0.24447E-20        -0.26543E-19         0.00000E+00
    0.21537E-20        -0.31199E-19         0.00000E+00
    0.23283E-21        -0.34925E-19         0.00000E+00
    0.69849E-21        -0.34226E-19         0.00000E+00
    0.58208E-22        -0.25611E-19         0.00000E+00
   -0.58208E-21        -0.21886E-19         0.00000E+00
    0.18626E-20         0.27940E-20         0.00000E+00
    0.39581E-20        -0.12573E-19         0.00000E+00
    0.23865E-20         0.39581E-20         0.00000E+00
    0.15716E-20        -0.60536E-20         0.00000E+00
    0.19209E-20         0.21420E-19         0.00000E+00
    0.26193E-20         0.13970E-19         0.00000E+00
    0.39581E-20         0.19325E-19         0.00000E+00
    0.47148E-20         0.22817E-19         0.00000E+00
    0.47730E-20         0.18626E-20         0.00000E+00
    0.59372E-20        -0.16065E-19         0.00000E+00
    0.77998E-20        -0.51223E-20         0.00000E+00
    0.84983E-20        -0.17462E-19         0.00000E+00
    0.78580E-20        -0.62864E-20         0.00000E+00
    0.66357E-20        -0.69849E-21         0.00000E+00
    0.41327E-20        -0.79162E-20         0.00000E+00
    0.26776E-20        -0.27940E-20         0.00000E+00
    0.20373E-20         0.25611E-19         0.00000E+00
    0.87311E-21         0.14668E-19         0.00000E+00
    0.00000E+00        -0.55879E-20         0.00000E+00
   -0.20955E-20        -0.27940E-20         0.00000E+00
   -0.39581E-20         0.23516E-19         0.00000E+00
   -0.51805E-20         0.16764E-19         0.00000E+00
   -0.24447E-20         0.74506E-20         0.00000E+00
    0.19209E-20        -0.46566E-21         0.00000E+00
    0.35507E-20        -0.65193E-20         0.00000E+00
    0.41327E-20        -0.12573E-19         0.00000E+00
    0.40745E-20        -0.22817E-19         0.00000E+00
    0.52387E-20        -0.18161E-19         0.00000E+00
    0.44238E-20        -0.23749E-19         0.00000E+00
    0.33760E-20        -0.31665E-19         0.00000E+00
    0.36089E-20        -0.12340E-19         0.00000E+00
    0.20955E-20        -0.27474E-19         0.00000E+00
    0.11642E-20        -0.31199E-19         0.00000E+00
    0.14552E-20        -0.20023E-19         0.00000E+00
    0.21537E-20        -0.76834E-20         0.00000E+00
    0.87311E-21        -0.41910E-20         0.00000E+00
   -0.75670E-21        -0.41910E-20         0.00000E+00
   -0.17462E-21         0.00000E+00         0.00000E+00
    0.58208E-22        -0.32596E-20         0.00000E+00
    0.48312E-20         0.41910E-20         0.00000E+00
    0.36089E-20         0.65193E-20         0.00000E+00
    0.11642E-20        -0.51223E-20         0.00000E+00
   -0.93132E-21        -0.27940E-20         0.00000E+00
    0.23283E-21        -0.16298E-19         0.00000E+00
    0.27940E-20        -0.29104E-19         0.00000E+00
    0.47730E-20        -0.30035E-19         0.00000E+00
    0.46566E-20        -0.29337E-19         0.00000E+00
    0.29104E-20        -0.30268E-19         0.00000E+00
    0.13970E-20        -0.16298E-19         0.00000E+00
   -0.58208E-22        -0.18161E-19         0.00000E+00
   -0.32596E-20         0.51223E-20         0.00000E+00
   -0.56461E-20        -0.11642E-19         0.00000E+00
   -0.66939E-20         0.10245E-19         0.00000E+00
   -0.71595E-20        -0.27940E-20         0.00000E+00
   -0.80909E-20         0.20722E-19         0.00000E+00
   -0.85565E-20         0.16764E-19         0.00000E+00
   -0.89058E-20         0.14435E-19         0.00000E+00
   -0.64028E-20         0.11176E-19         0.00000E+00
   -0.34925E-20        -0.69849E-20         0.00000E+00
   -0.12806E-20        -0.18626E-19         0.00000E+00
   -0.20373E-20        -0.60536E-20         0.00000E+00
   -0.20955E-20        -0.20955E-19         0.00000E+00
   -0.58208E-21        -0.14203E-19         0.00000E+00
    0.26776E-20        -0.39581E-20         0.00000E+00
    0.34343E-20        -0.46566E-21         0.00000E+00
    0.27940E-20        -0.46566E-21         0.00000E+00
    0.21537E-20         0.33993E-19         0.00000E+00
    0.17462E-20         0.14435E-19         0.00000E+00
    0.15134E-20        -0.46566E-21         0.00000E+00
    0.18044E-20         0.23283E-20         0.00000E+00
    0.40163E-20         0.17229E-19         0.00000E+00
    0.62864E-20         0.10943E-19         0.00000E+00
    0.72760E-20         0.00000E+00         0.00000E+00
    0.36671E-20         0.23283E-21         0.00000E+00
    0.34925E-21        -0.23283E-21         0.00000E+00
   -0.29104E-20        -0.74506E-20         0.00000E+00
   -0.57044E-20        -0.18161E-19         0.00000E+00
   -0.86729E-20        -0.76834E-20         0.00000E+00
   -0.11933E-19        -0.15600E-19         0.00000E+00
   -0.11874E-19        -0.34692E-19         0.00000E+00
   -0.10943E-19        -0.13737E-19         0.00000E+00
   -0.97789E-20        -0.25379E-19         0.00000E+00
   -0.72760E-20        -0.38417E-19         0.00000E+00
   -0.47148E-20        -0.29104E-19         0.00000E+00
   -0.52387E-21        -0.23982E-19         0.00000E+00
    0.35507E-20        -0.55879E-20         0.00000E+00
    0.75088E-20        -0.13039E-19         0.00000E+00
    0.85565E-20        -0.30268E-20         0.00000E+00
    0.88476E-20        -0.23283E-20         0.00000E+00
    0.15134E-20         0.37253E-20         0.00000E+00
    0.34925E-20         0.51223E-20         0.00000E+00
    0.40745E-20         0.11642E-20         0.00000E+00
    0.34343E-20         0.51223E-20         0.00000E+00
    0.18626E-20        -0.19092E-19         0.00000E+00
    0.11642E-21        -0.28638E-19         0.00000E+00
   -0.18626E-20        -0.26776E-19         0.00000E+00
   -0.34925E-20        -0.25844E-19         0.00000E+00
   -0.25611E-20        -0.27707E-19         0.00000E+00
   -0.29104E-21        -0.19092E-19         0.00000E+00
    0.13388E-20        -0.16764E-19         0.00000E+00
    0.24447E-20         0.12107E-19         0.00000E+00
    0.30268E-20        -0.88476E-20         0.00000E+00
    0.30268E-20         0.83819E-20         0.00000E+00
    0.33760E-20        -0.25611E-20         0.00000E+00
    0.50641E-20         0.15832E-19         0.00000E+00
    0.52969E-20         0.19092E-19         0.00000E+00
    0.40163E-20         0.17229E-19         0.00000E+00
    0.75670E-21         0.10477E-19         0.00000E+00
   -0.31432E-20        -0.39581E-20         0.00000E+00
   -0.51223E-20        -0.16997E-19         0.00000E+00
   -0.34925E-20        -0.11176E-19         0.00000E+00
   -0.93132E-21        -0.26077E-19         0.00000E+00
   -0.13388E-20        -0.10710E-19         0.00000E+00
   -0.22701E-20        -0.13970E-19         0.00000E+00
   -0.18044E-20         0.46566E-21         0.00000E+00
   -0.31432E-20         0.46566E-20         0.00000E+00
   -0.15134E-20         0.26077E-19         0.00000E+00
    0.17462E-20         0.12107E-19         0.00000E+00
    0.18044E-20         0.46566E-21         0.00000E+00
    0.13970E-20         0.11642E-20         0.00000E+00
    0.10477E-20         0.13039E-19         0.00000E+00
   -0.17462E-20         0.14435E-19         0.00000E+00
   -0.42492E-20         0.69849E-20         0.00000E+00
   -0.46566E-20         0.74506E-20         0.00000E+00
   -0.30268E-20         0.32596E-20         0.00000E+00
   -0.46566E-21        -0.23283E-20         0.00000E+00
   -0.18044E-20        -0.74506E-20         0.00000E+00
   -0.58208E-21        -0.46566E-20         0.00000E+00
    0.29686E-20        -0.15367E-19         0.00000E+00
    0.15716E-20        -0.30966E-19         0.00000E+00
    0.13970E-20        -0.16764E-19         0.00000E+00
    0.22701E-20        -0.36089E-19         0.00000E+00
    0.37835E-20        -0.44471E-19         0.00000E+00
    0.34925E-20        -0.40047E-19         0.00000E+00
    0.22701E-20        -0.21420E-19         0.00000E+00
    0.11642E-21        -0.18161E-19         0.00000E+00
    0.11642E-21        -0.16298E-19         0.00000E+00
   -0.81491E-21        -0.13970E-20         0.00000E+00
   -0.20373E-20         0.00000E+00         0.00000E+00
   -0.33178E-20         0.27940E-20         0.00000E+00
   -0.41910E-20         0.44238E-20         0.00000E+00
   -0.40163E-20         0.32596E-20         0.00000E+00
   -0.37253E-20         0.32596E-20         0.00000E+00
   -0.33760E-20        -0.11874E-19         0.00000E+00
   -0.43074E-20        -0.20023E-19         0.00000E+00
   -0.45402E-20        -0.24680E-19         0.00000E+00
   -0.37253E-20        -0.27940E-19         0.00000E+00
   -0.57044E-20        -0.25379E-19         0.00000E+00
   -0.96043E-20        -0.13970E-19         0.00000E+00
   -0.10710E-19        -0.20955E-19         0.00000E+00
   -0.10070E-19         0.27940E-20         0.00000E+00
   -0.89640E-20        -0.81491E-20         0.00000E+00
   -0.84401E-20         0.48894E-20         0.00000E+00
   -0.73924E-20        -0.44238E-20         0.00000E+00
   -0.92550E-20         0.21420E-19         0.00000E+00
   -0.78580E-20         0.12107E-19         0.00000E+00
   -0.40163E-20         0.12573E-19         0.00000E+00
   -0.26776E-20         0.22352E-19         0.00000E+00
   -0.25611E-20         0.46566E-21         0.00000E+00
   -0.93132E-21        -0.19092E-19         0.00000E+00
   -0.18626E-20        -0.14435E-19         0.00000E+00
   -0.48894E-20        -0.23982E-19         0.00000E+00
   -0.56461E-20        -0.79162E-20         0.00000E+00
   -0.66939E-20        -0.11409E-19         0.00000E+00
   -0.63446E-20        -0.16298E-20         0.00000E+00
   -0.52387E-20         0.72177E-20         0.00000E+00
   -0.61118E-20         0.21420E-19         0.00000E+00
   -0.73924E-20         0.10710E-19         0.00000E+00
   -0.76834E-20         0.93132E-21         0.00000E+00
   -0.75088E-20        -0.13970E-20         0.00000E+00
   -0.59372E-20         0.93132E-20         0.00000E+00
   -0.25611E-20         0.12107E-19         0.00000E+00
    0.93132E-21         0.97789E-20         0.00000E+00
    0.12806E-20         0.46566E-20         0.00000E+00
    0.00000E+00         0.69849E-20         0.00000E+00
   -0.28522E-20        -0.93132E-21         0.00000E+00
   -0.25029E-20        -0.93132E-20         0.00000E+00
   -0.23283E-20        -0.16298E-19         0.00000E+00
   -0.36671E-20        -0.97789E-20         0.00000E+00
   -0.48894E-20        -0.22817E-19         0.00000E+00
   -0.51805E-20        -0.19791E-19         0.00000E+00
   -0.60536E-20        -0.37486E-19         0.00000E+00
   -0.70431E-20        -0.43772E-19         0.00000E+00
   -0.89058E-20        -0.35157E-19         0.00000E+00
   -0.10128E-19        -0.13039E-19         0.00000E+00
   -0.11176E-19        -0.11642E-19         0.00000E+00
   -0.12747E-19        -0.12107E-19         0.00000E+00
   -0.14785E-19         0.58208E-20         0.00000E+00
   -0.15425E-19         0.13970E-20         0.00000E+00
    0.40745E-21         0.23283E-20         0.00000E+00
   -0.46566E-21         0.65193E-20         0.00000E+00
   -0.11642E-21         0.11642E-20         0.00000E+00
   -0.29104E-21        -0.46566E-21         0.00000E+00
    0.58208E-22        -0.12340E-19         0.00000E+00
    0.11642E-21        -0.17695E-19         0.00000E+00
   -0.12806E-20        -0.12107E-19         0.00000E+00
   -0.47148E-20        -0.24913E-19         0.00000E+00
   -0.58208E-20        -0.16298E-19         0.00000E+00
   -0.37835E-20        -0.11176E-19         0.00000E+00
   -0.30268E-20        -0.22817E-19         0.00000E+00
   -0.36671E-20         0.51223E-20         0.00000E+00
   -0.38999E-20        -0.11874E-19         0.00000E+00
   -0.30268E-20        -0.46566E-21         0.00000E+00
   -0.23283E-20        -0.60536E-20         0.00000E+00
   -0.11642E-20         0.17695E-19         0.00000E+00
   -0.10477E-20         0.11176E-19         0.00000E+00
   -0.45402E-20         0.12573E-19         0.00000E+00
   -0.40745E-20         0.20722E-19         0.00000E+00
   -0.38417E-20         0.00000E+00         0.00000E+00
   -0.48894E-20        -0.16298E-19         0.00000E+00
   -0.46566E-20        -0.16764E-19         0.00000E+00
   -0.29104E-20        -0.21420E-19         0.00000E+00
   -0.14552E-20        -0.41910E-20         0.00000E+00
   -0.23865E-20        -0.39581E-20         0.00000E+00
   -0.48312E-20         0.93132E-21         0.00000E+00
   -0.62282E-20         0.88476E-20         0.00000E+00
   -0.48894E-20         0.22352E-19         0.00000E+00
   -0.36671E-20         0.10943E-19         0.00000E+00
   -0.32014E-20         0.13970E-20         0.00000E+00
   -0.23865E-20        -0.16298E-20         0.00000E+00
   -0.27358E-20         0.60536E-20         0.00000E+00
   -0.56461E-20         0.69849E-20         0.00000E+00
   -0.62282E-20        -0.18626E-20         0.00000E+00
   -0.38417E-20         0.11642E-20         0.00000E+00
   -0.81491E-21         0.27940E-20         0.00000E+00
    0.33178E-20        -0.93132E-21         0.00000E+00
    0.29104E-20        -0.88476E-20         0.00000E+00
    0.69849E-21        -0.13970E-19         0.00000E+00
    0.40163E-20        -0.18161E-19         0.00000E+00
    0.67521E-20        -0.30501E-19         0.00000E+00
    0.81491E-20        -0.18394E-19         0.00000E+00
    0.80327E-20        -0.30966E-19         0.00000E+00
    0.66939E-20        -0.34459E-19         0.00000E+00
    0.48312E-20        -0.25379E-19         0.00000E+00
    0.40163E-20        -0.10943E-19         0.00000E+00
    0.32596E-20        -0.65193E-20         0.00000E+00
    0.29104E-20        -0.60536E-20         0.00000E+00
    0.36089E-20         0.76834E-20         0.00000E+00
    0.34925E-20         0.41910E-20         0.00000E+00
    0.12806E-20         0.46566E-20         0.00000E+00
    0.13970E-20         0.10245E-19         0.00000E+00
   -0.81491E-21         0.12573E-19         0.00000E+00
   -0.45984E-20         0.69849E-20         0.00000E+00
   -0.80909E-20        -0.27940E-20         0.00000E+00
   -0.98953E-20        -0.18626E-19         0.00000E+00
   -0.71013E-20        -0.20955E-19         0.00000E+00
   -0.26193E-20        -0.22352E-19         0.00000E+00
   -0.15716E-20        -0.23749E-19         0.00000E+00
   -0.81491E-21        -0.13737E-19         0.00000E+00
   -0.93132E-21        -0.20256E-19         0.00000E+00
   -0.34925E-21         0.39581E-20         0.00000E+00
   -0.19209E-20        -0.81491E-20         0.00000E+00
   -0.50641E-20         0.97789E-20         0.00000E+00
   -0.83237E-20        -0.37616E-36         0.00000E+00
   -0.10768E-19         0.12107E-19         0.00000E+00
   -0.10652E-19         0.14901E-19         0.00000E+00
   -0.90804E-20         0.14668E-19         0.00000E+00
   -0.84983E-20         0.44238E-20         0.00000E+00
   -0.55879E-20        -0.97789E-20         0.00000E+00
   -0.25611E-20        -0.19092E-19         0.00000E+00
   -0.12806E-20        -0.19092E-19         0.00000E+00
   -0.11059E-20        -0.28871E-19         0.00000E+00
   -0.34925E-21        -0.97789E-20         0.00000E+00
    0.69849E-21        -0.60536E-20         0.00000E+00
    0.32014E-20         0.18626E-20         0.00000E+00
    0.60536E-20         0.27940E-20         0.00000E+00
    0.65775E-20         0.18161E-19         0.00000E+00
    0.61118E-20         0.69849E-20         0.00000E+00
    0.77416E-20        -0.60536E-20         0.00000E+00
    0.75088E-20        -0.18626E-20         0.00000E+00
    0.72760E-20         0.74506E-20         0.00000E+00
    0.10245E-19         0.60536E-20         0.00000E+00
    0.11176E-19        -0.69849E-20         0.00000E+00
    0.90222E-20        -0.30268E-20         0.00000E+00
    0.53551E-20        -0.69849E-21         0.00000E+00
    0.45402E-20        -0.69849E-20         0.00000E+00
    0.59954E-20        -0.93132E-20         0.00000E+00
    0.83819E-20        -0.16764E-19         0.00000E+00
    0.69267E-20        -0.17695E-19         0.00000E+00
    0.26776E-20        -0.26776E-19         0.00000E+00
   -0.23283E-21        -0.11642E-19         0.00000E+00
   -0.22119E-20        -0.27940E-19         0.00000E+00
   -0.18626E-20        -0.32131E-19         0.00000E+00
    0.12224E-20        -0.34925E-19         0.00000E+00
    0.44820E-20        -0.14901E-19         0.00000E+00
    0.58790E-20        -0.97789E-20         0.00000E+00
    0.64611E-20        -0.79162E-20         0.00000E+00
    0.56461E-20         0.41910E-20         0.00000E+00
    0.48894E-20         0.69849E-20         0.00000E+00
   -0.69849E-20         0.72177E-20         0.00000E+00
   -0.65193E-20         0.60536E-20         0.00000E+00
   -0.33760E-20         0.10245E-19         0.00000E+00
   -0.34925E-21         0.74506E-20         0.00000E+00
    0.27358E-20        -0.11642E-20         0.00000E+00
    0.55879E-20        -0.19558E-19         0.00000E+00
    0.50059E-20        -0.28871E-19         0.00000E+00
    0.13970E-20        -0.21188E-19         0.00000E+00
   -0.29104E-21        -0.25844E-19         0.00000E+00
   -0.81491E-21        -0.12340E-19         0.00000E+00
   -0.12806E-20        -0.18626E-19         0.00000E+00
   -0.16298E-20         0.00000E+00         0.00000E+00
   -0.93132E-21        -0.46566E-20         0.00000E+00
    0.13388E-20         0.10477E-19         0.00000E+00
    0.54715E-20         0.23283E-21         0.00000E+00
    0.61700E-20         0.17928E-19         0.00000E+00
    0.75088E-20         0.65193E-20         0.00000E+00
    0.84983E-20         0.88476E-20         0.00000E+00
    0.79162E-20         0.88476E-20         0.00000E+00
    0.62864E-20        -0.15832E-19         0.00000E+00
    0.51805E-20        -0.21420E-19         0.00000E+00
    0.41910E-20        -0.19092E-19         0.00000E+00
    0.44238E-20        -0.28871E-19         0.00000E+00
    0.44238E-20        -0.13271E-19         0.00000E+00
    0.43074E-20        -0.79162E-20         0.00000E+00
    0.32596E-20        -0.32596E-20         0.00000E+00
    0.11059E-20         0.23283E-20         0.00000E+00
   -0.64028E-21         0.21886E-19         0.00000E+00
    0.87311E-21         0.55879E-20         0.00000E+00
    0.18044E-20        -0.13737E-19         0.00000E+00
    0.42492E-20        -0.69849E-20         0.00000E+00
    0.48312E-20         0.97789E-20         0.00000E+00
    0.25611E-20         0.41910E-20         0.00000E+00
    0.81491E-21         0.37253E-20         0.00000E+00
    0.81491E-21         0.27940E-20         0.00000E+00
    0.30268E-20         0.69849E-21         0.00000E+00
    0.48894E-20        -0.88476E-20         0.00000E+00
    0.29686E-20        -0.60536E-20         0.00000E+00
   -0.18626E-20        -0.65193E-20         0.00000E+00
   -0.30850E-20        -0.10012E-19         0.00000E+00
   -0.28522E-20        -0.18626E-19         0.00000E+00
   -0.15716E-20        -0.10012E-19         0.00000E+00
   -0.87311E-21        -0.26077E-19         0.00000E+00
   -0.75670E-21        -0.31199E-19         0.00000E+00
   -0.41910E-20        -0.33062E-19         0.00000E+00
   -0.72177E-20        -0.14901E-19         0.00000E+00
   -0.87894E-20        -0.11176E-19         0.00000E+00
   -0.73342E-20        -0.88476E-20         0.00000E+00
   -0.37253E-20        -0.51223E-20         0.00000E+00
   -0.11642E-20         0.37253E-20         0.00000E+00
   -0.34925E-21         0.37253E-20         0.00000E+00
    0.11642E-21         0.67521E-20         0.00000E+00
   -0.16880E-20         0.27940E-20         0.00000E+00
   -0.27940E-20         0.23283E-20         0.00000E+00
   -0.19209E-20        -0.14901E-19         0.00000E+00
   -0.16298E-20        -0.21886E-19         0.00000E+00
   -0.58208E-21        -0.25146E-19         0.00000E+00
    0.13970E-20        -0.20489E-19         0.00000E+00
    0.25611E-20        -0.24680E-19         0.00000E+00
    0.46566E-20        -0.15134E-19         0.00000E+00
    0.64028E-20        -0.24214E-19         0.00000E+00
    0.71595E-20         0.18626E-20         0.00000E+00
    0.65775E-20        -0.72177E-20         0.00000E+00
    0.48894E-20         0.10477E-19         0.00000E+00
    0.26776E-20        -0.65193E-20         0.00000E+00
    0.30268E-20         0.13504E-19         0.00000E+00
    0.51805E-20        -0.27940E-20         0.00000E+00
    0.61118E-20         0.79162E-20         0.00000E+00
    0.64611E-20         0.12107E-19         0.00000E+00
    0.60536E-20        -0.55879E-20         0.00000E+00
    0.46566E-20        -0.16298E-19         0.00000E+00
    0.34925E-20        -0.17695E-19         0.00000E+00
    0.18626E-20        -0.21420E-19         0.00000E+00
    0.10477E-20        -0.12107E-19         0.00000E+00
   -0.46566E-21        -0.76834E-20         0.00000E+00
   -0.58208E-22         0.23283E-21         0.00000E+00
    0.17462E-20         0.30268E-20         0.00000E+00
    0.36671E-20         0.14203E-19         0.00000E+00
    0.27940E-20         0.69849E-20         0.00000E+00
    0.40745E-21        -0.74506E-20         0.00000E+00
   -0.14552E-20        -0.15134E-19         0.00000E+00
   -0.34925E-21         0.83819E-20         0.00000E+00
    0.20955E-20         0.60536E-20         0.00000E+00
    0.29686E-20         0.23283E-20         0.00000E+00
    0.47730E-20        -0.18626E-20         0.00000E+00
    0.36089E-20        -0.48894E-20         0.00000E+00
    0.33178E-20        -0.93132E-20         0.00000E+00
    0.57626E-20        -0.10710E-19         0.00000E+00
    0.11118E-19        -0.30268E-20         0.00000E+00
    0.14086E-19        -0.12806E-19         0.00000E+00
    0.12631E-19        -0.16065E-19         0.00000E+00
    0.11874E-19        -0.10012E-19         0.00000E+00
    0.98371E-20        -0.24447E-19         0.00000E+00
    0.88476E-20        -0.31199E-19         0.00000E+00
    0.76252E-20        -0.15367E-19         0.00000E+00
    0.72760E-20        -0.95461E-20         0.00000E+00
    0.59954E-20        -0.74506E-20         0.00000E+00
    0.53551E-20        -0.16997E-19         0.00000E+00
    0.38417E-20        -0.97789E-20         0.00000E+00
    0.33760E-20        -0.23283E-21         0.00000E+00
    0.18044E-20         0.46566E-20         0.00000E+00
    0.13970E-20         0.81491E-20         0.00000E+00
    0.30850E-20         0.32596E-20         0.00000E+00
    0.47730E-20         0.41910E-20         0.00000E+00
    0.29104E-20        -0.10245E-19         0.00000E+00
    0.46566E-21        -0.16997E-19         0.00000E+00
   -0.69849E-21        -0.22585E-19         0.00000E+00
   -0.18626E-20        -0.28871E-19         0.00000E+00
   -0.52387E-21        -0.34226E-19         0.00000E+00
    0.12806E-20        -0.23283E-19         0.00000E+00
    0.16880E-20        -0.29337E-19         0.00000E+00
    0.20955E-20         0.93132E-21         0.00000E+00
    0.28522E-20        -0.10245E-19         0.00000E+00
    0.59954E-20         0.69849E-20         0.00000E+00
    0.76834E-20         0.39581E-20         0.00000E+00
    0.68103E-20         0.46566E-20         0.00000E+00
    0.57626E-20         0.13970E-20         0.00000E+00
    0.32014E-20         0.14203E-19         0.00000E+00
    0.13970E-20         0.65193E-20         0.00000E+00
    0.22119E-20        -0.69849E-20         0.00000E+00
    0.41910E-20        -0.17695E-19         0.00000E+00
    0.33760E-20        -0.55879E-20         0.00000E+00
    0.24447E-20        -0.20955E-19         0.00000E+00
    0.30268E-20        -0.72177E-20         0.00000E+00
    0.19209E-20        -0.32596E-20         0.00000E+00
    0.24447E-20         0.00000E+00         0.00000E+00
    0.27940E-20        -0.69849E-20         0.00000E+00
    0.20955E-20         0.20489E-19         0.00000E+00
    0.28522E-20         0.62864E-20         0.00000E+00
    0.57626E-20        -0.12340E-19         0.00000E+00
    0.69849E-20        -0.13737E-19         0.00000E+00
    0.67521E-20         0.48894E-20         0.00000E+00
    0.57044E-20         0.55879E-20         0.00000E+00
    0.48312E-20        -0.41910E-20         0.00000E+00
    0.30850E-20         0.51223E-20         0.00000E+00
    0.69849E-21         0.65193E-20         0.00000E+00
   -0.81491E-21        -0.79162E-20         0.00000E+00
   -0.27358E-20        -0.14435E-19         0.00000E+00
   -0.53551E-20        -0.13039E-19         0.00000E+00
   -0.64611E-20        -0.12573E-19         0.00000E+00
   -0.45984E-20        -0.23749E-19         0.00000E+00
   -0.52387E-21        -0.16298E-19         0.00000E+00
    0.23865E-20        -0.21886E-19         0.00000E+00
    0.41910E-20        -0.36787E-19         0.00000E+00
    0.71013E-20        -0.22352E-19         0.00000E+00
    0.89640E-20        -0.69849E-20         0.00000E+00
    0.10128E-19        -0.46566E-20         0.00000E+00
    0.75670E-20        -0.48894E-20         0.00000E+00
    0.36671E-20         0.60536E-20         0.00000E+00
    0.13970E-20         0.23283E-20         0.00000E+00
    0.14785E-19         0.67521E-20         0.00000E+00
    0.13737E-19         0.11409E-19         0.00000E+00
    0.11467E-19         0.27940E-20         0.00000E+00
    0.96625E-20         0.93132E-21         0.00000E+00
    0.11350E-19        -0.46566E-20         0.00000E+00
    0.12922E-19        -0.16065E-19         0.00000E+00
    0.14203E-19        -0.21420E-19         0.00000E+00
    0.13155E-19        -0.24680E-19         0.00000E+00
    0.94878E-20        -0.26077E-19         0.00000E+00
    0.54715E-20        -0.17695E-19         0.00000E+00
    0.37253E-20        -0.25146E-19         0.00000E+00
    0.47730E-20        -0.62864E-20         0.00000E+00
    0.59372E-20        -0.14435E-19         0.00000E+00
    0.56461E-20        -0.13970E-20         0.00000E+00
    0.82073E-20        -0.81491E-20         0.00000E+00
    0.90222E-20         0.12806E-19         0.00000E+00
    0.59954E-20         0.17229E-19         0.00000E+00
    0.52387E-20         0.18161E-19         0.00000E+00
    0.58790E-20         0.14435E-19         0.00000E+00
    0.34925E-20        -0.74506E-20         0.00000E+00
    0.13970E-20        -0.14668E-19         0.00000E+00
    0.20955E-20        -0.46566E-20         0.00000E+00
    0.36089E-20        -0.26776E-19         0.00000E+00
    0.55297E-20        -0.95461E-20         0.00000E+00
    0.64611E-20        -0.46566E-21         0.00000E+00
    0.47148E-20         0.27940E-20         0.00000E+00
    0.24447E-20        -0.55879E-20         0.00000E+00
    0.36671E-20         0.16065E-19         0.00000E+00
    0.49477E-20        -0.20955E-20         0.00000E+00
    0.34925E-20        -0.15832E-19         0.00000E+00
    0.27940E-20        -0.83819E-20         0.00000E+00
    0.13388E-20         0.12107E-19         0.00000E+00
   -0.46566E-21         0.14435E-19         0.00000E+00
   -0.26776E-20         0.76834E-20         0.00000E+00
   -0.40163E-20         0.41910E-20         0.00000E+00
    0.00000E+00         0.27940E-20         0.00000E+00
    0.69849E-21        -0.37253E-20         0.00000E+00
    0.29104E-21        -0.10477E-19         0.00000E+00
    0.19791E-20        -0.93132E-20         0.00000E+00
    0.34343E-20        -0.13970E-19         0.00000E+00
    0.25611E-20        -0.27474E-19         0.00000E+00
    0.34925E-21        -0.22119E-19         0.00000E+00
   -0.19791E-20        -0.20489E-19         0.00000E+00
   -0.28522E-20        -0.35390E-19         0.00000E+00
   -0.49477E-20        -0.26776E-19         0.00000E+00
   -0.60536E-20        -0.90804E-20         0.00000E+00
   -0.68103E-20        -0.27940E-20         0.00000E+00
   -0.57044E-20         0.46566E-21         0.00000E+00
   -0.28522E-20         0.65193E-20         0.00000E+00
   -0.17462E-20         0.39581E-20         0.00000E+00
    0.65193E-20         0.39581E-20         0.00000E+00
    0.64028E-20         0.15600E-19         0.00000E+00
    0.80327E-20         0.60536E-20         0.00000E+00
    0.84983E-20         0.30268E-20         0.00000E+00
    0.66357E-20        -0.60536E-20         0.00000E+00
    0.59954E-20        -0.19325E-19         0.00000E+00
    0.59372E-20        -0.18626E-19         0.00000E+00
    0.51223E-20        -0.18626E-19         0.00000E+00
    0.54715E-20        -0.16298E-19         0.00000E+00
    0.64028E-20        -0.19092E-19         0.00000E+00
    0.69267E-20        -0.24680E-19         0.00000E+00
    0.56461E-20        -0.55879E-20         0.00000E+00
    0.42492E-20        -0.16298E-19         0.00000E+00
    0.42492E-20         0.00000E+00         0.00000E+00
    0.23865E-20        -0.11176E-19         0.00000E+00
    0.64028E-21         0.18626E-19         0.00000E+00
    0.36671E-20         0.88476E-20         0.00000E+00
    0.60536E-20         0.14435E-19         0.00000E+00
    0.66357E-20         0.11874E-19         0.00000E+00
    0.75670E-20        -0.34925E-20         0.00000E+00
    0.93132E-20        -0.13039E-19         0.00000E+00
    0.89640E-20        -0.97789E-20         0.00000E+00
    0.69849E-20        -0.19558E-19         0.00000E+00
    0.27940E-20        -0.74506E-20         0.00000E+00
    0.52387E-21         0.23283E-20         0.00000E+00
    0.18044E-20        -0.46566E-21         0.00000E+00
    0.29686E-20         0.00000E+00         0.00000E+00
    0.98953E-21         0.20023E-19         0.00000E+00
   -0.23283E-20         0.27940E-20         0.00000E+00
   -0.38999E-20        -0.37253E-20         0.00000E+00
   -0.58790E-20        -0.37253E-20         0.00000E+00
   -0.68103E-20         0.21420E-19         0.00000E+00
   -0.83819E-20         0.19791E-19         0.00000E+00
   -0.74506E-20         0.10943E-19         0.00000E+00
   -0.69849E-20         0.00000E+00         0.00000E+00
   -0.83819E-20        -0.37253E-20         0.00000E+00
   -0.66357E-20        -0.97789E-20         0.00000E+00
   -0.44238E-20        -0.12806E-19         0.00000E+00
   -0.27940E-20        -0.18161E-19         0.00000E+00
   -0.19791E-20        -0.18626E-19         0.00000E+00
   -0.26776E-20        -0.21420E-19         0.00000E+00
   -0.18626E-20        -0.15367E-19         0.00000E+00
   -0.58208E-21        -0.25611E-19         0.00000E+00
   -0.11642E-21        -0.31199E-19         0.00000E+00
   -0.13388E-20        -0.12107E-19         0.00000E+00
   -0.32014E-20        -0.88476E-20         0.00000E+00
   -0.21537E-20        -0.30268E-20         0.00000E+00
   -0.13970E-20        -0.83819E-20         0.00000E+00
   -0.40745E-21        -0.23283E-20         0.00000E+00
    0.69849E-21         0.11642E-20         0.00000E+00
   -0.51223E-20        -0.46566E-21         0.00000E+00
   -0.33760E-20         0.83819E-20         0.00000E+00
   -0.26193E-20         0.37253E-20         0.00000E+00
   -0.17462E-20         0.58208E-20         0.00000E+00
   -0.23283E-21        -0.97789E-20         0.00000E+00
    0.34925E-21        -0.19791E-19         0.00000E+00
    0.10477E-20        -0.21420E-19         0.00000E+00
    0.13388E-20        -0.14435E-19         0.00000E+00
    0.23865E-20        -0.22352E-19         0.00000E+00
    0.23283E-20        -0.17462E-19         0.00000E+00
    0.15134E-20        -0.23283E-19         0.00000E+00
    0.13388E-20         0.32596E-20         0.00000E+00
    0.93132E-21        -0.10943E-19         0.00000E+00
   -0.17462E-21         0.00000E+00         0.00000E+00
    0.64028E-21        -0.46566E-21         0.00000E+00
    0.69849E-21         0.19558E-19         0.00000E+00
   -0.18626E-20         0.58208E-20         0.00000E+00
   -0.41327E-20         0.15600E-19         0.00000E+00
   -0.51223E-20         0.15832E-19         0.00000E+00
   -0.97207E-20         0.30268E-20         0.00000E+00
   -0.12165E-19        -0.14435E-19         0.00000E+00
   -0.10652E-19        -0.13039E-19         0.00000E+00
   -0.69849E-20        -0.20489E-19         0.00000E+00
   -0.32596E-20        -0.46566E-20         0.00000E+00
   -0.20373E-20         0.23283E-21         0.00000E+00
   -0.14552E-20         0.00000E+00         0.00000E+00
   -0.13970E-20         0.00000E+00         0.00000E+00
   -0.98953E-21         0.26543E-19         0.00000E+00
   -0.13970E-20         0.13504E-19         0.00000E+00
   -0.27358E-20         0.00000E+00         0.00000E+00
   -0.32014E-20         0.23283E-20         0.00000E+00
   -0.34925E-20         0.18161E-19         0.00000E+00
   -0.12806E-20         0.18161E-19         0.00000E+00
   -0.29104E-21         0.41910E-20         0.00000E+00
   -0.52387E-21         0.23283E-20         0.00000E+00
   -0.10477E-20        -0.93132E-21         0.00000E+00
   -0.32014E-20        -0.13504E-19         0.00000E+00
   -0.45984E-20        -0.16298E-19         0.00000E+00
   -0.53551E-20        -0.17462E-19         0.00000E+00
   -0.61118E-20        -0.17229E-19         0.00000E+00
   -0.61118E-20        -0.23283E-19         0.00000E+00
   -0.68103E-20        -0.14435E-19         0.00000E+00
   -0.67521E-20        -0.34692E-19         0.00000E+00
   -0.50641E-20        -0.33760E-19         0.00000E+00
   -0.20373E-20        -0.23516E-19         0.00000E+00
    0.30850E-20        -0.13504E-19         0.00000E+00
    0.45402E-20        -0.81491E-20         0.00000E+00
    0.45402E-20        -0.53551E-20         0.00000E+00
    0.32014E-20         0.27940E-20         0.00000E+00
    0.10477E-20        -0.11642E-20         0.00000E+00
   -0.77416E-20         0.46566E-21         0.00000E+00
   -0.89640E-20         0.65193E-20         0.00000E+00
   -0.80909E-20         0.00000E+00         0.00000E+00
   -0.69849E-20         0.27940E-20         0.00000E+00
   -0.72760E-20        -0.16764E-19         0.00000E+00
   -0.59372E-20        -0.21653E-19         0.00000E+00
   -0.64028E-20        -0.22352E-19         0.00000E+00
   -0.58790E-20        -0.17229E-19         0.00000E+00
   -0.52387E-20        -0.23050E-19         0.00000E+00
   -0.65775E-20        -0.11409E-19         0.00000E+00
   -0.82655E-20        -0.21886E-19         0.00000E+00
   -0.87311E-20         0.13970E-20         0.00000E+00
   -0.91968E-20        -0.69849E-20         0.00000E+00
   -0.89058E-20         0.00000E+00         0.00000E+00
   -0.84401E-20        -0.23283E-20         0.00000E+00
   -0.77416E-20         0.10710E-19         0.00000E+00
   -0.67521E-20         0.16764E-19         0.00000E+00
   -0.67521E-20         0.21886E-19         0.00000E+00
   -0.66357E-20         0.21420E-19         0.00000E+00
   -0.45984E-20         0.74506E-20         0.00000E+00
   -0.34343E-20        -0.14901E-19         0.00000E+00
   -0.40745E-20        -0.13970E-19         0.00000E+00
   -0.62864E-20        -0.28871E-19         0.00000E+00
   -0.54715E-20        -0.12806E-19         0.00000E+00
   -0.51223E-20        -0.53551E-20         0.00000E+00
   -0.45984E-20        -0.46566E-20         0.00000E+00
   -0.34343E-20        -0.46566E-21         0.00000E+00
   -0.33178E-20         0.24680E-19         0.00000E+00
   -0.75670E-21         0.11176E-19         0.00000E+00
    0.14552E-20        -0.46566E-21         0.00000E+00
    0.30850E-20         0.93132E-21         0.00000E+00
    0.44238E-20         0.13970E-19         0.00000E+00
    0.41327E-20         0.14203E-19         0.00000E+00
    0.30268E-20         0.72177E-20         0.00000E+00
    0.24447E-20         0.34925E-20         0.00000E+00
    0.11059E-20         0.10012E-19         0.00000E+00
   -0.13970E-20         0.13970E-20         0.00000E+00
   -0.33178E-20        -0.10245E-19         0.00000E+00
   -0.53551E-20        -0.11642E-19         0.00000E+00
   -0.48894E-20        -0.20489E-19         0.00000E+00
   -0.30850E-20        -0.34459E-19         0.00000E+00
    0.69849E-21        -0.15367E-19         0.00000E+00
    0.46566E-21        -0.32596E-19         0.00000E+00
   -0.12224E-20        -0.31665E-19         0.00000E+00
   -0.44820E-20        -0.27474E-19         0.00000E+00
   -0.59372E-20        -0.23283E-19         0.00000E+00
   -0.48894E-20        -0.11874E-19         0.00000E+00
   -0.38999E-20        -0.53551E-20         0.00000E+00
   -0.39581E-20         0.41910E-20         0.00000E+00
   -0.43656E-20         0.18626E-20         0.00000E+00
   -0.86147E-20         0.18626E-20         0.00000E+00
   -0.90804E-20         0.69849E-20         0.00000E+00
   -0.96625E-20         0.00000E+00         0.00000E+00
   -0.87311E-20        -0.23283E-20         0.00000E+00
   -0.93714E-20        -0.12107E-19         0.00000E+00
   -0.10361E-19        -0.27008E-19         0.00000E+00
   -0.85565E-20        -0.23749E-19         0.00000E+00
   -0.65193E-20        -0.27940E-19         0.00000E+00
   -0.35507E-20        -0.28405E-19         0.00000E+00
   -0.87311E-21        -0.11176E-19         0.00000E+00
    0.19791E-20        -0.20489E-19         0.00000E+00
    0.19791E-20         0.69849E-20         0.00000E+00
    0.34925E-21        -0.11176E-19         0.00000E+00
    0.46566E-21         0.93132E-21         0.00000E+00
    0.40745E-21        -0.69849E-20         0.00000E+00
   -0.58208E-21         0.15367E-19         0.00000E+00
   -0.23865E-20         0.16764E-19         0.00000E+00
   -0.23283E-21         0.13970E-19         0.00000E+00
    0.15134E-20         0.14435E-19         0.00000E+00
    0.12806E-20         0.00000E+00         0.00000E+00
    0.87311E-21        -0.11642E-19         0.00000E+00
    0.13970E-20        -0.11176E-19         0.00000E+00
    0.12224E-20        -0.20489E-19         0.00000E+00
   -0.93132E-21        -0.12107E-19         0.00000E+00
   -0.98953E-21        -0.41910E-20         0.00000E+00
   -0.18044E-20        -0.55879E-20         0.00000E+00
   -0.18626E-20        -0.41910E-20         0.00000E+00
   -0.87311E-21         0.15832E-19         0.00000E+00
   -0.64028E-21         0.27940E-20         0.00000E+00
   -0.13388E-20        -0.37253E-20         0.00000E+00
   -0.15134E-20        -0.37253E-20         0.00000E+00
   -0.16298E-20         0.12806E-19         0.00000E+00
   -0.20955E-20         0.16065E-19         0.00000E+00
   -0.26193E-20         0.11642E-19         0.00000E+00
   -0.19209E-20         0.18626E-20         0.00000E+00
    0.10477E-20         0.32596E-20         0.00000E+00
    0.44238E-20        -0.46566E-21         0.00000E+00
    0.61118E-20        -0.74506E-20         0.00000E+00
    0.70431E-20        -0.13970E-19         0.00000E+00
    0.10070E-19        -0.22817E-19         0.00000E+00
    0.67521E-20        -0.29802E-19         0.00000E+00
    0.36671E-20        -0.19558E-19         0.00000E+00
    0.21537E-20        -0.25146E-19         0.00000E+00
    0.13970E-20        -0.28173E-19         0.00000E+00
    0.15716E-20        -0.17695E-19         0.00000E+00
    0.52387E-21        -0.16997E-19         0.00000E+00
   -0.33178E-20        -0.88476E-20         0.00000E+00
   -0.49477E-20        -0.55879E-20         0.00000E+00
   -0.44238E-20         0.00000E+00         0.00000E+00
   -0.32014E-20         0.18626E-20         0.00000E+00
   -0.64028E-20        -0.13970E-20         0.00000E+00
   -0.61700E-20         0.83819E-20         0.00000E+00
   -0.57044E-20         0.23283E-20         0.00000E+00
   -0.77998E-20         0.32596E-20         0.00000E+00
   -0.83237E-20        -0.16298E-19         0.00000E+00
   -0.71013E-20        -0.25611E-19         0.00000E+00
   -0.71013E-20        -0.31665E-19         0.00000E+00
   -0.61700E-20        -0.37719E-19         0.00000E+00
   -0.57626E-20        -0.35390E-19         0.00000E+00
   -0.49477E-20        -0.19791E-19         0.00000E+00
   -0.29104E-20        -0.32131E-19         0.00000E+00
   -0.14552E-20         0.69849E-20         0.00000E+00
    0.46566E-21        -0.12806E-19         0.00000E+00
   -0.11642E-21         0.65193E-20         0.00000E+00
   -0.23283E-21        -0.44238E-20         0.00000E+00
   -0.87311E-21         0.18161E-19         0.00000E+00
    0.18044E-20         0.74506E-20         0.00000E+00
    0.29104E-20         0.93132E-20         0.00000E+00
    0.21537E-20         0.10710E-19         0.00000E+00
    0.27940E-20         0.23283E-20         0.00000E+00
    0.37253E-20        -0.15367E-19         0.00000E+00
    0.36089E-20        -0.97789E-20         0.00000E+00
    0.29686E-20        -0.18626E-19         0.00000E+00
    0.34343E-20        -0.12573E-19         0.00000E+00
    0.22701E-20         0.46566E-21         0.00000E+00
    0.19209E-20        -0.41910E-20         0.00000E+00
    0.52387E-21         0.27940E-20         0.00000E+00
   -0.22701E-20         0.19092E-19         0.00000E+00
   -0.18044E-20        -0.27940E-20         0.00000E+00
    0.98953E-21        -0.81491E-20         0.00000E+00
    0.19209E-20        -0.23283E-20         0.00000E+00
    0.24447E-20         0.93132E-20         0.00000E+00
    0.47148E-20         0.13737E-19         0.00000E+00
    0.53551E-20         0.11409E-19         0.00000E+00
    0.27358E-20         0.93132E-20         0.00000E+00
   -0.52387E-21        -0.46566E-20         0.00000E+00
   -0.16298E-20        -0.69849E-20         0.00000E+00
   -0.11642E-21        -0.13504E-19         0.00000E+00
    0.19791E-20        -0.22817E-19         0.00000E+00
    0.34925E-21        -0.20489E-19         0.00000E+00
    0.15716E-20        -0.25611E-19         0.00000E+00
    0.23283E-20        -0.13039E-19         0.00000E+00
    0.22701E-20        -0.26077E-19         0.00000E+00
    0.26193E-20        -0.28871E-19         0.00000E+00
    0.28522E-20        -0.19558E-19         0.00000E+00
    0.30850E-20        -0.55879E-20         0.00000E+00
    0.26776E-20        -0.46566E-21         0.00000E+00
    0.22119E-20        -0.13970E-20         0.00000E+00
    0.40745E-21         0.46566E-20         0.00000E+00
   -0.13388E-20         0.46566E-20         0.00000E+00
    0.71013E-20         0.76834E-20         0.00000E+00
    0.55879E-20         0.55879E-20         0.00000E+00
    0.58208E-20         0.55879E-20         0.00000E+00
    0.77416E-20         0.37253E-20         0.00000E+00
    0.61700E-20        -0.97789E-20         0.00000E+00
    0.44238E-20        -0.28638E-19         0.00000E+00
    0.55297E-20        -0.37719E-19         0.00000E+00
    0.45402E-20        -0.38650E-19         0.00000E+00
    0.36671E-20        -0.33062E-19         0.00000E+00
    0.20955E-20        -0.18161E-19         0.00000E+00
   -0.13388E-20        -0.24214E-19         0.00000E+00
   -0.38417E-20        -0.18626E-20         0.00000E+00
   -0.33178E-20        -0.12573E-19         0.00000E+00
   -0.18044E-20         0.93132E-21         0.00000E+00
    0.29104E-21         0.00000E+00         0.00000E+00
    0.52387E-21         0.10245E-19         0.00000E+00
    0.87311E-21         0.46566E-21         0.00000E+00
    0.14552E-20         0.10477E-19         0.00000E+00
    0.20955E-20         0.83819E-20         0.00000E+00
    0.93132E-21        -0.93132E-21         0.00000E+00
    0.15134E-20        -0.18626E-19         0.00000E+00
    0.52387E-21        -0.79162E-20         0.00000E+00
    0.58208E-21        -0.18626E-19         0.00000E+00
   -0.29104E-21        -0.55879E-20         0.00000E+00
    0.11642E-21        -0.27940E-20         0.00000E+00
    0.98953E-21        -0.18626E-20         0.00000E+00
    0.31432E-20        -0.27940E-20         0.00000E+00
    0.52969E-20         0.24680E-19         0.00000E+00
    0.29686E-20         0.37253E-20         0.00000E+00
   -0.81491E-21        -0.12107E-19         0.00000E+00
   -0.75670E-21        -0.23283E-20         0.00000E+00
   -0.12224E-20         0.11176E-19         0.00000E+00
   -0.29686E-20         0.11642E-19         0.00000E+00
   -0.33178E-20         0.11642E-19         0.00000E+00
   -0.58208E-22         0.11642E-19         0.00000E+00
    0.16880E-20        -0.27940E-20         0.00000E+00
    0.32596E-20        -0.65193E-20         0.00000E+00
    0.20955E-20        -0.16298E-19         0.00000E+00
    0.13970E-20        -0.22119E-19         0.00000E+00
    0.11642E-20        -0.16298E-19         0.00000E+00
    0.58208E-22        -0.31199E-19         0.00000E+00
    0.52387E-21        -0.11642E-19         0.00000E+00
    0.81491E-21        -0.32596E-19         0.00000E+00
    0.14552E-20        -0.25146E-19         0.00000E+00
    0.13970E-20        -0.22119E-19         0.00000E+00
    0.13388E-20        -0.25611E-20         0.00000E+00
    0.00000E+00        -0.18626E-20         0.00000E+00
   -0.52387E-21         0.18626E-20         0.00000E+00
    0.40745E-21         0.88476E-20         0.00000E+00
    0.20955E-20         0.69849E-21         0.00000E+00
    0.69849E-21         0.10012E-19         0.00000E+00
    0.81491E-21         0.81491E-20         0.00000E+00
    0.18626E-20         0.00000E+00         0.00000E+00
    0.22701E-20        -0.46566E-20         0.00000E+00
    0.67521E-20        -0.15134E-19         0.00000E+00
    0.10885E-19        -0.31898E-19         0.00000E+00
    0.97789E-20        -0.34925E-19         0.00000E+00
    0.10245E-19        -0.33760E-19         0.00000E+00
    0.10245E-19        -0.27707E-19         0.00000E+00
    0.10070E-19        -0.17695E-19         0.00000E+00
    0.11874E-19        -0.23050E-19         0.00000E+00
    0.14319E-19        -0.93132E-21         0.00000E+00
    0.13621E-19        -0.14435E-19         0.00000E+00
    0.11001E-19         0.55879E-20         0.00000E+00
    0.88476E-20         0.23283E-20         0.00000E+00
    0.71013E-20         0.11642E-19         0.00000E+00
    0.50641E-20         0.74506E-20         0.00000E+00
    0.15716E-20         0.18161E-19         0.00000E+00
   -0.87311E-21         0.15600E-19         0.00000E+00
   -0.19791E-20         0.00000E+00         0.00000E+00
   -0.16880E-20        -0.14901E-19         0.00000E+00
   -0.15134E-20        -0.10710E-19         0.00000E+00
   -0.58208E-21        -0.21420E-19         0.00000E+00
    0.21537E-20        -0.93132E-20         0.00000E+00
    0.33760E-20        -0.18626E-20         0.00000E+00
    0.22701E-20         0.00000E+00         0.00000E+00
    0.12806E-20        -0.97789E-20         0.00000E+00
    0.52387E-21         0.18626E-19         0.00000E+00
    0.25029E-20         0.93132E-20         0.00000E+00
    0.29104E-20        -0.37253E-20         0.00000E+00
    0.31432E-20        -0.18626E-20         0.00000E+00
    0.22119E-20         0.16298E-19         0.00000E+00
    0.21537E-20         0.20955E-19         0.00000E+00
    0.13970E-20         0.41910E-20         0.00000E+00
    0.12224E-20         0.18626E-20         0.00000E+00
   -0.11642E-21         0.27940E-20         0.00000E+00
   -0.34925E-20         0.93132E-21         0.00000E+00
   -0.50059E-20        -0.14435E-19         0.00000E+00
   -0.62864E-20        -0.19558E-19         0.00000E+00
   -0.50641E-20        -0.17229E-19         0.00000E+00
   -0.61700E-20        -0.28405E-19         0.00000E+00
   -0.80909E-20        -0.79162E-20         0.00000E+00
   -0.11059E-19        -0.17462E-19         0.00000E+00
   -0.13562E-19        -0.20722E-19         0.00000E+00
   -0.14144E-19        -0.24680E-19         0.00000E+00
   -0.12282E-19        -0.69849E-20         0.00000E+00
   -0.96625E-20        -0.30268E-20         0.00000E+00
   -0.62282E-20        -0.10245E-19         0.00000E+00
   -0.51223E-20         0.18626E-20         0.00000E+00
   -0.43656E-20         0.23283E-21         0.00000E+00
    0.71013E-20         0.34925E-20         0.00000E+00
    0.79162E-20         0.32596E-20         0.00000E+00
    0.87311E-20         0.23283E-20         0.00000E+00
    0.62864E-20        -0.11642E-20         0.00000E+00
    0.23283E-20        -0.18626E-19         0.00000E+00
   -0.19791E-20        -0.27474E-19         0.00000E+00
   -0.37253E-20        -0.25146E-19         0.00000E+00
   -0.48894E-20        -0.34925E-19         0.00000E+00
   -0.34925E-20        -0.33993E-19         0.00000E+00
   -0.16298E-20        -0.20722E-19         0.00000E+00
   -0.26776E-20        -0.28871E-19         0.00000E+00
   -0.29104E-20        -0.44238E-20         0.00000E+00
   -0.27940E-20        -0.11409E-19         0.00000E+00
   -0.16880E-20         0.11642E-19         0.00000E+00
    0.12224E-20        -0.93132E-21         0.00000E+00
    0.25029E-20         0.14668E-19         0.00000E+00
    0.30850E-20         0.14668E-19         0.00000E+00
    0.43074E-20         0.25844E-19         0.00000E+00
    0.30268E-20         0.21420E-19         0.00000E+00
    0.23283E-21         0.60536E-20         0.00000E+00
    0.64028E-21        -0.21420E-19         0.00000E+00
    0.21537E-20        -0.14901E-19         0.00000E+00
    0.25611E-20        -0.25611E-19         0.00000E+00
    0.25029E-20        -0.12573E-19         0.00000E+00
    0.32014E-20        -0.69849E-20         0.00000E+00
    0.44820E-20        -0.41910E-20         0.00000E+00
    0.54715E-20        -0.18626E-20         0.00000E+00
    0.41327E-20         0.23283E-19         0.00000E+00
    0.52387E-21         0.16298E-19         0.00000E+00
   -0.27358E-20         0.23283E-21         0.00000E+00
   -0.40163E-20         0.25611E-20         0.00000E+00
   -0.45402E-20         0.16997E-19         0.00000E+00
   -0.50641E-20         0.20489E-19         0.00000E+00
   -0.42492E-20         0.72177E-20         0.00000E+00
   -0.50641E-20         0.27940E-20         0.00000E+00
   -0.46566E-20         0.46566E-20         0.00000E+00
   -0.27940E-20         0.55879E-20         0.00000E+00
   -0.36671E-20        -0.55879E-20         0.00000E+00
   -0.72177E-20        -0.76834E-20         0.00000E+00
   -0.10477E-19        -0.16298E-19         0.00000E+00
   -0.11234E-19        -0.24680E-19         0.00000E+00
   -0.96625E-20        -0.88476E-20         0.00000E+00
   -0.77416E-20        -0.16764E-19         0.00000E+00
   -0.37835E-20        -0.27940E-19         0.00000E+00
   -0.27940E-20        -0.24680E-19         0.00000E+00
   -0.38417E-20        -0.10943E-19         0.00000E+00
   -0.35507E-20        -0.88476E-20         0.00000E+00
   -0.42492E-20        -0.19558E-19         0.00000E+00
   -0.25029E-20        -0.27940E-20         0.00000E+00
   -0.20373E-20        -0.11642E-20         0.00000E+00
   -0.10128E-19         0.72177E-20         0.00000E+00
   -0.12515E-19         0.46566E-20         0.00000E+00
   -0.13388E-19         0.41910E-20         0.00000E+00
   -0.12107E-19         0.20955E-20         0.00000E+00
   -0.10943E-19        -0.79162E-20         0.00000E+00
   -0.98953E-20        -0.26776E-19         0.00000E+00
   -0.75670E-20        -0.28871E-19         0.00000E+00
   -0.69849E-20        -0.28405E-19         0.00000E+00
   -0.88476E-20        -0.36322E-19         0.00000E+00
   -0.86729E-20        -0.27940E-19         0.00000E+00
   -0.74506E-20        -0.25146E-19         0.00000E+00
   -0.82655E-20        -0.32596E-20         0.00000E+00
   -0.81491E-20        -0.18626E-19         0.00000E+00
   -0.66939E-20         0.53551E-20         0.00000E+00
   -0.75088E-20        -0.18626E-20         0.00000E+00
   -0.83819E-20         0.13271E-19         0.00000E+00
   -0.69267E-20         0.12806E-19         0.00000E+00
   -0.47730E-20         0.19325E-19         0.00000E+00
   -0.28522E-20         0.22352E-19         0.00000E+00
    0.23283E-21         0.18626E-20         0.00000E+00
    0.23283E-20        -0.23749E-19         0.00000E+00
    0.24447E-20        -0.19092E-19         0.00000E+00
    0.29104E-20        -0.29337E-19         0.00000E+00
    0.33178E-20        -0.14435E-19         0.00000E+00
    0.23865E-20        -0.55879E-20         0.00000E+00
   -0.46566E-21         0.93132E-21         0.00000E+00
   -0.34343E-20         0.74506E-20         0.00000E+00
   -0.42492E-20         0.24680E-19         0.00000E+00
   -0.11059E-20         0.16298E-19         0.00000E+00
    0.36089E-20        -0.23283E-20         0.00000E+00
    0.54133E-20         0.51223E-20         0.00000E+00
    0.54133E-20         0.22352E-19         0.00000E+00
    0.48894E-20         0.20023E-19         0.00000E+00
    0.40745E-20         0.11409E-19         0.00000E+00
    0.29686E-20         0.86147E-20         0.00000E+00
    0.16298E-20         0.79162E-20         0.00000E+00
   -0.69849E-21         0.69849E-20         0.00000E+00
   -0.17462E-20        -0.93132E-21         0.00000E+00
    0.64028E-21        -0.48894E-20         0.00000E+00
    0.32596E-20        -0.11176E-19         0.00000E+00
    0.37253E-20        -0.27474E-19         0.00000E+00
    0.48894E-20        -0.14435E-19         0.00000E+00
    0.54715E-20        -0.21420E-19         0.00000E+00
    0.53551E-20        -0.35856E-19         0.00000E+00
    0.41327E-20        -0.16764E-19         0.00000E+00
    0.36089E-20        -0.97789E-20         0.00000E+00
    0.39581E-20        -0.10710E-19         0.00000E+00
    0.21537E-20        -0.97789E-20         0.00000E+00
   -0.11059E-20         0.32596E-20         0.00000E+00
   -0.33760E-20        -0.65193E-20         0.00000E+00
    0.10012E-19         0.58208E-20         0.00000E+00
    0.11874E-19         0.97789E-20         0.00000E+00
    0.11991E-19         0.23283E-20         0.00000E+00
    0.11059E-19         0.13970E-20         0.00000E+00
    0.10652E-19        -0.97789E-20         0.00000E+00
    0.10710E-19        -0.24214E-19         0.00000E+00
    0.77998E-20        -0.27940E-19         0.00000E+00
    0.68685E-20        -0.25146E-19         0.00000E+00
    0.54715E-20        -0.24214E-19         0.00000E+00
    0.10477E-20        -0.18161E-19         0.00000E+00
   -0.13388E-20        -0.20722E-19         0.00000E+00
   -0.10477E-20         0.25611E-20         0.00000E+00
   -0.51223E-20        -0.97789E-20         0.00000E+00
   -0.80909E-20         0.67521E-20         0.00000E+00
   -0.85565E-20         0.13970E-20         0.00000E+00
   -0.96043E-20         0.13039E-19         0.00000E+00
   -0.90222E-20         0.46566E-21         0.00000E+00
   -0.64028E-20         0.13504E-19         0.00000E+00
   -0.58790E-20         0.93132E-20         0.00000E+00
   -0.44238E-20        -0.23283E-20         0.00000E+00
   -0.50059E-20        -0.20489E-19         0.00000E+00
   -0.77998E-20        -0.15832E-19         0.00000E+00
   -0.84401E-20        -0.31665E-19         0.00000E+00
   -0.87311E-20        -0.12107E-19         0.00000E+00
   -0.86729E-20         0.69849E-21         0.00000E+00
   -0.69267E-20        -0.93132E-21         0.00000E+00
   -0.42492E-20         0.74506E-20         0.00000E+00
   -0.36671E-20         0.23283E-19         0.00000E+00
   -0.59954E-20         0.93132E-20         0.00000E+00
   -0.93714E-20         0.27940E-20         0.00000E+00
   -0.12515E-19         0.37253E-20         0.00000E+00
   -0.11525E-19         0.17695E-19         0.00000E+00
   -0.78580E-20         0.88476E-20         0.00000E+00
   -0.44820E-20         0.79162E-20         0.00000E+00
   -0.25029E-20         0.25611E-20         0.00000E+00
   -0.17462E-21         0.51223E-20         0.00000E+00
    0.21537E-20         0.72177E-20         0.00000E+00
    0.26776E-20        -0.11642E-20         0.00000E+00
    0.75670E-21        -0.60536E-20         0.00000E+00
   -0.98953E-21        -0.12573E-19         0.00000E+00
   -0.15134E-20        -0.27008E-19         0.00000E+00
   -0.18626E-20        -0.17695E-19         0.00000E+00
   -0.25611E-20        -0.26543E-19         0.00000E+00
   -0.28522E-20        -0.33993E-19         0.00000E+00
   -0.23283E-21        -0.23050E-19         0.00000E+00
    0.15716E-20        -0.14435E-19         0.00000E+00
    0.25029E-20        -0.10477E-19         0.00000E+00
    0.23865E-20        -0.39581E-20         0.00000E+00
    0.26193E-20         0.79162E-20         0.00000E+00
    0.27940E-20        -0.69849E-21         0.00000E+00
   -0.14552E-20         0.23283E-20         0.00000E+00
   -0.13970E-20         0.27940E-20         0.00000E+00
   -0.34925E-21        -0.16298E-20         0.00000E+00
    0.58208E-21         0.55879E-20         0.00000E+00
   -0.13970E-20        -0.55879E-20         0.00000E+00
   -0.38417E-20        -0.13970E-19         0.00000E+00
   -0.34925E-20        -0.23283E-19         0.00000E+00
   -0.40745E-20        -0.25611E-19         0.00000E+00
   -0.51223E-20        -0.15600E-19         0.00000E+00
   -0.33760E-20        -0.10245E-19         0.00000E+00
   -0.33760E-20        -0.20023E-19         0.00000E+00
   -0.37253E-20         0.69849E-20         0.00000E+00
   -0.30268E-20        -0.23283E-20         0.00000E+00
   -0.34925E-20         0.13039E-19         0.00000E+00
   -0.46566E-20         0.39581E-20         0.00000E+00
   -0.58790E-20         0.17695E-19         0.00000E+00
   -0.71595E-20         0.41910E-20         0.00000E+00
   -0.81491E-20         0.88476E-20         0.00000E+00
   -0.96043E-20         0.69849E-20         0.00000E+00
   -0.10477E-19        -0.74506E-20         0.00000E+00
   -0.83819E-20        -0.19325E-19         0.00000E+00
   -0.50059E-20        -0.19092E-19         0.00000E+00
   -0.32596E-20        -0.28405E-19         0.00000E+00
   -0.25029E-20        -0.17695E-19         0.00000E+00
   -0.87311E-21        -0.41910E-20         0.00000E+00
   -0.16880E-20        -0.23283E-21         0.00000E+00
   -0.25611E-20        -0.46566E-20         0.00000E+00
   -0.11059E-20         0.26543E-19         0.00000E+00
    0.20373E-20         0.69849E-20         0.00000E+00
    0.55879E-20         0.39581E-20         0.00000E+00
    0.90222E-20        -0.18626E-20         0.00000E+00
    0.98953E-20         0.10245E-19         0.00000E+00
    0.67521E-20         0.10943E-19         0.00000E+00
    0.30850E-20         0.69849E-20         0.00000E+00
   -0.46566E-21         0.79162E-20         0.00000E+00
   -0.42492E-20         0.88476E-20         0.00000E+00
   -0.59954E-20        -0.13970E-20         0.00000E+00
   -0.50641E-20        -0.30268E-20         0.00000E+00
   -0.30268E-20        -0.41910E-20         0.00000E+00
   -0.15716E-20        -0.12573E-19         0.00000E+00
   -0.11059E-20        -0.34459E-19         0.00000E+00
    0.40745E-21        -0.17695E-19         0.00000E+00
    0.29686E-20        -0.30268E-19         0.00000E+00
    0.38417E-20        -0.35390E-19         0.00000E+00
    0.42492E-20        -0.33528E-19         0.00000E+00
    0.55297E-20        -0.19092E-19         0.00000E+00
    0.58208E-20        -0.13504E-19         0.00000E+00
    0.85565E-20        -0.13039E-19         0.00000E+00
    0.12165E-19         0.32596E-20         0.00000E+00
    0.12107E-19         0.27940E-20         0.00000E+00
   -0.41910E-20         0.00000E+00         0.00000E+00
   -0.40745E-20         0.41910E-20         0.00000E+00
   -0.45402E-20        -0.23283E-21         0.00000E+00
   -0.52387E-20         0.46566E-20         0.00000E+00
   -0.41910E-20        -0.23283E-20         0.00000E+00
   -0.12806E-20        -0.15832E-19         0.00000E+00
   -0.10477E-20        -0.24680E-19         0.00000E+00
   -0.34925E-21        -0.22817E-19         0.00000E+00
    0.00000E+00        -0.19092E-19         0.00000E+00
    0.46566E-21        -0.14901E-19         0.00000E+00
    0.58208E-21        -0.20955E-19         0.00000E+00
    0.17462E-20         0.65193E-20         0.00000E+00
    0.27358E-20        -0.65193E-20         0.00000E+00
    0.30850E-20         0.12340E-19         0.00000E+00
    0.53551E-20         0.41910E-20         0.00000E+00
    0.59372E-20         0.16997E-19         0.00000E+00
    0.58790E-20         0.13039E-19         0.00000E+00
    0.47148E-20         0.11409E-19         0.00000E+00
    0.44238E-20         0.11874E-19         0.00000E+00
    0.36089E-20        -0.97789E-20         0.00000E+00
    0.39581E-20        -0.25611E-19         0.00000E+00
    0.25611E-20        -0.25844E-19         0.00000E+00
    0.19209E-20        -0.23283E-19         0.00000E+00
    0.11642E-21        -0.16997E-19         0.00000E+00
   -0.15716E-20        -0.46566E-20         0.00000E+00
   -0.75670E-21         0.46566E-21         0.00000E+00
    0.40745E-21        -0.60536E-20         0.00000E+00
    0.40745E-21         0.18161E-19         0.00000E+00
    0.17462E-21         0.27940E-20         0.00000E+00
   -0.58208E-22        -0.58208E-20         0.00000E+00
   -0.23283E-21        -0.46566E-20         0.00000E+00
   -0.40745E-21         0.14901E-19         0.00000E+00
    0.17462E-21         0.21653E-19         0.00000E+00
    0.98953E-21         0.10710E-19         0.00000E+00
    0.24447E-20         0.15832E-19         0.00000E+00
    0.54715E-20         0.46566E-20         0.00000E+00
    0.73924E-20         0.41910E-20         0.00000E+00
    0.65775E-20        -0.23283E-20         0.00000E+00
    0.58790E-20        -0.41910E-20         0.00000E+00
    0.51805E-20        -0.12573E-19         0.00000E+00
    0.33760E-20        -0.35390E-19         0.00000E+00
    0.27940E-20        -0.22352E-19         0.00000E+00
    0.20373E-20        -0.35856E-19         0.00000E+00
    0.40745E-20        -0.41910E-19         0.00000E+00
    0.49477E-20        -0.34226E-19         0.00000E+00
    0.50641E-20        -0.20955E-19         0.00000E+00
    0.37835E-20        -0.10710E-19         0.00000E+00
    0.93132E-21        -0.17695E-19         0.00000E+00
   -0.12224E-20         0.23283E-20         0.00000E+00
   -0.18626E-20         0.60536E-20         0.00000E+00
    0.98953E-21         0.23283E-20         0.00000E+00
   -0.23510E-37         0.39581E-20         0.00000E+00
   -0.93132E-21         0.10710E-19         0.00000E+00
   -0.33760E-20         0.72177E-20         0.00000E+00
   -0.44238E-20        -0.65193E-20         0.00000E+00
   -0.52387E-20        -0.16997E-19         0.00000E+00
   -0.60536E-20        -0.25379E-19         0.00000E+00
   -0.50059E-20        -0.29337E-19         0.00000E+00
   -0.27940E-20        -0.28405E-19         0.00000E+00
   -0.58208E-21        -0.12107E-19         0.00000E+00
   -0.32596E-20        -0.20489E-19         0.00000E+00
   -0.36089E-20         0.00000E+00         0.00000E+00
   -0.27358E-20        -0.83819E-20         0.00000E+00
   -0.18044E-20         0.81491E-20         0.00000E+00
   -0.11642E-20        -0.46566E-20         0.00000E+00
   -0.13970E-20         0.19092E-19         0.00000E+00
   -0.29104E-21         0.13504E-19         0.00000E+00
    0.11059E-20         0.16764E-19         0.00000E+00
   -0.64028E-21         0.16298E-19         0.00000E+00
   -0.11642E-20        -0.60536E-20         0.00000E+00
   -0.19791E-20        -0.25146E-19         0.00000E+00
   -0.45402E-20        -0.60536E-20         0.00000E+00
   -0.84983E-20        -0.22352E-19         0.00000E+00
   -0.86147E-20        -0.10245E-19         0.00000E+00
   -0.78580E-20        -0.32596E-20         0.00000E+00
   -0.92550E-20        -0.13970E-20         0.00000E+00
   -0.92550E-20        -0.46566E-20         0.00000E+00
   -0.90222E-20         0.12573E-19         0.00000E+00
   -0.61118E-20        -0.79162E-20         0.00000E+00
   -0.22701E-20        -0.15832E-19         0.00000E+00
   -0.58208E-21        -0.41910E-20         0.00000E+00
   -0.87311E-21         0.17229E-19         0.00000E+00
   -0.12806E-20         0.22817E-19         0.00000E+00
   -0.22119E-20         0.83819E-20         0.00000E+00
   -0.22701E-20         0.55879E-20         0.00000E+00
   -0.19791E-20         0.41910E-20         0.00000E+00
   -0.33178E-20        -0.93132E-21         0.00000E+00
   -0.20955E-20        -0.41910E-20         0.00000E+00
    0.23283E-21        -0.13504E-19         0.00000E+00
    0.30850E-20        -0.13039E-19         0.00000E+00
    0.29686E-20        -0.30035E-19         0.00000E+00
    0.16880E-20        -0.15600E-19         0.00000E+00
   -0.17462E-21        -0.28405E-19         0.00000E+00
   -0.28522E-20        -0.38184E-19         0.00000E+00
   -0.45984E-20        -0.31199E-19         0.00000E+00
   -0.65193E-20        -0.11176E-19         0.00000E+00
   -0.10477E-19        -0.32596E-20         0.00000E+00
   -0.96625E-20        -0.12340E-19         0.00000E+00
   -0.79744E-20        -0.46566E-21         0.00000E+00
   -0.65193E-20         0.18626E-20         0.00000E+00
   -0.84401E-20         0.60536E-20         0.00000E+00
   -0.10012E-19         0.93132E-20         0.00000E+00
   -0.91386E-20         0.93132E-20         0.00000E+00
   -0.82655E-20         0.11409E-19         0.00000E+00
   -0.76834E-20        -0.10012E-19         0.00000E+00
   -0.43074E-20        -0.24214E-19         0.00000E+00
   -0.17462E-20        -0.29104E-19         0.00000E+00
   -0.93132E-21        -0.27241E-19         0.00000E+00
   -0.34925E-20        -0.30734E-19         0.00000E+00
   -0.38417E-20        -0.13504E-19         0.00000E+00
   -0.32596E-20        -0.16298E-19         0.00000E+00
   -0.25611E-20        -0.93132E-21         0.00000E+00
   -0.36089E-20        -0.10245E-19         0.00000E+00
   -0.38999E-20         0.46566E-21         0.00000E+00
   -0.41910E-20         0.23283E-21         0.00000E+00
   -0.48894E-20         0.15832E-19         0.00000E+00
   -0.23865E-20         0.18626E-20         0.00000E+00
   -0.22119E-20         0.16764E-19         0.00000E+00
   -0.13388E-20         0.16298E-19         0.00000E+00
    0.00000E+00        -0.41910E-20         0.00000E+00
   -0.46566E-21        -0.16764E-19         0.00000E+00
    0.16298E-20        -0.10710E-19         0.00000E+00
    0.48312E-20        -0.20023E-19         0.00000E+00
    0.58208E-20        -0.13504E-19         0.00000E+00
    0.56461E-20        -0.13970E-20         0.00000E+00
    0.71595E-20        -0.51223E-20         0.00000E+00
    0.77416E-20         0.46566E-21         0.00000E+00
    0.58208E-20         0.15832E-19         0.00000E+00
    0.27940E-20        -0.46566E-20         0.00000E+00
   -0.15716E-20        -0.15367E-19         0.00000E+00
   -0.43656E-20         0.23283E-20         0.00000E+00
   -0.40163E-20         0.13504E-19         0.00000E+00
   -0.18044E-20         0.16298E-19         0.00000E+00
   -0.81491E-21         0.11176E-19         0.00000E+00
   -0.93132E-21         0.44238E-20         0.00000E+00
   -0.81491E-21         0.37253E-20         0.00000E+00
    0.52387E-21        -0.41910E-20         0.00000E+00
    0.10477E-20        -0.27940E-20         0.00000E+00
   -0.19209E-20        -0.13039E-19         0.00000E+00
   -0.41910E-20        -0.16764E-19         0.00000E+00
   -0.36089E-20        -0.35856E-19         0.00000E+00
   -0.17462E-20        -0.15367E-19         0.00000E+00
   -0.81491E-21        -0.25146E-19         0.00000E+00
   -0.87311E-21        -0.30501E-19         0.00000E+00
   -0.20373E-20        -0.24680E-19         0.00000E+00
   -0.10477E-20        -0.74506E-20         0.00000E+00
    0.15134E-20        -0.81491E-20         0.00000E+00
    0.19209E-20        -0.10710E-19         0.00000E+00
    0.87311E-21        -0.60536E-20         0.00000E+00
    0.20955E-20        -0.13970E-20         0.00000E+00
   -0.40745E-21         0.79162E-20         0.00000E+00
    0.98953E-21         0.74506E-20         0.00000E+00
    0.30268E-20         0.18626E-20         0.00000E+00
    0.59372E-20         0.69849E-20         0.00000E+00
    0.57044E-20        -0.13970E-19         0.00000E+00
    0.36089E-20        -0.28871E-19         0.00000E+00
    0.33178E-20        -0.31199E-19         0.00000E+00
    0.33760E-20        -0.25611E-19         0.00000E+00
    0.44820E-20        -0.26077E-19         0.00000E+00
    0.35507E-20        -0.13970E-19         0.00000E+00
    0.27358E-20        -0.18161E-19         0.00000E+00
    0.32596E-20        -0.23283E-21         0.00000E+00
    0.34343E-20        -0.60536E-20         0.00000E+00
    0.19791E-20         0.23283E-20         0.00000E+00
    0.26193E-20        -0.93132E-21         0.00000E+00
    0.37835E-20         0.60536E-20         0.00000E+00
    0.37253E-20         0.55879E-20         0.00000E+00
    0.34925E-20         0.14901E-19         0.00000E+00
    0.51223E-20         0.10245E-19         0.00000E+00
    0.48312E-20        -0.60536E-20         0.00000E+00
    0.36089E-20        -0.14435E-19         0.00000E+00
    0.33760E-20        -0.22817E-19         0.00000E+00
    0.24447E-20        -0.24214E-19         0.00000E+00
    0.81491E-21        -0.97789E-20         0.00000E+00
    0.10477E-20        -0.76834E-20         0.00000E+00
    0.17462E-21        -0.95461E-20         0.00000E+00
    0.13388E-20         0.00000E+00         0.00000E+00
    0.17462E-21         0.26077E-19         0.00000E+00
   -0.16880E-20         0.15367E-19         0.00000E+00
   -0.41327E-20        -0.37253E-20         0.00000E+00
   -0.41327E-20        -0.27940E-20         0.00000E+00
   -0.29686E-20         0.74506E-20         0.00000E+00
   -0.20955E-20         0.12107E-19         0.00000E+00
   -0.13970E-20         0.60536E-20         0.00000E+00
   -0.81491E-21         0.39581E-20         0.00000E+00
   -0.12806E-20         0.27940E-20         0.00000E+00
   -0.30268E-20         0.93132E-21         0.00000E+00
   -0.28522E-20        -0.74506E-20         0.00000E+00
   -0.11642E-21        -0.69849E-20         0.00000E+00
    0.18626E-20        -0.14435E-19         0.00000E+00
   -0.64028E-21        -0.27474E-19         0.00000E+00
   -0.45402E-20        -0.16065E-19         0.00000E+00
   -0.54133E-20        -0.25146E-19         0.00000E+00
   -0.40163E-20        -0.39116E-19         0.00000E+00
   -0.22701E-20        -0.19092E-19         0.00000E+00
   -0.14552E-20        -0.13970E-19         0.00000E+00
   -0.20955E-20        -0.13504E-19         0.00000E+00
   -0.14552E-20        -0.11176E-19         0.00000E+00
    0.23283E-21        -0.10245E-19         0.00000E+00
    0.23283E-21        -0.93132E-21         0.00000E+00
    0.47148E-20         0.46566E-20         0.00000E+00
    0.26776E-20         0.74506E-20         0.00000E+00
    0.40745E-21         0.69849E-20         0.00000E+00
   -0.41910E-20         0.97789E-20         0.00000E+00
   -0.71013E-20        -0.93132E-21         0.00000E+00
   -0.84983E-20        -0.25611E-19         0.00000E+00
   -0.90222E-20        -0.28871E-19         0.00000E+00
   -0.10186E-19        -0.21420E-19         0.00000E+00
   -0.11758E-19        -0.24913E-19         0.00000E+00
   -0.10477E-19        -0.18626E-19         0.00000E+00
   -0.73924E-20        -0.21420E-19         0.00000E+00
   -0.65193E-20        -0.41910E-20         0.00000E+00
   -0.62282E-20        -0.69849E-20         0.00000E+00
   -0.47148E-20         0.60536E-20         0.00000E+00
   -0.49477E-20        -0.69849E-20         0.00000E+00
   -0.50059E-20         0.11874E-19         0.00000E+00
   -0.65775E-20         0.97789E-20         0.00000E+00
   -0.73924E-20         0.11874E-19         0.00000E+00
   -0.87894E-20         0.95461E-20         0.00000E+00
   -0.79162E-20        -0.93132E-20         0.00000E+00
   -0.58790E-20        -0.21886E-19         0.00000E+00
   -0.47730E-20        -0.16764E-19         0.00000E+00
   -0.47148E-20        -0.22352E-19         0.00000E+00
   -0.38417E-20        -0.93132E-20         0.00000E+00
   -0.33760E-20        -0.53551E-20         0.00000E+00
   -0.39581E-20        -0.39581E-20         0.00000E+00
   -0.59954E-20        -0.46566E-21         0.00000E+00
   -0.60536E-20         0.27008E-19         0.00000E+00
   -0.25611E-20         0.11642E-19         0.00000E+00
    0.12224E-20        -0.79162E-20         0.00000E+00
    0.21537E-20        -0.37253E-20         0.00000E+00
    0.14552E-20         0.12107E-19         0.00000E+00
    0.15134E-20         0.60536E-20         0.00000E+00
    0.25029E-20         0.27940E-20         0.00000E+00
    0.23865E-20         0.32596E-20         0.00000E+00
    0.34343E-20         0.93132E-21         0.00000E+00
    0.59372E-20        -0.93132E-21         0.00000E+00
    0.61700E-20        -0.93132E-20         0.00000E+00
    0.33760E-20        -0.74506E-20         0.00000E+00
    0.23865E-20        -0.19092E-19         0.00000E+00
    0.40163E-20        -0.21420E-19         0.00000E+00
    0.64028E-20        -0.11176E-19         0.00000E+00
    0.64028E-20        -0.27008E-19         0.00000E+00
    0.45984E-20        -0.35856E-19         0.00000E+00
    0.33178E-20        -0.24447E-19         0.00000E+00
    0.38999E-20        -0.20955E-19         0.00000E+00
    0.65193E-20        -0.14435E-19         0.00000E+00
    0.72760E-20        -0.15832E-19         0.00000E+00
    0.50641E-20        -0.69849E-20         0.00000E+00
    0.40745E-20         0.11642E-20         0.00000E+00
    0.29104E-20         0.37253E-20         0.00000E+00
    0.37253E-20         0.12107E-19         0.00000E+00
    0.71013E-20         0.69849E-20         0.00000E+00
    0.10710E-19         0.11176E-19         0.00000E+00
    0.13853E-19        -0.13970E-20         0.00000E+00
    0.12224E-19        -0.11642E-19         0.00000E+00
    0.96625E-20        -0.21420E-19         0.00000E+00
    0.77998E-20        -0.17462E-19         0.00000E+00
    0.67521E-20        -0.20489E-19         0.00000E+00
    0.26776E-20        -0.13970E-19         0.00000E+00
   -0.58208E-21        -0.18626E-19         0.00000E+00
   -0.20955E-20        -0.23283E-20         0.00000E+00
   -0.26776E-20        -0.10245E-19         0.00000E+00
   -0.35507E-20         0.51223E-20         0.00000E+00
   -0.44238E-20        -0.23283E-20         0.00000E+00
   -0.64028E-20         0.16764E-19         0.00000E+00
   -0.30850E-20         0.23283E-20         0.00000E+00
    0.46566E-21         0.97789E-20         0.00000E+00
    0.22701E-20         0.97789E-20         0.00000E+00
    0.87311E-21        -0.51223E-20         0.00000E+00
   -0.21537E-20        -0.24214E-19         0.00000E+00
   -0.39581E-20        -0.12107E-19         0.00000E+00
   -0.32596E-20        -0.25611E-19         0.00000E+00
   -0.37253E-20        -0.12107E-19         0.00000E+00
   -0.40745E-20        -0.81491E-20         0.00000E+00
   -0.40163E-20        -0.16298E-20         0.00000E+00
   -0.20373E-20         0.93132E-21         0.00000E+00
   -0.47020E-37         0.15832E-19         0.00000E+00
    0.98953E-21         0.23283E-20         0.00000E+00
    0.52387E-21        -0.18626E-19         0.00000E+00
    0.22119E-20        -0.46566E-20         0.00000E+00
    0.29686E-20         0.12573E-19         0.00000E+00
    0.11059E-20         0.88476E-20         0.00000E+00
   -0.58208E-21         0.23283E-20         0.00000E+00
   -0.34925E-21         0.41910E-20         0.00000E+00
   -0.40745E-21        -0.46566E-20         0.00000E+00
   -0.13970E-20        -0.88476E-20         0.00000E+00
    0.17462E-21        -0.74506E-20         0.00000E+00
    0.18626E-20        -0.27940E-20         0.00000E+00
    0.75670E-21        -0.13504E-19         0.00000E+00
   -0.87311E-21        -0.30734E-19         0.00000E+00
   -0.16880E-20        -0.15367E-19         0.00000E+00
   -0.19209E-20        -0.15134E-19         0.00000E+00
   -0.87311E-21        -0.38184E-19         0.00000E+00
    0.15716E-20        -0.28871E-19         0.00000E+00
    0.22701E-20        -0.18626E-19         0.00000E+00
   -0.69849E-21        -0.12107E-19         0.00000E+00
   -0.33178E-20        -0.74506E-20         0.00000E+00
   -0.36089E-20        -0.27940E-20         0.00000E+00
   -0.27940E-20         0.41910E-20         0.00000E+00
   -0.39581E-20         0.65193E-20         0.00000E+00
   -0.46566E-20         0.41910E-20         0.00000E+00
   -0.48312E-20        -0.23283E-20         0.00000E+00
   -0.57044E-20         0.23283E-20         0.00000E+00
   -0.57044E-20        -0.65193E-20         0.00000E+00
   -0.47730E-20        -0.10710E-19         0.00000E+00
   -0.26776E-20        -0.17695E-19         0.00000E+00
   -0.64028E-21        -0.19092E-19         0.00000E+00
    0.29104E-20        -0.23749E-19         0.00000E+00
    0.68685E-20        -0.97789E-20         0.00000E+00
    0.84983E-20        -0.16298E-19         0.00000E+00
    0.79162E-20         0.46566E-20         0.00000E+00
    0.82655E-20        -0.11176E-19         0.00000E+00
    0.76252E-20         0.10710E-19         0.00000E+00
    0.62864E-20         0.00000E+00         0.00000E+00
    0.74506E-20         0.14435E-19         0.00000E+00
    0.58790E-20        -0.13970E-20         0.00000E+00
    0.48312E-20         0.30268E-20         0.00000E+00
    0.42492E-20         0.83819E-20         0.00000E+00
    0.38417E-20         0.41910E-20         0.00000E+00
    0.31432E-20        -0.18161E-19         0.00000E+00
    0.31432E-20        -0.10245E-19         0.00000E+00
    0.20373E-20        -0.21886E-19         0.00000E+00
   -0.16298E-20        -0.46566E-20         0.00000E+00
   -0.29104E-20        -0.48894E-20         0.00000E+00
   -0.16880E-20        -0.14901E-19         0.00000E+00
    0.11642E-20        -0.11874E-19         0.00000E+00
    0.32014E-20         0.83819E-20         0.00000E+00
    0.20373E-20         0.12107E-19         0.00000E+00
   -0.16880E-20        -0.51223E-20         0.00000E+00
   -0.53551E-20        -0.32596E-20         0.00000E+00
   -0.49477E-20         0.74506E-20         0.00000E+00
   -0.30268E-20         0.12107E-19         0.00000E+00
   -0.24447E-20        -0.46566E-21         0.00000E+00
    0.40745E-21        -0.69849E-20         0.00000E+00
    0.23865E-20        -0.37253E-20         0.00000E+00
    0.19209E-20        -0.23283E-20         0.00000E+00
    0.64028E-21        -0.11176E-19         0.00000E+00
    0.34925E-21        -0.11176E-19         0.00000E+00
    0.29686E-20        -0.88476E-20         0.00000E+00
    0.37253E-20        -0.28871E-19         0.00000E+00
    0.40745E-20        -0.15367E-19         0.00000E+00
    0.61700E-20        -0.23516E-19         0.00000E+00
    0.61700E-20        -0.38650E-19         0.00000E+00
    0.45402E-20        -0.34459E-19         0.00000E+00
    0.24447E-20        -0.10245E-19         0.00000E+00
    0.14552E-20        -0.83819E-20         0.00000E+00
    0.27940E-20        -0.23283E-20         0.00000E+00
    0.21537E-20        -0.13970E-20         0.00000E+00
    0.13970E-20         0.27940E-20         0.00000E+00
    0.67521E-20         0.97789E-20         0.00000E+00
    0.57044E-20         0.93132E-20         0.00000E+00
    0.37253E-20         0.93132E-21         0.00000E+00
    0.33178E-20         0.46566E-20         0.00000E+00
    0.26776E-20        -0.74506E-20         0.00000E+00
    0.33760E-20        -0.18161E-19         0.00000E+00
    0.41910E-20        -0.24447E-19         0.00000E+00
    0.40745E-20        -0.24214E-19         0.00000E+00
    0.17462E-20        -0.26077E-19         0.00000E+00
   -0.15134E-20        -0.14435E-19         0.00000E+00
   -0.25029E-20        -0.19092E-19         0.00000E+00
   -0.13388E-20         0.37253E-20         0.00000E+00
   -0.98953E-21        -0.11642E-19         0.00000E+00
    0.16880E-20         0.23283E-20         0.00000E+00
    0.54133E-20        -0.46566E-20         0.00000E+00
    0.45402E-20         0.14901E-19         0.00000E+00
    0.29104E-20         0.88476E-20         0.00000E+00
    0.23283E-21         0.14901E-19         0.00000E+00
   -0.33178E-20         0.17229E-19         0.00000E+00
   -0.53551E-20         0.93132E-20         0.00000E+00
   -0.49477E-20        -0.18859E-19         0.00000E+00
   -0.33760E-20        -0.14901E-19         0.00000E+00
   -0.12224E-20        -0.16764E-19         0.00000E+00
    0.19791E-20        -0.10710E-19         0.00000E+00
    0.57626E-20        -0.37253E-20         0.00000E+00
    0.52969E-20        -0.13039E-19         0.00000E+00
   -0.40745E-21        -0.11642E-20         0.00000E+00
   -0.49477E-20         0.19092E-19         0.00000E+00
   -0.47730E-20         0.67521E-20         0.00000E+00
   -0.87311E-21        -0.37253E-20         0.00000E+00
    0.21537E-20        -0.51223E-20         0.00000E+00
    0.19791E-20         0.10245E-19         0.00000E+00
    0.14552E-20         0.79162E-20         0.00000E+00
    0.23283E-21         0.46566E-20         0.00000E+00
   -0.32596E-20        -0.18626E-20         0.00000E+00
   -0.65193E-20        -0.16298E-20         0.00000E+00
   -0.70431E-20         0.00000E+00         0.00000E+00
   -0.44238E-20        -0.13504E-19         0.00000E+00
   -0.29104E-20        -0.16298E-19         0.00000E+00
   -0.32014E-20        -0.13970E-19         0.00000E+00
   -0.29104E-20        -0.27008E-19         0.00000E+00
   -0.25611E-20        -0.23283E-19         0.00000E+00
   -0.14552E-20        -0.34925E-19         0.00000E+00
    0.23865E-20        -0.39348E-19         0.00000E+00
    0.27358E-20        -0.25844E-19         0.00000E+00
    0.34343E-20        -0.95461E-20         0.00000E+00
    0.39581E-20        -0.60536E-20         0.00000E+00
    0.37835E-20        -0.74506E-20         0.00000E+00
    0.37835E-20        -0.46566E-21         0.00000E+00
    0.51223E-20         0.32596E-20         0.00000E+00
    0.10477E-20         0.00000E+00         0.00000E+00
    0.32596E-20         0.10245E-19         0.00000E+00
    0.46566E-20         0.32596E-20         0.00000E+00
    0.40163E-20         0.60536E-20         0.00000E+00
    0.33760E-20        -0.48894E-20         0.00000E+00
    0.19791E-20        -0.15832E-19         0.00000E+00
   -0.11642E-21        -0.16997E-19         0.00000E+00
   -0.37253E-20        -0.18626E-19         0.00000E+00
   -0.44238E-20        -0.11642E-19         0.00000E+00
   -0.37253E-20        -0.12107E-19         0.00000E+00
   -0.33760E-20        -0.17229E-19         0.00000E+00
   -0.24447E-20        -0.55879E-20         0.00000E+00
   -0.16880E-20        -0.16065E-19         0.00000E+00
   -0.29686E-20        -0.13970E-20         0.00000E+00
   -0.41327E-20        -0.97789E-20         0.00000E+00
   -0.27940E-20         0.11409E-19         0.00000E+00
    0.29104E-21         0.14901E-19         0.00000E+00
    0.46566E-21         0.20489E-19         0.00000E+00
    0.36089E-20         0.15832E-19         0.00000E+00
    0.65775E-20         0.60536E-20         0.00000E+00
    0.69849E-20        -0.19325E-19         0.00000E+00
    0.59372E-20        -0.19092E-19         0.00000E+00
    0.44820E-20        -0.20023E-19         0.00000E+00
    0.27940E-20        -0.16764E-19         0.00000E+00
    0.20373E-20        -0.10477E-19         0.00000E+00
    0.20373E-20        -0.51223E-20         0.00000E+00
    0.52969E-20         0.46566E-21         0.00000E+00
    0.83819E-20         0.18161E-19         0.00000E+00
    0.87311E-20         0.46566E-20         0.00000E+00
    0.55879E-20        -0.60536E-20         0.00000E+00
    0.35507E-20        -0.12573E-19         0.00000E+00
    0.61700E-20         0.81491E-20         0.00000E+00
    0.70431E-20         0.10943E-19         0.00000E+00
    0.69849E-20         0.55879E-20         0.00000E+00
    0.67521E-20         0.79162E-20         0.00000E+00
    0.61700E-20         0.95461E-20         0.00000E+00
    0.60536E-20        -0.74506E-20         0.00000E+00
    0.41327E-20        -0.79162E-20         0.00000E+00
    0.10477E-20        -0.86147E-20         0.00000E+00
    0.52387E-21        -0.15832E-19         0.00000E+00
    0.64028E-21        -0.26077E-19         0.00000E+00
   -0.58208E-22        -0.21420E-19         0.00000E+00
   -0.28522E-20        -0.37951E-19         0.00000E+00
   -0.34343E-20        -0.46566E-19         0.00000E+00
   -0.22119E-20        -0.24680E-19         0.00000E+00
   -0.34343E-20        -0.13737E-19         0.00000E+00
   -0.33178E-20        -0.41910E-20         0.00000E+00
   -0.22701E-20        -0.27940E-20         0.00000E+00
   -0.34343E-20        -0.51223E-20         0.00000E+00
   -0.41910E-20        -0.93132E-21         0.00000E+00
    0.30268E-20         0.55879E-20         0.00000E+00
    0.34925E-21         0.55879E-20         0.00000E+00
    0.58208E-21         0.55879E-20         0.00000E+00
    0.11642E-20         0.93132E-20         0.00000E+00
    0.46566E-21         0.00000E+00         0.00000E+00
   -0.34925E-21        -0.13970E-19         0.00000E+00
    0.14552E-20        -0.14435E-19         0.00000E+00
    0.58208E-20        -0.20955E-19         0.00000E+00
    0.84983E-20        -0.24680E-19         0.00000E+00
    0.11118E-19        -0.17695E-19         0.00000E+00
    0.13330E-19        -0.23749E-19         0.00000E+00
    0.14727E-19        -0.27940E-20         0.00000E+00
    0.11700E-19        -0.88476E-20         0.00000E+00
    0.82073E-20         0.95461E-20         0.00000E+00
    0.63446E-20        -0.93132E-21         0.00000E+00
    0.33760E-20         0.60536E-20         0.00000E+00
    0.25029E-20         0.12573E-19         0.00000E+00
    0.27358E-20         0.17229E-19         0.00000E+00
    0.98953E-21         0.10710E-19         0.00000E+00
   -0.11642E-21         0.00000E+00         0.00000E+00
   -0.58208E-21        -0.16298E-19         0.00000E+00
   -0.14552E-20        -0.97789E-20         0.00000E+00
   -0.19791E-20        -0.18161E-19         0.00000E+00
   -0.18044E-20        -0.14435E-19         0.00000E+00
   -0.98953E-21        -0.93132E-20         0.00000E+00
   -0.93132E-21        -0.93132E-20         0.00000E+00
   -0.23283E-20        -0.46566E-20         0.00000E+00
   -0.42492E-20         0.20955E-19         0.00000E+00
   -0.42492E-20         0.60536E-20         0.00000E+00
   -0.20373E-20        -0.32596E-20         0.00000E+00
   -0.22701E-20        -0.16298E-20         0.00000E+00
   -0.60536E-20         0.67521E-20         0.00000E+00
   -0.74506E-20         0.13970E-19         0.00000E+00
   -0.97207E-20         0.97789E-20         0.00000E+00
   -0.11059E-19         0.55879E-20         0.00000E+00
   -0.80327E-20         0.55879E-20         0.00000E+00
   -0.83819E-20        -0.37253E-20         0.00000E+00
   -0.79744E-20        -0.88476E-20         0.00000E+00
   -0.47730E-20        -0.10710E-19         0.00000E+00
   -0.29104E-20        -0.21420E-19         0.00000E+00
   -0.15134E-20        -0.31665E-19         0.00000E+00
    0.00000E+00        -0.18161E-19         0.00000E+00
    0.11059E-20        -0.32596E-19         0.00000E+00
   -0.40745E-21        -0.40513E-19         0.00000E+00
   -0.12806E-20        -0.28638E-19         0.00000E+00
    0.15716E-20        -0.15832E-19         0.00000E+00
    0.40745E-20        -0.14901E-19         0.00000E+00
    0.65193E-20        -0.83819E-20         0.00000E+00
    0.75670E-20         0.93132E-21         0.00000E+00
    0.75670E-20         0.00000E+00         0.00000E+00
   -0.68103E-20         0.90804E-20         0.00000E+00
   -0.51223E-20         0.79162E-20         0.00000E+00
   -0.33178E-20        -0.13970E-20         0.00000E+00
    0.46566E-21        -0.79162E-20         0.00000E+00
    0.50059E-20        -0.11642E-19         0.00000E+00
    0.86147E-20        -0.19092E-19         0.00000E+00
    0.84983E-20        -0.19558E-19         0.00000E+00
    0.71013E-20        -0.25379E-19         0.00000E+00
    0.40745E-20        -0.19558E-19         0.00000E+00
    0.19209E-20        -0.17695E-19         0.00000E+00
    0.34925E-21        -0.27008E-19         0.00000E+00
    0.52387E-21        -0.18626E-20         0.00000E+00
    0.12806E-20        -0.13970E-20         0.00000E+00
    0.33178E-20         0.12573E-19         0.00000E+00
    0.43074E-20         0.53551E-20         0.00000E+00
    0.36671E-20         0.13039E-19         0.00000E+00
    0.42492E-20         0.10943E-19         0.00000E+00
    0.37253E-20         0.24680E-19         0.00000E+00
    0.25029E-20         0.19092E-19         0.00000E+00
    0.23283E-20        -0.46566E-20         0.00000E+00
    0.27940E-20        -0.14901E-19         0.00000E+00
    0.36089E-20        -0.12573E-19         0.00000E+00
    0.54133E-20        -0.20955E-19         0.00000E+00
    0.47730E-20        -0.14901E-19         0.00000E+00
    0.24447E-20        -0.86147E-20         0.00000E+00
    0.29686E-20        -0.11176E-19         0.00000E+00
    0.43656E-20         0.00000E+00         0.00000E+00
    0.44820E-20         0.19092E-19         0.00000E+00
    0.35507E-20         0.88476E-20         0.00000E+00
   -0.29104E-21         0.18626E-20         0.00000E+00
   -0.33178E-20         0.41910E-20         0.00000E+00
   -0.38999E-20         0.18859E-19         0.00000E+00
   -0.51805E-20         0.18394E-19         0.00000E+00
   -0.38417E-20         0.10245E-19         0.00000E+00
   -0.22701E-20         0.55879E-20         0.00000E+00
   -0.30268E-20         0.00000E+00         0.00000E+00
   -0.22119E-20        -0.60536E-20         0.00000E+00
   -0.13388E-20        -0.97789E-20         0.00000E+00
   -0.21537E-20        -0.19092E-19         0.00000E+00
   -0.46566E-21        -0.33062E-19         0.00000E+00
    0.10477E-20        -0.36554E-19         0.00000E+00
    0.21537E-20        -0.20489E-19         0.00000E+00
    0.25029E-20        -0.35390E-19         0.00000E+00
    0.49477E-20        -0.38184E-19         0.00000E+00
    0.44820E-20        -0.30035E-19         0.00000E+00
    0.98953E-21        -0.16298E-19         0.00000E+00
   -0.12806E-20        -0.16764E-19         0.00000E+00
   -0.18044E-20        -0.15600E-19         0.00000E+00
    0.52387E-21        -0.65193E-20         0.00000E+00
    0.25611E-20        -0.83819E-20         0.00000E+00
    0.46566E-21         0.55879E-20         0.00000E+00
   -0.11642E-21         0.65193E-20         0.00000E+00
   -0.40745E-21        -0.41910E-20         0.00000E+00
   -0.24447E-20        -0.81491E-20         0.00000E+00
   -0.60536E-20        -0.12107E-19         0.00000E+00
   -0.72177E-20        -0.24214E-19         0.00000E+00
   -0.55879E-20        -0.21420E-19         0.00000E+00
   -0.47730E-20        -0.19092E-19         0.00000E+00
   -0.41910E-20        -0.18626E-19         0.00000E+00
   -0.23283E-20        -0.14435E-19         0.00000E+00
   -0.26776E-20        -0.24680E-19         0.00000E+00
   -0.29104E-20        -0.18626E-20         0.00000E+00
   -0.26776E-20        -0.11176E-19         0.00000E+00
   -0.23865E-20         0.88476E-20         0.00000E+00
   -0.11642E-20        -0.32596E-20         0.00000E+00
   -0.58208E-22         0.14901E-19         0.00000E+00
   -0.69849E-21         0.13039E-19         0.00000E+00
    0.34925E-21         0.19791E-19         0.00000E+00
    0.32596E-20         0.15832E-19         0.00000E+00
    0.32596E-20        -0.37253E-20         0.00000E+00
    0.39581E-20        -0.17229E-19         0.00000E+00
    0.46566E-20        -0.16298E-19         0.00000E+00
    0.40163E-20        -0.16764E-19         0.00000E+00
    0.29104E-20        -0.10710E-19         0.00000E+00
    0.41327E-20        -0.65193E-20         0.00000E+00
    0.16298E-20        -0.51223E-20         0.00000E+00
    0.18044E-20        -0.97789E-20         0.00000E+00
    0.29104E-20         0.22817E-19         0.00000E+00
    0.27358E-20         0.14435E-19         0.00000E+00
    0.51805E-20         0.65193E-20         0.00000E+00
    0.77998E-20         0.46566E-20         0.00000E+00
    0.78580E-20         0.19558E-19         0.00000E+00
    0.80909E-20         0.23982E-19         0.00000E+00
    0.72760E-20         0.23283E-20         0.00000E+00
    0.69267E-20         0.48894E-20         0.00000E+00
    0.75670E-20        -0.46566E-20         0.00000E+00
    0.96625E-20        -0.13039E-19         0.00000E+00
    0.11001E-19        -0.97789E-20         0.00000E+00
    0.12340E-19        -0.23516E-19         0.00000E+00
    0.11292E-19        -0.31199E-19         0.00000E+00
    0.82655E-20        -0.38883E-19         0.00000E+00
    0.82655E-20        -0.22119E-19         0.00000E+00
    0.76834E-20        -0.37486E-19         0.00000E+00
    0.47148E-20        -0.31665E-19         0.00000E+00
    0.52969E-20        -0.27008E-19         0.00000E+00
    0.89640E-20        -0.21886E-19         0.00000E+00
    0.12689E-19        -0.20955E-19         0.00000E+00
    0.13621E-19        -0.17462E-19         0.00000E+00
    0.12398E-19        -0.55879E-20         0.00000E+00
    0.96625E-20        -0.18626E-20         0.00000E+00
   -0.26193E-20         0.79162E-20         0.00000E+00
   -0.33760E-20         0.88476E-20         0.00000E+00
   -0.41327E-20        -0.18626E-20         0.00000E+00
   -0.48312E-20         0.00000E+00         0.00000E+00
   -0.39581E-20        -0.83819E-20         0.00000E+00
   -0.53551E-20        -0.25611E-19         0.00000E+00
   -0.51805E-20        -0.26077E-19         0.00000E+00
   -0.22119E-20        -0.29337E-19         0.00000E+00
    0.00000E+00        -0.30501E-19         0.00000E+00
    0.23283E-20        -0.19092E-19         0.00000E+00
    0.25611E-20        -0.22817E-19         0.00000E+00
    0.26776E-20         0.00000E+00         0.00000E+00
    0.14552E-20        -0.93132E-20         0.00000E+00
   -0.58208E-21         0.12107E-19         0.00000E+00
   -0.30850E-20        -0.30268E-20         0.00000E+00
   -0.28522E-20         0.14901E-19         0.00000E+00
   -0.34343E-20         0.17695E-19         0.00000E+00
   -0.53551E-20         0.22585E-19         0.00000E+00
   -0.72760E-20         0.13504E-19         0.00000E+00
   -0.86729E-20        -0.23283E-20         0.00000E+00
   -0.91386E-20        -0.22352E-19         0.00000E+00
   -0.96625E-20        -0.12107E-19         0.00000E+00
   -0.90804E-20        -0.19558E-19         0.00000E+00
   -0.74506E-20        -0.14435E-19         0.00000E+00
   -0.71595E-20        -0.93132E-20         0.00000E+00
   -0.46566E-20        -0.27940E-20         0.00000E+00
   -0.43656E-20        -0.62864E-20         0.00000E+00
   -0.48894E-20         0.18161E-19         0.00000E+00
   -0.32014E-20         0.74506E-20         0.00000E+00
   -0.13970E-20        -0.88476E-20         0.00000E+00
    0.23283E-21         0.32596E-20         0.00000E+00
    0.81491E-21         0.24214E-19         0.00000E+00
    0.13388E-20         0.14901E-19         0.00000E+00
    0.30268E-20         0.18626E-20         0.00000E+00
    0.41327E-20         0.32596E-20         0.00000E+00
    0.35507E-20        -0.79162E-20         0.00000E+00
    0.29104E-20        -0.14435E-19         0.00000E+00
    0.33760E-20        -0.16997E-19         0.00000E+00
    0.21537E-20        -0.22352E-19         0.00000E+00
    0.16880E-20        -0.18626E-19         0.00000E+00
   -0.58208E-22        -0.31199E-19         0.00000E+00
   -0.31432E-20        -0.15832E-19         0.00000E+00
   -0.58208E-20        -0.26776E-19         0.00000E+00
   -0.59954E-20        -0.27241E-19         0.00000E+00
   -0.56461E-20        -0.31665E-19         0.00000E+00
   -0.75088E-20        -0.24680E-19         0.00000E+00
   -0.10594E-19        -0.20955E-19         0.00000E+00
   -0.13155E-19        -0.11642E-19         0.00000E+00
   -0.14610E-19        -0.23283E-20         0.00000E+00
   -0.13213E-19         0.51223E-20         0.00000E+00
   -0.12224E-20         0.27940E-20         0.00000E+00
    0.93132E-21        -0.23283E-21         0.00000E+00
    0.30268E-20        -0.46566E-21         0.00000E+00
    0.29104E-20         0.46566E-21         0.00000E+00
    0.32596E-20        -0.69849E-20         0.00000E+00
    0.23283E-20        -0.18626E-19         0.00000E+00
    0.15716E-20        -0.28871E-19         0.00000E+00
    0.46566E-21        -0.32596E-19         0.00000E+00
   -0.11059E-20        -0.34925E-19         0.00000E+00
   -0.93132E-21        -0.22817E-19         0.00000E+00
   -0.93132E-21        -0.25611E-19         0.00000E+00
    0.29104E-21        -0.32596E-20         0.00000E+00
    0.33760E-20        -0.74506E-20         0.00000E+00
    0.50641E-20         0.18626E-19         0.00000E+00
    0.41327E-20         0.46566E-21         0.00000E+00
    0.26776E-20         0.21886E-19         0.00000E+00
    0.93132E-21         0.16298E-19         0.00000E+00
    0.24447E-20         0.22352E-19         0.00000E+00
    0.39581E-20         0.16298E-19         0.00000E+00
    0.33760E-20         0.46566E-21         0.00000E+00
    0.20373E-20        -0.14435E-19         0.00000E+00
    0.16298E-20        -0.10710E-19         0.00000E+00
    0.36089E-20        -0.29337E-19         0.00000E+00
    0.15134E-20        -0.95461E-20         0.00000E+00
   -0.11642E-21        -0.60536E-20         0.00000E+00
   -0.13388E-20        -0.95461E-20         0.00000E+00
   -0.23510E-37        -0.76834E-20         0.00000E+00
    0.26193E-20         0.97789E-20         0.00000E+00
    0.34925E-20        -0.18626E-20         0.00000E+00
    0.27940E-20        -0.74506E-20         0.00000E+00
    0.16880E-20         0.00000E+00         0.00000E+00
    0.34925E-20         0.14668E-19         0.00000E+00
    0.63446E-20         0.86147E-20         0.00000E+00
    0.75088E-20         0.00000E+00         0.00000E+00
    0.61118E-20         0.88476E-20         0.00000E+00
    0.47730E-20        -0.32596E-20         0.00000E+00
    0.38417E-20        -0.97789E-20         0.00000E+00
    0.26193E-20        -0.18626E-19         0.00000E+00
    0.22701E-20        -0.12107E-19         0.00000E+00
    0.34925E-21        -0.13970E-19         0.00000E+00
    0.52387E-21        -0.25146E-19         0.00000E+00
    0.69849E-21        -0.83819E-20         0.00000E+00
    0.19209E-20        -0.23749E-19         0.00000E+00
    0.37835E-20        -0.34925E-19         0.00000E+00
    0.31432E-20        -0.27008E-19         0.00000E+00
    0.87311E-21        -0.13039E-19         0.00000E+00
   -0.18626E-20        -0.53551E-20         0.00000E+00
   -0.30850E-20        -0.97789E-20         0.00000E+00
   -0.18626E-20         0.46566E-21         0.00000E+00
   -0.32596E-20        -0.16298E-20         0.00000E+00
    0.12631E-19         0.46566E-20         0.00000E+00
    0.98953E-20         0.46566E-21         0.00000E+00
    0.73342E-20         0.55879E-20         0.00000E+00
    0.52387E-20         0.79162E-20         0.00000E+00
    0.42492E-20        -0.83819E-20         0.00000E+00
    0.48894E-20        -0.19092E-19         0.00000E+00
    0.52969E-20        -0.24680E-19         0.00000E+00
    0.37253E-20        -0.28405E-19         0.00000E+00
    0.18626E-20        -0.22817E-19         0.00000E+00
    0.22701E-20        -0.25146E-19         0.00000E+00
   -0.58208E-22        -0.19558E-19         0.00000E+00
   -0.24447E-20        -0.18626E-20         0.00000E+00
   -0.38417E-20        -0.51223E-20         0.00000E+00
   -0.61118E-20         0.13039E-19         0.00000E+00
   -0.48312E-20         0.41910E-20         0.00000E+00
   -0.34343E-20         0.26543E-19         0.00000E+00
   -0.14552E-20         0.97789E-20         0.00000E+00
    0.23283E-21         0.16298E-19         0.00000E+00
    0.14552E-20         0.12107E-19         0.00000E+00
    0.32596E-20        -0.51223E-20         0.00000E+00
    0.68685E-20        -0.15367E-19         0.00000E+00
    0.73342E-20        -0.16764E-19         0.00000E+00
    0.69267E-20        -0.28405E-19         0.00000E+00
    0.72760E-20        -0.69849E-20         0.00000E+00
    0.84983E-20        -0.79162E-20         0.00000E+00
    0.82655E-20        -0.37253E-20         0.00000E+00
    0.58790E-20        -0.74506E-20         0.00000E+00
    0.19209E-20         0.18161E-19         0.00000E+00
    0.00000E+00        -0.18626E-20         0.00000E+00
   -0.52387E-21        -0.60536E-20         0.00000E+00
    0.52387E-21        -0.46566E-20         0.00000E+00
    0.19791E-20         0.37253E-20         0.00000E+00
    0.15134E-20         0.74506E-20         0.00000E+00
   -0.64028E-21         0.46566E-20         0.00000E+00
    0.75670E-21         0.51223E-20         0.00000E+00
    0.29104E-21         0.10710E-19         0.00000E+00
   -0.29104E-20        -0.39581E-20         0.00000E+00
   -0.59372E-20        -0.13970E-19         0.00000E+00
   -0.65775E-20        -0.10710E-19         0.00000E+00
   -0.68685E-20        -0.37253E-20         0.00000E+00
   -0.89058E-20        -0.25146E-19         0.00000E+00
   -0.90804E-20        -0.83819E-20         0.00000E+00
   -0.10594E-19        -0.22352E-19         0.00000E+00
   -0.11583E-19        -0.34925E-19         0.00000E+00
   -0.12049E-19        -0.27474E-19         0.00000E+00
   -0.89058E-20        -0.15367E-19         0.00000E+00
   -0.50059E-20        -0.41910E-20         0.00000E+00
   -0.52969E-20        -0.88476E-20         0.00000E+00
   -0.58208E-20        -0.27940E-20         0.00000E+00
   -0.23283E-20        -0.46566E-21         0.00000E+00
    0.34343E-20         0.79162E-20         0.00000E+00
    0.38417E-20         0.83819E-20         0.00000E+00
    0.63446E-20         0.41910E-20         0.00000E+00
    0.95461E-20         0.55879E-20         0.00000E+00
    0.10245E-19        -0.10245E-19         0.00000E+00
    0.95461E-20        -0.16298E-19         0.00000E+00
    0.87894E-20        -0.23283E-19         0.00000E+00
    0.10012E-19        -0.23283E-19         0.00000E+00
    0.79744E-20        -0.15832E-19         0.00000E+00
    0.43074E-20        -0.10710E-19         0.00000E+00
    0.00000E+00        -0.10245E-19         0.00000E+00
   -0.13970E-20         0.32596E-20         0.00000E+00
   -0.43656E-20         0.97789E-20         0.00000E+00
   -0.71013E-20         0.15367E-19         0.00000E+00
   -0.59954E-20        -0.93132E-20         0.00000E+00
   -0.44238E-20         0.16298E-19         0.00000E+00
   -0.51805E-20         0.88476E-20         0.00000E+00
   -0.62864E-20         0.12573E-19         0.00000E+00
   -0.57626E-20         0.55879E-20         0.00000E+00
   -0.42492E-20        -0.14435E-19         0.00000E+00
   -0.33178E-20        -0.25611E-19         0.00000E+00
   -0.29104E-20        -0.16764E-19         0.00000E+00
   -0.10477E-20        -0.29802E-19         0.00000E+00
   -0.23283E-21        -0.16298E-19         0.00000E+00
   -0.11642E-21        -0.83819E-20         0.00000E+00
    0.40745E-21        -0.46566E-21         0.00000E+00
    0.23283E-21         0.27940E-20         0.00000E+00
    0.52387E-21         0.23749E-19         0.00000E+00
    0.81491E-21         0.51223E-20         0.00000E+00
   -0.17462E-21        -0.79162E-20         0.00000E+00
    0.58208E-22        -0.46566E-20         0.00000E+00
   -0.11059E-20         0.46566E-20         0.00000E+00
   -0.40745E-21         0.97789E-20         0.00000E+00
    0.10477E-20         0.46566E-20         0.00000E+00
    0.17462E-21         0.23283E-20         0.00000E+00
    0.98953E-21         0.93132E-20         0.00000E+00
    0.38417E-20         0.55879E-20         0.00000E+00
    0.55879E-20        -0.88476E-20         0.00000E+00
    0.57044E-20        -0.97789E-20         0.00000E+00
    0.59372E-20        -0.46566E-20         0.00000E+00
    0.58208E-20        -0.18859E-19         0.00000E+00
    0.54715E-20        -0.10245E-19         0.00000E+00
    0.58790E-20        -0.17229E-19         0.00000E+00
    0.62282E-20        -0.34925E-19         0.00000E+00
    0.55879E-20        -0.26077E-19         0.00000E+00
    0.25611E-20        -0.15832E-19         0.00000E+00
    0.23283E-21        -0.11642E-19         0.00000E+00
    0.23283E-20        -0.11642E-19         0.00000E+00
    0.27358E-20        -0.60536E-20         0.00000E+00
    0.15134E-20        -0.34925E-20         0.00000E+00
    0.13155E-19         0.18626E-20         0.00000E+00
    0.14435E-19         0.65193E-20         0.00000E+00
    0.11409E-19         0.46566E-21         0.00000E+00
    0.90804E-20         0.13970E-20         0.00000E+00
    0.81491E-20        -0.74506E-20         0.00000E+00
    0.52387E-20        -0.74506E-20         0.00000E+00
    0.11642E-20        -0.10710E-19         0.00000E+00
   -0.34925E-20        -0.14435E-19         0.00000E+00
   -0.51805E-20        -0.93132E-20         0.00000E+00
   -0.52387E-20         0.27940E-20         0.00000E+00
   -0.52387E-20        -0.41910E-20         0.00000E+00
   -0.48894E-20         0.15832E-19         0.00000E+00
   -0.33178E-20         0.41910E-20         0.00000E+00
    0.10477E-20         0.13039E-19         0.00000E+00
    0.64028E-21        -0.51223E-20         0.00000E+00
   -0.21537E-20         0.16764E-19         0.00000E+00
   -0.26193E-20         0.18626E-19         0.00000E+00
   -0.40745E-20         0.19092E-19         0.00000E+00
   -0.54133E-20         0.46566E-20         0.00000E+00
   -0.70431E-20        -0.10245E-19         0.00000E+00
   -0.83237E-20        -0.28405E-19         0.00000E+00
   -0.83237E-20        -0.21420E-19         0.00000E+00
   -0.77416E-20        -0.33062E-19         0.00000E+00
   -0.79162E-20        -0.18626E-19         0.00000E+00
   -0.68103E-20        -0.88476E-20         0.00000E+00
   -0.65193E-20        -0.23283E-20         0.00000E+00
   -0.51805E-20        -0.13970E-20         0.00000E+00
   -0.40745E-20         0.16764E-19         0.00000E+00
   -0.15134E-20         0.27940E-20         0.00000E+00
    0.12224E-20        -0.15367E-19         0.00000E+00
    0.38999E-20        -0.12573E-19         0.00000E+00
    0.51805E-20         0.41910E-20         0.00000E+00
    0.43074E-20         0.46566E-20         0.00000E+00
    0.32596E-20         0.58208E-20         0.00000E+00
    0.26776E-20         0.72177E-20         0.00000E+00
    0.21537E-20         0.46566E-20         0.00000E+00
    0.10477E-20         0.23283E-20         0.00000E+00
   -0.93132E-21        -0.74506E-20         0.00000E+00
   -0.29104E-20        -0.37253E-20         0.00000E+00
   -0.30850E-20        -0.69849E-20         0.00000E+00
   -0.20955E-20        -0.23516E-19         0.00000E+00
   -0.29104E-21        -0.93132E-20         0.00000E+00
    0.69849E-21        -0.27707E-19         0.00000E+00
    0.11642E-20        -0.30734E-19         0.00000E+00
    0.15134E-20        -0.20955E-19         0.00000E+00
    0.37253E-20        -0.13039E-19         0.00000E+00
    0.44820E-20        -0.97789E-20         0.00000E+00
    0.30850E-20        -0.12573E-19         0.00000E+00
    0.22119E-20        -0.18626E-20         0.00000E+00
    0.98953E-21        -0.23283E-21         0.00000E+00
   -0.15018E-19         0.23283E-20         0.00000E+00
   -0.14435E-19         0.97789E-20         0.00000E+00
   -0.13271E-19         0.51223E-20         0.00000E+00
   -0.97789E-20        -0.41910E-20         0.00000E+00
   -0.87311E-20        -0.41910E-20         0.00000E+00
   -0.64028E-20        -0.86147E-20         0.00000E+00
   -0.93132E-21        -0.11176E-19         0.00000E+00
    0.39581E-20        -0.12573E-19         0.00000E+00
    0.57044E-20        -0.13504E-19         0.00000E+00
    0.82655E-20        -0.46566E-20         0.00000E+00
    0.84983E-20        -0.18626E-20         0.00000E+00
    0.80909E-20         0.19092E-19         0.00000E+00
    0.66357E-20        -0.18626E-20         0.00000E+00
    0.46566E-20         0.79162E-20         0.00000E+00
    0.20955E-20         0.10012E-19         0.00000E+00
    0.58208E-21         0.23749E-19         0.00000E+00
    0.13388E-20         0.93132E-20         0.00000E+00
    0.29104E-20         0.20489E-19         0.00000E+00
    0.37835E-20         0.88476E-20         0.00000E+00
    0.35507E-20        -0.88476E-20         0.00000E+00
    0.54133E-20        -0.28405E-19         0.00000E+00
    0.64028E-20        -0.20023E-19         0.00000E+00
    0.48894E-20        -0.27008E-19         0.00000E+00
    0.48894E-20        -0.18626E-19         0.00000E+00
    0.34925E-20        -0.60536E-20         0.00000E+00
    0.36671E-20        -0.65193E-20         0.00000E+00
    0.46566E-20        -0.83819E-20         0.00000E+00
    0.40745E-20         0.16298E-19         0.00000E+00
    0.27940E-20         0.93132E-21         0.00000E+00
    0.00000E+00        -0.13970E-19         0.00000E+00
   -0.13388E-20        -0.16298E-19         0.00000E+00
   -0.23283E-21        -0.41910E-20         0.00000E+00
    0.19209E-20         0.55879E-20         0.00000E+00
    0.38999E-20         0.18626E-20         0.00000E+00
    0.49477E-20         0.41910E-20         0.00000E+00
    0.47730E-20         0.65193E-20         0.00000E+00
    0.35507E-20         0.74506E-20         0.00000E+00
    0.41327E-20        -0.46566E-21         0.00000E+00
    0.50641E-20        -0.65193E-20         0.00000E+00
    0.54133E-20        -0.79162E-20         0.00000E+00
    0.44238E-20        -0.28871E-19         0.00000E+00
    0.36089E-20        -0.12107E-19         0.00000E+00
    0.30268E-20        -0.25146E-19         0.00000E+00
    0.19791E-20        -0.31199E-19         0.00000E+00
    0.18626E-20        -0.23283E-19         0.00000E+00
    0.98953E-21        -0.19791E-19         0.00000E+00
    0.40745E-21        -0.55879E-20         0.00000E+00
   -0.46566E-21        -0.37253E-20         0.00000E+00
   -0.81491E-21        -0.65193E-20         0.00000E+00
    0.93132E-21         0.69849E-21         0.00000E+00
    0.19325E-19         0.00000E+00         0.00000E+00
    0.18976E-19         0.97789E-20         0.00000E+00
    0.18335E-19        -0.93132E-21         0.00000E+00
    0.15600E-19        -0.13970E-20         0.00000E+00
    0.17404E-19        -0.11642E-19         0.00000E+00
    0.20198E-19        -0.27008E-19         0.00000E+00
    0.21944E-19        -0.29337E-19         0.00000E+00
    0.22876E-19        -0.18161E-19         0.00000E+00
    0.24680E-19        -0.26543E-19         0.00000E+00
    0.25029E-19        -0.65193E-20         0.00000E+00
    0.25844E-19        -0.23283E-20         0.00000E+00
    0.27358E-19         0.18161E-19         0.00000E+00
    0.27940E-19         0.41910E-20         0.00000E+00
    0.27765E-19         0.12107E-19         0.00000E+00
    0.29395E-19         0.83819E-20         0.00000E+00
    0.31781E-19         0.25146E-19         0.00000E+00
    0.31490E-19         0.65193E-20         0.00000E+00
    0.30384E-19         0.16764E-19         0.00000E+00
    0.31141E-19         0.10477E-19         0.00000E+00
    0.32596E-19        -0.10710E-19         0.00000E+00
    0.29861E-19        -0.28405E-19         0.00000E+00
    0.28638E-19        -0.19558E-19         0.00000E+00
    0.30035E-19        -0.27474E-19         0.00000E+00
    0.28755E-19        -0.13970E-19         0.00000E+00
    0.28987E-19        -0.46566E-20         0.00000E+00
    0.26776E-19         0.93132E-21         0.00000E+00
    0.23691E-19        -0.93132E-21         0.00000E+00
    0.21944E-19         0.16764E-19         0.00000E+00
    0.22526E-19         0.60536E-20         0.00000E+00
    0.23108E-19        -0.15367E-19         0.00000E+00
    0.25320E-19        -0.16764E-19         0.00000E+00
    0.24214E-19        -0.13970E-20         0.00000E+00
    0.21711E-19         0.51223E-20         0.00000E+00
    0.19849E-19         0.41910E-20         0.00000E+00
    0.18685E-19         0.46566E-20         0.00000E+00
    0.19616E-19         0.48894E-20         0.00000E+00
    0.21770E-19         0.18626E-20         0.00000E+00
    0.22876E-19        -0.18626E-20         0.00000E+00
    0.23050E-19        -0.74506E-20         0.00000E+00
    0.24040E-19        -0.12340E-19         0.00000E+00
    0.23399E-19        -0.22817E-19         0.00000E+00
    0.25029E-19        -0.12107E-19         0.00000E+00
    0.27416E-19        -0.27940E-19         0.00000E+00
    0.28580E-19        -0.30501E-19         0.00000E+00
    0.26484E-19        -0.16065E-19         0.00000E+00
    0.23982E-19        -0.60536E-20         0.00000E+00
    0.22119E-19        -0.79162E-20         0.00000E+00
    0.22177E-19        -0.18626E-20         0.00000E+00
    0.21420E-19        -0.20955E-20         0.00000E+00
    0.20547E-19        -0.32596E-20         0.00000E+00
    0.15862E-18         0.34925E-20         0.00000E+00
    0.15914E-18         0.44238E-20         0.00000E+00
    0.16048E-18         0.41910E-20         0.00000E+00
    0.15972E-18         0.44238E-20         0.00000E+00
    0.15873E-18        -0.17695E-19         0.00000E+00
    0.15670E-18        -0.28871E-19         0.00000E+00
    0.15477E-18        -0.27241E-19         0.00000E+00
    0.15518E-18        -0.29802E-19         0.00000E+00
    0.15652E-18        -0.31199E-19         0.00000E+00
    0.15827E-18        -0.13504E-19         0.00000E+00
    0.16065E-18        -0.13504E-19         0.00000E+00
    0.16490E-18         0.93132E-21         0.00000E+00
    0.16834E-18         0.37616E-36         0.00000E+00
    0.16851E-18         0.15367E-19         0.00000E+00
    0.16659E-18         0.41910E-20         0.00000E+00
    0.16711E-18         0.16298E-19         0.00000E+00
    0.16927E-18         0.74506E-20         0.00000E+00
    0.16985E-18         0.14435E-19         0.00000E+00
    0.16968E-18         0.11642E-19         0.00000E+00
    0.16665E-18        -0.37253E-20         0.00000E+00
    0.16589E-18        -0.19092E-19         0.00000E+00
    0.16380E-18        -0.17229E-19         0.00000E+00
    0.16153E-18        -0.25146E-19         0.00000E+00
    0.16100E-18        -0.83819E-20         0.00000E+00
    0.16025E-18        -0.55879E-20         0.00000E+00
    0.16013E-18         0.37253E-20         0.00000E+00
    0.16240E-18         0.32596E-20         0.00000E+00
    0.16292E-18         0.18626E-19         0.00000E+00
    0.16269E-18         0.46566E-20         0.00000E+00
    0.16083E-18        -0.15832E-19         0.00000E+00
    0.15873E-18        -0.12107E-19         0.00000E+00
    0.15908E-18        -0.46566E-21         0.00000E+00
    0.16013E-18         0.79162E-20         0.00000E+00
    0.16065E-18         0.10710E-19         0.00000E+00
    0.15850E-18         0.12806E-19         0.00000E+00
    0.15710E-18         0.55879E-20         0.00000E+00
    0.15565E-18         0.27940E-20         0.00000E+00
    0.15588E-18        -0.69849E-20         0.00000E+00
    0.15763E-18        -0.14435E-19         0.00000E+00
    0.15844E-18        -0.20489E-19         0.00000E+00
    0.16188E-18        -0.31898E-19         0.00000E+00
    0.16455E-18        -0.19558E-19         0.00000E+00
    0.16432E-18        -0.34925E-19         0.00000E+00
    0.16351E-18        -0.26543E-19         0.00000E+00
    0.16362E-18        -0.97789E-20         0.00000E+00
    0.16642E-18        -0.13970E-19         0.00000E+00
    0.16938E-18        -0.62864E-20         0.00000E+00
    0.17026E-18        -0.46566E-20         0.00000E+00
    0.17101E-18        -0.25611E-20         0.00000E+00
    0.17177E-18        -0.13970E-20         0.00000E+00
    0.10341E-17         0.55879E-20         0.00000E+00
    0.10321E-17         0.10245E-19         0.00000E+00
    0.10295E-17         0.62864E-20         0.00000E+00
    0.10292E-17         0.41910E-20         0.00000E+00
    0.10278E-17        -0.65193E-20         0.00000E+00
    0.10253E-17        -0.23982E-19         0.00000E+00
    0.10264E-17        -0.26543E-19         0.00000E+00
    0.10273E-17        -0.33062E-19         0.00000E+00
    0.10272E-17        -0.33993E-19         0.00000E+00
    0.10281E-17        -0.19092E-19         0.00000E+00
    0.10271E-17        -0.27474E-19         0.00000E+00
    0.10275E-17        -0.37253E-20         0.00000E+00
    0.10280E-17        -0.11642E-19         0.00000E+00
    0.10309E-17         0.12573E-19         0.00000E+00
    0.10337E-17        -0.23283E-21         0.00000E+00
    0.10348E-17         0.11176E-19         0.00000E+00
    0.10338E-17         0.46566E-20         0.00000E+00
    0.10318E-17         0.16764E-19         0.00000E+00
    0.10327E-17         0.16531E-19         0.00000E+00
    0.10338E-17         0.69849E-21         0.00000E+00
    0.10321E-17        -0.13970E-19         0.00000E+00
    0.10321E-17        -0.93132E-20         0.00000E+00
    0.10330E-17        -0.25146E-19         0.00000E+00
    0.10345E-17        -0.10710E-19         0.00000E+00
    0.10355E-17        -0.23283E-20         0.00000E+00
    0.10350E-17         0.46566E-20         0.00000E+00
    0.10324E-17         0.46566E-21         0.00000E+00
    0.10317E-17         0.20955E-19         0.00000E+00
    0.10299E-17         0.15367E-19         0.00000E+00
    0.10294E-17        -0.10710E-19         0.00000E+00
    0.10305E-17        -0.13039E-19         0.00000E+00
    0.10312E-17        -0.18626E-20         0.00000E+00
    0.10317E-17         0.23283E-20         0.00000E+00
    0.10327E-17         0.51223E-20         0.00000E+00
    0.10359E-17         0.97789E-20         0.00000E+00
    0.10381E-17         0.44238E-20         0.00000E+00
    0.10413E-17        -0.37253E-20         0.00000E+00
    0.10420E-17        -0.74506E-20         0.00000E+00
    0.10407E-17        -0.14435E-19         0.00000E+00
    0.10405E-17        -0.25379E-19         0.00000E+00
    0.10383E-17        -0.38184E-19         0.00000E+00
    0.10357E-17        -0.18859E-19         0.00000E+00
    0.10341E-17        -0.22817E-19         0.00000E+00
    0.10342E-17        -0.26543E-19         0.00000E+00
    0.10360E-17        -0.22585E-19         0.00000E+00
    0.10361E-17        -0.15832E-19         0.00000E+00
    0.10325E-17        -0.30268E-20         0.00000E+00
    0.10303E-17        -0.41910E-20         0.00000E+00
    0.10308E-17        -0.41910E-20         0.00000E+00
    0.10308E-17        -0.39581E-20         0.00000E+00
    0.64614E-17         0.93132E-20         0.00000E+00
    0.64630E-17         0.83819E-20         0.00000E+00
    0.64646E-17         0.12107E-19         0.00000E+00
    0.64640E-17         0.83819E-20         0.00000E+00
    0.64659E-17        -0.83819E-20         0.00000E+00
    0.64686E-17        -0.24447E-19         0.00000E+00
    0.64694E-17        -0.31898E-19         0.00000E+00
    0.64676E-17        -0.25146E-19         0.00000E+00
    0.64652E-17        -0.34925E-19         0.00000E+00
    0.64656E-17        -0.25611E-19         0.00000E+00
    0.64665E-17        -0.25844E-19         0.00000E+00
    0.64680E-17        -0.32596E-20         0.00000E+00
    0.64674E-17        -0.14901E-19         0.00000E+00
    0.64662E-17         0.41910E-20         0.00000E+00
    0.64659E-17        -0.18626E-20         0.00000E+00
    0.64650E-17         0.13039E-19         0.00000E+00
    0.64652E-17         0.13039E-19         0.00000E+00
    0.64648E-17         0.16298E-19         0.00000E+00
    0.64652E-17         0.97789E-20         0.00000E+00
    0.64669E-17        -0.46566E-20         0.00000E+00
    0.64683E-17        -0.13970E-19         0.00000E+00
    0.64708E-17        -0.19092E-19         0.00000E+00
    0.64720E-17        -0.27474E-19         0.00000E+00
    0.64723E-17        -0.14435E-19         0.00000E+00
    0.64718E-17         0.00000E+00         0.00000E+00
    0.64726E-17        -0.46566E-21         0.00000E+00
    0.64725E-17         0.13039E-19         0.00000E+00
    0.64709E-17         0.25146E-19         0.00000E+00
    0.64721E-17         0.12107E-19         0.00000E+00
    0.64724E-17        -0.74506E-20         0.00000E+00
    0.64697E-17        -0.10943E-19         0.00000E+00
    0.64682E-17        -0.32596E-20         0.00000E+00
    0.64682E-17        -0.46566E-21         0.00000E+00
    0.64695E-17        -0.32596E-20         0.00000E+00
    0.64686E-17         0.23283E-20         0.00000E+00
    0.64671E-17         0.72177E-20         0.00000E+00
    0.64630E-17        -0.41910E-20         0.00000E+00
    0.64615E-17        -0.32596E-20         0.00000E+00
    0.64611E-17        -0.51223E-20         0.00000E+00
    0.64590E-17        -0.17229E-19         0.00000E+00
    0.64580E-17        -0.27474E-19         0.00000E+00
    0.64571E-17        -0.14901E-19         0.00000E+00
    0.64564E-17        -0.13504E-19         0.00000E+00
    0.64551E-17        -0.27474E-19         0.00000E+00
    0.64534E-17        -0.25379E-19         0.00000E+00
    0.64538E-17        -0.16065E-19         0.00000E+00
    0.64560E-17        -0.81491E-20         0.00000E+00
    0.64606E-17        -0.88476E-20         0.00000E+00
    0.64629E-17        -0.74506E-20         0.00000E+00
    0.64618E-17         0.30268E-20         0.00000E+00
    0.40007E-16         0.37253E-20         0.00000E+00
    0.40008E-16         0.27940E-20         0.00000E+00
    0.40010E-16         0.93132E-21         0.00000E+00
    0.40014E-16         0.93132E-21         0.00000E+00
    0.40015E-16        -0.16298E-19         0.00000E+00
    0.40012E-16        -0.20023E-19         0.00000E+00
    0.40012E-16        -0.33528E-19         0.00000E+00
    0.40014E-16        -0.21886E-19         0.00000E+00
    0.40016E-16        -0.29802E-19         0.00000E+00
    0.40014E-16        -0.25611E-19         0.00000E+00
    0.40012E-16        -0.20489E-19         0.00000E+00
    0.40010E-16        -0.37253E-20         0.00000E+00
    0.40007E-16        -0.60536E-20         0.00000E+00
    0.40007E-16         0.23283E-20         0.00000E+00
    0.40007E-16         0.27940E-20         0.00000E+00
    0.40005E-16         0.12573E-19         0.00000E+00
    0.40006E-16         0.97789E-20         0.00000E+00
    0.40007E-16         0.16764E-19         0.00000E+00
    0.40005E-16         0.15367E-19         0.00000E+00
    0.40003E-16        -0.37253E-20         0.00000E+00
    0.40001E-16        -0.18161E-19         0.00000E+00
    0.40002E-16        -0.29337E-19         0.00000E+00
    0.40003E-16        -0.26543E-19         0.00000E+00
    0.40003E-16        -0.19092E-19         0.00000E+00
    0.40004E-16        -0.69849E-20         0.00000E+00
    0.40005E-16         0.00000E+00         0.00000E+00
    0.40006E-16         0.93132E-20         0.00000E+00
    0.40008E-16         0.22817E-19         0.00000E+00
    0.40010E-16         0.18626E-20         0.00000E+00
    0.40012E-16        -0.69849E-20         0.00000E+00
    0.40014E-16        -0.37253E-20         0.00000E+00
    0.40011E-16         0.46566E-20         0.00000E+00
    0.40010E-16         0.00000E+00         0.00000E+00
    0.40007E-16         0.79162E-20         0.00000E+00
    0.40004E-16         0.65193E-20         0.00000E+00
    0.40007E-16        -0.41910E-20         0.00000E+00
    0.40011E-16         0.37253E-20         0.00000E+00
    0.40012E-16        -0.41910E-20         0.00000E+00
    0.40011E-16         0.23283E-20         0.00000E+00
    0.40009E-16        -0.51223E-20         0.00000E+00
    0.40005E-16        -0.24214E-19         0.00000E+00
    0.40006E-16        -0.14435E-19         0.00000E+00
    0.40007E-16        -0.21420E-19         0.00000E+00
    0.40009E-16        -0.23749E-19         0.00000E+00
    0.40010E-16        -0.18626E-19         0.00000E+00
    0.40009E-16        -0.20955E-19         0.00000E+00
    0.40008E-16        -0.13970E-19         0.00000E+00
    0.40007E-16        -0.18626E-19         0.00000E+00
    0.40008E-16        -0.10710E-19         0.00000E+00
    0.40008E-16         0.60536E-20         0.00000E+00
    0.24406E-15         0.46566E-20         0.00000E+00
    0.24405E-15         0.93132E-20         0.00000E+00
    0.24405E-15         0.32596E-20         0.00000E+00
    0.24405E-15        -0.46566E-21         0.00000E+00
    0.24404E-15        -0.88476E-20         0.00000E+00
    0.24405E-15        -0.23749E-19         0.00000E+00
    0.24405E-15        -0.34459E-19         0.00000E+00
    0.24405E-15        -0.27707E-19         0.00000E+00
    0.24405E-15        -0.32596E-19         0.00000E+00
    0.24405E-15        -0.17229E-19         0.00000E+00
    0.24405E-15        -0.19325E-19         0.00000E+00
    0.24405E-15        -0.46566E-21         0.00000E+00
    0.24405E-15        -0.46566E-20         0.00000E+00
    0.24405E-15         0.11176E-19         0.00000E+00
    0.24405E-15        -0.27940E-20         0.00000E+00
    0.24405E-15         0.88476E-20         0.00000E+00
    0.24405E-15         0.13504E-19         0.00000E+00
    0.24405E-15         0.20955E-19         0.00000E+00
    0.24405E-15         0.20489E-19         0.00000E+00
    0.24405E-15         0.65193E-20         0.00000E+00
    0.24405E-15        -0.13504E-19         0.00000E+00
    0.24404E-15        -0.18859E-19         0.00000E+00
    0.24404E-15        -0.28405E-19         0.00000E+00
    0.24404E-15        -0.22352E-19         0.00000E+00
    0.24404E-15        -0.17695E-19         0.00000E+00
    0.24405E-15        -0.65193E-20         0.00000E+00
    0.24405E-15         0.41910E-20         0.00000E+00
    0.24405E-15         0.15367E-19         0.00000E+00
    0.24405E-15         0.23283E-20         0.00000E+00
    0.24405E-15        -0.74506E-20         0.00000E+00
    0.24405E-15        -0.10245E-19         0.00000E+00
    0.24405E-15         0.11176E-19         0.00000E+00
    0.24405E-15         0.65193E-20         0.00000E+00
    0.24405E-15         0.93132E-20         0.00000E+00
    0.24405E-15         0.10477E-19         0.00000E+00
    0.24405E-15        -0.93132E-21         0.00000E+00
    0.24404E-15        -0.11642E-20         0.00000E+00
    0.24404E-15        -0.41910E-20         0.00000E+00
    0.24404E-15        -0.93132E-21         0.00000E+00
    0.24405E-15        -0.51223E-20         0.00000E+00
    0.24405E-15        -0.18161E-19         0.00000E+00
    0.24405E-15        -0.14435E-19         0.00000E+00
    0.24405E-15        -0.22817E-19         0.00000E+00
    0.24405E-15        -0.31665E-19         0.00000E+00
    0.24405E-15        -0.19092E-19         0.00000E+00
    0.24405E-15        -0.16997E-19         0.00000E+00
    0.24405E-15        -0.83819E-20         0.00000E+00
    0.24405E-15        -0.20023E-19         0.00000E+00
    0.24405E-15        -0.97789E-20         0.00000E+00
    0.24405E-15         0.23283E-20         0.00000E+00
    0.14667E-14         0.13970E-20         0.00000E+00
    0.14667E-14         0.32596E-20         0.00000E+00
    0.14667E-14         0.97789E-20         0.00000E+00
    0.14667E-14         0.19558E-19         0.00000E+00
    0.14667E-14        -0.46566E-21         0.00000E+00
    0.14666E-14        -0.21886E-19         0.00000E+00
    0.14666E-14        -0.32596E-19         0.00000E+00
    0.14667E-14        -0.28405E-19         0.00000E+00
    0.14667E-14        -0.36787E-19         0.00000E+00
    0.14667E-14        -0.21420E-19         0.00000E+00
    0.14667E-14        -0.20023E-19         0.00000E+00
    0.14667E-14        -0.88476E-20         0.00000E+00
    0.14667E-14        -0.65193E-20         0.00000E+00
    0.14667E-14         0.97789E-20         0.00000E+00
    0.14667E-14        -0.69849E-20         0.00000E+00
    0.14666E-14         0.17462E-19         0.00000E+00
    0.14666E-14         0.29802E-19         0.00000E+00
    0.14666E-14         0.30734E-19         0.00000E+00
    0.14666E-14         0.23749E-19         0.00000E+00
    0.14666E-14         0.10943E-19         0.00000E+00
    0.14666E-14        -0.11642E-19         0.00000E+00
    0.14666E-14        -0.14901E-19         0.00000E+00
    0.14666E-14        -0.30734E-19         0.00000E+00
    0.14666E-14        -0.25611E-19         0.00000E+00
    0.14666E-14        -0.13970E-19         0.00000E+00
    0.14666E-14        -0.93132E-20         0.00000E+00
    0.14666E-14         0.13039E-19         0.00000E+00
    0.14666E-14         0.65193E-20         0.00000E+00
    0.14666E-14         0.41910E-20         0.00000E+00
    0.14666E-14        -0.88476E-20         0.00000E+00
    0.14666E-14        -0.13970E-19         0.00000E+00
    0.14666E-14         0.00000E+00         0.00000E+00
    0.14666E-14         0.79162E-20         0.00000E+00
    0.14666E-14        -0.93132E-21         0.00000E+00
    0.14666E-14         0.15367E-19         0.00000E+00
    0.14666E-14         0.51223E-20         0.00000E+00
    0.14667E-14        -0.20955E-20         0.00000E+00
    0.14667E-14         0.23283E-20         0.00000E+00
    0.14666E-14        -0.27940E-20         0.00000E+00
    0.14666E-14        -0.18161E-19         0.00000E+00
    0.14666E-14        -0.19558E-19         0.00000E+00
    0.14666E-14        -0.11176E-19         0.00000E+00
    0.14666E-14        -0.27008E-19         0.00000E+00
    0.14666E-14        -0.26543E-19         0.00000E+00
    0.14666E-14        -0.16997E-19         0.00000E+00
    0.14666E-14        -0.13737E-19         0.00000E+00
    0.14666E-14        -0.93132E-20         0.00000E+00
    0.14666E-14        -0.12573E-19         0.00000E+00
    0.14666E-14        -0.13970E-20         0.00000E+00
    0.14666E-14         0.23283E-20         0.00000E+00
    0.86661E-14         0.46566E-21         0.00000E+00
    0.86661E-14         0.11642E-20         0.00000E+00
    0.86661E-14         0.27940E-20         0.00000E+00
    0.86661E-14         0.79162E-20         0.00000E+00
    0.86661E-14         0.18626E-20         0.00000E+00
    0.86661E-14        -0.15832E-19         0.00000E+00
    0.86661E-14        -0.23749E-19         0.00000E+00
    0.86661E-14        -0.24214E-19         0.00000E+00
    0.86661E-14        -0.32596E-19         0.00000E+00
    0.86661E-14        -0.21886E-19         0.00000E+00
    0.86661E-14        -0.27940E-19         0.00000E+00
    0.86661E-14        -0.62864E-20         0.00000E+00
    0.86661E-14        -0.86147E-20         0.00000E+00
    0.86661E-14         0.81491E-20         0.00000E+00
    0.86661E-14        -0.93132E-21         0.00000E+00
    0.86661E-14         0.20023E-19         0.00000E+00
    0.86661E-14         0.22817E-19         0.00000E+00
    0.86661E-14         0.36089E-19         0.00000E+00
    0.86661E-14         0.22352E-19         0.00000E+00
    0.86661E-14         0.55879E-20         0.00000E+00
    0.86661E-14        -0.62864E-20         0.00000E+00
    0.86661E-14        -0.13970E-19         0.00000E+00
    0.86661E-14        -0.27241E-19         0.00000E+00
    0.86661E-14        -0.18161E-19         0.00000E+00
    0.86661E-14        -0.97789E-20         0.00000E+00
    0.86661E-14        -0.46566E-21         0.00000E+00
    0.86661E-14         0.41910E-20         0.00000E+00
    0.86661E-14         0.20955E-19         0.00000E+00
    0.86661E-14         0.12340E-19         0.00000E+00
    0.86660E-14        -0.27940E-20         0.00000E+00
    0.86660E-14        -0.11642E-19         0.00000E+00
    0.86660E-14        -0.60536E-20         0.00000E+00
    0.86660E-14         0.18626E-20         0.00000E+00
    0.86660E-14        -0.32596E-20         0.00000E+00
    0.86660E-14         0.10245E-19         0.00000E+00
    0.86660E-14        -0.60536E-20         0.00000E+00
    0.86660E-14         0.55879E-20         0.00000E+00
    0.86660E-14        -0.27940E-20         0.00000E+00
    0.86661E-14        -0.32596E-20         0.00000E+00
    0.86661E-14        -0.17229E-19         0.00000E+00
    0.86661E-14        -0.24680E-19         0.00000E+00
    0.86661E-14        -0.83819E-20         0.00000E+00
    0.86661E-14        -0.33062E-19         0.00000E+00
    0.86661E-14        -0.20722E-19         0.00000E+00
    0.86661E-14        -0.21420E-19         0.00000E+00
    0.86661E-14        -0.13970E-19         0.00000E+00
    0.86661E-14        -0.83819E-20         0.00000E+00
    0.86661E-14        -0.60536E-20         0.00000E+00
    0.86661E-14         0.18626E-20         0.00000E+00
    0.86661E-14         0.48894E-20         0.00000E+00
    0.50225E-13         0.23283E-20         0.00000E+00
    0.50225E-13        -0.46566E-21         0.00000E+00
    0.50225E-13         0.13970E-20         0.00000E+00
    0.50225E-13         0.46566E-20         0.00000E+00
    0.50225E-13         0.00000E+00         0.00000E+00
    0.50225E-13        -0.12107E-19         0.00000E+00
    0.50225E-13        -0.21886E-19         0.00000E+00
    0.50225E-13        -0.17229E-19         0.00000E+00
    0.50225E-13        -0.29802E-19         0.00000E+00
    0.50225E-13        -0.16298E-19         0.00000E+00
    0.50225E-13        -0.20489E-19         0.00000E+00
    0.50225E-13        -0.11642E-19         0.00000E+00
    0.50225E-13        -0.11642E-19         0.00000E+00
    0.50225E-13         0.53551E-20         0.00000E+00
    0.50225E-13         0.00000E+00         0.00000E+00
    0.50225E-13         0.19558E-19         0.00000E+00
    0.50225E-13         0.16764E-19         0.00000E+00
    0.50225E-13         0.20722E-19         0.00000E+00
    0.50225E-13         0.19558E-19         0.00000E+00
    0.50225E-13         0.11642E-20         0.00000E+00
    0.50225E-13         0.27940E-20         0.00000E+00
    0.50225E-13        -0.83819E-20         0.00000E+00
    0.50225E-13        -0.27008E-19         0.00000E+00
    0.50225E-13        -0.19325E-19         0.00000E+00
    0.50225E-13        -0.12573E-19         0.00000E+00
    0.50225E-13        -0.23283E-21         0.00000E+00
    0.50225E-13         0.46566E-20         0.00000E+00
    0.50225E-13         0.33062E-19         0.00000E+00
    0.50225E-13         0.16298E-19         0.00000E+00
    0.50225E-13         0.00000E+00         0.00000E+00
    0.50225E-13        -0.97789E-20         0.00000E+00
    0.50225E-13        -0.18626E-20         0.00000E+00
    0.50225E-13         0.34925E-20         0.00000E+00
    0.50225E-13        -0.51223E-20         0.00000E+00
    0.50225E-13         0.37253E-20         0.00000E+00
    0.50225E-13        -0.37253E-20         0.00000E+00
    0.50225E-13         0.93132E-21         0.00000E+00
    0.50225E-13        -0.83819E-20         0.00000E+00
    0.50225E-13        -0.60536E-20         0.00000E+00
    0.50225E-13        -0.16764E-19         0.00000E+00
    0.50225E-13        -0.27241E-19         0.00000E+00
    0.50225E-13        -0.79162E-20         0.00000E+00
    0.50225E-13        -0.20023E-19         0.00000E+00
    0.50225E-13        -0.24913E-19         0.00000E+00
    0.50225E-13        -0.27940E-19         0.00000E+00
    0.50225E-13        -0.14435E-19         0.00000E+00
    0.50225E-13        -0.32596E-20         0.00000E+00
    0.50225E-13        -0.18626E-20         0.00000E+00
    0.50225E-13         0.32596E-20         0.00000E+00
    0.50225E-13         0.18626E-20         0.00000E+00
    0.28467E-12         0.41910E-20         0.00000E+00
    0.28467E-12         0.27940E-20         0.00000E+00
    0.28467E-12        -0.27940E-20         0.00000E+00
    0.28467E-12         0.74506E-20         0.00000E+00
    0.28467E-12         0.18626E-20         0.00000E+00
    0.28467E-12        -0.13039E-19         0.00000E+00
    0.28467E-12        -0.23749E-19         0.00000E+00
    0.28467E-12        -0.19092E-19         0.00000E+00
    0.28467E-12        -0.27241E-19         0.00000E+00
    0.28467E-12        -0.17229E-19         0.00000E+00
    0.28467E-12        -0.13504E-19         0.00000E+00
    0.28467E-12        -0.88476E-20         0.00000E+00
    0.28467E-12        -0.13039E-19         0.00000E+00
    0.28467E-12         0.67521E-20         0.00000E+00
    0.28467E-12         0.51223E-20         0.00000E+00
    0.28467E-12         0.83819E-20         0.00000E+00
    0.28467E-12         0.10710E-19         0.00000E+00
    0.28467E-12         0.13970E-19         0.00000E+00
    0.28467E-12         0.13271E-19         0.00000E+00
    0.28467E-12         0.20955E-20         0.00000E+00
    0.28467E-12        -0.83819E-20         0.00000E+00
    0.28467E-12        -0.51223E-20         0.00000E+00
    0.28467E-12        -0.25146E-19         0.00000E+00
    0.28467E-12        -0.19092E-19         0.00000E+00
    0.28467E-12        -0.97789E-20         0.00000E+00
    0.28467E-12        -0.72177E-20         0.00000E+00
    0.28467E-12         0.58208E-20         0.00000E+00
    0.28467E-12         0.24214E-19         0.00000E+00
    0.28467E-12         0.23283E-20         0.00000E+00
    0.28467E-12        -0.16298E-20         0.00000E+00
    0.28467E-12        -0.65193E-20         0.00000E+00
    0.28467E-12         0.12573E-19         0.00000E+00
    0.28467E-12         0.86147E-20         0.00000E+00
    0.28467E-12         0.32596E-20         0.00000E+00
    0.28467E-12        -0.23283E-21         0.00000E+00
    0.28467E-12         0.18626E-20         0.00000E+00
    0.28467E-12        -0.60536E-20         0.00000E+00
    0.28467E-12        -0.69849E-21         0.00000E+00
    0.28467E-12        -0.30268E-20         0.00000E+00
    0.28467E-12        -0.24680E-19         0.00000E+00
    0.28467E-12        -0.21653E-19         0.00000E+00
    0.28467E-12        -0.10245E-19         0.00000E+00
    0.28467E-12        -0.16065E-19         0.00000E+00
    0.28467E-12        -0.29802E-19         0.00000E+00
    0.28467E-12        -0.16298E-19         0.00000E+00
    0.28467E-12        -0.14901E-19         0.00000E+00
    0.28467E-12         0.65193E-20         0.00000E+00
    0.28467E-12        -0.46566E-20         0.00000E+00
    0.28467E-12        -0.13970E-20         0.00000E+00
    0.28467E-12         0.18626E-20         0.00000E+00
    0.15722E-11         0.93132E-20         0.00000E+00
    0.15722E-11         0.14435E-19         0.00000E+00
    0.15722E-11        -0.79162E-20         0.00000E+00
    0.15722E-11         0.46566E-21         0.00000E+00
    0.15722E-11        -0.18626E-20         0.00000E+00
    0.15722E-11        -0.10245E-19         0.00000E+00
    0.15722E-11        -0.14435E-19         0.00000E+00
    0.15722E-11        -0.20256E-19         0.00000E+00
    0.15722E-11        -0.21420E-19         0.00000E+00
    0.15722E-11        -0.13504E-19         0.00000E+00
    0.15722E-11        -0.22352E-19         0.00000E+00
    0.15722E-11        -0.48894E-20         0.00000E+00
    0.15722E-11        -0.15367E-19         0.00000E+00
    0.15722E-11         0.44238E-20         0.00000E+00
    0.15722E-11        -0.60536E-20         0.00000E+00
    0.15722E-11         0.23283E-21         0.00000E+00
    0.15722E-11         0.65193E-20         0.00000E+00
    0.15722E-11         0.15134E-19         0.00000E+00
    0.15722E-11         0.97789E-20         0.00000E+00
    0.15722E-11         0.46566E-21         0.00000E+00
    0.15722E-11        -0.10943E-19         0.00000E+00
    0.15722E-11        -0.11176E-19         0.00000E+00
    0.15722E-11        -0.15600E-19         0.00000E+00
    0.15722E-11        -0.15367E-19         0.00000E+00
    0.15722E-11        -0.37253E-20         0.00000E+00
    0.15722E-11        -0.65193E-20         0.00000E+00
    0.15722E-11         0.83819E-20         0.00000E+00
    0.15722E-11         0.24214E-19         0.00000E+00
    0.15722E-11        -0.41910E-20         0.00000E+00
    0.15722E-11        -0.53551E-20         0.00000E+00
    0.15722E-11         0.00000E+00         0.00000E+00
    0.15722E-11         0.16298E-19         0.00000E+00
    0.15722E-11         0.14203E-19         0.00000E+00
    0.15722E-11        -0.32596E-20         0.00000E+00
    0.15722E-11         0.10245E-19         0.00000E+00
    0.15722E-11         0.60536E-20         0.00000E+00
    0.15722E-11        -0.30268E-20         0.00000E+00
    0.15722E-11        -0.41910E-20         0.00000E+00
    0.15722E-11        -0.13039E-19         0.00000E+00
    0.15722E-11        -0.14435E-19         0.00000E+00
    0.15722E-11        -0.12340E-19         0.00000E+00
    0.15722E-11        -0.65193E-20         0.00000E+00
    0.15722E-11        -0.17928E-19         0.00000E+00
    0.15722E-11        -0.21886E-19         0.00000E+00
    0.15722E-11        -0.21886E-19         0.00000E+00
    0.15722E-11        -0.88476E-20         0.00000E+00
    0.15722E-11         0.55879E-20         0.00000E+00
    0.15722E-11        -0.90804E-20         0.00000E+00
    0.15722E-11        -0.69849E-20         0.00000E+00
    0.15722E-11        -0.23283E-21         0.00000E+00
    0.84227E-11         0.11642E-19         0.00000E+00
    0.84227E-11         0.97789E-20         0.00000E+00
    0.84227E-11        -0.18626E-20         0.00000E+00
    0.84227E-11         0.65193E-20         0.00000E+00
    0.84227E-11        -0.74506E-20         0.00000E+00
    0.84227E-11        -0.14203E-19         0.00000E+00
    0.84227E-11        -0.13504E-19         0.00000E+00
    0.84227E-11        -0.27940E-19         0.00000E+00
    0.84227E-11        -0.25611E-19         0.00000E+00
    0.84227E-11        -0.15367E-19         0.00000E+00
    0.84227E-11        -0.11176E-19         0.00000E+00
    0.84227E-11        -0.11642E-20         0.00000E+00
    0.84227E-11        -0.55879E-20         0.00000E+00
    0.84227E-11         0.88476E-20         0.00000E+00
    0.84227E-11        -0.60536E-20         0.00000E+00
    0.84227E-11        -0.46566E-21         0.00000E+00
    0.84227E-11         0.93132E-20         0.00000E+00
    0.84227E-11         0.20023E-19         0.00000E+00
    0.84227E-11         0.13039E-19         0.00000E+00
    0.84227E-11         0.23283E-20         0.00000E+00
    0.84227E-11        -0.83819E-20         0.00000E+00
    0.84227E-11        -0.79162E-20         0.00000E+00
    0.84227E-11        -0.21420E-19         0.00000E+00
    0.84227E-11        -0.55879E-20         0.00000E+00
    0.84227E-11        -0.48894E-20         0.00000E+00
    0.84227E-11        -0.13737E-19         0.00000E+00
    0.84227E-11         0.46566E-21         0.00000E+00
    0.84227E-11         0.13970E-19         0.00000E+00
    0.84227E-11        -0.18626E-20         0.00000E+00
    0.84227E-11        -0.79162E-20         0.00000E+00
    0.84227E-11        -0.23283E-20         0.00000E+00
    0.84227E-11         0.11176E-19         0.00000E+00
    0.84227E-11         0.10710E-19         0.00000E+00
    0.84227E-11        -0.18626E-20         0.00000E+00
    0.84227E-11         0.95461E-20         0.00000E+00
    0.84227E-11        -0.69849E-21         0.00000E+00
    0.84227E-11         0.23283E-21         0.00000E+00
    0.84227E-11         0.27940E-20         0.00000E+00
    0.84227E-11        -0.60536E-20         0.00000E+00
    0.84227E-11        -0.20489E-19         0.00000E+00
    0.84227E-11        -0.14435E-19         0.00000E+00
    0.84227E-11        -0.10710E-19         0.00000E+00
    0.84227E-11        -0.24680E-19         0.00000E+00
    0.84227E-11        -0.20955E-19         0.00000E+00
    0.84227E-11        -0.21886E-19         0.00000E+00
    0.84227E-11        -0.95461E-20         0.00000E+00
    0.84227E-11         0.93132E-21         0.00000E+00
    0.84227E-11        -0.13970E-20         0.00000E+00
    0.84227E-11        -0.18626E-20         0.00000E+00
    0.84227E-11         0.37253E-20         0.00000E+00
    0.43510E-10         0.23283E-20         0.00000E+00
    0.43510E-10         0.46566E-20         0.00000E+00
    0.43510E-10         0.81491E-20         0.00000E+00
    0.43510E-10         0.37253E-20         0.00000E+00
    0.43510E-10        -0.10012E-19         0.00000E+00
    0.43510E-10        -0.17229E-19         0.00000E+00
    0.43510E-10        -0.22352E-19         0.00000E+00
    0.43510E-10        -0.18626E-19         0.00000E+00
    0.43510E-10        -0.26077E-19         0.00000E+00
    0.43510E-10        -0.18626E-19         0.00000E+00
    0.43510E-10        -0.69849E-20         0.00000E+00
    0.43510E-10         0.65193E-20         0.00000E+00
    0.43510E-10        -0.23283E-20         0.00000E+00
    0.43510E-10         0.55879E-20         0.00000E+00
    0.43510E-10         0.30268E-20         0.00000E+00
    0.43510E-10         0.15367E-19         0.00000E+00
    0.43510E-10         0.14203E-19         0.00000E+00
    0.43510E-10         0.16298E-19         0.00000E+00
    0.43510E-10         0.13504E-19         0.00000E+00
    0.43510E-10        -0.13970E-20         0.00000E+00
    0.43510E-10        -0.15832E-19         0.00000E+00
    0.43510E-10        -0.93132E-20         0.00000E+00
    0.43510E-10        -0.26543E-19         0.00000E+00
    0.43510E-10        -0.11874E-19         0.00000E+00
    0.43510E-10        -0.10710E-19         0.00000E+00
    0.43510E-10        -0.19558E-19         0.00000E+00
    0.43510E-10         0.23283E-20         0.00000E+00
    0.43510E-10         0.15832E-19         0.00000E+00
    0.43510E-10        -0.93132E-21         0.00000E+00
    0.43510E-10        -0.69849E-20         0.00000E+00
    0.43510E-10        -0.95461E-20         0.00000E+00
    0.43510E-10         0.11409E-19         0.00000E+00
    0.43510E-10         0.67521E-20         0.00000E+00
    0.43510E-10         0.60536E-20         0.00000E+00
    0.43510E-10         0.13970E-20         0.00000E+00
    0.43510E-10         0.93132E-21         0.00000E+00
    0.43510E-10        -0.11642E-20         0.00000E+00
    0.43510E-10         0.27940E-20         0.00000E+00
    0.43510E-10        -0.62864E-20         0.00000E+00
    0.43510E-10        -0.18161E-19         0.00000E+00
    0.43510E-10        -0.24214E-19         0.00000E+00
    0.43510E-10        -0.23283E-19         0.00000E+00
    0.43510E-10        -0.29569E-19         0.00000E+00
    0.43510E-10        -0.18161E-19         0.00000E+00
    0.43510E-10        -0.10245E-19         0.00000E+00
    0.43510E-10        -0.11642E-19         0.00000E+00
    0.43510E-10         0.13970E-20         0.00000E+00
    0.43510E-10        -0.79162E-20         0.00000E+00
    0.43510E-10         0.00000E+00         0.00000E+00
    0.43510E-10        -0.93132E-21         0.00000E+00
    0.21508E-09         0.10245E-19         0.00000E+00
    0.21508E-09         0.00000E+00         0.00000E+00
    0.21508E-09         0.44238E-20         0.00000E+00
    0.21508E-09         0.23283E-20         0.00000E+00
    0.21508E-09        -0.13039E-19         0.00000E+00
    0.21508E-09        -0.11642E-19         0.00000E+00
    0.21508E-09        -0.17695E-19         0.00000E+00
    0.21508E-09        -0.16997E-19         0.00000E+00
    0.21508E-09        -0.19791E-19         0.00000E+00
    0.21508E-09        -0.15600E-19         0.00000E+00
    0.21508E-09        -0.12107E-19         0.00000E+00
    0.21508E-09         0.55879E-20         0.00000E+00
    0.21508E-09        -0.65193E-20         0.00000E+00
    0.21508E-09         0.10710E-19         0.00000E+00
    0.21508E-09         0.00000E+00         0.00000E+00
    0.21508E-09         0.13970E-19         0.00000E+00
    0.21508E-09         0.88476E-20         0.00000E+00
    0.21508E-09         0.19092E-19         0.00000E+00
    0.21508E-09         0.79162E-20         0.00000E+00
    0.21508E-09        -0.12573E-19         0.00000E+00
    0.21508E-09        -0.10710E-19         0.00000E+00
    0.21508E-09        -0.18626E-19         0.00000E+00
    0.21508E-09        -0.20489E-19         0.00000E+00
    0.21508E-09        -0.20955E-19         0.00000E+00
    0.21508E-09        -0.74506E-20         0.00000E+00
    0.21508E-09        -0.83819E-20         0.00000E+00
    0.21508E-09         0.58208E-20         0.00000E+00
    0.21508E-09         0.14901E-19         0.00000E+00
    0.21508E-09         0.46566E-21         0.00000E+00
    0.21508E-09        -0.93132E-20         0.00000E+00
    0.21508E-09        -0.62864E-20         0.00000E+00
    0.21508E-09         0.41910E-20         0.00000E+00
    0.21508E-09         0.83819E-20         0.00000E+00
    0.21508E-09        -0.23283E-20         0.00000E+00
    0.21508E-09         0.60536E-20         0.00000E+00
    0.21508E-09        -0.51223E-20         0.00000E+00
    0.21508E-09        -0.23283E-20         0.00000E+00
    0.21508E-09        -0.65193E-20         0.00000E+00
    0.21508E-09        -0.13039E-19         0.00000E+00
    0.21508E-09        -0.12107E-19         0.00000E+00
    0.21508E-09        -0.24214E-19         0.00000E+00
    0.21508E-09        -0.24680E-19         0.00000E+00
    0.21508E-09        -0.23749E-19         0.00000E+00
    0.21508E-09        -0.19092E-19         0.00000E+00
    0.21508E-09        -0.81491E-20         0.00000E+00
    0.21508E-09        -0.15367E-19         0.00000E+00
    0.21508E-09        -0.41910E-20         0.00000E+00
    0.21508E-09        -0.88476E-20         0.00000E+00
    0.21508E-09        -0.69849E-20         0.00000E+00
    0.21508E-09        -0.18626E-20         0.00000E+00
    0.10071E-08         0.41910E-20         0.00000E+00
    0.10071E-08         0.37253E-20         0.00000E+00
    0.10071E-08        -0.32596E-20         0.00000E+00
    0.10071E-08         0.14901E-19         0.00000E+00
    0.10071E-08        -0.51223E-20         0.00000E+00
    0.10071E-08        -0.18161E-19         0.00000E+00
    0.10071E-08        -0.20023E-19         0.00000E+00
    0.10071E-08        -0.16997E-19         0.00000E+00
    0.10071E-08        -0.20489E-19         0.00000E+00
    0.10071E-08        -0.23749E-19         0.00000E+00
    0.10071E-08        -0.16298E-19         0.00000E+00
    0.10071E-08         0.65193E-20         0.00000E+00
    0.10071E-08        -0.23283E-20         0.00000E+00
    0.10071E-08         0.16764E-19         0.00000E+00
    0.10071E-08         0.41910E-20         0.00000E+00
    0.10071E-08         0.41910E-20         0.00000E+00
    0.10071E-08         0.97789E-20         0.00000E+00
    0.10071E-08         0.27474E-19         0.00000E+00
    0.10071E-08         0.23283E-20         0.00000E+00
    0.10071E-08        -0.97789E-20         0.00000E+00
    0.10071E-08        -0.13039E-19         0.00000E+00
    0.10071E-08        -0.13970E-19         0.00000E+00
    0.10071E-08        -0.27940E-19         0.00000E+00
    0.10071E-08        -0.21653E-19         0.00000E+00
    0.10071E-08        -0.12806E-19         0.00000E+00
    0.10071E-08        -0.88476E-20         0.00000E+00
    0.10071E-08         0.32596E-20         0.00000E+00
    0.10071E-08         0.83819E-20         0.00000E+00
    0.10071E-08         0.18626E-20         0.00000E+00
    0.10071E-08        -0.46566E-20         0.00000E+00
    0.10071E-08        -0.67521E-20         0.00000E+00
    0.10071E-08         0.11176E-19         0.00000E+00
    0.10071E-08         0.46566E-20         0.00000E+00
    0.10071E-08         0.23283E-20         0.00000E+00
    0.10071E-08        -0.46566E-20         0.00000E+00
    0.10071E-08        -0.69849E-20         0.00000E+00
    0.10071E-08        -0.32596E-20         0.00000E+00
    0.10071E-08        -0.11642E-20         0.00000E+00
    0.10071E-08        -0.17695E-19         0.00000E+00
    0.10071E-08        -0.15134E-19         0.00000E+00
    0.10071E-08        -0.18626E-19         0.00000E+00
    0.10071E-08        -0.69849E-20         0.00000E+00
    0.10071E-08        -0.18161E-19         0.00000E+00
    0.10071E-08        -0.22817E-19         0.00000E+00
    0.10071E-08        -0.53551E-20         0.00000E+00
    0.10071E-08        -0.12107E-19         0.00000E+00
    0.10071E-08        -0.93132E-21         0.00000E+00
    0.10071E-08        -0.46566E-21         0.00000E+00
    0.10071E-08        -0.74506E-20         0.00000E+00
    0.10071E-08         0.13970E-20         0.00000E+00
    0.44042E-08         0.27940E-20         0.00000E+00
    0.44042E-08         0.14203E-19         0.00000E+00
    0.44042E-08         0.13970E-20         0.00000E+00
    0.44042E-08         0.93132E-20         0.00000E+00
    0.44042E-08        -0.46566E-21         0.00000E+00
    0.44042E-08        -0.19092E-19         0.00000E+00
    0.44042E-08        -0.25844E-19         0.00000E+00
    0.44042E-08        -0.13504E-19         0.00000E+00
    0.44042E-08        -0.32363E-19         0.00000E+00
    0.44042E-08        -0.11176E-19         0.00000E+00
    0.44042E-08        -0.18161E-19         0.00000E+00
    0.44042E-08         0.10245E-19         0.00000E+00
    0.44042E-08         0.18626E-20         0.00000E+00
    0.44042E-08         0.12107E-19         0.00000E+00
    0.44042E-08        -0.69849E-21         0.00000E+00
    0.44042E-08         0.10477E-19         0.00000E+00
    0.44042E-08         0.13970E-19         0.00000E+00
    0.44042E-08         0.15134E-19         0.00000E+00
    0.44042E-08         0.88476E-20         0.00000E+00
    0.44042E-08        -0.65193E-20         0.00000E+00
    0.44042E-08        -0.11409E-19         0.00000E+00
    0.44042E-08        -0.88476E-20         0.00000E+00
    0.44042E-08        -0.32131E-19         0.00000E+00
    0.44042E-08        -0.16065E-19         0.00000E+00
    0.44042E-08        -0.16531E-19         0.00000E+00
    0.44042E-08        -0.15832E-19         0.00000E+00
    0.44042E-08         0.00000E+00         0.00000E+00
    0.44042E-08         0.22817E-19         0.00000E+00
    0.44042E-08         0.13970E-19         0.00000E+00
    0.44042E-08         0.30268E-20         0.00000E+00
    0.44042E-08        -0.17229E-19         0.00000E+00
    0.44042E-08         0.79162E-20         0.00000E+00
    0.44042E-08         0.00000E+00         0.00000E+00
    0.44042E-08         0.93132E-21         0.00000E+00
    0.44042E-08        -0.37253E-20         0.00000E+00
    0.44042E-08        -0.11642E-19         0.00000E+00
    0.44042E-08        -0.27940E-20         0.00000E+00
    0.44042E-08        -0.13970E-19         0.00000E+00
    0.44042E-08        -0.20256E-19         0.00000E+00
    0.44042E-08        -0.21886E-19         0.00000E+00
    0.44042E-08        -0.22585E-19         0.00000E+00
    0.44042E-08        -0.48894E-20         0.00000E+00
    0.44042E-08        -0.25379E-19         0.00000E+00
    0.44042E-08        -0.23283E-19         0.00000E+00
    0.44042E-08        -0.15600E-19         0.00000E+00
    0.44042E-08        -0.83819E-20         0.00000E+00
    0.44042E-08         0.55879E-20         0.00000E+00
    0.44042E-08        -0.67521E-20         0.00000E+00
    0.44042E-08         0.00000E+00         0.00000E+00
    0.44042E-08         0.27940E-20         0.00000E+00
    0.17643E-07         0.46566E-20         0.00000E+00
    0.17643E-07         0.55879E-20         0.00000E+00
    0.17643E-07         0.93132E-20         0.00000E+00
    0.17643E-07         0.46566E-20         0.00000E+00
    0.17643E-07        -0.97789E-20         0.00000E+00
    0.17643E-07        -0.14901E-19         0.00000E+00
    0.17643E-07        -0.25611E-19         0.00000E+00
    0.17643E-07        -0.27008E-19         0.00000E+00
    0.17643E-07        -0.19092E-19         0.00000E+00
    0.17643E-07        -0.14435E-19         0.00000E+00
    0.17643E-07        -0.18626E-19         0.00000E+00
    0.17643E-07         0.13970E-20         0.00000E+00
    0.17643E-07        -0.69849E-20         0.00000E+00
    0.17643E-07         0.76834E-20         0.00000E+00
    0.17643E-07         0.93132E-21         0.00000E+00
    0.17643E-07         0.14901E-19         0.00000E+00
    0.17643E-07         0.19092E-19         0.00000E+00
    0.17643E-07         0.23749E-19         0.00000E+00
    0.17643E-07         0.14901E-19         0.00000E+00
    0.17643E-07        -0.55879E-20         0.00000E+00
    0.17643E-07        -0.13970E-19         0.00000E+00
    0.17643E-07        -0.19558E-19         0.00000E+00
    0.17643E-07        -0.29337E-19         0.00000E+00
    0.17643E-07        -0.14901E-19         0.00000E+00
    0.17643E-07        -0.37253E-20         0.00000E+00
    0.17643E-07         0.18626E-20         0.00000E+00
    0.17643E-07         0.60536E-20         0.00000E+00
    0.17643E-07         0.25611E-19         0.00000E+00
    0.17643E-07         0.51223E-20         0.00000E+00
    0.17643E-07        -0.32596E-20         0.00000E+00
    0.17643E-07        -0.10245E-19         0.00000E+00
    0.17643E-07         0.13970E-20         0.00000E+00
    0.17643E-07         0.79162E-20         0.00000E+00
    0.17643E-07        -0.93132E-21         0.00000E+00
    0.17643E-07         0.00000E+00         0.00000E+00
    0.17643E-07        -0.79162E-20         0.00000E+00
    0.17643E-07        -0.83819E-20         0.00000E+00
    0.17643E-07        -0.24214E-19         0.00000E+00
    0.17643E-07        -0.23749E-19         0.00000E+00
    0.17643E-07        -0.22817E-19         0.00000E+00
    0.17643E-07        -0.24214E-19         0.00000E+00
    0.17643E-07        -0.13970E-19         0.00000E+00
    0.17643E-07        -0.22817E-19         0.00000E+00
    0.17643E-07        -0.34459E-19         0.00000E+00
    0.17643E-07        -0.18161E-19         0.00000E+00
    0.17643E-07        -0.27940E-20         0.00000E+00
    0.17643E-07         0.55879E-20         0.00000E+00
    0.17643E-07        -0.46566E-20         0.00000E+00
    0.17643E-07         0.18626E-20         0.00000E+00
    0.17643E-07        -0.27940E-20         0.00000E+00
    0.62983E-07         0.37253E-20         0.00000E+00
    0.62983E-07         0.62864E-20         0.00000E+00
    0.62983E-07        -0.37253E-20         0.00000E+00
    0.62983E-07         0.88476E-20         0.00000E+00
    0.62983E-07        -0.88476E-20         0.00000E+00
    0.62983E-07        -0.13970E-19         0.00000E+00
    0.62983E-07        -0.32363E-19         0.00000E+00
    0.62983E-07        -0.23516E-19         0.00000E+00
    0.62983E-07        -0.30268E-19         0.00000E+00
    0.62983E-07        -0.19558E-19         0.00000E+00
    0.62983E-07        -0.23283E-19         0.00000E+00
    0.62983E-07         0.95461E-20         0.00000E+00
    0.62983E-07        -0.18626E-19         0.00000E+00
    0.62983E-07         0.74506E-20         0.00000E+00
    0.62983E-07         0.69849E-20         0.00000E+00
    0.62983E-07         0.12340E-19         0.00000E+00
    0.62983E-07         0.13970E-19         0.00000E+00
    0.62983E-07         0.26543E-19         0.00000E+00
    0.62983E-07         0.19558E-19         0.00000E+00
    0.62983E-07         0.23283E-20         0.00000E+00
    0.62983E-07        -0.14203E-19         0.00000E+00
    0.62983E-07        -0.21886E-19         0.00000E+00
    0.62983E-07        -0.27707E-19         0.00000E+00
    0.62983E-07        -0.86147E-20         0.00000E+00
    0.62983E-07        -0.69849E-20         0.00000E+00
    0.62983E-07         0.34925E-20         0.00000E+00
    0.62983E-07         0.10245E-19         0.00000E+00
    0.62983E-07         0.16764E-19         0.00000E+00
    0.62983E-07        -0.93132E-20         0.00000E+00
    0.62983E-07        -0.12340E-19         0.00000E+00
    0.62983E-07        -0.69849E-20         0.00000E+00
    0.62983E-07        -0.69849E-21         0.00000E+00
    0.62983E-07         0.23283E-20         0.00000E+00
    0.62983E-07         0.18626E-20         0.00000E+00
    0.62983E-07        -0.23283E-20         0.00000E+00
    0.62983E-07        -0.53551E-20         0.00000E+00
    0.62983E-07        -0.58208E-20         0.00000E+00
    0.62983E-07        -0.11874E-19         0.00000E+00
    0.62983E-07        -0.15832E-19         0.00000E+00
    0.62983E-07        -0.21653E-19         0.00000E+00
    0.62983E-07        -0.32596E-19         0.00000E+00
    0.62983E-07        -0.16298E-19         0.00000E+00
    0.62983E-07        -0.22817E-19         0.00000E+00
    0.62983E-07        -0.23749E-19         0.00000E+00
    0.62983E-07        -0.18626E-19         0.00000E+00
    0.62983E-07        -0.23283E-21         0.00000E+00
    0.62983E-07         0.27940E-20         0.00000E+00
    0.62983E-07         0.69849E-21         0.00000E+00
    0.62983E-07         0.46566E-21         0.00000E+00
    0.62983E-07        -0.46566E-20         0.00000E+00
    0.19278E-06         0.88476E-20         0.00000E+00
    0.19278E-06        -0.16298E-20         0.00000E+00
    0.19278E-06         0.32596E-20         0.00000E+00
    0.19278E-06        -0.86147E-20         0.00000E+00
    0.19278E-06        -0.11176E-19         0.00000E+00
    0.19278E-06        -0.17229E-19         0.00000E+00
    0.19278E-06        -0.23283E-19         0.00000E+00
    0.19278E-06        -0.22817E-19         0.00000E+00
    0.19278E-06        -0.23749E-19         0.00000E+00
    0.19278E-06        -0.26776E-19         0.00000E+00
    0.19278E-06        -0.10245E-19         0.00000E+00
    0.19278E-06        -0.69849E-21         0.00000E+00
    0.19278E-06        -0.25611E-20         0.00000E+00
    0.19278E-06         0.88476E-20         0.00000E+00
    0.19278E-06         0.00000E+00         0.00000E+00
    0.19278E-06         0.12107E-19         0.00000E+00
    0.19278E-06         0.16298E-19         0.00000E+00
    0.19278E-06         0.15600E-19         0.00000E+00
    0.19278E-06         0.13039E-19         0.00000E+00
    0.19278E-06        -0.51223E-20         0.00000E+00
    0.19278E-06        -0.10245E-19         0.00000E+00
    0.19278E-06        -0.12573E-19         0.00000E+00
    0.19278E-06        -0.31199E-19         0.00000E+00
    0.19278E-06        -0.22352E-19         0.00000E+00
    0.19278E-06        -0.60536E-20         0.00000E+00
    0.19278E-06         0.20955E-20         0.00000E+00
    0.19278E-06         0.93132E-21         0.00000E+00
    0.19278E-06         0.13039E-19         0.00000E+00
    0.19278E-06         0.55879E-20         0.00000E+00
    0.19278E-06        -0.46566E-20         0.00000E+00
    0.19278E-06        -0.25611E-20         0.00000E+00
    0.19278E-06        -0.23283E-20         0.00000E+00
    0.19278E-06        -0.46566E-21         0.00000E+00
    0.19278E-06        -0.39581E-20         0.00000E+00
    0.19278E-06         0.51223E-20         0.00000E+00
    0.19278E-06        -0.46566E-21         0.00000E+00
    0.19278E-06        -0.55879E-20         0.00000E+00
    0.19278E-06        -0.13039E-19         0.00000E+00
    0.19278E-06        -0.55879E-20         0.00000E+00
    0.19278E-06        -0.10710E-19         0.00000E+00
    0.19278E-06        -0.23283E-19         0.00000E+00
    0.19278E-06        -0.20256E-19         0.00000E+00
    0.19278E-06        -0.20489E-19         0.00000E+00
    0.19278E-06        -0.23283E-19         0.00000E+00
    0.19278E-06        -0.13039E-19         0.00000E+00
    0.19278E-06        -0.88476E-20         0.00000E+00
    0.19278E-06         0.23283E-20         0.00000E+00
    0.19278E-06        -0.32596E-20         0.00000E+00
    0.19278E-06         0.51223E-20         0.00000E+00
    0.19278E-06        -0.58208E-20         0.00000E+00
    0.48141E-06         0.79162E-20         0.00000E+00
    0.48141E-06        -0.13970E-20         0.00000E+00
    0.48141E-06        -0.11874E-19         0.00000E+00
    0.48141E-06         0.23283E-20         0.00000E+00
    0.48141E-06        -0.14435E-19         0.00000E+00
    0.48141E-06        -0.22352E-19         0.00000E+00
    0.48141E-06        -0.28871E-19         0.00000E+00
    0.48141E-06        -0.21420E-19         0.00000E+00
    0.48141E-06        -0.18394E-19         0.00000E+00
    0.48141E-06        -0.20722E-19         0.00000E+00
    0.48141E-06        -0.13970E-19         0.00000E+00
    0.48141E-06        -0.13970E-20         0.00000E+00
    0.48141E-06        -0.83819E-20         0.00000E+00
    0.48141E-06         0.37253E-20         0.00000E+00
    0.48141E-06        -0.74506E-20         0.00000E+00
    0.48141E-06         0.10710E-19         0.00000E+00
    0.48141E-06         0.88476E-20         0.00000E+00
    0.48141E-06         0.29802E-19         0.00000E+00
    0.48141E-06         0.97789E-20         0.00000E+00
    0.48141E-06        -0.23283E-20         0.00000E+00
    0.48141E-06        -0.15367E-19         0.00000E+00
    0.48141E-06        -0.17229E-19         0.00000E+00
    0.48141E-06        -0.29337E-19         0.00000E+00
    0.48141E-06        -0.21420E-19         0.00000E+00
    0.48141E-06        -0.46566E-20         0.00000E+00
    0.48141E-06        -0.11176E-19         0.00000E+00
    0.48141E-06         0.14435E-19         0.00000E+00
    0.48141E-06         0.18161E-19         0.00000E+00
    0.48141E-06         0.37253E-20         0.00000E+00
    0.48141E-06         0.46566E-20         0.00000E+00
    0.48141E-06        -0.83819E-20         0.00000E+00
    0.48141E-06         0.88476E-20         0.00000E+00
    0.48141E-06         0.23283E-21         0.00000E+00
    0.48141E-06         0.79162E-20         0.00000E+00
    0.48141E-06        -0.30268E-20         0.00000E+00
    0.48141E-06         0.00000E+00         0.00000E+00
    0.48141E-06        -0.18626E-20         0.00000E+00
    0.48141E-06        -0.48894E-20         0.00000E+00
    0.48141E-06        -0.13970E-19         0.00000E+00
    0.48141E-06        -0.18161E-19         0.00000E+00
    0.48141E-06        -0.15832E-19         0.00000E+00
    0.48141E-06        -0.14901E-19         0.00000E+00
    0.48141E-06        -0.18161E-19         0.00000E+00
    0.48141E-06        -0.20489E-19         0.00000E+00
    0.48141E-06        -0.14435E-19         0.00000E+00
    0.48141E-06        -0.39581E-20         0.00000E+00
    0.48141E-06         0.16298E-20         0.00000E+00
    0.48141E-06        -0.27940E-20         0.00000E+00
    0.48141E-06        -0.23283E-21         0.00000E+00
    0.48141E-06         0.13970E-20         0.00000E+00
    0.92806E-06        -0.13970E-20         0.00000E+00
    0.92806E-06         0.38417E-20         0.00000E+00
    0.92806E-06        -0.33760E-20         0.00000E+00
    0.92806E-06        -0.55879E-20         0.00000E+00
    0.92806E-06        -0.69849E-20         0.00000E+00
    0.92806E-06        -0.93132E-20         0.00000E+00
    0.92806E-06        -0.29569E-19         0.00000E+00
    0.92806E-06        -0.20722E-19         0.00000E+00
    0.92806E-06        -0.27008E-19         0.00000E+00
    0.92806E-06        -0.88476E-20         0.00000E+00
    0.92806E-06        -0.27241E-19         0.00000E+00
    0.92806E-06         0.11642E-20         0.00000E+00
    0.92806E-06        -0.60536E-20         0.00000E+00
    0.92806E-06         0.57044E-20         0.00000E+00
    0.92806E-06        -0.27940E-20         0.00000E+00
    0.92806E-06         0.10710E-19         0.00000E+00
    0.92806E-06         0.11874E-19         0.00000E+00
    0.92806E-06         0.11176E-19         0.00000E+00
    0.92806E-06         0.27707E-19         0.00000E+00
    0.92806E-06        -0.30268E-20         0.00000E+00
    0.92806E-06        -0.16764E-19         0.00000E+00
    0.92806E-06        -0.13271E-19         0.00000E+00
    0.92806E-06        -0.20722E-19         0.00000E+00
    0.92806E-06        -0.13504E-19         0.00000E+00
    0.92806E-06        -0.51223E-20         0.00000E+00
    0.92806E-06        -0.76834E-20         0.00000E+00
    0.92806E-06         0.60536E-20         0.00000E+00
    0.92806E-06         0.18394E-19         0.00000E+00
    0.92806E-06         0.46566E-20         0.00000E+00
    0.92806E-06        -0.25611E-20         0.00000E+00
    0.92806E-06        -0.62864E-20         0.00000E+00
    0.92806E-06         0.83819E-20         0.00000E+00
    0.92806E-06         0.25611E-20         0.00000E+00
    0.92806E-06        -0.13970E-20         0.00000E+00
    0.92806E-06         0.32596E-20         0.00000E+00
    0.92806E-06         0.11642E-20         0.00000E+00
    0.92806E-06        -0.30268E-20         0.00000E+00
    0.92806E-06        -0.15018E-19         0.00000E+00
    0.92806E-06        -0.34925E-20         0.00000E+00
    0.92806E-06        -0.11874E-19         0.00000E+00
    0.92806E-06        -0.22352E-19         0.00000E+00
    0.92806E-06        -0.11176E-19         0.00000E+00
    0.92806E-06        -0.32596E-20         0.00000E+00
    0.92806E-06        -0.10943E-19         0.00000E+00
    0.92806E-06        -0.25611E-20         0.00000E+00
    0.92806E-06        -0.46566E-20         0.00000E+00
    0.92806E-06         0.81491E-20         0.00000E+00
    0.92806E-06        -0.72177E-20         0.00000E+00
    0.92806E-06         0.96625E-20         0.00000E+00
    0.92806E-06        -0.25611E-20         0.00000E+00
    0.13114E-05         0.93132E-21         0.00000E+00
    0.13114E-05         0.37253E-20         0.00000E+00
    0.13114E-05        -0.93132E-21         0.00000E+00
    0.13114E-05        -0.23283E-20         0.00000E+00
    0.13114E-05        -0.93132E-21         0.00000E+00
    0.13114E-05        -0.32596E-20         0.00000E+00
    0.13114E-05         0.20606E-19         0.00000E+00
    0.13114E-05        -0.97789E-20         0.00000E+00
    0.13114E-05        -0.17695E-19         0.00000E+00
    0.13114E-05        -0.43306E-19         0.00000E+00
    0.13114E-05         0.27125E-19         0.00000E+00
    0.13114E-05         0.46566E-20         0.00000E+00
    0.13114E-05         0.23283E-20         0.00000E+00
    0.13114E-05         0.83819E-20         0.00000E+00
    0.13114E-05        -0.93132E-21         0.00000E+00
    0.13114E-05         0.69849E-20         0.00000E+00
    0.13114E-05         0.69849E-20         0.00000E+00
    0.13114E-05         0.41910E-19         0.00000E+00
    0.13114E-05        -0.29569E-19         0.00000E+00
    0.13114E-05        -0.55879E-20         0.00000E+00
    0.13114E-05        -0.46566E-20         0.00000E+00
    0.13114E-05        -0.46566E-20         0.00000E+00
    0.13114E-05        -0.93132E-20         0.00000E+00
    0.13114E-05        -0.60536E-20         0.00000E+00
    0.13114E-05        -0.23283E-20         0.00000E+00
    0.13114E-05         0.00000E+00         0.00000E+00
    0.13114E-05         0.23283E-20         0.00000E+00
    0.13114E-05         0.79162E-20         0.00000E+00
    0.13114E-05         0.00000E+00         0.00000E+00
    0.13114E-05        -0.23283E-20         0.00000E+00
    0.13114E-05        -0.27940E-20         0.00000E+00
    0.13114E-05        -0.26892E-19         0.00000E+00
    0.13114E-05         0.32946E-19         0.00000E+00
    0.13114E-05         0.93132E-21         0.00000E+00
    0.13114E-05         0.23283E-20         0.00000E+00
    0.13114E-05         0.13970E-20         0.00000E+00
    0.13114E-05        -0.13970E-20         0.00000E+00
    0.13114E-05        -0.79162E-20         0.00000E+00
    0.13114E-05        -0.55879E-20         0.00000E+00
    0.13114E-05        -0.43889E-19         0.00000E+00
    0.13114E-05        -0.69849E-20         0.00000E+00
    0.13114E-05         0.35390E-19         0.00000E+00
    0.13114E-05         0.23283E-20         0.00000E+00
    0.13114E-05        -0.13970E-20         0.00000E+00
    0.13114E-05        -0.13970E-20         0.00000E+00
    0.13114E-05         0.37253E-20         0.00000E+00
    0.13114E-05         0.69849E-20         0.00000E+00
    0.13114E-05         0.37020E-19         0.00000E+00
    0.13114E-05        -0.31199E-19         0.00000E+00
    0.13114E-05         0.37020E-19         0.00000E+00
POINT_DATA       5151
VECTORS vDarcyNodal double 
    0.87430E-06         0.00000E+00         0.00000E+00
    0.87430E-06         0.00000E+00         0.00000E+00
    0.87430E-06         0.00000E+00         0.00000E+00
    0.87430E-06         0.00000E+00         0.00000E+00
    0.87430E-06         0.00000E+00         0.00000E+00
    0.87430E-06         0.00000E+00         0.00000E+00
    0.87430E-06         0.00000E+00         0.00000E+00
    0.87430E-06         0.00000E+00         0.00000E+00
    0.87430E-06         0.00000E+00         0.00000E+00
    0.87430E-06         0.00000E+00         0.00000E+00
    0.87430E-06         0.00000E+00         0.00000E+00
    0.87430E-06         0.00000E+00         0.00000E+00
    0.87430E-06         0.00000E+00         0.00000E+00
    0.87430E-06         0.00000E+00         0.00000E+00
    0.87430E-06         0.00000E+00         0.00000E+00
    0.87430E-06         0.00000E+00         0.00000E+00
    0.87430E-06         0.00000E+00         0.00000E+00
    0.87430E-06         0.00000E+00         0.00000E+00
    0.87430E-06         0.00000E+00         0.00000E+00
    0.87430E-06         0.00000E+00         0.00000E+00
    0.87430E-06         0.00000E+00         0.00000E+00
    0.87430E-06         0.00000E+00         0.00000E+00
    0.87430E-06         0.00000E+00         0.00000E+00
    0.87430E-06         0.00000E+00         0.00000E+00
    0.87430E-06         0.00000E+00         0.00000E+00
    0.87430E-06         0.00000E+00         0.00000E+00
    0.87430E-06         0.00000E+00         0.00000E+00
    0.87430E-06         0.00000E+00         0.00000E+00
    0.87430E-06         0.00000E+00         0.00000E+00
    0.87430E-06         0.00000E+00         0.00000E+00
    0.87430E-06         0.00000E+00         0.00000E+00
    0.87430E-06         0.00000E+00         0.00000E+00
    0.87430E-06         0.00000E+00         0.00000E+00
    0.87430E-06         0.00000E+00         0.00000E+00
    0.87430E-06         0.00000E+00         0.00000E+00
    0.87430E-06         0.00000E+00         0.00000E+00
    0.87430E-06         0.00000E+00         0.00000E+00
    0.87430E-06         0.00000E+00         0.00000E+00
    0.87430E-06         0.00000E+00         0.00000E+00
    0.87430E-06         0.00000E+00         0.00000E+00
    0.87430E-06         0.00000E+00         0.00000E+00
    0.87430E-06         0.00000E+00         0.00000E+00
    0.87430E-06         0.00000E+00         0.00000E+00
    0.87430E-06         0.00000E+00         0.00000E+00
    0.87430E-06         0.00000E+00         0.00000E+00
    0.87430E-06         0.00000E+00         0.00000E+00
    0.87430E-06         0.00000E+00         0.00000E+00
    0.87430E-06         0.00000E+00         0.00000E+00
    0.87430E-06         0.00000E+00         0.00000E+00
    0.87430E-06         0.00000E+00         0.00000E+00
    0.87430E-06         0.00000E+00         0.00000E+00
    0.74650E-06        -0.37253E-20         0.00000E+00
    0.74650E-06        -0.55879E-20         0.00000E+00
    0.74650E-06        -0.18626E-20         0.00000E+00
    0.74650E-06         0.30854E-20         0.00000E+00
    0.74650E-06         0.55879E-20         0.00000E+00
    0.74650E-06         0.96616E-20         0.00000E+00
    0.74650E-06        -0.93132E-21         0.00000E+00
    0.74650E-06        -0.80904E-20         0.00000E+00
    0.74650E-06        -0.74506E-20         0.00000E+00
    0.74650E-06         0.00000E+00         0.00000E+00
    0.74650E-06         0.00000E+00         0.00000E+00
    0.74650E-06        -0.90218E-20         0.00000E+00
    0.74650E-06        -0.13039E-19         0.00000E+00
    0.74650E-06        -0.10245E-19         0.00000E+00
    0.74650E-06         0.27940E-20         0.00000E+00
    0.74650E-06         0.15712E-20         0.00000E+00
    0.74650E-06        -0.55879E-20         0.00000E+00
    0.74650E-06        -0.18626E-20         0.00000E+00
    0.74650E-06         0.55879E-20         0.00000E+00
    0.74650E-06         0.37253E-20         0.00000E+00
    0.74650E-06         0.00000E+00         0.00000E+00
    0.74650E-06         0.37253E-20         0.00000E+00
    0.74650E-06         0.55879E-20         0.00000E+00
    0.74650E-06         0.49481E-20         0.00000E+00
    0.74650E-06         0.25025E-20         0.00000E+00
    0.74650E-06        -0.93132E-21         0.00000E+00
    0.74650E-06         0.21541E-20         0.00000E+00
    0.74650E-06         0.43651E-20         0.00000E+00
    0.74650E-06         0.00000E+00         0.00000E+00
    0.74650E-06        -0.37253E-20         0.00000E+00
    0.74650E-06        -0.37253E-20         0.00000E+00
    0.74650E-06         0.55879E-20         0.00000E+00
    0.74650E-06         0.11176E-19         0.00000E+00
    0.74650E-06         0.18626E-19         0.00000E+00
    0.74650E-06         0.14901E-19         0.00000E+00
    0.74650E-06         0.18626E-20         0.00000E+00
    0.74650E-06        -0.18626E-20         0.00000E+00
    0.74650E-06        -0.18626E-20         0.00000E+00
    0.74650E-06        -0.18626E-20         0.00000E+00
    0.74650E-06        -0.18626E-20         0.00000E+00
    0.74650E-06        -0.30854E-20         0.00000E+00
    0.74650E-06        -0.37253E-20         0.00000E+00
    0.74650E-06        -0.63985E-21         0.00000E+00
    0.74650E-06         0.43651E-20         0.00000E+00
    0.74650E-06         0.12228E-20         0.00000E+00
    0.74650E-06        -0.50050E-20         0.00000E+00
    0.74650E-06        -0.30854E-20         0.00000E+00
    0.74650E-06        -0.30854E-20         0.00000E+00
    0.74650E-06         0.18626E-20         0.00000E+00
    0.74650E-06         0.62278E-20         0.00000E+00
    0.74650E-06         0.87303E-20         0.00000E+00
    0.46982E-06         0.14901E-19         0.00000E+00
    0.46982E-06         0.18626E-19         0.00000E+00
    0.46982E-06         0.37253E-20         0.00000E+00
    0.46982E-06        -0.14461E-19         0.00000E+00
    0.46982E-06        -0.14901E-19         0.00000E+00
    0.46982E-06        -0.12057E-19         0.00000E+00
    0.46982E-06        -0.93132E-20         0.00000E+00
    0.46982E-06        -0.88728E-20         0.00000E+00
    0.46982E-06        -0.37253E-20         0.00000E+00
    0.46982E-06        -0.74506E-20         0.00000E+00
    0.46982E-06        -0.14901E-19         0.00000E+00
    0.46982E-06        -0.14222E-20         0.00000E+00
    0.46982E-06         0.16764E-19         0.00000E+00
    0.46982E-06         0.14901E-19         0.00000E+00
    0.46982E-06         0.11176E-19         0.00000E+00
    0.46982E-06        -0.44043E-21         0.00000E+00
    0.46982E-06         0.18626E-20         0.00000E+00
    0.46982E-06         0.74506E-20         0.00000E+00
    0.46982E-06         0.18626E-20         0.00000E+00
    0.46982E-06         0.11176E-19         0.00000E+00
    0.46982E-06         0.11176E-19         0.00000E+00
    0.46982E-06        -0.14901E-19         0.00000E+00
    0.46982E-06        -0.26077E-19         0.00000E+00
    0.46982E-06        -0.21911E-19         0.00000E+00
    0.46982E-06        -0.17204E-19         0.00000E+00
    0.46982E-06        -0.93132E-20         0.00000E+00
    0.46982E-06        -0.88728E-20         0.00000E+00
    0.46982E-06        -0.78910E-20         0.00000E+00
    0.46982E-06        -0.55879E-20         0.00000E+00
    0.46982E-06         0.13039E-19         0.00000E+00
    0.46982E-06         0.24214E-19         0.00000E+00
    0.46982E-06         0.26077E-19         0.00000E+00
    0.46982E-06         0.22352E-19         0.00000E+00
    0.46982E-06         0.37253E-20         0.00000E+00
    0.46982E-06        -0.37253E-20         0.00000E+00
    0.46982E-06         0.00000E+00         0.00000E+00
    0.46982E-06         0.00000E+00         0.00000E+00
    0.46982E-06         0.18626E-20         0.00000E+00
    0.46982E-06         0.74506E-20         0.00000E+00
    0.46982E-06         0.93132E-20         0.00000E+00
    0.46982E-06         0.51475E-20         0.00000E+00
    0.46982E-06         0.74506E-20         0.00000E+00
    0.46982E-06        -0.14222E-20         0.00000E+00
    0.46982E-06        -0.15342E-19         0.00000E+00
    0.46982E-06        -0.20980E-19         0.00000E+00
    0.46982E-06        -0.18677E-19         0.00000E+00
    0.46982E-06        -0.60284E-20         0.00000E+00
    0.46982E-06        -0.44043E-21         0.00000E+00
    0.46982E-06        -0.74506E-20         0.00000E+00
    0.46982E-06        -0.60284E-20         0.00000E+00
    0.46982E-06         0.28444E-20         0.00000E+00
    0.22473E-06        -0.14901E-19         0.00000E+00
    0.22473E-06        -0.16380E-19         0.00000E+00
    0.22473E-06        -0.74506E-20         0.00000E+00
    0.22473E-06         0.14793E-20         0.00000E+00
    0.22473E-06        -0.11176E-19         0.00000E+00
    0.22473E-06        -0.16380E-19         0.00000E+00
    0.22473E-06        -0.18626E-19         0.00000E+00
    0.22473E-06        -0.74506E-20         0.00000E+00
    0.22473E-06         0.16764E-19         0.00000E+00
    0.22473E-06         0.33528E-19         0.00000E+00
    0.22473E-06         0.39499E-19         0.00000E+00
    0.22473E-06         0.16380E-19         0.00000E+00
    0.22473E-06        -0.24106E-20         0.00000E+00
    0.22473E-06         0.31773E-20         0.00000E+00
    0.22473E-06         0.29586E-20         0.00000E+00
    0.22473E-06        -0.59713E-20         0.00000E+00
    0.22473E-06         0.00000E+00         0.00000E+00
    0.22473E-06         0.11724E-19         0.00000E+00
    0.22473E-06         0.12107E-19         0.00000E+00
    0.22473E-06         0.59713E-20         0.00000E+00
    0.22473E-06        -0.52046E-20         0.00000E+00
    0.22473E-06        -0.10793E-19         0.00000E+00
    0.22473E-06        -0.50400E-20         0.00000E+00
    0.22473E-06        -0.46566E-20         0.00000E+00
    0.22473E-06        -0.55879E-20         0.00000E+00
    0.22473E-06         0.00000E+00         0.00000E+00
    0.22473E-06         0.83819E-20         0.00000E+00
    0.22473E-06         0.10245E-19         0.00000E+00
    0.22473E-06         0.13422E-19         0.00000E+00
    0.22473E-06         0.14518E-19         0.00000E+00
    0.22473E-06         0.10793E-19         0.00000E+00
    0.22473E-06         0.59713E-20         0.00000E+00
    0.22473E-06         0.74506E-20         0.00000E+00
    0.22473E-06         0.52046E-20         0.00000E+00
    0.22473E-06         0.37253E-20         0.00000E+00
    0.22473E-06        -0.11176E-19         0.00000E+00
    0.22473E-06        -0.28488E-19         0.00000E+00
    0.22473E-06        -0.27008E-19         0.00000E+00
    0.22473E-06        -0.22352E-19         0.00000E+00
    0.22473E-06        -0.16380E-19         0.00000E+00
    0.22473E-06        -0.96966E-20         0.00000E+00
    0.22473E-06        -0.78339E-20         0.00000E+00
    0.22473E-06         0.00000E+00         0.00000E+00
    0.22473E-06        -0.37253E-20         0.00000E+00
    0.22473E-06        -0.55879E-20         0.00000E+00
    0.22473E-06         0.78339E-20         0.00000E+00
    0.22473E-06         0.65193E-20         0.00000E+00
    0.22473E-06         0.83819E-20         0.00000E+00
    0.22473E-06         0.74506E-20         0.00000E+00
    0.22473E-06        -0.22460E-20         0.00000E+00
    0.22473E-06         0.00000E+00         0.00000E+00
    0.85253E-07         0.37253E-20         0.00000E+00
    0.85253E-07         0.18626E-20         0.00000E+00
    0.85253E-07        -0.55879E-20         0.00000E+00
    0.85253E-07        -0.48585E-20         0.00000E+00
    0.85253E-07         0.83819E-20         0.00000E+00
    0.85253E-07         0.97170E-20         0.00000E+00
    0.85253E-07         0.21420E-19         0.00000E+00
    0.85253E-07         0.19356E-19         0.00000E+00
    0.85253E-07         0.37253E-20         0.00000E+00
    0.85253E-07        -0.74506E-20         0.00000E+00
    0.85253E-07        -0.74506E-20         0.00000E+00
    0.85253E-07         0.72487E-20         0.00000E+00
    0.85253E-07         0.23283E-19         0.00000E+00
    0.85253E-07         0.21420E-19         0.00000E+00
    0.85253E-07         0.17695E-19         0.00000E+00
    0.85253E-07         0.16034E-19         0.00000E+00
    0.85253E-07         0.11176E-19         0.00000E+00
    0.85253E-07         0.37253E-20         0.00000E+00
    0.85253E-07        -0.37253E-20         0.00000E+00
    0.85253E-07        -0.74506E-20         0.00000E+00
    0.85253E-07        -0.16764E-19         0.00000E+00
    0.85253E-07        -0.74506E-20         0.00000E+00
    0.85253E-07         0.93132E-20         0.00000E+00
    0.85253E-07         0.35234E-20         0.00000E+00
    0.85253E-07         0.67212E-20         0.00000E+00
    0.85253E-07         0.19558E-19         0.00000E+00
    0.85253E-07         0.20287E-19         0.00000E+00
    0.85253E-07         0.20191E-21         0.00000E+00
    0.85253E-07        -0.11176E-19         0.00000E+00
    0.85253E-07        -0.74506E-20         0.00000E+00
    0.85253E-07         0.00000E+00         0.00000E+00
    0.85253E-07         0.55879E-20         0.00000E+00
    0.85253E-07         0.00000E+00         0.00000E+00
    0.85253E-07        -0.11176E-19         0.00000E+00
    0.85253E-07        -0.11176E-19         0.00000E+00
    0.85253E-07        -0.55879E-20         0.00000E+00
    0.85253E-07        -0.37253E-20         0.00000E+00
    0.85253E-07         0.55879E-20         0.00000E+00
    0.85253E-07         0.14901E-19         0.00000E+00
    0.85253E-07         0.74506E-20         0.00000E+00
    0.85253E-07        -0.10043E-19         0.00000E+00
    0.85253E-07        -0.93132E-20         0.00000E+00
    0.85253E-07        -0.48585E-20         0.00000E+00
    0.85253E-07        -0.35234E-20         0.00000E+00
    0.85253E-07        -0.20646E-20         0.00000E+00
    0.85253E-07        -0.15305E-19         0.00000E+00
    0.85253E-07        -0.22150E-19         0.00000E+00
    0.85253E-07        -0.16562E-19         0.00000E+00
    0.85253E-07        -0.55879E-20         0.00000E+00
    0.85253E-07         0.29959E-20         0.00000E+00
    0.85253E-07        -0.51841E-20         0.00000E+00
    0.26875E-07        -0.11176E-19         0.00000E+00
    0.26875E-07        -0.11176E-19         0.00000E+00
    0.26875E-07         0.20750E-20         0.00000E+00
    0.26875E-07         0.14901E-19         0.00000E+00
    0.26875E-07         0.10964E-19         0.00000E+00
    0.26875E-07         0.37253E-20         0.00000E+00
    0.26875E-07        -0.18626E-20         0.00000E+00
    0.26875E-07         0.00000E+00         0.00000E+00
    0.26875E-07        -0.55879E-20         0.00000E+00
    0.26875E-07         0.00000E+00         0.00000E+00
    0.26875E-07         0.16045E-19         0.00000E+00
    0.26875E-07        -0.18626E-20         0.00000E+00
    0.26875E-07        -0.30063E-20         0.00000E+00
    0.26875E-07         0.13039E-19         0.00000E+00
    0.26875E-07         0.14901E-19         0.00000E+00
    0.26875E-07         0.13039E-19         0.00000E+00
    0.26875E-07         0.11176E-19         0.00000E+00
    0.26875E-07         0.13039E-19         0.00000E+00
    0.26875E-07         0.13039E-19         0.00000E+00
    0.26875E-07         0.55879E-20         0.00000E+00
    0.26875E-07         0.55879E-20         0.00000E+00
    0.26875E-07         0.74506E-20         0.00000E+00
    0.26875E-07         0.00000E+00         0.00000E+00
    0.26875E-07         0.37253E-20         0.00000E+00
    0.26875E-07         0.74506E-20         0.00000E+00
    0.26875E-07         0.37253E-20         0.00000E+00
    0.26875E-07         0.18626E-20         0.00000E+00
    0.26875E-07        -0.11176E-19         0.00000E+00
    0.26875E-07        -0.74506E-20         0.00000E+00
    0.26875E-07         0.74506E-20         0.00000E+00
    0.26875E-07         0.55879E-20         0.00000E+00
    0.26875E-07        -0.74506E-20         0.00000E+00
    0.26875E-07        -0.37253E-20         0.00000E+00
    0.26875E-07         0.74506E-20         0.00000E+00
    0.26875E-07        -0.74506E-20         0.00000E+00
    0.26875E-07        -0.11176E-19         0.00000E+00
    0.26875E-07         0.67316E-20         0.00000E+00
    0.26875E-07         0.14182E-19         0.00000E+00
    0.26875E-07         0.53756E-20         0.00000E+00
    0.26875E-07         0.35129E-20         0.00000E+00
    0.26875E-07         0.74506E-20         0.00000E+00
    0.26875E-07        -0.16764E-19         0.00000E+00
    0.26875E-07        -0.37253E-19         0.00000E+00
    0.26875E-07        -0.35390E-19         0.00000E+00
    0.26875E-07        -0.26796E-19         0.00000E+00
    0.26875E-07        -0.81695E-20         0.00000E+00
    0.26875E-07        -0.48690E-20         0.00000E+00
    0.26875E-07        -0.16045E-19         0.00000E+00
    0.26875E-07        -0.14901E-19         0.00000E+00
    0.26875E-07        -0.44443E-20         0.00000E+00
    0.26875E-07         0.22874E-20         0.00000E+00
    0.73492E-08         0.00000E+00         0.00000E+00
    0.73492E-08         0.44416E-20         0.00000E+00
    0.73492E-08         0.74506E-20         0.00000E+00
    0.73492E-08         0.10460E-19         0.00000E+00
    0.73492E-08         0.11176E-19         0.00000E+00
    0.73492E-08        -0.95282E-20         0.00000E+00
    0.73492E-08        -0.13039E-19         0.00000E+00
    0.73492E-08        -0.93132E-20         0.00000E+00
    0.73492E-08        -0.55879E-20         0.00000E+00
    0.73492E-08        -0.46566E-20         0.00000E+00
    0.73492E-08        -0.30089E-20         0.00000E+00
    0.73492E-08         0.58029E-20         0.00000E+00
    0.73492E-08         0.10030E-19         0.00000E+00
    0.73492E-08         0.12824E-19         0.00000E+00
    0.73492E-08         0.50865E-20         0.00000E+00
    0.73492E-08         0.76655E-20         0.00000E+00
    0.73492E-08         0.20489E-19         0.00000E+00
    0.73492E-08         0.17910E-19         0.00000E+00
    0.73492E-08        -0.18626E-20         0.00000E+00
    0.73492E-08         0.71636E-21         0.00000E+00
    0.73492E-08        -0.20776E-20         0.00000E+00
    0.73492E-08        -0.76655E-20         0.00000E+00
    0.73492E-08         0.30089E-20         0.00000E+00
    0.73492E-08        -0.46566E-20         0.00000E+00
    0.73492E-08        -0.83819E-20         0.00000E+00
    0.73492E-08         0.55879E-20         0.00000E+00
    0.73492E-08         0.13970E-19         0.00000E+00
    0.73492E-08         0.21420E-19         0.00000E+00
    0.73492E-08         0.11892E-19         0.00000E+00
    0.73492E-08        -0.25790E-20         0.00000E+00
    0.73492E-08        -0.25790E-20         0.00000E+00
    0.73492E-08        -0.30089E-20         0.00000E+00
    0.73492E-08         0.27940E-20         0.00000E+00
    0.73492E-08         0.95282E-20         0.00000E+00
    0.73492E-08         0.74506E-20         0.00000E+00
    0.73492E-08        -0.74506E-20         0.00000E+00
    0.73492E-08        -0.16047E-19         0.00000E+00
    0.73492E-08        -0.20489E-19         0.00000E+00
    0.73492E-08        -0.18626E-19         0.00000E+00
    0.73492E-08        -0.10460E-19         0.00000E+00
    0.73492E-08        -0.72356E-20         0.00000E+00
    0.73492E-08         0.21497E-21         0.00000E+00
    0.73492E-08        -0.18626E-20         0.00000E+00
    0.73492E-08        -0.14901E-19         0.00000E+00
    0.73492E-08        -0.18626E-19         0.00000E+00
    0.73492E-08        -0.16047E-19         0.00000E+00
    0.73492E-08        -0.74506E-20         0.00000E+00
    0.73492E-08        -0.55879E-20         0.00000E+00
    0.73492E-08        -0.13039E-19         0.00000E+00
    0.73492E-08        -0.25790E-20         0.00000E+00
    0.73492E-08         0.00000E+00         0.00000E+00
    0.18038E-08         0.27249E-20         0.00000E+00
    0.18038E-08        -0.74506E-20         0.00000E+00
    0.18038E-08        -0.88130E-20         0.00000E+00
    0.18038E-08        -0.55879E-20         0.00000E+00
    0.18038E-08        -0.23628E-20         0.00000E+00
    0.18038E-08        -0.98134E-20         0.00000E+00
    0.18038E-08        -0.11607E-19         0.00000E+00
    0.18038E-08        -0.19058E-19         0.00000E+00
    0.18038E-08        -0.31665E-19         0.00000E+00
    0.18038E-08        -0.18626E-19         0.00000E+00
    0.18038E-08        -0.55879E-20         0.00000E+00
    0.18038E-08         0.00000E+00         0.00000E+00
    0.18038E-08         0.74506E-20         0.00000E+00
    0.18038E-08         0.18626E-19         0.00000E+00
    0.18038E-08         0.26077E-19         0.00000E+00
    0.18038E-08         0.11176E-19         0.00000E+00
    0.18038E-08         0.37253E-20         0.00000E+00
    0.18038E-08         0.55879E-20         0.00000E+00
    0.18038E-08         0.37253E-20         0.00000E+00
    0.18038E-08        -0.93132E-20         0.00000E+00
    0.18038E-08        -0.14901E-19         0.00000E+00
    0.18038E-08        -0.37253E-20         0.00000E+00
    0.18038E-08         0.74506E-20         0.00000E+00
    0.18038E-08         0.74506E-20         0.00000E+00
    0.18038E-08         0.37253E-20         0.00000E+00
    0.18038E-08         0.11176E-19         0.00000E+00
    0.18038E-08         0.26077E-19         0.00000E+00
    0.18038E-08         0.35390E-19         0.00000E+00
    0.18038E-08         0.22352E-19         0.00000E+00
    0.18038E-08         0.55879E-20         0.00000E+00
    0.18038E-08         0.55879E-20         0.00000E+00
    0.18038E-08        -0.93132E-20         0.00000E+00
    0.18038E-08        -0.31665E-19         0.00000E+00
    0.18038E-08        -0.31665E-19         0.00000E+00
    0.18038E-08        -0.14901E-19         0.00000E+00
    0.18038E-08         0.00000E+00         0.00000E+00
    0.18038E-08         0.00000E+00         0.00000E+00
    0.18038E-08         0.00000E+00         0.00000E+00
    0.18038E-08         0.37253E-20         0.00000E+00
    0.18038E-08         0.11607E-19         0.00000E+00
    0.18038E-08         0.93132E-20         0.00000E+00
    0.18038E-08        -0.43112E-21         0.00000E+00
    0.18038E-08        -0.11176E-19         0.00000E+00
    0.18038E-08        -0.24214E-19         0.00000E+00
    0.18038E-08        -0.27940E-19         0.00000E+00
    0.18038E-08        -0.24214E-19         0.00000E+00
    0.18038E-08        -0.15401E-19         0.00000E+00
    0.18038E-08        -0.11176E-19         0.00000E+00
    0.18038E-08        -0.12538E-19         0.00000E+00
    0.18038E-08        -0.55879E-20         0.00000E+00
    0.18038E-08        -0.74506E-20         0.00000E+00
    0.40738E-09         0.37253E-20         0.00000E+00
    0.40738E-09         0.00000E+00         0.00000E+00
    0.40738E-09        -0.18626E-20         0.00000E+00
    0.40738E-09         0.60879E-20         0.00000E+00
    0.40738E-09         0.18626E-20         0.00000E+00
    0.40738E-09        -0.20558E-19         0.00000E+00
    0.40738E-09        -0.27008E-19         0.00000E+00
    0.40738E-09        -0.12539E-19         0.00000E+00
    0.40738E-09         0.00000E+00         0.00000E+00
    0.40738E-09        -0.37253E-20         0.00000E+00
    0.40738E-09        -0.74506E-20         0.00000E+00
    0.40738E-09        -0.12539E-19         0.00000E+00
    0.40738E-09        -0.93132E-20         0.00000E+00
    0.40738E-09        -0.83819E-20         0.00000E+00
    0.40738E-09        -0.10245E-19         0.00000E+00
    0.40738E-09         0.50880E-20         0.00000E+00
    0.40738E-09         0.14901E-19         0.00000E+00
    0.40738E-09         0.55879E-20         0.00000E+00
    0.40738E-09        -0.37253E-20         0.00000E+00
    0.40738E-09        -0.93132E-20         0.00000E+00
    0.40738E-09        -0.11176E-19         0.00000E+00
    0.40738E-09        -0.55879E-20         0.00000E+00
    0.40738E-09         0.11176E-19         0.00000E+00
    0.40738E-09         0.11676E-19         0.00000E+00
    0.40738E-09         0.60193E-20         0.00000E+00
    0.40738E-09         0.14901E-19         0.00000E+00
    0.40738E-09         0.22852E-19         0.00000E+00
    0.40738E-09         0.26508E-19         0.00000E+00
    0.40738E-09         0.18626E-19         0.00000E+00
    0.40738E-09         0.37253E-20         0.00000E+00
    0.40738E-09        -0.55879E-20         0.00000E+00
    0.40738E-09        -0.11176E-19         0.00000E+00
    0.40738E-09        -0.11176E-19         0.00000E+00
    0.40738E-09         0.00000E+00         0.00000E+00
    0.40738E-09         0.18626E-20         0.00000E+00
    0.40738E-09         0.00000E+00         0.00000E+00
    0.40738E-09         0.74506E-20         0.00000E+00
    0.40738E-09         0.93132E-20         0.00000E+00
    0.40738E-09         0.74506E-20         0.00000E+00
    0.40738E-09         0.18626E-20         0.00000E+00
    0.40738E-09        -0.98132E-20         0.00000E+00
    0.40738E-09        -0.19558E-19         0.00000E+00
    0.40738E-09        -0.19058E-19         0.00000E+00
    0.40738E-09        -0.17264E-19         0.00000E+00
    0.40738E-09        -0.15333E-19         0.00000E+00
    0.40738E-09        -0.22283E-19         0.00000E+00
    0.40738E-09        -0.17264E-19         0.00000E+00
    0.40738E-09        -0.79505E-20         0.00000E+00
    0.40738E-09        -0.37253E-20         0.00000E+00
    0.40738E-09         0.13627E-20         0.00000E+00
    0.40738E-09        -0.99989E-21         0.00000E+00
    0.86198E-10         0.99979E-21         0.00000E+00
    0.86198E-10         0.55879E-20         0.00000E+00
    0.86198E-10         0.11176E-19         0.00000E+00
    0.86198E-10         0.93132E-20         0.00000E+00
    0.86198E-10         0.00000E+00         0.00000E+00
    0.86198E-10        -0.93132E-20         0.00000E+00
    0.86198E-10        -0.12107E-19         0.00000E+00
    0.86198E-10        -0.17195E-19         0.00000E+00
    0.86198E-10        -0.26077E-19         0.00000E+00
    0.86198E-10        -0.17264E-19         0.00000E+00
    0.86198E-10        -0.22852E-19         0.00000E+00
    0.86198E-10        -0.16764E-19         0.00000E+00
    0.86198E-10        -0.55879E-20         0.00000E+00
    0.86198E-10        -0.55879E-20         0.00000E+00
    0.86198E-10         0.18626E-20         0.00000E+00
    0.86198E-10        -0.37253E-20         0.00000E+00
    0.86198E-10        -0.11176E-19         0.00000E+00
    0.86198E-10        -0.55879E-20         0.00000E+00
    0.86198E-10         0.00000E+00         0.00000E+00
    0.86198E-10         0.00000E+00         0.00000E+00
    0.86198E-10        -0.55879E-20         0.00000E+00
    0.86198E-10        -0.93132E-20         0.00000E+00
    0.86198E-10        -0.16764E-19         0.00000E+00
    0.86198E-10        -0.11176E-19         0.00000E+00
    0.86198E-10         0.18626E-19         0.00000E+00
    0.86198E-10         0.28440E-19         0.00000E+00
    0.86198E-10         0.55879E-20         0.00000E+00
    0.86198E-10         0.32254E-20         0.00000E+00
    0.86198E-10         0.14901E-19         0.00000E+00
    0.86198E-10         0.16764E-19         0.00000E+00
    0.86198E-10         0.16764E-19         0.00000E+00
    0.86198E-10         0.79505E-20         0.00000E+00
    0.86198E-10        -0.83819E-20         0.00000E+00
    0.86198E-10        -0.14470E-19         0.00000E+00
    0.86198E-10        -0.74506E-20         0.00000E+00
    0.86198E-10        -0.37253E-20         0.00000E+00
    0.86198E-10        -0.11176E-19         0.00000E+00
    0.86198E-10         0.00000E+00         0.00000E+00
    0.86198E-10         0.11176E-19         0.00000E+00
    0.86198E-10         0.79505E-20         0.00000E+00
    0.86198E-10        -0.18626E-20         0.00000E+00
    0.86198E-10        -0.93132E-21         0.00000E+00
    0.86198E-10         0.93132E-21         0.00000E+00
    0.86198E-10        -0.20489E-19         0.00000E+00
    0.86198E-10        -0.27940E-19         0.00000E+00
    0.86198E-10        -0.17264E-19         0.00000E+00
    0.86198E-10        -0.18626E-20         0.00000E+00
    0.86198E-10         0.18626E-20         0.00000E+00
    0.86198E-10        -0.18626E-20         0.00000E+00
    0.86198E-10         0.13628E-20         0.00000E+00
    0.86198E-10         0.27255E-20         0.00000E+00
    0.17311E-10         0.74506E-20         0.00000E+00
    0.17311E-10         0.37253E-20         0.00000E+00
    0.17311E-10         0.13628E-20         0.00000E+00
    0.17311E-10         0.11176E-19         0.00000E+00
    0.17311E-10         0.79505E-20         0.00000E+00
    0.17311E-10        -0.93132E-20         0.00000E+00
    0.17311E-10        -0.26077E-19         0.00000E+00
    0.17311E-10        -0.26077E-19         0.00000E+00
    0.17311E-10        -0.29802E-19         0.00000E+00
    0.17311E-10        -0.29802E-19         0.00000E+00
    0.17311E-10        -0.14470E-19         0.00000E+00
    0.17311E-10        -0.93132E-21         0.00000E+00
    0.17311E-10        -0.88133E-20         0.00000E+00
    0.17311E-10        -0.11176E-19         0.00000E+00
    0.17311E-10        -0.13039E-19         0.00000E+00
    0.17311E-10        -0.93132E-20         0.00000E+00
    0.17311E-10         0.55879E-20         0.00000E+00
    0.17311E-10         0.74506E-20         0.00000E+00
    0.17311E-10         0.11176E-19         0.00000E+00
    0.17311E-10         0.37253E-20         0.00000E+00
    0.17311E-10        -0.18626E-19         0.00000E+00
    0.17311E-10        -0.22352E-19         0.00000E+00
    0.17311E-10        -0.14901E-19         0.00000E+00
    0.17311E-10        -0.37253E-20         0.00000E+00
    0.17311E-10         0.55879E-20         0.00000E+00
    0.17311E-10         0.11176E-19         0.00000E+00
    0.17311E-10         0.22352E-19         0.00000E+00
    0.17311E-10         0.22352E-19         0.00000E+00
    0.17311E-10         0.16764E-19         0.00000E+00
    0.17311E-10         0.55879E-20         0.00000E+00
    0.17311E-10        -0.11176E-19         0.00000E+00
    0.17311E-10        -0.74506E-20         0.00000E+00
    0.17311E-10        -0.74506E-20         0.00000E+00
    0.17311E-10        -0.11176E-19         0.00000E+00
    0.17311E-10        -0.14901E-19         0.00000E+00
    0.17311E-10        -0.93132E-20         0.00000E+00
    0.17311E-10         0.11607E-19         0.00000E+00
    0.17311E-10         0.41567E-20         0.00000E+00
    0.17311E-10        -0.78820E-20         0.00000E+00
    0.17311E-10        -0.78820E-20         0.00000E+00
    0.17311E-10        -0.93132E-20         0.00000E+00
    0.17311E-10        -0.11176E-19         0.00000E+00
    0.17311E-10        -0.13039E-19         0.00000E+00
    0.17311E-10        -0.18626E-19         0.00000E+00
    0.17311E-10        -0.70191E-20         0.00000E+00
    0.17311E-10         0.43144E-21         0.00000E+00
    0.17311E-10        -0.13628E-20         0.00000E+00
    0.17311E-10        -0.13628E-20         0.00000E+00
    0.17311E-10        -0.74506E-20         0.00000E+00
    0.17311E-10        -0.49988E-21         0.00000E+00
    0.17311E-10         0.64508E-20         0.00000E+00
    0.33316E-11         0.74506E-20         0.00000E+00
    0.33316E-11         0.13039E-19         0.00000E+00
    0.33316E-11         0.16764E-19         0.00000E+00
    0.33316E-11         0.11176E-19         0.00000E+00
    0.33316E-11         0.42252E-20         0.00000E+00
    0.33316E-11        -0.51565E-20         0.00000E+00
    0.33316E-11        -0.16832E-19         0.00000E+00
    0.33316E-11        -0.31165E-19         0.00000E+00
    0.33316E-11        -0.34890E-19         0.00000E+00
    0.33316E-11        -0.24714E-19         0.00000E+00
    0.33316E-11        -0.20489E-19         0.00000E+00
    0.33316E-11        -0.14401E-19         0.00000E+00
    0.33316E-11        -0.11176E-19         0.00000E+00
    0.33316E-11        -0.11176E-19         0.00000E+00
    0.33316E-11        -0.74506E-20         0.00000E+00
    0.33316E-11        -0.23625E-20         0.00000E+00
    0.33316E-11        -0.22941E-20         0.00000E+00
    0.33316E-11         0.23625E-20         0.00000E+00
    0.33316E-11         0.73821E-20         0.00000E+00
    0.33316E-11        -0.32254E-20         0.00000E+00
    0.33316E-11        -0.32254E-20         0.00000E+00
    0.33316E-11        -0.79505E-20         0.00000E+00
    0.33316E-11        -0.12539E-19         0.00000E+00
    0.33316E-11        -0.14401E-19         0.00000E+00
    0.33316E-11         0.86288E-21         0.00000E+00
    0.33316E-11         0.65193E-20         0.00000E+00
    0.33316E-11        -0.69507E-20         0.00000E+00
    0.33316E-11         0.43144E-21         0.00000E+00
    0.33316E-11         0.13039E-19         0.00000E+00
    0.33316E-11         0.69507E-20         0.00000E+00
    0.33316E-11         0.23625E-20         0.00000E+00
    0.33316E-11         0.28624E-20         0.00000E+00
    0.33316E-11         0.50881E-20         0.00000E+00
    0.33316E-11        -0.42252E-20         0.00000E+00
    0.33316E-11        -0.43144E-21         0.00000E+00
    0.33316E-11         0.18626E-20         0.00000E+00
    0.33316E-11        -0.37253E-20         0.00000E+00
    0.33316E-11        -0.11176E-19         0.00000E+00
    0.33316E-11        -0.83819E-20         0.00000E+00
    0.33316E-11        -0.50881E-20         0.00000E+00
    0.33316E-11        -0.14470E-19         0.00000E+00
    0.33316E-11        -0.12607E-19         0.00000E+00
    0.33316E-11        -0.12539E-19         0.00000E+00
    0.33316E-11        -0.18626E-19         0.00000E+00
    0.33316E-11        -0.20989E-19         0.00000E+00
    0.33316E-11        -0.18626E-19         0.00000E+00
    0.33316E-11        -0.55879E-20         0.00000E+00
    0.33316E-11         0.00000E+00         0.00000E+00
    0.33316E-11         0.14312E-20         0.00000E+00
    0.33316E-11         0.13628E-20         0.00000E+00
    0.33316E-11         0.73137E-20         0.00000E+00
    0.61897E-12         0.14901E-19         0.00000E+00
    0.61897E-12         0.51565E-20         0.00000E+00
    0.61897E-12        -0.93132E-21         0.00000E+00
    0.61897E-12         0.13628E-20         0.00000E+00
    0.61897E-12        -0.55879E-20         0.00000E+00
    0.61897E-12        -0.23715E-19         0.00000E+00
    0.61897E-12        -0.29802E-19         0.00000E+00
    0.61897E-12        -0.33528E-19         0.00000E+00
    0.61897E-12        -0.29802E-19         0.00000E+00
    0.61897E-12        -0.22352E-19         0.00000E+00
    0.61897E-12        -0.19989E-19         0.00000E+00
    0.61897E-12        -0.60878E-20         0.00000E+00
    0.61897E-12        -0.60194E-20         0.00000E+00
    0.61897E-12        -0.41567E-20         0.00000E+00
    0.61897E-12         0.17942E-20         0.00000E+00
    0.61897E-12         0.43144E-21         0.00000E+00
    0.61897E-12         0.37253E-20         0.00000E+00
    0.61897E-12         0.10676E-19         0.00000E+00
    0.61897E-12         0.10245E-19         0.00000E+00
    0.61897E-12        -0.22941E-20         0.00000E+00
    0.61897E-12        -0.12539E-19         0.00000E+00
    0.61897E-12        -0.50881E-20         0.00000E+00
    0.61897E-12        -0.79505E-20         0.00000E+00
    0.61897E-12        -0.19558E-19         0.00000E+00
    0.61897E-12        -0.14901E-19         0.00000E+00
    0.61897E-12        -0.65193E-20         0.00000E+00
    0.61897E-12         0.55879E-20         0.00000E+00
    0.61897E-12         0.14901E-19         0.00000E+00
    0.61897E-12         0.11676E-19         0.00000E+00
    0.61897E-12         0.88133E-20         0.00000E+00
    0.61897E-12        -0.49988E-21         0.00000E+00
    0.61897E-12        -0.22941E-20         0.00000E+00
    0.61897E-12         0.46566E-20         0.00000E+00
    0.61897E-12         0.50881E-20         0.00000E+00
    0.61897E-12         0.74506E-20         0.00000E+00
    0.61897E-12         0.00000E+00         0.00000E+00
    0.61897E-12        -0.11607E-19         0.00000E+00
    0.61897E-12        -0.14901E-19         0.00000E+00
    0.61897E-12        -0.10245E-19         0.00000E+00
    0.61897E-12        -0.19989E-19         0.00000E+00
    0.61897E-12        -0.25646E-19         0.00000E+00
    0.61897E-12        -0.18195E-19         0.00000E+00
    0.61897E-12        -0.14901E-19         0.00000E+00
    0.61897E-12        -0.26077E-19         0.00000E+00
    0.61897E-12        -0.27940E-19         0.00000E+00
    0.61897E-12        -0.88133E-20         0.00000E+00
    0.61897E-12         0.37253E-20         0.00000E+00
    0.61897E-12        -0.55879E-20         0.00000E+00
    0.61897E-12         0.27940E-20         0.00000E+00
    0.61897E-12         0.43144E-21         0.00000E+00
    0.61897E-12        -0.37253E-20         0.00000E+00
    0.11163E-12         0.00000E+00         0.00000E+00
    0.11163E-12         0.55879E-20         0.00000E+00
    0.11163E-12         0.11176E-19         0.00000E+00
    0.11163E-12         0.74506E-20         0.00000E+00
    0.11163E-12         0.00000E+00         0.00000E+00
    0.11163E-12        -0.14901E-19         0.00000E+00
    0.11163E-12        -0.27940E-19         0.00000E+00
    0.11163E-12        -0.24214E-19         0.00000E+00
    0.11163E-12        -0.20489E-19         0.00000E+00
    0.11163E-12        -0.22352E-19         0.00000E+00
    0.11163E-12        -0.14901E-19         0.00000E+00
    0.11163E-12        -0.18626E-20         0.00000E+00
    0.11163E-12        -0.37253E-20         0.00000E+00
    0.11163E-12        -0.37253E-20         0.00000E+00
    0.11163E-12        -0.18626E-20         0.00000E+00
    0.11163E-12        -0.18626E-20         0.00000E+00
    0.11163E-12         0.55879E-20         0.00000E+00
    0.11163E-12         0.93132E-20         0.00000E+00
    0.11163E-12         0.12039E-19         0.00000E+00
    0.11163E-12        -0.18883E-33         0.00000E+00
    0.11163E-12        -0.64508E-20         0.00000E+00
    0.11163E-12        -0.11176E-19         0.00000E+00
    0.11163E-12        -0.16764E-19         0.00000E+00
    0.11163E-12        -0.16764E-19         0.00000E+00
    0.11163E-12        -0.37253E-20         0.00000E+00
    0.11163E-12        -0.74506E-20         0.00000E+00
    0.11163E-12        -0.13039E-19         0.00000E+00
    0.11163E-12         0.93132E-20         0.00000E+00
    0.11163E-12         0.11176E-19         0.00000E+00
    0.11163E-12        -0.11176E-19         0.00000E+00
    0.11163E-12        -0.18626E-19         0.00000E+00
    0.11163E-12         0.00000E+00         0.00000E+00
    0.11163E-12         0.74506E-20         0.00000E+00
    0.11163E-12         0.18626E-20         0.00000E+00
    0.11163E-12         0.74506E-20         0.00000E+00
    0.11163E-12         0.55879E-20         0.00000E+00
    0.11163E-12        -0.37253E-20         0.00000E+00
    0.11163E-12        -0.11176E-19         0.00000E+00
    0.11163E-12        -0.14901E-19         0.00000E+00
    0.11163E-12        -0.18626E-19         0.00000E+00
    0.11163E-12        -0.22352E-19         0.00000E+00
    0.11163E-12        -0.20489E-19         0.00000E+00
    0.11163E-12        -0.16764E-19         0.00000E+00
    0.11163E-12        -0.13039E-19         0.00000E+00
    0.11163E-12        -0.74506E-20         0.00000E+00
    0.11163E-12        -0.11176E-19         0.00000E+00
    0.11163E-12        -0.93132E-20         0.00000E+00
    0.11163E-12        -0.11176E-19         0.00000E+00
    0.11163E-12        -0.16764E-19         0.00000E+00
    0.11163E-12        -0.55879E-20         0.00000E+00
    0.11163E-12         0.00000E+00         0.00000E+00
    0.19630E-13         0.11039E-19         0.00000E+00
    0.19630E-13         0.55879E-20         0.00000E+00
    0.19630E-13         0.68439E-22         0.00000E+00
    0.19630E-13         0.00000E+00         0.00000E+00
    0.19630E-13        -0.37937E-20         0.00000E+00
    0.19630E-13        -0.75190E-20         0.00000E+00
    0.19630E-13        -0.20421E-19         0.00000E+00
    0.19630E-13        -0.33459E-19         0.00000E+00
    0.19630E-13        -0.27940E-19         0.00000E+00
    0.19630E-13        -0.22352E-19         0.00000E+00
    0.19630E-13        -0.22352E-19         0.00000E+00
    0.19630E-13        -0.93132E-20         0.00000E+00
    0.19630E-13         0.00000E+00         0.00000E+00
    0.19630E-13         0.18626E-20         0.00000E+00
    0.19630E-13         0.74506E-20         0.00000E+00
    0.19630E-13         0.74506E-20         0.00000E+00
    0.19630E-13         0.11176E-19         0.00000E+00
    0.19630E-13         0.18626E-19         0.00000E+00
    0.19630E-13         0.13039E-19         0.00000E+00
    0.19630E-13        -0.18626E-20         0.00000E+00
    0.19630E-13        -0.13039E-19         0.00000E+00
    0.19630E-13        -0.16764E-19         0.00000E+00
    0.19630E-13        -0.26077E-19         0.00000E+00
    0.19630E-13        -0.26077E-19         0.00000E+00
    0.19630E-13        -0.14901E-19         0.00000E+00
    0.19630E-13        -0.74506E-20         0.00000E+00
    0.19630E-13         0.37253E-20         0.00000E+00
    0.19630E-13         0.11176E-19         0.00000E+00
    0.19630E-13         0.74506E-20         0.00000E+00
    0.19630E-13         0.00000E+00         0.00000E+00
    0.19630E-13        -0.74506E-20         0.00000E+00
    0.19630E-13        -0.74506E-20         0.00000E+00
    0.19630E-13         0.37253E-20         0.00000E+00
    0.19630E-13         0.00000E+00         0.00000E+00
    0.19630E-13         0.37253E-20         0.00000E+00
    0.19630E-13         0.37253E-20         0.00000E+00
    0.19630E-13         0.00000E+00         0.00000E+00
    0.19630E-13        -0.37253E-20         0.00000E+00
    0.19630E-13        -0.11176E-19         0.00000E+00
    0.19630E-13        -0.11244E-19         0.00000E+00
    0.19630E-13        -0.18626E-19         0.00000E+00
    0.19630E-13        -0.12970E-19         0.00000E+00
    0.19630E-13        -0.14901E-19         0.00000E+00
    0.19630E-13        -0.26077E-19         0.00000E+00
    0.19630E-13        -0.18626E-19         0.00000E+00
    0.19630E-13        -0.93132E-20         0.00000E+00
    0.19630E-13        -0.37937E-20         0.00000E+00
    0.19630E-13         0.93132E-21         0.00000E+00
    0.19630E-13         0.99976E-21         0.00000E+00
    0.19630E-13         0.18626E-20         0.00000E+00
    0.19630E-13         0.00000E+00         0.00000E+00
    0.33776E-14         0.37253E-20         0.00000E+00
    0.33776E-14         0.68439E-22         0.00000E+00
    0.33776E-14        -0.27940E-20         0.00000E+00
    0.33776E-14         0.86288E-21         0.00000E+00
    0.33776E-14        -0.93132E-20         0.00000E+00
    0.33776E-14        -0.23215E-19         0.00000E+00
    0.33776E-14        -0.28803E-19         0.00000E+00
    0.33776E-14        -0.31665E-19         0.00000E+00
    0.33776E-14        -0.29871E-19         0.00000E+00
    0.33776E-14        -0.26145E-19         0.00000E+00
    0.33776E-14        -0.20421E-19         0.00000E+00
    0.33776E-14        -0.93132E-20         0.00000E+00
    0.33776E-14        -0.56564E-20         0.00000E+00
    0.33776E-14        -0.17942E-20         0.00000E+00
    0.33776E-14         0.37253E-20         0.00000E+00
    0.33776E-14         0.10245E-19         0.00000E+00
    0.33776E-14         0.12176E-19         0.00000E+00
    0.33776E-14         0.15764E-19         0.00000E+00
    0.33776E-14         0.19489E-19         0.00000E+00
    0.33776E-14         0.93132E-20         0.00000E+00
    0.33776E-14        -0.83135E-20         0.00000E+00
    0.33776E-14        -0.10176E-19         0.00000E+00
    0.33776E-14        -0.16764E-19         0.00000E+00
    0.33776E-14        -0.22352E-19         0.00000E+00
    0.33776E-14        -0.13107E-19         0.00000E+00
    0.33776E-14        -0.46566E-20         0.00000E+00
    0.33776E-14        -0.27255E-20         0.00000E+00
    0.33776E-14         0.37253E-20         0.00000E+00
    0.33776E-14         0.74506E-20         0.00000E+00
    0.33776E-14        -0.75190E-20         0.00000E+00
    0.33776E-14        -0.11176E-19         0.00000E+00
    0.33776E-14         0.68439E-22         0.00000E+00
    0.33776E-14         0.10176E-19         0.00000E+00
    0.33776E-14         0.10176E-19         0.00000E+00
    0.33776E-14         0.93132E-20         0.00000E+00
    0.33776E-14         0.55879E-20         0.00000E+00
    0.33776E-14         0.00000E+00         0.00000E+00
    0.33776E-14        -0.17942E-20         0.00000E+00
    0.33776E-14        -0.73821E-20         0.00000E+00
    0.33776E-14        -0.18695E-19         0.00000E+00
    0.33776E-14        -0.26145E-19         0.00000E+00
    0.33776E-14        -0.22352E-19         0.00000E+00
    0.33776E-14        -0.22283E-19         0.00000E+00
    0.33776E-14        -0.29734E-19         0.00000E+00
    0.33776E-14        -0.27940E-19         0.00000E+00
    0.33776E-14        -0.18626E-19         0.00000E+00
    0.33776E-14        -0.37937E-20         0.00000E+00
    0.33776E-14         0.17942E-20         0.00000E+00
    0.33776E-14         0.74506E-20         0.00000E+00
    0.33776E-14         0.74506E-20         0.00000E+00
    0.33776E-14         0.74506E-20         0.00000E+00
    0.57023E-15         0.74506E-20         0.00000E+00
    0.57023E-15         0.11176E-19         0.00000E+00
    0.57023E-15         0.00000E+00         0.00000E+00
    0.57023E-15        -0.13901E-19         0.00000E+00
    0.57023E-15        -0.16764E-19         0.00000E+00
    0.57023E-15        -0.17832E-19         0.00000E+00
    0.57023E-15        -0.20489E-19         0.00000E+00
    0.57023E-15        -0.18558E-19         0.00000E+00
    0.57023E-15        -0.24214E-19         0.00000E+00
    0.57023E-15        -0.26077E-19         0.00000E+00
    0.57023E-15        -0.26077E-19         0.00000E+00
    0.57023E-15        -0.12039E-19         0.00000E+00
    0.57023E-15        -0.18626E-20         0.00000E+00
    0.57023E-15        -0.27940E-20         0.00000E+00
    0.57023E-15         0.93132E-21         0.00000E+00
    0.57023E-15         0.45882E-20         0.00000E+00
    0.57023E-15         0.14901E-19         0.00000E+00
    0.57023E-15         0.29802E-19         0.00000E+00
    0.57023E-15         0.27940E-19         0.00000E+00
    0.57023E-15         0.74506E-20         0.00000E+00
    0.57023E-15        -0.37253E-20         0.00000E+00
    0.57023E-15        -0.13039E-19         0.00000E+00
    0.57023E-15        -0.20489E-19         0.00000E+00
    0.57023E-15        -0.21352E-19         0.00000E+00
    0.57023E-15        -0.11244E-19         0.00000E+00
    0.57023E-15        -0.93132E-20         0.00000E+00
    0.57023E-15        -0.64508E-20         0.00000E+00
    0.57023E-15         0.17942E-20         0.00000E+00
    0.57023E-15         0.37253E-20         0.00000E+00
    0.57023E-15        -0.18626E-20         0.00000E+00
    0.57022E-15        -0.55879E-20         0.00000E+00
    0.57023E-15        -0.55879E-20         0.00000E+00
    0.57023E-15        -0.37253E-20         0.00000E+00
    0.57022E-15         0.00000E+00         0.00000E+00
    0.57023E-15         0.37253E-20         0.00000E+00
    0.57023E-15        -0.18626E-20         0.00000E+00
    0.57023E-15        -0.37253E-20         0.00000E+00
    0.57023E-15        -0.55879E-20         0.00000E+00
    0.57023E-15        -0.74506E-20         0.00000E+00
    0.57023E-15        -0.13039E-19         0.00000E+00
    0.57023E-15        -0.22420E-19         0.00000E+00
    0.57023E-15        -0.14901E-19         0.00000E+00
    0.57023E-15        -0.18558E-19         0.00000E+00
    0.57023E-15        -0.28008E-19         0.00000E+00
    0.57023E-15        -0.23215E-19         0.00000E+00
    0.57023E-15        -0.19421E-19         0.00000E+00
    0.57023E-15        -0.13107E-19         0.00000E+00
    0.57023E-15        -0.75190E-20         0.00000E+00
    0.57024E-15        -0.37253E-20         0.00000E+00
    0.57024E-15         0.36569E-20         0.00000E+00
    0.57024E-15         0.35884E-20         0.00000E+00
    0.94688E-16         0.37253E-20         0.00000E+00
    0.94687E-16         0.64508E-20         0.00000E+00
    0.94688E-16         0.27940E-20         0.00000E+00
    0.94686E-16         0.37937E-20         0.00000E+00
    0.94685E-16        -0.37253E-20         0.00000E+00
    0.94686E-16        -0.20489E-19         0.00000E+00
    0.94687E-16        -0.29802E-19         0.00000E+00
    0.94688E-16        -0.29802E-19         0.00000E+00
    0.94688E-16        -0.18695E-19         0.00000E+00
    0.94687E-16        -0.13039E-19         0.00000E+00
    0.94686E-16        -0.18558E-19         0.00000E+00
    0.94683E-16        -0.13039E-19         0.00000E+00
    0.94682E-16        -0.14038E-19         0.00000E+00
    0.94682E-16        -0.13039E-19         0.00000E+00
    0.94680E-16        -0.27255E-20         0.00000E+00
    0.94682E-16         0.17942E-20         0.00000E+00
    0.94680E-16         0.10245E-19         0.00000E+00
    0.94682E-16         0.18626E-19         0.00000E+00
    0.94685E-16         0.21352E-19         0.00000E+00
    0.94685E-16         0.12176E-19         0.00000E+00
    0.94686E-16        -0.65193E-20         0.00000E+00
    0.94687E-16        -0.14901E-19         0.00000E+00
    0.94686E-16        -0.22352E-19         0.00000E+00
    0.94687E-16        -0.28008E-19         0.00000E+00
    0.94685E-16        -0.93132E-20         0.00000E+00
    0.94686E-16         0.18626E-20         0.00000E+00
    0.94686E-16         0.84503E-20         0.00000E+00
    0.94686E-16         0.12107E-19         0.00000E+00
    0.94684E-16         0.92448E-20         0.00000E+00
    0.94685E-16         0.47251E-20         0.00000E+00
    0.94684E-16        -0.55879E-20         0.00000E+00
    0.94683E-16        -0.93132E-21         0.00000E+00
    0.94682E-16         0.13107E-19         0.00000E+00
    0.94682E-16         0.36569E-20         0.00000E+00
    0.94680E-16        -0.37253E-20         0.00000E+00
    0.94680E-16        -0.62818E-34         0.00000E+00
    0.94681E-16        -0.56564E-20         0.00000E+00
    0.94682E-16        -0.74506E-20         0.00000E+00
    0.94682E-16        -0.11107E-19         0.00000E+00
    0.94684E-16        -0.18558E-19         0.00000E+00
    0.94683E-16        -0.35459E-19         0.00000E+00
    0.94683E-16        -0.37253E-19         0.00000E+00
    0.94684E-16        -0.33459E-19         0.00000E+00
    0.94684E-16        -0.37253E-19         0.00000E+00
    0.94686E-16        -0.31665E-19         0.00000E+00
    0.94687E-16        -0.22352E-19         0.00000E+00
    0.94688E-16        -0.11176E-19         0.00000E+00
    0.94688E-16        -0.75190E-20         0.00000E+00
    0.94689E-16        -0.93132E-21         0.00000E+00
    0.94690E-16        -0.93132E-21         0.00000E+00
    0.94689E-16        -0.38622E-20         0.00000E+00
    0.15495E-16         0.75875E-20         0.00000E+00
    0.15495E-16         0.74506E-20         0.00000E+00
    0.15494E-16         0.37253E-20         0.00000E+00
    0.15493E-16        -0.18626E-20         0.00000E+00
    0.15494E-16        -0.11176E-19         0.00000E+00
    0.15494E-16        -0.27940E-19         0.00000E+00
    0.15494E-16        -0.30734E-19         0.00000E+00
    0.15492E-16        -0.23215E-19         0.00000E+00
    0.15493E-16        -0.22352E-19         0.00000E+00
    0.15494E-16        -0.15901E-19         0.00000E+00
    0.15497E-16        -0.99976E-21         0.00000E+00
    0.15498E-16         0.74506E-20         0.00000E+00
    0.15497E-16         0.37253E-20         0.00000E+00
    0.15494E-16         0.37253E-20         0.00000E+00
    0.15492E-16         0.37253E-20         0.00000E+00
    0.15488E-16         0.74506E-20         0.00000E+00
    0.15487E-16         0.13039E-19         0.00000E+00
    0.15487E-16         0.37253E-20         0.00000E+00
    0.15487E-16         0.93132E-20         0.00000E+00
    0.15489E-16         0.37253E-20         0.00000E+00
    0.15490E-16        -0.11176E-19         0.00000E+00
    0.15491E-16        -0.14901E-19         0.00000E+00
    0.15492E-16        -0.18626E-19         0.00000E+00
    0.15491E-16        -0.18626E-19         0.00000E+00
    0.15490E-16        -0.93132E-20         0.00000E+00
    0.15492E-16        -0.73821E-20         0.00000E+00
    0.15493E-16        -0.55879E-20         0.00000E+00
    0.15495E-16         0.11107E-19         0.00000E+00
    0.15496E-16         0.93132E-20         0.00000E+00
    0.15497E-16        -0.18626E-20         0.00000E+00
    0.15498E-16        -0.18626E-20         0.00000E+00
    0.15498E-16         0.19311E-20         0.00000E+00
    0.15498E-16         0.83819E-20         0.00000E+00
    0.15500E-16         0.10176E-19         0.00000E+00
    0.15499E-16         0.93132E-20         0.00000E+00
    0.15499E-16        -0.37253E-20         0.00000E+00
    0.15499E-16        -0.13039E-19         0.00000E+00
    0.15497E-16        -0.14901E-19         0.00000E+00
    0.15498E-16        -0.14901E-19         0.00000E+00
    0.15498E-16        -0.16695E-19         0.00000E+00
    0.15498E-16        -0.22352E-19         0.00000E+00
    0.15494E-16        -0.20489E-19         0.00000E+00
    0.15493E-16        -0.24214E-19         0.00000E+00
    0.15492E-16        -0.35390E-19         0.00000E+00
    0.15492E-16        -0.35390E-19         0.00000E+00
    0.15493E-16        -0.31733E-19         0.00000E+00
    0.15492E-16        -0.18626E-19         0.00000E+00
    0.15492E-16        -0.11176E-19         0.00000E+00
    0.15493E-16        -0.11176E-19         0.00000E+00
    0.15492E-16        -0.68439E-22         0.00000E+00
    0.15491E-16         0.73137E-20         0.00000E+00
    0.25034E-17         0.37253E-20         0.00000E+00
    0.25039E-17         0.93132E-20         0.00000E+00
    0.25043E-17         0.11176E-19         0.00000E+00
    0.25034E-17         0.74506E-20         0.00000E+00
    0.25011E-17        -0.45882E-20         0.00000E+00
    0.24987E-17        -0.19558E-19         0.00000E+00
    0.24959E-17        -0.24283E-19         0.00000E+00
    0.24965E-17        -0.24214E-19         0.00000E+00
    0.24959E-17        -0.31665E-19         0.00000E+00
    0.24955E-17        -0.33528E-19         0.00000E+00
    0.24973E-17        -0.29734E-19         0.00000E+00
    0.25001E-17        -0.13970E-19         0.00000E+00
    0.25018E-17         0.86288E-21         0.00000E+00
    0.25015E-17         0.14970E-19         0.00000E+00
    0.25011E-17         0.25146E-19         0.00000E+00
    0.24988E-17         0.20352E-19         0.00000E+00
    0.24992E-17         0.23283E-19         0.00000E+00
    0.25001E-17         0.18695E-19         0.00000E+00
    0.24988E-17         0.11176E-19         0.00000E+00
    0.24987E-17        -0.18626E-20         0.00000E+00
    0.24990E-17        -0.18626E-19         0.00000E+00
    0.25011E-17        -0.22352E-19         0.00000E+00
    0.25020E-17        -0.22352E-19         0.00000E+00
    0.25020E-17        -0.20489E-19         0.00000E+00
    0.25015E-17        -0.14901E-19         0.00000E+00
    0.25025E-17        -0.13039E-19         0.00000E+00
    0.25027E-17        -0.11176E-19         0.00000E+00
    0.25029E-17        -0.37253E-20         0.00000E+00
    0.25034E-17         0.00000E+00         0.00000E+00
    0.25022E-17        -0.55879E-20         0.00000E+00
    0.25032E-17        -0.74506E-20         0.00000E+00
    0.25057E-17         0.00000E+00         0.00000E+00
    0.25062E-17         0.74506E-20         0.00000E+00
    0.25067E-17         0.00000E+00         0.00000E+00
    0.25088E-17        -0.37253E-20         0.00000E+00
    0.25088E-17        -0.68439E-22         0.00000E+00
    0.25090E-17         0.46566E-20         0.00000E+00
    0.25065E-17        -0.45882E-20         0.00000E+00
    0.25062E-17        -0.14901E-19         0.00000E+00
    0.25062E-17        -0.16764E-19         0.00000E+00
    0.25053E-17        -0.18558E-19         0.00000E+00
    0.25048E-17        -0.16764E-19         0.00000E+00
    0.25038E-17        -0.20558E-19         0.00000E+00
    0.25036E-17        -0.29802E-19         0.00000E+00
    0.25033E-17        -0.31665E-19         0.00000E+00
    0.25050E-17        -0.22352E-19         0.00000E+00
    0.25032E-17        -0.11107E-19         0.00000E+00
    0.25043E-17        -0.83819E-20         0.00000E+00
    0.25040E-17        -0.47251E-20         0.00000E+00
    0.25033E-17         0.55195E-20         0.00000E+00
    0.25043E-17         0.73137E-20         0.00000E+00
    0.40047E-18         0.37253E-20         0.00000E+00
    0.40093E-18         0.37253E-20         0.00000E+00
    0.40187E-18         0.55195E-20         0.00000E+00
    0.40190E-18         0.14901E-19         0.00000E+00
    0.40233E-18         0.14970E-19         0.00000E+00
    0.40187E-18        -0.37253E-20         0.00000E+00
    0.39954E-18        -0.20489E-19         0.00000E+00
    0.39811E-18        -0.22352E-19         0.00000E+00
    0.39767E-18        -0.20489E-19         0.00000E+00
    0.39461E-18        -0.20489E-19         0.00000E+00
    0.39305E-18        -0.23352E-19         0.00000E+00
    0.39302E-18        -0.13970E-19         0.00000E+00
    0.39205E-18        -0.55195E-20         0.00000E+00
    0.39488E-18         0.55879E-20         0.00000E+00
    0.39674E-18         0.16764E-19         0.00000E+00
    0.40000E-18         0.14901E-19         0.00000E+00
    0.40000E-18         0.74506E-20         0.00000E+00
    0.40140E-18         0.74506E-20         0.00000E+00
    0.40183E-18         0.16764E-19         0.00000E+00
    0.40140E-18         0.37253E-20         0.00000E+00
    0.40070E-18        -0.24214E-19         0.00000E+00
    0.39954E-18        -0.29802E-19         0.00000E+00
    0.39907E-18        -0.22352E-19         0.00000E+00
    0.39907E-18        -0.14901E-19         0.00000E+00
    0.39999E-18        -0.11176E-19         0.00000E+00
    0.39954E-18        -0.14901E-19         0.00000E+00
    0.39862E-18        -0.93132E-20         0.00000E+00
    0.39791E-18         0.74506E-20         0.00000E+00
    0.39674E-18         0.13039E-19         0.00000E+00
    0.39723E-18        -0.37253E-20         0.00000E+00
    0.39746E-18        -0.18626E-19         0.00000E+00
    0.39676E-18        -0.74506E-20         0.00000E+00
    0.39791E-18         0.37253E-20         0.00000E+00
    0.39721E-18        -0.55879E-20         0.00000E+00
    0.39710E-18        -0.37253E-20         0.00000E+00
    0.39825E-18        -0.18626E-20         0.00000E+00
    0.39814E-18        -0.37937E-20         0.00000E+00
    0.39825E-18        -0.37937E-20         0.00000E+00
    0.39744E-18        -0.92448E-20         0.00000E+00
    0.39767E-18        -0.11107E-19         0.00000E+00
    0.39721E-18        -0.16764E-19         0.00000E+00
    0.39861E-18        -0.14901E-19         0.00000E+00
    0.39982E-18        -0.16764E-19         0.00000E+00
    0.39948E-18        -0.33528E-19         0.00000E+00
    0.39925E-18        -0.42909E-19         0.00000E+00
    0.39809E-18        -0.29871E-19         0.00000E+00
    0.39823E-18        -0.14833E-19         0.00000E+00
    0.39846E-18        -0.14833E-19         0.00000E+00
    0.39935E-18        -0.74506E-20         0.00000E+00
    0.39963E-18        -0.19311E-20         0.00000E+00
    0.40047E-18        -0.38622E-20         0.00000E+00
    0.63330E-19         0.00000E+00         0.00000E+00
    0.63296E-19         0.28624E-20         0.00000E+00
    0.63330E-19         0.65877E-20         0.00000E+00
    0.64727E-19         0.55195E-20         0.00000E+00
    0.65193E-19        -0.37253E-20         0.00000E+00
    0.67089E-19        -0.55195E-20         0.00000E+00
    0.68918E-19        -0.55879E-20         0.00000E+00
    0.68254E-19        -0.15901E-19         0.00000E+00
    0.67987E-19        -0.15901E-19         0.00000E+00
    0.67089E-19        -0.12039E-19         0.00000E+00
    0.65624E-19        -0.16764E-19         0.00000E+00
    0.65227E-19        -0.14038E-19         0.00000E+00
    0.63830E-19        -0.74506E-20         0.00000E+00
    0.66124E-19        -0.73821E-20         0.00000E+00
    0.66590E-19        -0.37253E-20         0.00000E+00
    0.69116E-19         0.83819E-20         0.00000E+00
    0.70349E-19         0.14038E-19         0.00000E+00
    0.69418E-19         0.93132E-20         0.00000E+00
    0.68004E-19         0.11970E-19         0.00000E+00
    0.67521E-19         0.37253E-20         0.00000E+00
    0.65675E-19        -0.82450E-20         0.00000E+00
    0.63097E-19        -0.13039E-19         0.00000E+00
    0.61217E-19        -0.22420E-19         0.00000E+00
    0.59372E-19        -0.27008E-19         0.00000E+00
    0.59588E-19        -0.13901E-19         0.00000E+00
    0.59139E-19        -0.37253E-20         0.00000E+00
    0.58191E-19        -0.37253E-20         0.00000E+00
    0.58423E-19         0.37253E-20         0.00000E+00
    0.59139E-19         0.37253E-20         0.00000E+00
    0.59837E-19        -0.84503E-20         0.00000E+00
    0.59588E-19        -0.46566E-20         0.00000E+00
    0.58208E-19        -0.17942E-20         0.00000E+00
    0.58656E-19         0.55879E-20         0.00000E+00
    0.58208E-19         0.18626E-20         0.00000E+00
    0.57151E-19        -0.74506E-20         0.00000E+00
    0.57975E-19        -0.37253E-20         0.00000E+00
    0.57742E-19         0.37253E-20         0.00000E+00
    0.59014E-19        -0.18626E-20         0.00000E+00
    0.59264E-19        -0.11244E-19         0.00000E+00
    0.59605E-19        -0.14901E-19         0.00000E+00
    0.60178E-19        -0.26009E-19         0.00000E+00
    0.60070E-19        -0.28008E-19         0.00000E+00
    0.60769E-19        -0.26077E-19         0.00000E+00
    0.61288E-19        -0.29734E-19         0.00000E+00
    0.60303E-19        -0.24283E-19         0.00000E+00
    0.59426E-19        -0.14970E-19         0.00000E+00
    0.60070E-19        -0.13039E-19         0.00000E+00
    0.60070E-19        -0.16764E-19         0.00000E+00
    0.59837E-19        -0.93132E-20         0.00000E+00
    0.60536E-19         0.18626E-20         0.00000E+00
    0.60070E-19         0.37253E-20         0.00000E+00
    0.10245E-19         0.74506E-20         0.00000E+00
    0.10245E-19         0.55879E-20         0.00000E+00
    0.11176E-19         0.18626E-20         0.00000E+00
    0.13039E-19         0.37253E-20         0.00000E+00
    0.11642E-19        -0.86288E-21         0.00000E+00
    0.11142E-19        -0.18695E-19         0.00000E+00
    0.13039E-19        -0.25283E-19         0.00000E+00
    0.14401E-19        -0.16695E-19         0.00000E+00
    0.14901E-19        -0.14833E-19         0.00000E+00
    0.15832E-19        -0.15901E-19         0.00000E+00
    0.16298E-19        -0.11176E-19         0.00000E+00
    0.15367E-19        -0.64508E-20         0.00000E+00
    0.15333E-19        -0.93132E-20         0.00000E+00
    0.13970E-19        -0.74506E-20         0.00000E+00
    0.14435E-19         0.00000E+00         0.00000E+00
    0.13073E-19        -0.68439E-22         0.00000E+00
    0.13504E-19         0.75190E-20         0.00000E+00
    0.13004E-19         0.17764E-19         0.00000E+00
    0.12090E-19         0.25009E-19         0.00000E+00
    0.12107E-19         0.15901E-19         0.00000E+00
    0.11642E-19        -0.17942E-20         0.00000E+00
    0.11624E-19        -0.65877E-20         0.00000E+00
    0.10012E-19        -0.45882E-20         0.00000E+00
    0.10029E-19        -0.83135E-20         0.00000E+00
    0.88647E-20        -0.85188E-20         0.00000E+00
    0.83819E-20        -0.74506E-20         0.00000E+00
    0.77005E-20        -0.64508E-20         0.00000E+00
    0.74677E-20         0.17942E-20         0.00000E+00
    0.67521E-20         0.74506E-20         0.00000E+00
    0.58037E-20        -0.47251E-20         0.00000E+00
    0.53722E-20        -0.12970E-19         0.00000E+00
    0.63035E-20        -0.26571E-20         0.00000E+00
    0.46566E-20         0.45882E-20         0.00000E+00
    0.55879E-20         0.27255E-20         0.00000E+00
    0.50144E-20        -0.17942E-20         0.00000E+00
    0.26861E-20        -0.37253E-20         0.00000E+00
    0.32596E-20        -0.93132E-20         0.00000E+00
    0.52472E-20        -0.13039E-19         0.00000E+00
    0.46566E-20        -0.11176E-19         0.00000E+00
    0.53551E-20        -0.14833E-19         0.00000E+00
    0.47816E-20        -0.22420E-19         0.00000E+00
    0.41910E-20        -0.16832E-19         0.00000E+00
    0.51762E-20        -0.18558E-19         0.00000E+00
    0.55879E-20        -0.33528E-19         0.00000E+00
    0.56419E-20        -0.37321E-19         0.00000E+00
    0.60536E-20        -0.29802E-19         0.00000E+00
    0.72177E-20        -0.16764E-19         0.00000E+00
    0.72177E-20        -0.13039E-19         0.00000E+00
    0.64745E-20        -0.92448E-20         0.00000E+00
    0.67521E-20        -0.28624E-20         0.00000E+00
    0.65193E-20         0.15889E-20         0.00000E+00
   -0.55879E-20         0.13688E-21         0.00000E+00
   -0.55537E-20        -0.18626E-20         0.00000E+00
   -0.51223E-20        -0.37253E-20         0.00000E+00
   -0.37253E-20         0.18626E-20         0.00000E+00
   -0.27940E-20         0.27940E-20         0.00000E+00
   -0.23283E-20        -0.75190E-20         0.00000E+00
   -0.27597E-20        -0.22420E-19         0.00000E+00
   -0.32596E-20        -0.24214E-19         0.00000E+00
   -0.18969E-20        -0.23352E-19         0.00000E+00
   -0.46566E-21        -0.22352E-19         0.00000E+00
    0.93132E-21        -0.18558E-19         0.00000E+00
    0.27597E-20        -0.73821E-20         0.00000E+00
    0.23625E-20         0.00000E+00         0.00000E+00
    0.13970E-20        -0.36569E-20         0.00000E+00
    0.13970E-20         0.86288E-21         0.00000E+00
    0.93132E-21         0.13901E-19         0.00000E+00
    0.93132E-21         0.18626E-19         0.00000E+00
    0.14312E-20         0.16695E-19         0.00000E+00
    0.18798E-20         0.14038E-19         0.00000E+00
    0.18626E-20         0.65877E-20         0.00000E+00
    0.30268E-20        -0.45882E-20         0.00000E+00
    0.39752E-20        -0.45882E-20         0.00000E+00
    0.49066E-20        -0.15901E-19         0.00000E+00
    0.51052E-20        -0.18626E-19         0.00000E+00
    0.49066E-20        -0.93817E-20         0.00000E+00
    0.46566E-20         0.00000E+00         0.00000E+00
    0.53551E-20         0.99976E-21         0.00000E+00
    0.46566E-20         0.10108E-19         0.00000E+00
    0.30097E-20         0.13039E-19         0.00000E+00
    0.23454E-20        -0.37253E-20         0.00000E+00
    0.18455E-20        -0.65193E-20         0.00000E+00
    0.68138E-21         0.19995E-20         0.00000E+00
   -0.93132E-21         0.11244E-19         0.00000E+00
   -0.93132E-21         0.17942E-20         0.00000E+00
   -0.18626E-20         0.37253E-20         0.00000E+00
   -0.25611E-20         0.45882E-20         0.00000E+00
   -0.23283E-20        -0.66561E-20         0.00000E+00
   -0.45316E-20        -0.11107E-19         0.00000E+00
   -0.51223E-20        -0.11176E-19         0.00000E+00
   -0.47645E-20        -0.15832E-19         0.00000E+00
   -0.61786E-20        -0.21420E-19         0.00000E+00
   -0.55879E-20        -0.29802E-19         0.00000E+00
   -0.33136E-20        -0.29802E-19         0.00000E+00
   -0.32596E-20        -0.30665E-19         0.00000E+00
   -0.23822E-20        -0.28803E-19         0.00000E+00
   -0.32596E-20        -0.26145E-19         0.00000E+00
   -0.38147E-20        -0.14901E-19         0.00000E+00
   -0.45132E-20        -0.11176E-19         0.00000E+00
   -0.60983E-20        -0.74506E-20         0.00000E+00
   -0.64252E-20        -0.68439E-22         0.00000E+00
   -0.60536E-20        -0.13688E-21         0.00000E+00
   -0.83819E-20         0.37253E-20         0.00000E+00
   -0.93132E-20         0.37937E-20         0.00000E+00
   -0.97789E-20        -0.55879E-20         0.00000E+00
   -0.11176E-19        -0.75190E-20         0.00000E+00
   -0.10245E-19        -0.74506E-20         0.00000E+00
   -0.83477E-20        -0.19489E-19         0.00000E+00
   -0.74848E-20        -0.21420E-19         0.00000E+00
   -0.60536E-20        -0.22352E-19         0.00000E+00
   -0.50881E-20        -0.25146E-19         0.00000E+00
   -0.36911E-20        -0.29802E-19         0.00000E+00
   -0.32596E-20        -0.30665E-19         0.00000E+00
   -0.18626E-20        -0.10313E-19         0.00000E+00
   -0.18626E-20        -0.45882E-20         0.00000E+00
   -0.93132E-21        -0.55195E-20         0.00000E+00
   -0.18626E-20         0.35884E-20         0.00000E+00
   -0.34220E-22         0.55195E-20         0.00000E+00
    0.93132E-21         0.74506E-20         0.00000E+00
    0.66427E-21         0.12039E-19         0.00000E+00
    0.23283E-21         0.16764E-19         0.00000E+00
    0.46566E-21         0.12176E-19         0.00000E+00
    0.11470E-20        -0.11107E-19         0.00000E+00
    0.23283E-20        -0.14833E-19         0.00000E+00
    0.18626E-20        -0.11244E-19         0.00000E+00
    0.14141E-20        -0.12107E-19         0.00000E+00
    0.68138E-21        -0.18626E-20         0.00000E+00
    0.93132E-21        -0.93132E-20         0.00000E+00
   -0.48277E-21        -0.55879E-20         0.00000E+00
   -0.46566E-21         0.10245E-19         0.00000E+00
   -0.11470E-20         0.18695E-19         0.00000E+00
   -0.11813E-20         0.45882E-20         0.00000E+00
   -0.44855E-21        -0.47251E-20         0.00000E+00
   -0.13970E-20         0.84503E-20         0.00000E+00
   -0.13799E-20         0.12107E-19         0.00000E+00
   -0.13970E-20         0.11107E-19         0.00000E+00
   -0.17548E-20         0.55879E-20         0.00000E+00
   -0.19705E-20        -0.37253E-20         0.00000E+00
   -0.23283E-20         0.68439E-22         0.00000E+00
   -0.24533E-20         0.33102E-34         0.00000E+00
   -0.23283E-20        -0.11176E-19         0.00000E+00
   -0.19876E-20        -0.92448E-20         0.00000E+00
   -0.10786E-21        -0.18695E-19         0.00000E+00
   -0.11642E-20        -0.28008E-19         0.00000E+00
   -0.28479E-20        -0.29802E-19         0.00000E+00
   -0.32596E-20        -0.40978E-19         0.00000E+00
   -0.37253E-20        -0.37253E-19         0.00000E+00
   -0.44238E-20        -0.21352E-19         0.00000E+00
   -0.59641E-20        -0.11176E-19         0.00000E+00
   -0.53551E-20        -0.93132E-21         0.00000E+00
   -0.43791E-20         0.93132E-21         0.00000E+00
   -0.47507E-20        -0.19311E-20         0.00000E+00
   -0.55879E-20        -0.74506E-20         0.00000E+00
   -0.51223E-20         0.37253E-20         0.00000E+00
   -0.46566E-20         0.55195E-20         0.00000E+00
   -0.32596E-20         0.74506E-20         0.00000E+00
   -0.46566E-20         0.29308E-20         0.00000E+00
   -0.32938E-20        -0.83819E-20         0.00000E+00
   -0.42252E-20        -0.24283E-19         0.00000E+00
   -0.37253E-20        -0.35390E-19         0.00000E+00
   -0.32596E-20        -0.35390E-19         0.00000E+00
   -0.18969E-20        -0.33528E-19         0.00000E+00
   -0.28624E-20        -0.31597E-19         0.00000E+00
   -0.37253E-20        -0.26077E-19         0.00000E+00
   -0.34925E-20        -0.13107E-19         0.00000E+00
   -0.25954E-20        -0.74506E-20         0.00000E+00
   -0.13628E-20        -0.74506E-20         0.00000E+00
    0.34220E-22        -0.37253E-20         0.00000E+00
    0.49988E-21         0.28624E-20         0.00000E+00
   -0.34220E-22         0.15901E-19         0.00000E+00
    0.49988E-21         0.18558E-19         0.00000E+00
    0.68138E-21         0.14833E-19         0.00000E+00
    0.93132E-21         0.00000E+00         0.00000E+00
    0.13970E-20        -0.11176E-19         0.00000E+00
    0.18626E-20        -0.73821E-20         0.00000E+00
    0.93132E-21        -0.12970E-19         0.00000E+00
    0.91421E-21        -0.14901E-19         0.00000E+00
    0.16298E-20        -0.99976E-21         0.00000E+00
    0.18626E-20         0.45882E-20         0.00000E+00
    0.71560E-21         0.75190E-20         0.00000E+00
    0.23283E-20         0.16832E-19         0.00000E+00
    0.27940E-20         0.14833E-19         0.00000E+00
    0.44409E-20        -0.56564E-20         0.00000E+00
    0.39410E-20        -0.93132E-20         0.00000E+00
    0.51223E-20         0.55879E-20         0.00000E+00
    0.55879E-20         0.13107E-19         0.00000E+00
    0.41910E-20         0.37937E-20         0.00000E+00
    0.37253E-20         0.36569E-20         0.00000E+00
    0.23283E-20         0.73821E-20         0.00000E+00
    0.23283E-20         0.00000E+00         0.00000E+00
    0.41910E-20        -0.11176E-19         0.00000E+00
    0.27940E-20        -0.14901E-19         0.00000E+00
    0.18626E-20        -0.24146E-19         0.00000E+00
    0.26690E-20        -0.29802E-19         0.00000E+00
    0.17548E-20        -0.20558E-19         0.00000E+00
    0.75242E-21        -0.18626E-19         0.00000E+00
   -0.46566E-21        -0.22352E-19         0.00000E+00
   -0.93132E-21        -0.22352E-19         0.00000E+00
   -0.13970E-20        -0.14833E-19         0.00000E+00
   -0.17193E-20        -0.10245E-19         0.00000E+00
   -0.20060E-20        -0.20558E-19         0.00000E+00
   -0.51039E-21        -0.11176E-19         0.00000E+00
    0.00000E+00         0.55195E-20         0.00000E+00
   -0.93132E-21         0.11039E-19         0.00000E+00
   -0.23283E-20        -0.37253E-20         0.00000E+00
   -0.23283E-20        -0.37253E-20         0.00000E+00
   -0.18969E-20        -0.55879E-20         0.00000E+00
   -0.93132E-21        -0.74506E-20         0.00000E+00
    0.93132E-21        -0.93132E-20         0.00000E+00
    0.93132E-21        -0.18626E-19         0.00000E+00
    0.13628E-20        -0.27940E-19         0.00000E+00
    0.46566E-21        -0.29802E-19         0.00000E+00
    0.96554E-21        -0.26077E-19         0.00000E+00
    0.23283E-21        -0.22352E-19         0.00000E+00
    0.00000E+00        -0.26077E-19         0.00000E+00
    0.34220E-22        -0.18626E-19         0.00000E+00
    0.00000E+00        -0.16764E-19         0.00000E+00
    0.43144E-21        -0.16764E-19         0.00000E+00
   -0.26705E-21        -0.37253E-20         0.00000E+00
    0.11642E-20         0.55879E-20         0.00000E+00
    0.19311E-20         0.55879E-20         0.00000E+00
    0.23283E-20         0.93132E-20         0.00000E+00
    0.32767E-20         0.17558E-19         0.00000E+00
    0.46566E-20         0.55879E-20         0.00000E+00
    0.41910E-20        -0.13833E-19         0.00000E+00
    0.41910E-20        -0.13039E-19         0.00000E+00
    0.55879E-20        -0.93132E-20         0.00000E+00
    0.41910E-20        -0.14901E-19         0.00000E+00
    0.60707E-20        -0.74506E-20         0.00000E+00
    0.65193E-20        -0.18626E-20         0.00000E+00
    0.78991E-20        -0.93132E-20         0.00000E+00
    0.65193E-20         0.00000E+00         0.00000E+00
    0.69849E-20         0.74506E-20         0.00000E+00
    0.62693E-20        -0.37253E-20         0.00000E+00
    0.65193E-20        -0.74506E-20         0.00000E+00
    0.69678E-20         0.18626E-20         0.00000E+00
    0.72177E-20         0.20489E-19         0.00000E+00
    0.69849E-20         0.20489E-19         0.00000E+00
    0.45488E-20         0.11176E-19         0.00000E+00
    0.46566E-20         0.37253E-20         0.00000E+00
    0.46566E-20        -0.55879E-20         0.00000E+00
    0.45488E-20        -0.18626E-20         0.00000E+00
    0.48894E-20         0.00000E+00         0.00000E+00
    0.46566E-20        -0.74506E-20         0.00000E+00
    0.34925E-20        -0.20489E-19         0.00000E+00
    0.36003E-20        -0.18626E-19         0.00000E+00
    0.32596E-20        -0.18626E-19         0.00000E+00
    0.37253E-20        -0.35390E-19         0.00000E+00
    0.44238E-20        -0.31665E-19         0.00000E+00
    0.51223E-20        -0.16764E-19         0.00000E+00
    0.62864E-20        -0.74506E-20         0.00000E+00
    0.44238E-20        -0.93132E-20         0.00000E+00
    0.30268E-20        -0.74506E-20         0.00000E+00
    0.30268E-20         0.00000E+00         0.00000E+00
    0.37253E-20         0.00000E+00         0.00000E+00
    0.32596E-20         0.71768E-20         0.00000E+00
    0.32254E-20         0.46566E-20         0.00000E+00
    0.20955E-20        -0.79444E-21         0.00000E+00
    0.18626E-20        -0.11176E-19         0.00000E+00
    0.93132E-21        -0.18626E-19         0.00000E+00
    0.18969E-20        -0.26077E-19         0.00000E+00
    0.21639E-20        -0.31665E-19         0.00000E+00
    0.28282E-20        -0.31802E-19         0.00000E+00
    0.46566E-20        -0.32596E-19         0.00000E+00
    0.42252E-20        -0.28734E-19         0.00000E+00
    0.32596E-20        -0.26077E-19         0.00000E+00
    0.13970E-20        -0.13039E-19         0.00000E+00
    0.20955E-20        -0.93132E-20         0.00000E+00
    0.46566E-21        -0.74506E-20         0.00000E+00
   -0.93132E-21        -0.55879E-20         0.00000E+00
   -0.96554E-21        -0.66561E-20         0.00000E+00
   -0.96554E-21         0.55879E-20         0.00000E+00
   -0.13970E-20         0.14107E-19         0.00000E+00
   -0.24994E-21         0.18626E-20         0.00000E+00
   -0.93132E-21        -0.37253E-20         0.00000E+00
    0.00000E+00        -0.74506E-20         0.00000E+00
    0.46566E-21        -0.14901E-19         0.00000E+00
    0.16298E-20        -0.16764E-19         0.00000E+00
    0.30268E-20        -0.14901E-19         0.00000E+00
    0.32425E-20        -0.11176E-19         0.00000E+00
    0.46566E-20        -0.55879E-20         0.00000E+00
    0.51394E-20         0.74506E-20         0.00000E+00
    0.37253E-20         0.18626E-19         0.00000E+00
    0.18626E-20         0.16764E-19         0.00000E+00
    0.69849E-21        -0.18626E-20         0.00000E+00
   -0.46566E-21        -0.11176E-19         0.00000E+00
   -0.25440E-20         0.18626E-20         0.00000E+00
   -0.23454E-20         0.13039E-19         0.00000E+00
   -0.13970E-20         0.16764E-19         0.00000E+00
   -0.13970E-20         0.14901E-19         0.00000E+00
   -0.23283E-21         0.93132E-20         0.00000E+00
    0.00000E+00         0.00000E+00         0.00000E+00
    0.10786E-21        -0.11176E-19         0.00000E+00
    0.17377E-20        -0.14901E-19         0.00000E+00
    0.37253E-20        -0.19695E-19         0.00000E+00
    0.47816E-20        -0.22352E-19         0.00000E+00
    0.55879E-20        -0.17558E-19         0.00000E+00
    0.65193E-20        -0.22352E-19         0.00000E+00
    0.67521E-20        -0.31665E-19         0.00000E+00
    0.63404E-20        -0.29802E-19         0.00000E+00
    0.51223E-20        -0.22352E-19         0.00000E+00
    0.38147E-20        -0.74506E-20         0.00000E+00
    0.44238E-20        -0.19995E-20         0.00000E+00
    0.42357E-20        -0.46566E-20         0.00000E+00
    0.48894E-20         0.29308E-20         0.00000E+00
    0.41910E-20         0.37253E-20         0.00000E+00
    0.10710E-19         0.15889E-20         0.00000E+00
    0.11909E-19         0.37253E-20         0.00000E+00
    0.11210E-19         0.10682E-20         0.00000E+00
    0.97789E-20        -0.18626E-20         0.00000E+00
    0.60878E-20        -0.12244E-19         0.00000E+00
    0.37253E-20        -0.25283E-19         0.00000E+00
    0.27940E-20        -0.32459E-19         0.00000E+00
    0.23283E-20        -0.39910E-19         0.00000E+00
    0.13970E-20        -0.35390E-19         0.00000E+00
    0.93132E-21        -0.14901E-19         0.00000E+00
    0.46566E-21        -0.11176E-19         0.00000E+00
    0.46566E-21        -0.11176E-19         0.00000E+00
   -0.89710E-21        -0.11176E-19         0.00000E+00
   -0.27940E-20        -0.55879E-20         0.00000E+00
   -0.32596E-20         0.18626E-20         0.00000E+00
   -0.36911E-20         0.55879E-20         0.00000E+00
   -0.41910E-20         0.93132E-20         0.00000E+00
   -0.37595E-20         0.74506E-20         0.00000E+00
   -0.32596E-20         0.13039E-19         0.00000E+00
   -0.55879E-20         0.37253E-20         0.00000E+00
   -0.53551E-20        -0.20489E-19         0.00000E+00
   -0.51223E-20        -0.22352E-19         0.00000E+00
   -0.46737E-20        -0.22352E-19         0.00000E+00
   -0.44067E-20        -0.22352E-19         0.00000E+00
   -0.41738E-20        -0.14901E-19         0.00000E+00
   -0.60536E-20        -0.11176E-19         0.00000E+00
   -0.60536E-20        -0.37253E-20         0.00000E+00
   -0.32596E-20         0.14901E-19         0.00000E+00
   -0.14141E-20         0.22352E-19         0.00000E+00
   -0.13799E-20         0.11176E-19         0.00000E+00
   -0.23283E-20         0.74506E-20         0.00000E+00
   -0.37253E-20         0.11176E-19         0.00000E+00
   -0.37253E-20         0.16764E-19         0.00000E+00
   -0.32596E-20         0.13039E-19         0.00000E+00
   -0.18626E-20         0.55879E-20         0.00000E+00
   -0.59063E-21        -0.18626E-20         0.00000E+00
    0.00000E+00        -0.93132E-20         0.00000E+00
   -0.10786E-21        -0.11176E-19         0.00000E+00
    0.46566E-21        -0.16764E-19         0.00000E+00
    0.93132E-21        -0.23420E-19         0.00000E+00
   -0.93132E-21        -0.29802E-19         0.00000E+00
   -0.13970E-20        -0.25009E-19         0.00000E+00
    0.23283E-21        -0.24214E-19         0.00000E+00
   -0.53930E-22        -0.33528E-19         0.00000E+00
   -0.46566E-21        -0.24214E-19         0.00000E+00
   -0.93132E-21        -0.37253E-20         0.00000E+00
    0.23283E-21        -0.38622E-20         0.00000E+00
    0.24717E-20        -0.13039E-19         0.00000E+00
    0.30715E-20        -0.73137E-20         0.00000E+00
    0.31209E-20         0.00000E+00         0.00000E+00
    0.32596E-20         0.37253E-20         0.00000E+00
    0.65193E-20        -0.15889E-20         0.00000E+00
    0.55879E-20         0.37253E-20         0.00000E+00
    0.51223E-20         0.10108E-19         0.00000E+00
    0.41910E-20         0.15038E-19         0.00000E+00
    0.22941E-20         0.10245E-19         0.00000E+00
    0.27940E-20        -0.12244E-19         0.00000E+00
    0.13628E-20        -0.26871E-19         0.00000E+00
   -0.49988E-21        -0.21284E-19         0.00000E+00
   -0.20955E-20        -0.25283E-19         0.00000E+00
   -0.13970E-20        -0.25146E-19         0.00000E+00
    0.46566E-21        -0.23283E-19         0.00000E+00
    0.18284E-20        -0.74506E-20         0.00000E+00
    0.89710E-21         0.55879E-20         0.00000E+00
    0.46566E-21         0.37253E-20         0.00000E+00
    0.00000E+00         0.10682E-20         0.00000E+00
    0.00000E+00        -0.10682E-20         0.00000E+00
    0.00000E+00         0.82450E-20         0.00000E+00
    0.96554E-21         0.74506E-20         0.00000E+00
    0.46566E-21         0.93132E-20         0.00000E+00
    0.13970E-20         0.66561E-20         0.00000E+00
    0.14141E-20        -0.63824E-20         0.00000E+00
    0.00000E+00        -0.18626E-19         0.00000E+00
   -0.44855E-21        -0.20489E-19         0.00000E+00
   -0.23283E-20        -0.18626E-19         0.00000E+00
   -0.37595E-20        -0.18626E-20         0.00000E+00
   -0.41910E-20         0.37253E-20         0.00000E+00
   -0.53551E-20        -0.74506E-20         0.00000E+00
   -0.51223E-20        -0.37253E-20         0.00000E+00
   -0.41738E-20         0.45197E-20         0.00000E+00
   -0.23283E-20         0.18626E-20         0.00000E+00
   -0.46566E-21         0.10682E-20         0.00000E+00
    0.13970E-20         0.93132E-20         0.00000E+00
    0.13970E-20         0.13039E-19         0.00000E+00
    0.27940E-20         0.74506E-20         0.00000E+00
    0.25440E-20         0.18626E-20         0.00000E+00
    0.25611E-20        -0.10682E-20         0.00000E+00
    0.93132E-21        -0.55879E-20         0.00000E+00
    0.68138E-21        -0.13833E-19         0.00000E+00
   -0.93132E-21        -0.17832E-19         0.00000E+00
   -0.13970E-20        -0.10381E-19         0.00000E+00
   -0.18626E-20        -0.14901E-19         0.00000E+00
   -0.41910E-20        -0.23146E-19         0.00000E+00
   -0.61075E-20        -0.26077E-19         0.00000E+00
   -0.50683E-20        -0.27145E-19         0.00000E+00
   -0.37253E-20        -0.26871E-19         0.00000E+00
   -0.23283E-20        -0.25009E-19         0.00000E+00
   -0.89450E-22        -0.23420E-19         0.00000E+00
    0.00000E+00        -0.15832E-19         0.00000E+00
    0.23283E-21        -0.73137E-20         0.00000E+00
    0.44725E-22         0.00000E+00         0.00000E+00
    0.46566E-21         0.00000E+00         0.00000E+00
   -0.46566E-20         0.11176E-19         0.00000E+00
   -0.51223E-20         0.10381E-19         0.00000E+00
   -0.41910E-20         0.93132E-20         0.00000E+00
   -0.23283E-20         0.82450E-20         0.00000E+00
   -0.46566E-21        -0.55879E-20         0.00000E+00
    0.89710E-21        -0.19421E-19         0.00000E+00
    0.13970E-20        -0.15696E-19         0.00000E+00
    0.18626E-20        -0.20489E-19         0.00000E+00
    0.32254E-20        -0.32733E-19         0.00000E+00
    0.32254E-20        -0.29008E-19         0.00000E+00
    0.27940E-20        -0.23146E-19         0.00000E+00
    0.18969E-20        -0.14901E-19         0.00000E+00
    0.28282E-20        -0.66561E-20         0.00000E+00
    0.23625E-20        -0.26571E-20         0.00000E+00
    0.14312E-20         0.74506E-20         0.00000E+00
    0.13970E-20         0.55879E-20         0.00000E+00
    0.23283E-21         0.47935E-20         0.00000E+00
    0.19861E-21         0.63824E-20         0.00000E+00
   -0.46566E-21         0.63824E-20         0.00000E+00
   -0.93132E-21        -0.18626E-20         0.00000E+00
   -0.46566E-21        -0.11970E-19         0.00000E+00
   -0.46566E-21        -0.10108E-19         0.00000E+00
    0.46566E-21        -0.11176E-19         0.00000E+00
    0.13970E-20        -0.74506E-20         0.00000E+00
    0.16469E-20        -0.47935E-20         0.00000E+00
    0.25611E-20        -0.37253E-20         0.00000E+00
    0.20784E-20         0.10682E-20         0.00000E+00
    0.46566E-21         0.11176E-19         0.00000E+00
   -0.13970E-20         0.74506E-20         0.00000E+00
   -0.13970E-20        -0.12244E-19         0.00000E+00
   -0.13970E-20        -0.11176E-19         0.00000E+00
   -0.23283E-21         0.47935E-20         0.00000E+00
   -0.44855E-21         0.10108E-19         0.00000E+00
    0.00000E+00         0.82450E-20         0.00000E+00
    0.24994E-21         0.74506E-20         0.00000E+00
   -0.12497E-21         0.74506E-20         0.00000E+00
    0.46566E-21         0.00000E+00         0.00000E+00
    0.10563E-20        -0.45197E-20         0.00000E+00
    0.16298E-20        -0.63824E-20         0.00000E+00
    0.23283E-20        -0.15969E-19         0.00000E+00
    0.23283E-20        -0.15969E-19         0.00000E+00
    0.26861E-20        -0.93132E-20         0.00000E+00
    0.19166E-20        -0.19421E-19         0.00000E+00
   -0.14509E-20        -0.39910E-19         0.00000E+00
   -0.11642E-20        -0.39116E-19         0.00000E+00
   -0.13970E-20        -0.24214E-19         0.00000E+00
   -0.23283E-20        -0.15969E-19         0.00000E+00
   -0.34925E-20        -0.14107E-19         0.00000E+00
   -0.42357E-20        -0.74506E-20         0.00000E+00
   -0.43297E-20        -0.18626E-20         0.00000E+00
   -0.46566E-20        -0.37253E-20         0.00000E+00
   -0.60536E-20         0.00000E+00         0.00000E+00
   -0.46566E-20         0.00000E+00         0.00000E+00
   -0.37253E-20        -0.18626E-20         0.00000E+00
   -0.20955E-20        -0.55879E-20         0.00000E+00
   -0.22941E-20        -0.74506E-20         0.00000E+00
   -0.93132E-21        -0.19421E-19         0.00000E+00
    0.00000E+00        -0.29008E-19         0.00000E+00
    0.18626E-20        -0.32733E-19         0.00000E+00
    0.96554E-21        -0.33528E-19         0.00000E+00
   -0.43144E-21        -0.23283E-19         0.00000E+00
   -0.93132E-21        -0.14764E-19         0.00000E+00
   -0.14312E-20        -0.37253E-20         0.00000E+00
   -0.49988E-21         0.37253E-20         0.00000E+00
   -0.18969E-20         0.93132E-20         0.00000E+00
   -0.18969E-20         0.55879E-20         0.00000E+00
   -0.27940E-20         0.38622E-20         0.00000E+00
   -0.32938E-20         0.13175E-19         0.00000E+00
   -0.13628E-20         0.11970E-19         0.00000E+00
   -0.44855E-21         0.12765E-19         0.00000E+00
   -0.46566E-21         0.55879E-20         0.00000E+00
   -0.17110E-22        -0.82450E-20         0.00000E+00
    0.00000E+00        -0.23146E-19         0.00000E+00
   -0.46566E-21        -0.28734E-19         0.00000E+00
   -0.14141E-20        -0.25283E-19         0.00000E+00
    0.17110E-22        -0.66561E-20         0.00000E+00
   -0.48277E-21        -0.79444E-21         0.00000E+00
    0.00000E+00         0.47935E-20         0.00000E+00
    0.00000E+00         0.13833E-19         0.00000E+00
   -0.69849E-21         0.15696E-19         0.00000E+00
   -0.18626E-20         0.00000E+00         0.00000E+00
   -0.37253E-20        -0.55879E-20         0.00000E+00
   -0.53380E-20         0.66561E-20         0.00000E+00
   -0.60536E-20         0.13039E-19         0.00000E+00
   -0.79162E-20         0.45197E-20         0.00000E+00
   -0.74506E-20         0.18626E-20         0.00000E+00
   -0.69849E-20        -0.18626E-20         0.00000E+00
   -0.60536E-20        -0.13039E-19         0.00000E+00
   -0.61615E-20        -0.20489E-19         0.00000E+00
   -0.56958E-20        -0.22352E-19         0.00000E+00
   -0.55879E-20        -0.14901E-19         0.00000E+00
   -0.51223E-20        -0.16764E-19         0.00000E+00
   -0.43159E-20        -0.18626E-19         0.00000E+00
   -0.29729E-20        -0.93132E-20         0.00000E+00
   -0.39042E-20        -0.15696E-19         0.00000E+00
   -0.41370E-20        -0.21284E-19         0.00000E+00
   -0.39581E-20        -0.18763E-19         0.00000E+00
   -0.20060E-20        -0.13970E-19         0.00000E+00
   -0.13075E-20        -0.83819E-20         0.00000E+00
   -0.11642E-20        -0.19995E-20         0.00000E+00
    0.93132E-21         0.18626E-20         0.00000E+00
    0.93132E-21         0.00000E+00         0.00000E+00
   -0.51223E-20        -0.37253E-20         0.00000E+00
   -0.60536E-20        -0.18626E-20         0.00000E+00
   -0.51223E-20        -0.18626E-20         0.00000E+00
   -0.37595E-20         0.29308E-20         0.00000E+00
   -0.37253E-20        -0.12107E-19         0.00000E+00
   -0.27940E-20        -0.29145E-19         0.00000E+00
   -0.32254E-20        -0.30734E-19         0.00000E+00
   -0.37253E-20        -0.25940E-19         0.00000E+00
   -0.37253E-20        -0.22352E-19         0.00000E+00
   -0.37253E-20        -0.20489E-19         0.00000E+00
   -0.27597E-20        -0.18626E-19         0.00000E+00
   -0.13970E-20        -0.13833E-19         0.00000E+00
   -0.13970E-20        -0.37253E-20         0.00000E+00
   -0.93132E-21         0.55879E-20         0.00000E+00
    0.93132E-21         0.13039E-19         0.00000E+00
    0.18626E-20         0.63824E-20         0.00000E+00
    0.13970E-20        -0.37253E-20         0.00000E+00
    0.18626E-20        -0.37253E-20         0.00000E+00
    0.11470E-20         0.18626E-20         0.00000E+00
    0.18626E-20        -0.55879E-20         0.00000E+00
    0.13970E-20        -0.13039E-19         0.00000E+00
    0.93132E-21        -0.74506E-20         0.00000E+00
   -0.93132E-21        -0.37253E-20         0.00000E+00
   -0.25611E-20        -0.11970E-19         0.00000E+00
   -0.44409E-20        -0.10381E-19         0.00000E+00
   -0.44238E-20        -0.55879E-20         0.00000E+00
   -0.44238E-20        -0.79444E-21         0.00000E+00
   -0.21126E-20         0.17558E-19         0.00000E+00
   -0.14141E-20         0.16764E-19         0.00000E+00
   -0.13970E-20         0.18626E-20         0.00000E+00
   -0.23283E-20         0.55879E-20         0.00000E+00
   -0.18798E-20         0.18626E-19         0.00000E+00
   -0.25782E-20         0.26077E-19         0.00000E+00
   -0.27940E-20         0.13039E-19         0.00000E+00
   -0.37253E-20         0.18626E-20         0.00000E+00
   -0.41738E-20         0.00000E+00         0.00000E+00
   -0.60536E-20        -0.55879E-20         0.00000E+00
   -0.73427E-20        -0.74506E-20         0.00000E+00
   -0.93132E-20        -0.93132E-20         0.00000E+00
   -0.10710E-19        -0.16764E-19         0.00000E+00
   -0.10245E-19        -0.25283E-19         0.00000E+00
   -0.83819E-20        -0.20489E-19         0.00000E+00
   -0.75584E-20        -0.17558E-19         0.00000E+00
   -0.51223E-20        -0.34596E-19         0.00000E+00
   -0.44777E-20        -0.39910E-19         0.00000E+00
   -0.33136E-20        -0.35116E-19         0.00000E+00
   -0.38147E-20        -0.26214E-19         0.00000E+00
   -0.32596E-20        -0.20626E-19         0.00000E+00
   -0.18179E-20        -0.20489E-19         0.00000E+00
   -0.13970E-20        -0.10381E-19         0.00000E+00
   -0.46566E-21         0.15889E-20         0.00000E+00
    0.37253E-20         0.90395E-20         0.00000E+00
    0.32596E-20         0.27940E-20         0.00000E+00
    0.15956E-20        -0.12902E-19         0.00000E+00
    0.26705E-21        -0.14901E-19         0.00000E+00
    0.46566E-21        -0.13039E-19         0.00000E+00
   -0.18626E-20        -0.16764E-19         0.00000E+00
   -0.18969E-20        -0.25283E-19         0.00000E+00
   -0.32596E-20        -0.32733E-19         0.00000E+00
   -0.32596E-20        -0.34322E-19         0.00000E+00
   -0.18626E-20        -0.25009E-19         0.00000E+00
   -0.27940E-20        -0.25283E-19         0.00000E+00
   -0.13628E-20        -0.10245E-19         0.00000E+00
   -0.23283E-20        -0.17258E-20         0.00000E+00
   -0.13970E-20        -0.79444E-21         0.00000E+00
    0.46566E-21        -0.37253E-20         0.00000E+00
    0.27940E-20        -0.47935E-20         0.00000E+00
    0.14312E-20         0.13039E-19         0.00000E+00
    0.00000E+00         0.13833E-19         0.00000E+00
   -0.18626E-20         0.11970E-19         0.00000E+00
   -0.23283E-20         0.66561E-20         0.00000E+00
   -0.37253E-20        -0.26571E-20         0.00000E+00
   -0.37253E-20        -0.11176E-19         0.00000E+00
   -0.32767E-20        -0.13039E-19         0.00000E+00
   -0.25440E-20        -0.91763E-20         0.00000E+00
   -0.25782E-20         0.17258E-20         0.00000E+00
   -0.39410E-20        -0.50292E-33         0.00000E+00
   -0.34753E-20        -0.82450E-20         0.00000E+00
   -0.39410E-20         0.26571E-20         0.00000E+00
   -0.16127E-20         0.11176E-19         0.00000E+00
   -0.93132E-21         0.37253E-20         0.00000E+00
    0.00000E+00        -0.37253E-20         0.00000E+00
    0.18626E-20         0.66561E-20         0.00000E+00
    0.20955E-20         0.16764E-19         0.00000E+00
    0.37253E-20         0.11970E-19         0.00000E+00
    0.37253E-20         0.11176E-19         0.00000E+00
    0.39581E-20         0.10108E-19         0.00000E+00
    0.32596E-20         0.18626E-20         0.00000E+00
    0.19705E-20        -0.63824E-20         0.00000E+00
    0.17548E-20        -0.85188E-20         0.00000E+00
    0.23283E-20        -0.93132E-20         0.00000E+00
    0.13970E-20        -0.25009E-19         0.00000E+00
    0.46566E-21        -0.32733E-19         0.00000E+00
    0.00000E+00        -0.25283E-19         0.00000E+00
    0.13970E-20        -0.30597E-19         0.00000E+00
    0.69849E-21        -0.28734E-19         0.00000E+00
   -0.17890E-21        -0.22352E-19         0.00000E+00
   -0.16298E-20        -0.15038E-19         0.00000E+00
   -0.23283E-20        -0.18626E-19         0.00000E+00
   -0.30715E-20        -0.15832E-19         0.00000E+00
   -0.44238E-20        -0.29308E-20         0.00000E+00
   -0.37253E-20         0.00000E+00         0.00000E+00
    0.69849E-20         0.37253E-20         0.00000E+00
    0.83819E-20         0.63824E-20         0.00000E+00
    0.70191E-20         0.11176E-19         0.00000E+00
    0.46566E-20         0.85188E-20         0.00000E+00
    0.41567E-20        -0.18626E-20         0.00000E+00
    0.41910E-20        -0.14901E-19         0.00000E+00
    0.32596E-20        -0.22352E-19         0.00000E+00
    0.23283E-20        -0.22352E-19         0.00000E+00
    0.93132E-21        -0.27145E-19         0.00000E+00
    0.13970E-20        -0.22352E-19         0.00000E+00
   -0.46566E-21        -0.21284E-19         0.00000E+00
   -0.18969E-20        -0.14901E-19         0.00000E+00
   -0.13970E-20        -0.85188E-20         0.00000E+00
   -0.18626E-20        -0.74506E-20         0.00000E+00
   -0.93132E-21        -0.63824E-20         0.00000E+00
   -0.23283E-20        -0.10682E-20         0.00000E+00
   -0.23283E-20         0.12107E-19         0.00000E+00
   -0.18969E-20         0.15832E-19         0.00000E+00
   -0.13970E-20         0.13833E-19         0.00000E+00
   -0.23283E-20         0.29308E-20         0.00000E+00
   -0.93132E-21        -0.55879E-20         0.00000E+00
    0.46566E-21        -0.93132E-20         0.00000E+00
    0.94843E-21        -0.13039E-19         0.00000E+00
    0.93132E-21        -0.12244E-19         0.00000E+00
    0.18969E-20        -0.37253E-20         0.00000E+00
    0.23283E-20         0.00000E+00         0.00000E+00
    0.30268E-20        -0.79444E-21         0.00000E+00
    0.13970E-20         0.37253E-20         0.00000E+00
   -0.46566E-21         0.45197E-20         0.00000E+00
   -0.93132E-21        -0.45197E-20         0.00000E+00
    0.23283E-21        -0.74506E-20         0.00000E+00
    0.46566E-21         0.37253E-20         0.00000E+00
    0.16469E-20         0.15969E-19         0.00000E+00
    0.93132E-21         0.63824E-20         0.00000E+00
    0.00000E+00         0.18626E-20         0.00000E+00
    0.57352E-21         0.37253E-20         0.00000E+00
    0.13970E-20         0.45197E-20         0.00000E+00
    0.48277E-21         0.00000E+00         0.00000E+00
    0.68138E-21        -0.11970E-19         0.00000E+00
    0.13970E-20        -0.13833E-19         0.00000E+00
    0.18626E-20        -0.15969E-19         0.00000E+00
    0.46566E-21        -0.14901E-19         0.00000E+00
   -0.23283E-21        -0.21284E-19         0.00000E+00
    0.93132E-21        -0.37253E-19         0.00000E+00
    0.64456E-21        -0.35390E-19         0.00000E+00
    0.13970E-20        -0.22352E-19         0.00000E+00
    0.19521E-20        -0.14901E-19         0.00000E+00
    0.22389E-20        -0.15038E-19         0.00000E+00
    0.11642E-20        -0.12107E-19         0.00000E+00
    0.10701E-20        -0.55879E-20         0.00000E+00
    0.93132E-21        -0.21364E-20         0.00000E+00
    0.74506E-20         0.00000E+00         0.00000E+00
    0.74506E-20         0.00000E+00         0.00000E+00
    0.74506E-20         0.79444E-21         0.00000E+00
    0.88476E-20         0.79444E-21         0.00000E+00
    0.88818E-20        -0.91763E-20         0.00000E+00
    0.88476E-20        -0.12902E-19         0.00000E+00
    0.79162E-20        -0.15969E-19         0.00000E+00
    0.74506E-20        -0.19695E-19         0.00000E+00
    0.60194E-20        -0.26077E-19         0.00000E+00
    0.46566E-20        -0.21284E-19         0.00000E+00
    0.51223E-20        -0.11176E-19         0.00000E+00
    0.28282E-20        -0.47935E-20         0.00000E+00
    0.14312E-20        -0.37253E-20         0.00000E+00
    0.93132E-21        -0.45197E-20         0.00000E+00
   -0.46566E-21        -0.18626E-20         0.00000E+00
   -0.27940E-20         0.18626E-20         0.00000E+00
   -0.18626E-20         0.12107E-19         0.00000E+00
   -0.23283E-20         0.11039E-19         0.00000E+00
   -0.23283E-20         0.16764E-19         0.00000E+00
   -0.27769E-20         0.55879E-20         0.00000E+00
   -0.93132E-21        -0.16764E-19         0.00000E+00
   -0.46566E-21        -0.20489E-19         0.00000E+00
   -0.46566E-21        -0.18626E-19         0.00000E+00
   -0.93132E-21        -0.12902E-19         0.00000E+00
   -0.34220E-22        -0.46566E-20         0.00000E+00
    0.46566E-21        -0.66561E-20         0.00000E+00
    0.11470E-20        -0.18626E-20         0.00000E+00
    0.18626E-20         0.16764E-19         0.00000E+00
    0.18626E-20         0.24214E-19         0.00000E+00
    0.93132E-21         0.19995E-20         0.00000E+00
    0.68138E-21        -0.10245E-19         0.00000E+00
    0.00000E+00         0.26571E-20         0.00000E+00
    0.00000E+00         0.14901E-19         0.00000E+00
    0.46566E-21         0.15969E-19         0.00000E+00
   -0.69849E-21         0.11176E-19         0.00000E+00
   -0.16298E-20         0.63824E-20         0.00000E+00
   -0.23283E-20         0.00000E+00         0.00000E+00
   -0.18798E-20        -0.55879E-20         0.00000E+00
   -0.15048E-20        -0.93132E-20         0.00000E+00
   -0.93132E-21        -0.15696E-19         0.00000E+00
   -0.93132E-21        -0.23146E-19         0.00000E+00
    0.93132E-21        -0.23420E-19         0.00000E+00
    0.21494E-20        -0.26077E-19         0.00000E+00
    0.13970E-20        -0.34322E-19         0.00000E+00
    0.93132E-21        -0.34596E-19         0.00000E+00
    0.93132E-21        -0.27145E-19         0.00000E+00
    0.46566E-21        -0.18626E-19         0.00000E+00
    0.93132E-21        -0.15696E-19         0.00000E+00
    0.18811E-21        -0.63824E-20         0.00000E+00
   -0.83727E-21        -0.29308E-20         0.00000E+00
   -0.13970E-20        -0.21364E-20         0.00000E+00
    0.11642E-19         0.21364E-20         0.00000E+00
    0.10710E-19         0.55879E-20         0.00000E+00
    0.93132E-20         0.18626E-20         0.00000E+00
    0.79162E-20         0.00000E+00         0.00000E+00
    0.60536E-20         0.93132E-21         0.00000E+00
    0.51223E-20        -0.10245E-19         0.00000E+00
    0.51565E-20        -0.17695E-19         0.00000E+00
    0.51223E-20        -0.11039E-19         0.00000E+00
    0.51565E-20        -0.11176E-19         0.00000E+00
    0.41567E-20        -0.15969E-19         0.00000E+00
    0.41910E-20        -0.12244E-19         0.00000E+00
    0.58208E-20         0.37253E-20         0.00000E+00
    0.36911E-20        -0.18626E-20         0.00000E+00
    0.37253E-20         0.18626E-20         0.00000E+00
    0.27940E-20         0.93132E-20         0.00000E+00
    0.46566E-21         0.55879E-20         0.00000E+00
   -0.46566E-21         0.11176E-19         0.00000E+00
   -0.19861E-21         0.16764E-19         0.00000E+00
    0.00000E+00         0.16764E-19         0.00000E+00
    0.11470E-20         0.00000E+00         0.00000E+00
    0.46566E-21        -0.14901E-19         0.00000E+00
   -0.13970E-20        -0.14901E-19         0.00000E+00
   -0.23283E-20        -0.11176E-19         0.00000E+00
   -0.28282E-20        -0.14901E-19         0.00000E+00
   -0.18284E-20        -0.13039E-19         0.00000E+00
   -0.18626E-20        -0.82450E-20         0.00000E+00
   -0.20784E-20        -0.55879E-20         0.00000E+00
   -0.93132E-21         0.26571E-20         0.00000E+00
   -0.46566E-21         0.74506E-20         0.00000E+00
   -0.23283E-21         0.18626E-20         0.00000E+00
   -0.68138E-21        -0.18626E-20         0.00000E+00
   -0.93132E-21         0.85188E-20         0.00000E+00
   -0.93132E-21         0.14901E-19         0.00000E+00
   -0.46566E-21         0.10108E-19         0.00000E+00
    0.34069E-21         0.11176E-19         0.00000E+00
   -0.35780E-21         0.11176E-19         0.00000E+00
   -0.13970E-20         0.37253E-20         0.00000E+00
   -0.44855E-21        -0.37253E-20         0.00000E+00
   -0.23283E-21        -0.14901E-19         0.00000E+00
    0.00000E+00        -0.19421E-19         0.00000E+00
    0.93132E-21        -0.26077E-19         0.00000E+00
    0.93132E-21        -0.27940E-19         0.00000E+00
    0.23283E-20        -0.22352E-19         0.00000E+00
    0.13970E-20        -0.31665E-19         0.00000E+00
    0.19705E-20        -0.33528E-19         0.00000E+00
    0.20955E-20        -0.21557E-19         0.00000E+00
    0.84187E-21        -0.14901E-19         0.00000E+00
   -0.46566E-21        -0.13039E-19         0.00000E+00
   -0.65377E-21        -0.37253E-20         0.00000E+00
    0.00000E+00         0.26571E-20         0.00000E+00
    0.00000E+00         0.53142E-20         0.00000E+00
   -0.27940E-20         0.74506E-20         0.00000E+00
   -0.27940E-20         0.85188E-20         0.00000E+00
   -0.32596E-20         0.14901E-19         0.00000E+00
   -0.41910E-20         0.17558E-19         0.00000E+00
   -0.32596E-20         0.38622E-20         0.00000E+00
   -0.18626E-20        -0.83819E-20         0.00000E+00
   -0.93132E-21        -0.15969E-19         0.00000E+00
   -0.69849E-21        -0.20489E-19         0.00000E+00
    0.46566E-21        -0.20489E-19         0.00000E+00
    0.96554E-21        -0.14901E-19         0.00000E+00
   -0.13970E-20        -0.16764E-19         0.00000E+00
    0.19861E-21        -0.37253E-20         0.00000E+00
    0.23283E-20         0.37253E-20         0.00000E+00
    0.18626E-20         0.37253E-20         0.00000E+00
    0.27940E-20         0.11176E-19         0.00000E+00
    0.23283E-20         0.14901E-19         0.00000E+00
    0.13970E-20         0.14901E-19         0.00000E+00
    0.13970E-20         0.11176E-19         0.00000E+00
    0.13970E-20         0.11176E-19         0.00000E+00
    0.00000E+00         0.37253E-20         0.00000E+00
   -0.46566E-21        -0.55879E-20         0.00000E+00
   -0.13970E-20        -0.74506E-20         0.00000E+00
    0.00000E+00        -0.11176E-19         0.00000E+00
    0.14312E-20        -0.15696E-19         0.00000E+00
    0.13799E-20        -0.93132E-20         0.00000E+00
    0.93132E-21        -0.37253E-20         0.00000E+00
    0.69849E-21        -0.55879E-20         0.00000E+00
    0.00000E+00         0.82450E-20         0.00000E+00
   -0.93132E-21         0.16764E-19         0.00000E+00
   -0.17110E-22         0.37253E-20         0.00000E+00
   -0.48277E-21        -0.37253E-20         0.00000E+00
   -0.93132E-21         0.18626E-20         0.00000E+00
   -0.13970E-20         0.13039E-19         0.00000E+00
   -0.93132E-21         0.13039E-19         0.00000E+00
   -0.57352E-21         0.13039E-19         0.00000E+00
   -0.93132E-21         0.11176E-19         0.00000E+00
    0.00000E+00        -0.79444E-21         0.00000E+00
    0.10786E-21        -0.10108E-19         0.00000E+00
   -0.12497E-21        -0.12244E-19         0.00000E+00
   -0.93132E-21        -0.17832E-19         0.00000E+00
    0.00000E+00        -0.31665E-19         0.00000E+00
   -0.93132E-21        -0.29802E-19         0.00000E+00
   -0.93132E-21        -0.27940E-19         0.00000E+00
   -0.93132E-21        -0.35390E-19         0.00000E+00
   -0.12181E-20        -0.33528E-19         0.00000E+00
   -0.98525E-21        -0.20489E-19         0.00000E+00
    0.23283E-21        -0.93132E-20         0.00000E+00
    0.78794E-21        -0.82450E-20         0.00000E+00
    0.97605E-21        -0.82450E-20         0.00000E+00
    0.13970E-20        -0.39990E-20         0.00000E+00
    0.93132E-21        -0.54752E-21         0.00000E+00
   -0.10710E-19         0.37253E-20         0.00000E+00
   -0.10245E-19         0.74506E-20         0.00000E+00
   -0.10710E-19         0.74506E-20         0.00000E+00
   -0.10710E-19         0.00000E+00         0.00000E+00
   -0.10245E-19        -0.11039E-19         0.00000E+00
   -0.97789E-20        -0.23283E-19         0.00000E+00
   -0.83819E-20        -0.23420E-19         0.00000E+00
   -0.69507E-20        -0.14901E-19         0.00000E+00
   -0.51223E-20        -0.18626E-19         0.00000E+00
   -0.41910E-20        -0.11176E-19         0.00000E+00
   -0.23625E-20        -0.10108E-19         0.00000E+00
   -0.23283E-20        -0.13039E-19         0.00000E+00
   -0.18626E-20        -0.85188E-20         0.00000E+00
   -0.23283E-20        -0.79444E-21         0.00000E+00
    0.46566E-21         0.93132E-20         0.00000E+00
    0.13970E-20         0.81081E-20         0.00000E+00
    0.13628E-20         0.13970E-19         0.00000E+00
    0.43144E-21         0.19695E-19         0.00000E+00
    0.00000E+00         0.24214E-19         0.00000E+00
   -0.13799E-20         0.93132E-20         0.00000E+00
   -0.18626E-20        -0.93132E-20         0.00000E+00
   -0.18626E-20        -0.16764E-19         0.00000E+00
   -0.23283E-20        -0.24214E-19         0.00000E+00
   -0.18798E-20        -0.22352E-19         0.00000E+00
   -0.23283E-20        -0.93132E-20         0.00000E+00
   -0.23283E-20        -0.37253E-20         0.00000E+00
   -0.14141E-20        -0.37253E-20         0.00000E+00
   -0.18626E-20         0.11176E-19         0.00000E+00
   -0.93132E-21         0.11176E-19         0.00000E+00
   -0.20784E-20         0.00000E+00         0.00000E+00
   -0.68138E-21         0.18626E-20         0.00000E+00
   -0.93132E-21         0.11176E-19         0.00000E+00
   -0.11642E-20         0.13039E-19         0.00000E+00
   -0.18626E-20         0.74506E-20         0.00000E+00
   -0.19876E-20         0.11176E-19         0.00000E+00
   -0.13970E-20         0.63824E-20         0.00000E+00
   -0.46566E-21        -0.59527E-34         0.00000E+00
    0.46566E-21         0.10682E-20         0.00000E+00
    0.13970E-20        -0.11176E-19         0.00000E+00
    0.13970E-20        -0.22352E-19         0.00000E+00
    0.13970E-20        -0.26871E-19         0.00000E+00
    0.93132E-21        -0.22352E-19         0.00000E+00
    0.00000E+00        -0.21557E-19         0.00000E+00
    0.00000E+00        -0.31665E-19         0.00000E+00
   -0.11642E-20        -0.31665E-19         0.00000E+00
   -0.20415E-20        -0.27940E-19         0.00000E+00
   -0.22389E-20        -0.25009E-19         0.00000E+00
   -0.13970E-20        -0.15832E-19         0.00000E+00
   -0.24178E-20        -0.57248E-20         0.00000E+00
   -0.27940E-20         0.26571E-20         0.00000E+00
   -0.27940E-20         0.90395E-20         0.00000E+00
   -0.69849E-20         0.37253E-20         0.00000E+00
   -0.65193E-20         0.93132E-20         0.00000E+00
   -0.60536E-20         0.14901E-19         0.00000E+00
   -0.46566E-20         0.13039E-19         0.00000E+00
   -0.41910E-20         0.18626E-20         0.00000E+00
   -0.51223E-20        -0.18626E-19         0.00000E+00
   -0.55879E-20        -0.31665E-19         0.00000E+00
   -0.46566E-20        -0.35390E-19         0.00000E+00
   -0.32596E-20        -0.34322E-19         0.00000E+00
   -0.16298E-20        -0.29802E-19         0.00000E+00
    0.96554E-21        -0.25283E-19         0.00000E+00
    0.49988E-21        -0.37253E-20         0.00000E+00
    0.11642E-20         0.79444E-21         0.00000E+00
    0.93132E-21        -0.93132E-20         0.00000E+00
    0.13970E-20        -0.45197E-20         0.00000E+00
    0.23283E-20         0.93132E-20         0.00000E+00
    0.18969E-20         0.18626E-19         0.00000E+00
    0.18969E-20         0.17558E-19         0.00000E+00
    0.32596E-20         0.22352E-19         0.00000E+00
    0.34753E-20         0.14107E-19         0.00000E+00
    0.27940E-20        -0.37253E-20         0.00000E+00
    0.32596E-20        -0.55879E-20         0.00000E+00
    0.23112E-20        -0.11176E-19         0.00000E+00
    0.94843E-21        -0.14901E-19         0.00000E+00
   -0.23283E-21        -0.74506E-20         0.00000E+00
   -0.46566E-21        -0.93132E-20         0.00000E+00
   -0.68138E-21        -0.93132E-20         0.00000E+00
   -0.46566E-21         0.74506E-20         0.00000E+00
   -0.18626E-20         0.18626E-19         0.00000E+00
   -0.30268E-20         0.18626E-20         0.00000E+00
   -0.27940E-20        -0.93132E-20         0.00000E+00
   -0.30268E-20         0.37253E-20         0.00000E+00
   -0.42081E-20         0.18626E-19         0.00000E+00
   -0.41910E-20         0.17558E-19         0.00000E+00
   -0.38332E-20         0.11176E-19         0.00000E+00
   -0.46566E-21         0.18626E-20         0.00000E+00
    0.00000E+00        -0.74506E-20         0.00000E+00
    0.20955E-20        -0.15696E-19         0.00000E+00
    0.37253E-20        -0.18626E-19         0.00000E+00
    0.41910E-20        -0.22352E-19         0.00000E+00
    0.30268E-20        -0.29802E-19         0.00000E+00
    0.32596E-20        -0.22352E-19         0.00000E+00
    0.30268E-20        -0.22352E-19         0.00000E+00
    0.18626E-20        -0.31665E-19         0.00000E+00
    0.22744E-20        -0.26077E-19         0.00000E+00
    0.93132E-21        -0.13039E-19         0.00000E+00
   -0.55511E-21        -0.93132E-20         0.00000E+00
   -0.28834E-20        -0.74506E-20         0.00000E+00
   -0.32149E-20        -0.29308E-20         0.00000E+00
   -0.35865E-20        -0.10682E-20         0.00000E+00
   -0.23283E-20        -0.37253E-20         0.00000E+00
   -0.13970E-20         0.00000E+00         0.00000E+00
   -0.13970E-20         0.18626E-20         0.00000E+00
   -0.93132E-21        -0.47935E-20         0.00000E+00
    0.00000E+00        -0.85188E-20         0.00000E+00
    0.89710E-21        -0.73137E-20         0.00000E+00
    0.22941E-20        -0.14764E-19         0.00000E+00
    0.36569E-20        -0.26077E-19         0.00000E+00
    0.27255E-20        -0.29802E-19         0.00000E+00
    0.18626E-20        -0.33528E-19         0.00000E+00
    0.13628E-20        -0.27940E-19         0.00000E+00
    0.43144E-21        -0.21557E-19         0.00000E+00
   -0.49988E-21        -0.14107E-19         0.00000E+00
   -0.11299E-20        -0.11176E-19         0.00000E+00
   -0.93132E-21        -0.26571E-20         0.00000E+00
   -0.23283E-20         0.21364E-20         0.00000E+00
   -0.28282E-20         0.55879E-20         0.00000E+00
   -0.28282E-20         0.15696E-19         0.00000E+00
   -0.32938E-20         0.13833E-19         0.00000E+00
   -0.18626E-20         0.17558E-19         0.00000E+00
    0.00000E+00         0.11176E-19         0.00000E+00
    0.18626E-20        -0.10108E-19         0.00000E+00
    0.23283E-20        -0.13833E-19         0.00000E+00
    0.30097E-20        -0.14107E-19         0.00000E+00
    0.32425E-20        -0.11176E-19         0.00000E+00
    0.44067E-20        -0.37729E-33         0.00000E+00
    0.46566E-20        -0.79444E-21         0.00000E+00
    0.34582E-20        -0.18626E-20         0.00000E+00
    0.27940E-20         0.14627E-19         0.00000E+00
    0.69849E-21         0.21557E-19         0.00000E+00
    0.68138E-21         0.85188E-20         0.00000E+00
    0.69849E-21        -0.10682E-20         0.00000E+00
   -0.94843E-21         0.14901E-19         0.00000E+00
   -0.46566E-21         0.20763E-19         0.00000E+00
    0.18626E-20         0.66561E-20         0.00000E+00
    0.32425E-20        -0.58617E-20         0.00000E+00
    0.18626E-20        -0.95870E-20         0.00000E+00
    0.93132E-21        -0.11176E-19         0.00000E+00
   -0.12497E-21        -0.18626E-19         0.00000E+00
   -0.13970E-20        -0.23146E-19         0.00000E+00
   -0.27940E-20        -0.17558E-19         0.00000E+00
   -0.45488E-20        -0.24214E-19         0.00000E+00
   -0.37253E-20        -0.23420E-19         0.00000E+00
   -0.40121E-20        -0.16764E-19         0.00000E+00
   -0.37253E-20        -0.25009E-19         0.00000E+00
   -0.25072E-20        -0.27145E-19         0.00000E+00
   -0.46566E-21        -0.15969E-19         0.00000E+00
    0.13970E-20        -0.45197E-20         0.00000E+00
    0.23283E-20        -0.79444E-21         0.00000E+00
    0.39134E-20        -0.37253E-20         0.00000E+00
    0.42850E-20        -0.29308E-20         0.00000E+00
    0.46566E-20        -0.21364E-20         0.00000E+00
    0.27940E-20         0.74506E-20         0.00000E+00
    0.29926E-20         0.10108E-19         0.00000E+00
    0.37253E-20         0.55879E-20         0.00000E+00
    0.23283E-20         0.27940E-20         0.00000E+00
    0.93132E-21        -0.11176E-19         0.00000E+00
    0.13970E-20        -0.30734E-19         0.00000E+00
    0.19311E-20        -0.32596E-19         0.00000E+00
    0.11984E-20        -0.29802E-19         0.00000E+00
   -0.34220E-22        -0.27008E-19         0.00000E+00
    0.46566E-21        -0.17558E-19         0.00000E+00
    0.93132E-21        -0.14901E-19         0.00000E+00
    0.46566E-21         0.00000E+00         0.00000E+00
   -0.96554E-21         0.37253E-20         0.00000E+00
   -0.13970E-20         0.00000E+00         0.00000E+00
   -0.13970E-20         0.26571E-20         0.00000E+00
   -0.18626E-20         0.11970E-19         0.00000E+00
   -0.43144E-21         0.18626E-19         0.00000E+00
   -0.23283E-20         0.14901E-19         0.00000E+00
   -0.30268E-20         0.74506E-20         0.00000E+00
   -0.27940E-20        -0.74506E-20         0.00000E+00
   -0.32596E-20        -0.16764E-19         0.00000E+00
   -0.37253E-20        -0.11176E-19         0.00000E+00
   -0.27597E-20        -0.13039E-19         0.00000E+00
   -0.68138E-21        -0.20352E-19         0.00000E+00
   -0.69849E-21        -0.13970E-19         0.00000E+00
    0.93132E-21        -0.66561E-20         0.00000E+00
    0.48277E-21         0.00000E+00         0.00000E+00
   -0.46566E-21         0.18626E-19         0.00000E+00
    0.13799E-20         0.26077E-19         0.00000E+00
    0.16298E-20         0.55879E-20         0.00000E+00
    0.11470E-20        -0.79444E-21         0.00000E+00
    0.11642E-20         0.66561E-20         0.00000E+00
    0.27940E-20         0.63824E-20         0.00000E+00
    0.18626E-20         0.45197E-20         0.00000E+00
    0.24994E-21         0.74506E-20         0.00000E+00
   -0.11642E-20         0.10381E-19         0.00000E+00
   -0.13970E-20         0.47935E-20         0.00000E+00
   -0.25611E-20        -0.74506E-20         0.00000E+00
   -0.48894E-20        -0.47935E-20         0.00000E+00
   -0.41910E-20        -0.37253E-20         0.00000E+00
   -0.45316E-20        -0.26077E-19         0.00000E+00
   -0.51223E-20        -0.26077E-19         0.00000E+00
   -0.44238E-20        -0.22352E-19         0.00000E+00
   -0.20955E-20        -0.37253E-19         0.00000E+00
   -0.69849E-21        -0.40978E-19         0.00000E+00
    0.93132E-21        -0.35390E-19         0.00000E+00
    0.23283E-21        -0.26077E-19         0.00000E+00
    0.27940E-20        -0.17832E-19         0.00000E+00
    0.37253E-20        -0.11039E-19         0.00000E+00
    0.34925E-20        -0.46566E-20         0.00000E+00
    0.32596E-20        -0.21364E-20         0.00000E+00
   -0.93132E-21         0.00000E+00         0.00000E+00
   -0.89710E-21         0.10682E-20         0.00000E+00
    0.00000E+00         0.29308E-20         0.00000E+00
    0.00000E+00         0.26571E-20         0.00000E+00
    0.26705E-21        -0.37253E-20         0.00000E+00
   -0.86288E-21        -0.18626E-19         0.00000E+00
   -0.27940E-20        -0.23420E-19         0.00000E+00
   -0.36911E-20        -0.24214E-19         0.00000E+00
   -0.31912E-20        -0.29802E-19         0.00000E+00
   -0.46224E-20        -0.29802E-19         0.00000E+00
   -0.50881E-20        -0.20489E-19         0.00000E+00
   -0.46224E-20        -0.55879E-20         0.00000E+00
   -0.27597E-20        -0.18626E-20         0.00000E+00
   -0.27940E-20         0.10682E-20         0.00000E+00
   -0.22941E-20         0.18626E-20         0.00000E+00
   -0.18284E-20         0.45197E-20         0.00000E+00
   -0.18626E-20         0.15969E-19         0.00000E+00
   -0.89710E-21         0.23420E-19         0.00000E+00
    0.48277E-21         0.19421E-19         0.00000E+00
   -0.23283E-20         0.13039E-19         0.00000E+00
   -0.27940E-20        -0.55879E-20         0.00000E+00
   -0.32596E-20        -0.17832E-19         0.00000E+00
   -0.23283E-20        -0.26077E-19         0.00000E+00
   -0.27940E-20        -0.21284E-19         0.00000E+00
   -0.43896E-20        -0.11176E-19         0.00000E+00
   -0.44238E-20        -0.47935E-20         0.00000E+00
   -0.34753E-20         0.55879E-20         0.00000E+00
   -0.44067E-20         0.11176E-19         0.00000E+00
   -0.34753E-20         0.11176E-19         0.00000E+00
   -0.30097E-20         0.55879E-20         0.00000E+00
   -0.36911E-20         0.18626E-20         0.00000E+00
   -0.30097E-20         0.77243E-20         0.00000E+00
   -0.23283E-20         0.18626E-19         0.00000E+00
   -0.18626E-20         0.18353E-19         0.00000E+00
   -0.23283E-20         0.74506E-20         0.00000E+00
   -0.11470E-20         0.00000E+00         0.00000E+00
   -0.13970E-20        -0.37253E-20         0.00000E+00
   -0.20784E-20        -0.37253E-20         0.00000E+00
   -0.13799E-20        -0.11176E-19         0.00000E+00
    0.46566E-21        -0.19421E-19         0.00000E+00
   -0.93132E-21        -0.19421E-19         0.00000E+00
   -0.24362E-20        -0.23420E-19         0.00000E+00
   -0.15759E-20        -0.29802E-19         0.00000E+00
   -0.19166E-20        -0.41773E-19         0.00000E+00
   -0.21494E-20        -0.43909E-19         0.00000E+00
   -0.27940E-20        -0.25283E-19         0.00000E+00
   -0.45672E-20        -0.14901E-19         0.00000E+00
   -0.57313E-20        -0.16764E-19         0.00000E+00
   -0.71283E-20        -0.74506E-20         0.00000E+00
   -0.87088E-20         0.79444E-21         0.00000E+00
   -0.88476E-20         0.53142E-20         0.00000E+00
   -0.93132E-21         0.74506E-20         0.00000E+00
   -0.13970E-20         0.55879E-20         0.00000E+00
   -0.23283E-20         0.29308E-20         0.00000E+00
   -0.23283E-20         0.18626E-20         0.00000E+00
   -0.13970E-20        -0.47935E-20         0.00000E+00
   -0.18626E-20        -0.14901E-19         0.00000E+00
   -0.23625E-20        -0.20489E-19         0.00000E+00
   -0.46908E-20        -0.27940E-19         0.00000E+00
   -0.46908E-20        -0.23146E-19         0.00000E+00
   -0.65193E-20        -0.82450E-20         0.00000E+00
   -0.70191E-20        -0.15969E-19         0.00000E+00
   -0.65535E-20        -0.11176E-19         0.00000E+00
   -0.70191E-20        -0.37253E-20         0.00000E+00
   -0.60536E-20        -0.37253E-20         0.00000E+00
   -0.51565E-20        -0.79444E-21         0.00000E+00
   -0.46566E-20         0.11176E-19         0.00000E+00
   -0.46908E-20         0.11970E-19         0.00000E+00
   -0.46908E-20         0.37253E-20         0.00000E+00
   -0.42081E-20         0.13833E-19         0.00000E+00
   -0.27940E-20         0.93132E-20         0.00000E+00
   -0.27940E-20        -0.12765E-19         0.00000E+00
   -0.32596E-20        -0.14901E-19         0.00000E+00
   -0.27940E-20        -0.14107E-19         0.00000E+00
   -0.39752E-20        -0.11176E-19         0.00000E+00
   -0.39752E-20        -0.74506E-20         0.00000E+00
   -0.51394E-20        -0.74506E-20         0.00000E+00
   -0.51223E-20         0.12601E-33         0.00000E+00
   -0.53722E-20         0.17558E-19         0.00000E+00
   -0.55879E-20         0.18626E-19         0.00000E+00
   -0.56050E-20         0.47935E-20         0.00000E+00
   -0.53551E-20         0.79444E-21         0.00000E+00
   -0.41910E-20         0.25146E-33         0.00000E+00
   -0.44238E-20         0.27376E-21         0.00000E+00
   -0.37253E-20         0.79444E-21         0.00000E+00
   -0.18626E-20         0.63824E-20         0.00000E+00
   -0.71560E-21         0.93132E-20         0.00000E+00
    0.00000E+00         0.93132E-20         0.00000E+00
    0.34069E-21        -0.63824E-20         0.00000E+00
   -0.35780E-21        -0.14901E-19         0.00000E+00
   -0.46566E-21        -0.85188E-20         0.00000E+00
    0.93132E-21        -0.14901E-19         0.00000E+00
    0.17377E-20        -0.21284E-19         0.00000E+00
    0.16298E-20        -0.25009E-19         0.00000E+00
    0.28676E-21        -0.37527E-19         0.00000E+00
   -0.93132E-21        -0.34596E-19         0.00000E+00
   -0.27940E-20        -0.19421E-19         0.00000E+00
   -0.33491E-20        -0.11176E-19         0.00000E+00
   -0.42804E-20        -0.74506E-20         0.00000E+00
   -0.53998E-20         0.10682E-20         0.00000E+00
   -0.54939E-20         0.55879E-20         0.00000E+00
   -0.60536E-20         0.15889E-20         0.00000E+00
    0.46566E-21         0.37253E-20         0.00000E+00
    0.93132E-21         0.74506E-20         0.00000E+00
    0.46566E-21         0.55879E-20         0.00000E+00
   -0.13970E-20         0.00000E+00         0.00000E+00
   -0.32938E-20        -0.63824E-20         0.00000E+00
   -0.51565E-20        -0.14901E-19         0.00000E+00
   -0.51223E-20        -0.12244E-19         0.00000E+00
   -0.37253E-20        -0.11970E-19         0.00000E+00
   -0.41910E-20        -0.18626E-19         0.00000E+00
   -0.23283E-20        -0.17832E-19         0.00000E+00
   -0.18284E-20        -0.19421E-19         0.00000E+00
   -0.18284E-20        -0.66561E-20         0.00000E+00
   -0.23283E-20        -0.47935E-20         0.00000E+00
   -0.27940E-20        -0.71768E-20         0.00000E+00
   -0.46566E-20        -0.26571E-20         0.00000E+00
   -0.65193E-20         0.15889E-20         0.00000E+00
   -0.50881E-20         0.14901E-19         0.00000E+00
   -0.60194E-20         0.18626E-19         0.00000E+00
   -0.74506E-20         0.12765E-19         0.00000E+00
   -0.51223E-20         0.47935E-20         0.00000E+00
   -0.37253E-20        -0.45197E-20         0.00000E+00
   -0.32596E-20        -0.16764E-19         0.00000E+00
   -0.23283E-20        -0.23146E-19         0.00000E+00
   -0.13970E-20        -0.15696E-19         0.00000E+00
   -0.93132E-21        -0.39990E-20         0.00000E+00
   -0.21572E-21         0.37253E-20         0.00000E+00
   -0.69849E-21         0.66561E-20         0.00000E+00
    0.93132E-21         0.11970E-19         0.00000E+00
    0.93132E-21         0.10108E-19         0.00000E+00
    0.11813E-20         0.47935E-20         0.00000E+00
    0.27769E-20        -0.34515E-20         0.00000E+00
    0.27940E-20         0.37253E-20         0.00000E+00
    0.21126E-20         0.14627E-19         0.00000E+00
    0.23283E-20         0.37253E-20         0.00000E+00
    0.23283E-20        -0.82450E-20         0.00000E+00
    0.28111E-20        -0.77243E-20         0.00000E+00
    0.32596E-20        -0.74506E-20         0.00000E+00
    0.46566E-20        -0.26571E-20         0.00000E+00
    0.49973E-20        -0.74506E-20         0.00000E+00
    0.55879E-20        -0.23420E-19         0.00000E+00
    0.55879E-20        -0.31665E-19         0.00000E+00
    0.51223E-20        -0.25009E-19         0.00000E+00
    0.34385E-20        -0.25283E-19         0.00000E+00
    0.27940E-20        -0.29802E-19         0.00000E+00
    0.20955E-20        -0.25009E-19         0.00000E+00
    0.37253E-20        -0.15038E-19         0.00000E+00
    0.42804E-20        -0.75875E-20         0.00000E+00
    0.51223E-20        -0.81081E-20         0.00000E+00
    0.47013E-20        -0.79444E-21         0.00000E+00
    0.46566E-20         0.43829E-20         0.00000E+00
    0.37253E-20         0.90395E-20         0.00000E+00
   -0.27940E-20         0.74506E-20         0.00000E+00
   -0.27940E-20         0.74506E-20         0.00000E+00
   -0.18626E-20         0.13833E-19         0.00000E+00
   -0.23283E-20         0.19421E-19         0.00000E+00
   -0.22941E-20         0.11450E-19         0.00000E+00
   -0.27597E-20        -0.34515E-20         0.00000E+00
   -0.18626E-20        -0.27145E-19         0.00000E+00
   -0.46566E-21        -0.32733E-19         0.00000E+00
   -0.93132E-21        -0.27940E-19         0.00000E+00
   -0.49988E-21        -0.21557E-19         0.00000E+00
   -0.14312E-20        -0.15969E-19         0.00000E+00
   -0.96554E-21        -0.10108E-19         0.00000E+00
   -0.93132E-21         0.10682E-20         0.00000E+00
   -0.13970E-20         0.93132E-20         0.00000E+00
   -0.18626E-20         0.15969E-19         0.00000E+00
   -0.18626E-20         0.11176E-19         0.00000E+00
   -0.23283E-20         0.13696E-19         0.00000E+00
   -0.96554E-21         0.11039E-19         0.00000E+00
    0.46566E-21         0.85188E-20         0.00000E+00
   -0.46566E-21        -0.74506E-20         0.00000E+00
    0.93132E-21        -0.21557E-19         0.00000E+00
    0.18626E-20        -0.20489E-19         0.00000E+00
    0.18626E-20        -0.25009E-19         0.00000E+00
    0.16469E-20        -0.20215E-19         0.00000E+00
    0.23454E-20        -0.10381E-19         0.00000E+00
    0.32596E-20        -0.74506E-20         0.00000E+00
    0.37082E-20        -0.55879E-20         0.00000E+00
    0.32596E-20         0.63824E-20         0.00000E+00
    0.27940E-20         0.15175E-19         0.00000E+00
    0.37253E-20        -0.79444E-21         0.00000E+00
    0.51394E-20        -0.47935E-20         0.00000E+00
    0.65193E-20         0.18626E-20         0.00000E+00
    0.55879E-20         0.79444E-21         0.00000E+00
    0.65193E-20        -0.27376E-21         0.00000E+00
    0.51223E-20         0.29308E-20         0.00000E+00
    0.40660E-20         0.74506E-20         0.00000E+00
    0.51223E-20         0.10682E-20         0.00000E+00
    0.50144E-20        -0.12765E-19         0.00000E+00
    0.41910E-20        -0.19695E-19         0.00000E+00
    0.23283E-20        -0.13312E-19         0.00000E+00
    0.93132E-21        -0.12244E-19         0.00000E+00
   -0.69849E-21        -0.11176E-19         0.00000E+00
   -0.11642E-20        -0.15696E-19         0.00000E+00
   -0.13970E-20        -0.28734E-19         0.00000E+00
   -0.13431E-20        -0.39116E-19         0.00000E+00
   -0.18626E-20        -0.33391E-19         0.00000E+00
   -0.16298E-20        -0.16764E-19         0.00000E+00
   -0.69849E-21        -0.75875E-20         0.00000E+00
    0.18811E-21         0.79444E-21         0.00000E+00
    0.18626E-20         0.82450E-20         0.00000E+00
    0.23283E-20         0.74506E-20         0.00000E+00
   -0.37253E-20         0.58617E-20         0.00000E+00
   -0.27940E-20         0.55879E-20         0.00000E+00
   -0.32596E-20         0.18626E-20         0.00000E+00
   -0.18626E-20         0.00000E+00         0.00000E+00
   -0.93132E-21        -0.29308E-20         0.00000E+00
    0.18626E-20        -0.16901E-19         0.00000E+00
    0.18626E-20        -0.23283E-19         0.00000E+00
    0.13970E-20        -0.16764E-19         0.00000E+00
    0.13970E-20        -0.18626E-19         0.00000E+00
    0.14312E-20        -0.16764E-19         0.00000E+00
    0.18969E-20        -0.13970E-19         0.00000E+00
    0.32596E-20        -0.91763E-20         0.00000E+00
    0.23283E-20        -0.37253E-20         0.00000E+00
    0.32596E-20        -0.26571E-20         0.00000E+00
    0.32596E-20        -0.26571E-20         0.00000E+00
    0.46566E-20         0.45197E-20         0.00000E+00
    0.55879E-20         0.11176E-19         0.00000E+00
    0.65535E-20         0.45197E-20         0.00000E+00
    0.74506E-20         0.10902E-19         0.00000E+00
    0.74506E-20         0.18626E-20         0.00000E+00
    0.51223E-20        -0.15696E-19         0.00000E+00
    0.41910E-20        -0.19421E-19         0.00000E+00
    0.37253E-20        -0.22352E-19         0.00000E+00
    0.23283E-20        -0.18490E-19         0.00000E+00
    0.20613E-20        -0.11313E-19         0.00000E+00
    0.18626E-20        -0.37253E-20         0.00000E+00
    0.16469E-20         0.55879E-20         0.00000E+00
    0.93132E-21         0.14901E-19         0.00000E+00
    0.23283E-20         0.85188E-20         0.00000E+00
    0.13970E-20        -0.74506E-20         0.00000E+00
    0.91421E-21        -0.16764E-19         0.00000E+00
    0.20955E-20         0.79444E-21         0.00000E+00
    0.18626E-20         0.13039E-19         0.00000E+00
    0.13970E-20         0.63824E-20         0.00000E+00
    0.19705E-20         0.37253E-20         0.00000E+00
    0.32596E-20        -0.55879E-20         0.00000E+00
    0.41910E-20        -0.93132E-20         0.00000E+00
    0.46395E-20        -0.18626E-20         0.00000E+00
    0.41910E-20         0.55879E-20         0.00000E+00
    0.46566E-20        -0.37253E-20         0.00000E+00
    0.51223E-20        -0.16764E-19         0.00000E+00
    0.47816E-20        -0.16764E-19         0.00000E+00
    0.49434E-20        -0.19695E-19         0.00000E+00
    0.41910E-20        -0.27940E-19         0.00000E+00
    0.36714E-20        -0.25803E-19         0.00000E+00
    0.00000E+00        -0.15696E-19         0.00000E+00
   -0.10208E-20        -0.10381E-19         0.00000E+00
   -0.18626E-20        -0.14901E-19         0.00000E+00
   -0.23283E-21        -0.14901E-19         0.00000E+00
    0.93132E-21        -0.85188E-20         0.00000E+00
    0.13970E-20         0.15889E-20         0.00000E+00
    0.93132E-21        -0.21364E-20         0.00000E+00
    0.93132E-21         0.55879E-20         0.00000E+00
    0.46566E-21         0.10381E-19         0.00000E+00
    0.93132E-21         0.55879E-20         0.00000E+00
    0.46566E-21        -0.74506E-20         0.00000E+00
   -0.34220E-22        -0.17832E-19         0.00000E+00
   -0.13628E-20        -0.25283E-19         0.00000E+00
   -0.13970E-20        -0.28734E-19         0.00000E+00
    0.93132E-21        -0.27940E-19         0.00000E+00
    0.18626E-20        -0.23420E-19         0.00000E+00
    0.36911E-20        -0.23146E-19         0.00000E+00
    0.42252E-20        -0.13833E-19         0.00000E+00
    0.46566E-20        -0.29308E-20         0.00000E+00
    0.51223E-20         0.55879E-20         0.00000E+00
    0.60536E-20         0.11450E-19         0.00000E+00
    0.41910E-20         0.29308E-20         0.00000E+00
    0.60536E-20        -0.10682E-20         0.00000E+00
    0.51223E-20        -0.27376E-21         0.00000E+00
    0.37424E-20         0.82450E-20         0.00000E+00
    0.41910E-20         0.37253E-20         0.00000E+00
    0.46566E-20        -0.74506E-20         0.00000E+00
    0.41910E-20        -0.13039E-19         0.00000E+00
    0.23283E-20        -0.15696E-19         0.00000E+00
    0.20955E-20        -0.11970E-19         0.00000E+00
    0.16469E-20        -0.85188E-20         0.00000E+00
    0.69849E-21        -0.37253E-20         0.00000E+00
    0.91421E-21        -0.79444E-21         0.00000E+00
    0.32596E-20         0.26571E-20         0.00000E+00
    0.27940E-20         0.13833E-19         0.00000E+00
    0.27940E-20         0.58617E-20         0.00000E+00
    0.37424E-20        -0.73137E-20         0.00000E+00
    0.25440E-20        -0.46566E-20         0.00000E+00
    0.32596E-20         0.25146E-33         0.00000E+00
    0.27940E-20         0.79444E-21         0.00000E+00
    0.39581E-20        -0.37253E-20         0.00000E+00
    0.37253E-20        -0.29308E-20         0.00000E+00
    0.93132E-21        -0.47935E-20         0.00000E+00
    0.10563E-20        -0.17558E-19         0.00000E+00
    0.20955E-20        -0.20489E-19         0.00000E+00
    0.37253E-20        -0.14107E-19         0.00000E+00
    0.32596E-20        -0.13039E-19         0.00000E+00
    0.48894E-20        -0.93132E-20         0.00000E+00
    0.60536E-20        -0.11970E-19         0.00000E+00
    0.60536E-20        -0.23146E-19         0.00000E+00
    0.68599E-20        -0.21557E-19         0.00000E+00
    0.83819E-20        -0.11176E-19         0.00000E+00
    0.81491E-20        -0.45197E-20         0.00000E+00
    0.73072E-20        -0.10381E-19         0.00000E+00
    0.60983E-20        -0.10381E-19         0.00000E+00
    0.23283E-20        -0.18626E-20         0.00000E+00
    0.18626E-20         0.00000E+00         0.00000E+00
    0.88476E-20         0.11176E-19         0.00000E+00
    0.83819E-20         0.66561E-20         0.00000E+00
    0.69849E-20         0.00000E+00         0.00000E+00
    0.65193E-20         0.79444E-21         0.00000E+00
    0.74506E-20         0.10682E-20         0.00000E+00
    0.70191E-20        -0.63824E-20         0.00000E+00
    0.65193E-20        -0.16901E-19         0.00000E+00
    0.60536E-20        -0.25146E-19         0.00000E+00
    0.55879E-20        -0.32596E-19         0.00000E+00
    0.36911E-20        -0.33664E-19         0.00000E+00
    0.28282E-20        -0.27940E-19         0.00000E+00
    0.22941E-20        -0.13833E-19         0.00000E+00
    0.46566E-20        -0.63824E-20         0.00000E+00
    0.51223E-20        -0.10381E-19         0.00000E+00
    0.65193E-20         0.29308E-20         0.00000E+00
    0.88476E-20         0.55879E-20         0.00000E+00
    0.74506E-20         0.53142E-20         0.00000E+00
    0.46224E-20         0.14901E-19         0.00000E+00
    0.37082E-20         0.16764E-19         0.00000E+00
    0.27940E-20        -0.18626E-20         0.00000E+00
    0.27940E-20        -0.17558E-19         0.00000E+00
    0.27940E-20        -0.82450E-20         0.00000E+00
    0.23283E-20        -0.12244E-19         0.00000E+00
    0.32425E-20        -0.14901E-19         0.00000E+00
    0.44409E-20        -0.37253E-20         0.00000E+00
    0.37082E-20        -0.10682E-20         0.00000E+00
    0.30439E-20        -0.74506E-20         0.00000E+00
    0.27940E-20         0.66561E-20         0.00000E+00
    0.32596E-20         0.11176E-19         0.00000E+00
    0.41910E-20        -0.10381E-19         0.00000E+00
    0.51052E-20        -0.14901E-19         0.00000E+00
    0.49066E-20        -0.18626E-20         0.00000E+00
    0.27940E-20         0.93132E-20         0.00000E+00
    0.13970E-20         0.37253E-20         0.00000E+00
    0.12497E-21         0.37253E-20         0.00000E+00
    0.00000E+00         0.11176E-19         0.00000E+00
    0.46566E-21         0.18626E-20         0.00000E+00
   -0.57352E-21        -0.74506E-20         0.00000E+00
   -0.19705E-20        -0.71768E-20         0.00000E+00
   -0.23283E-20        -0.93132E-20         0.00000E+00
   -0.13970E-20        -0.22625E-19         0.00000E+00
   -0.10563E-20        -0.32459E-19         0.00000E+00
    0.23283E-21        -0.26077E-19         0.00000E+00
    0.46566E-21        -0.31665E-19         0.00000E+00
    0.64456E-21        -0.37253E-19         0.00000E+00
    0.18626E-20        -0.19695E-19         0.00000E+00
    0.14864E-20        -0.74506E-20         0.00000E+00
    0.13075E-20         0.13688E-21         0.00000E+00
    0.42094E-21         0.10245E-19         0.00000E+00
    0.46566E-21         0.10108E-19         0.00000E+00
   -0.46566E-21         0.37253E-20         0.00000E+00
    0.10710E-19         0.21364E-20         0.00000E+00
    0.11176E-19         0.11176E-19         0.00000E+00
    0.97789E-20         0.15696E-19         0.00000E+00
    0.93132E-20         0.47935E-20         0.00000E+00
    0.88476E-20        -0.45197E-20         0.00000E+00
    0.93132E-20        -0.15969E-19         0.00000E+00
    0.97789E-20        -0.19695E-19         0.00000E+00
    0.97789E-20        -0.20489E-19         0.00000E+00
    0.83819E-20        -0.17832E-19         0.00000E+00
    0.65535E-20        -0.12107E-19         0.00000E+00
    0.55537E-20        -0.18490E-19         0.00000E+00
    0.51223E-20        -0.18626E-19         0.00000E+00
    0.55879E-20        -0.13039E-19         0.00000E+00
    0.55879E-20        -0.74506E-20         0.00000E+00
    0.46566E-20        -0.11176E-19         0.00000E+00
    0.55537E-20         0.00000E+00         0.00000E+00
    0.41567E-20         0.22352E-19         0.00000E+00
    0.53551E-20         0.18626E-19         0.00000E+00
    0.60536E-20         0.14901E-19         0.00000E+00
    0.60536E-20         0.74506E-20         0.00000E+00
    0.55879E-20        -0.55879E-20         0.00000E+00
    0.51223E-20        -0.11176E-19         0.00000E+00
    0.60536E-20        -0.20489E-19         0.00000E+00
    0.39581E-20        -0.22352E-19         0.00000E+00
    0.37082E-20        -0.74506E-20         0.00000E+00
    0.34925E-20         0.37253E-20         0.00000E+00
    0.32596E-20         0.37253E-20         0.00000E+00
    0.23283E-20         0.37253E-20         0.00000E+00
    0.18626E-20         0.37253E-20         0.00000E+00
    0.46566E-21        -0.55879E-20         0.00000E+00
   -0.13799E-20        -0.93132E-20         0.00000E+00
   -0.23283E-20         0.47935E-20         0.00000E+00
   -0.37253E-20         0.16764E-19         0.00000E+00
   -0.46566E-20         0.16764E-19         0.00000E+00
   -0.55879E-20         0.74506E-20         0.00000E+00
   -0.46566E-20        -0.47935E-20         0.00000E+00
   -0.37253E-20        -0.37253E-20         0.00000E+00
   -0.24533E-20        -0.63824E-20         0.00000E+00
   -0.10563E-20        -0.13039E-19         0.00000E+00
    0.00000E+00        -0.15969E-19         0.00000E+00
    0.93132E-21        -0.21284E-19         0.00000E+00
   -0.46566E-21        -0.18626E-19         0.00000E+00
   -0.12181E-20        -0.17832E-19         0.00000E+00
   -0.93132E-21        -0.26077E-19         0.00000E+00
   -0.20955E-20        -0.26077E-19         0.00000E+00
   -0.46566E-20        -0.15696E-19         0.00000E+00
   -0.47461E-20        -0.37253E-20         0.00000E+00
   -0.44238E-20        -0.29308E-20         0.00000E+00
   -0.27940E-20        -0.45197E-20         0.00000E+00
   -0.46566E-21         0.26571E-20         0.00000E+00
   -0.46566E-21         0.31778E-20         0.00000E+00
    0.00000E+00         0.74506E-20         0.00000E+00
    0.13970E-20         0.82450E-20         0.00000E+00
    0.27940E-20         0.74506E-20         0.00000E+00
    0.37253E-20         0.66561E-20         0.00000E+00
    0.32596E-20         0.19995E-20         0.00000E+00
    0.32254E-20        -0.13970E-19         0.00000E+00
    0.32254E-20        -0.17832E-19         0.00000E+00
    0.37253E-20        -0.16764E-19         0.00000E+00
    0.27940E-20        -0.16764E-19         0.00000E+00
    0.41910E-20        -0.18626E-19         0.00000E+00
    0.46908E-20        -0.22352E-19         0.00000E+00
    0.42252E-20        -0.11176E-19         0.00000E+00
    0.32596E-20        -0.74506E-20         0.00000E+00
    0.23283E-20        -0.82450E-20         0.00000E+00
    0.23283E-20         0.18626E-20         0.00000E+00
    0.49988E-21         0.82450E-20         0.00000E+00
    0.49988E-21         0.74506E-20         0.00000E+00
    0.96554E-21         0.55879E-20         0.00000E+00
    0.13970E-20         0.10108E-19         0.00000E+00
    0.23283E-21         0.00000E+00         0.00000E+00
   -0.11642E-20        -0.10108E-19         0.00000E+00
   -0.13970E-20        -0.11970E-19         0.00000E+00
    0.00000E+00        -0.74506E-20         0.00000E+00
    0.17110E-22        -0.37253E-20         0.00000E+00
   -0.46566E-21         0.18626E-20         0.00000E+00
    0.24994E-21         0.79444E-21         0.00000E+00
    0.93132E-21        -0.18626E-20         0.00000E+00
    0.93132E-21         0.14107E-19         0.00000E+00
   -0.93132E-21         0.18626E-19         0.00000E+00
   -0.27940E-20         0.45197E-20         0.00000E+00
   -0.42081E-20         0.00000E+00         0.00000E+00
   -0.55879E-20         0.11176E-19         0.00000E+00
   -0.46566E-20         0.22352E-19         0.00000E+00
   -0.46566E-20         0.13039E-19         0.00000E+00
   -0.37253E-20         0.37253E-20         0.00000E+00
   -0.41910E-20         0.18626E-20         0.00000E+00
   -0.55879E-20        -0.11176E-19         0.00000E+00
   -0.46566E-20        -0.20489E-19         0.00000E+00
   -0.39581E-20        -0.18626E-19         0.00000E+00
   -0.37253E-20        -0.18626E-19         0.00000E+00
   -0.41910E-20        -0.20489E-19         0.00000E+00
   -0.39581E-20        -0.20489E-19         0.00000E+00
   -0.41910E-20        -0.24214E-19         0.00000E+00
   -0.27940E-20        -0.29802E-19         0.00000E+00
   -0.16837E-20        -0.18626E-19         0.00000E+00
   -0.46566E-21        -0.74506E-20         0.00000E+00
    0.69849E-21        -0.74506E-20         0.00000E+00
    0.13970E-20        -0.74506E-20         0.00000E+00
    0.16298E-20        -0.74506E-20         0.00000E+00
    0.69849E-21        -0.66561E-20         0.00000E+00
    0.93132E-21        -0.21364E-20         0.00000E+00
   -0.65193E-20        -0.37253E-20         0.00000E+00
   -0.60536E-20         0.00000E+00         0.00000E+00
   -0.51223E-20         0.29308E-20         0.00000E+00
   -0.46566E-20         0.37253E-20         0.00000E+00
   -0.41910E-20        -0.55879E-20         0.00000E+00
   -0.27597E-20        -0.16764E-19         0.00000E+00
   -0.27597E-20        -0.21557E-19         0.00000E+00
   -0.25269E-20        -0.18626E-19         0.00000E+00
   -0.18284E-20        -0.19421E-19         0.00000E+00
   -0.13628E-20        -0.19558E-19         0.00000E+00
   -0.27940E-20        -0.20626E-19         0.00000E+00
   -0.37253E-20        -0.12244E-19         0.00000E+00
   -0.36911E-20        -0.93132E-21         0.00000E+00
   -0.41910E-20        -0.35884E-20         0.00000E+00
   -0.41910E-20        -0.18626E-20         0.00000E+00
   -0.41567E-20         0.73137E-20         0.00000E+00
   -0.32596E-20         0.17695E-19         0.00000E+00
   -0.46566E-20         0.18626E-19         0.00000E+00
   -0.60194E-20         0.18626E-19         0.00000E+00
   -0.67350E-20         0.21557E-19         0.00000E+00
   -0.74335E-20         0.00000E+00         0.00000E+00
   -0.74335E-20        -0.16764E-19         0.00000E+00
   -0.69849E-20        -0.26077E-19         0.00000E+00
   -0.55879E-20        -0.21284E-19         0.00000E+00
   -0.34925E-20        -0.74506E-20         0.00000E+00
   -0.27940E-20        -0.29308E-20         0.00000E+00
   -0.23283E-20         0.00000E+00         0.00000E+00
   -0.23283E-20         0.11176E-19         0.00000E+00
   -0.13970E-20         0.22352E-19         0.00000E+00
   -0.46566E-21         0.11176E-19         0.00000E+00
   -0.44855E-21         0.37253E-20         0.00000E+00
    0.17110E-22         0.93132E-20         0.00000E+00
    0.93132E-21         0.13039E-19         0.00000E+00
    0.13970E-20         0.82450E-20         0.00000E+00
    0.69849E-21         0.37253E-20         0.00000E+00
    0.82346E-21         0.45197E-20         0.00000E+00
   -0.80635E-21        -0.18626E-20         0.00000E+00
   -0.37253E-20        -0.10902E-19         0.00000E+00
   -0.52301E-20        -0.15696E-19         0.00000E+00
   -0.60536E-20        -0.14901E-19         0.00000E+00
   -0.55879E-20        -0.19695E-19         0.00000E+00
   -0.38332E-20        -0.18626E-19         0.00000E+00
   -0.30268E-20        -0.25009E-19         0.00000E+00
   -0.27940E-20        -0.37253E-19         0.00000E+00
   -0.32596E-20        -0.37253E-19         0.00000E+00
   -0.20955E-20        -0.28871E-19         0.00000E+00
   -0.84187E-21        -0.15832E-19         0.00000E+00
    0.32228E-21        -0.74506E-20         0.00000E+00
   -0.18811E-21         0.79444E-21         0.00000E+00
   -0.10254E-20         0.26571E-20         0.00000E+00
   -0.13970E-20         0.15889E-20         0.00000E+00
   -0.74506E-20         0.37253E-20         0.00000E+00
   -0.79162E-20         0.55879E-20         0.00000E+00
   -0.88476E-20         0.18626E-20         0.00000E+00
   -0.88476E-20         0.00000E+00         0.00000E+00
   -0.79162E-20        -0.74506E-20         0.00000E+00
   -0.83819E-20        -0.22352E-19         0.00000E+00
   -0.74848E-20        -0.22352E-19         0.00000E+00
   -0.74506E-20        -0.20489E-19         0.00000E+00
   -0.46908E-20        -0.20489E-19         0.00000E+00
   -0.32938E-20        -0.13039E-19         0.00000E+00
   -0.36911E-20        -0.11176E-19         0.00000E+00
   -0.32596E-20        -0.74506E-20         0.00000E+00
   -0.46566E-20        -0.37253E-20         0.00000E+00
   -0.37253E-20        -0.37253E-20         0.00000E+00
   -0.41910E-20        -0.18626E-20         0.00000E+00
   -0.42252E-20         0.18626E-20         0.00000E+00
   -0.46566E-20         0.11176E-19         0.00000E+00
   -0.41910E-20         0.20489E-19         0.00000E+00
   -0.32938E-20         0.20489E-19         0.00000E+00
   -0.20955E-20         0.74506E-20         0.00000E+00
   -0.93132E-21        -0.74506E-20         0.00000E+00
   -0.94843E-21        -0.11176E-19         0.00000E+00
   -0.13970E-20        -0.16764E-19         0.00000E+00
   -0.27940E-20        -0.22352E-19         0.00000E+00
   -0.25440E-20        -0.11176E-19         0.00000E+00
   -0.37253E-20        -0.55879E-20         0.00000E+00
   -0.32596E-20        -0.55879E-20         0.00000E+00
   -0.27940E-20         0.93132E-20         0.00000E+00
   -0.13970E-20         0.11176E-19         0.00000E+00
    0.00000E+00        -0.27376E-21         0.00000E+00
    0.46566E-21        -0.39990E-20         0.00000E+00
    0.16127E-20         0.42728E-20         0.00000E+00
    0.93132E-21         0.13312E-19         0.00000E+00
    0.46566E-21         0.12765E-19         0.00000E+00
    0.10786E-21         0.74506E-20         0.00000E+00
    0.34069E-21         0.93132E-20         0.00000E+00
    0.18626E-20         0.11176E-19         0.00000E+00
    0.10563E-20         0.00000E+00         0.00000E+00
    0.69849E-21        -0.74506E-20         0.00000E+00
    0.13970E-20        -0.14901E-19         0.00000E+00
    0.23283E-20        -0.33528E-19         0.00000E+00
    0.18626E-20        -0.33528E-19         0.00000E+00
    0.19166E-20        -0.26077E-19         0.00000E+00
    0.69849E-21        -0.28213E-19         0.00000E+00
   -0.46566E-21        -0.22352E-19         0.00000E+00
   -0.18626E-20        -0.20215E-19         0.00000E+00
   -0.31702E-20        -0.20489E-19         0.00000E+00
   -0.44238E-20        -0.11176E-19         0.00000E+00
   -0.46566E-20         0.00000E+00         0.00000E+00
   -0.36312E-20         0.37253E-20         0.00000E+00
   -0.32596E-20         0.37253E-20         0.00000E+00
   -0.69849E-20         0.00000E+00         0.00000E+00
   -0.74506E-20         0.55879E-20         0.00000E+00
   -0.74506E-20         0.55879E-20         0.00000E+00
   -0.83819E-20        -0.18626E-20         0.00000E+00
   -0.93132E-20        -0.55879E-20         0.00000E+00
   -0.88476E-20        -0.18626E-19         0.00000E+00
   -0.83477E-20        -0.29802E-19         0.00000E+00
   -0.69849E-20        -0.31665E-19         0.00000E+00
   -0.46566E-20        -0.35390E-19         0.00000E+00
   -0.34582E-20        -0.26351E-19         0.00000E+00
   -0.18969E-20        -0.22352E-19         0.00000E+00
    0.00000E+00        -0.71768E-20         0.00000E+00
    0.46566E-21        -0.27376E-21         0.00000E+00
    0.46566E-21        -0.34515E-20         0.00000E+00
    0.00000E+00        -0.15889E-20         0.00000E+00
   -0.43144E-21         0.71768E-20         0.00000E+00
   -0.13970E-20         0.18626E-19         0.00000E+00
    0.00000E+00         0.11176E-19         0.00000E+00
    0.16298E-20         0.10902E-19         0.00000E+00
    0.20784E-20         0.71768E-20         0.00000E+00
    0.18626E-20        -0.53142E-20         0.00000E+00
    0.23283E-20        -0.12765E-19         0.00000E+00
    0.23283E-20        -0.16764E-19         0.00000E+00
    0.20955E-20        -0.13039E-19         0.00000E+00
    0.11642E-20        -0.55879E-20         0.00000E+00
    0.00000E+00        -0.37253E-20         0.00000E+00
   -0.46566E-21        -0.37253E-20         0.00000E+00
   -0.13970E-20         0.37253E-20         0.00000E+00
   -0.18626E-20         0.93132E-20         0.00000E+00
   -0.69849E-21         0.15889E-20         0.00000E+00
    0.23283E-21        -0.21364E-20         0.00000E+00
    0.46566E-21         0.61355E-20         0.00000E+00
    0.69849E-21         0.16764E-19         0.00000E+00
    0.13970E-20         0.14627E-19         0.00000E+00
    0.12891E-20         0.39990E-20         0.00000E+00
   -0.23283E-21        -0.39990E-20         0.00000E+00
    0.93132E-21        -0.74506E-20         0.00000E+00
    0.18626E-20        -0.71768E-20         0.00000E+00
    0.36174E-20        -0.16764E-19         0.00000E+00
    0.51223E-20        -0.24214E-19         0.00000E+00
    0.46566E-20        -0.20489E-19         0.00000E+00
    0.37253E-20        -0.17038E-19         0.00000E+00
    0.22744E-20        -0.18626E-19         0.00000E+00
    0.20415E-20        -0.25803E-19         0.00000E+00
    0.23283E-20        -0.22352E-19         0.00000E+00
    0.27940E-20        -0.13039E-19         0.00000E+00
    0.37621E-21        -0.37253E-20         0.00000E+00
   -0.10208E-20        -0.18626E-20         0.00000E+00
   -0.18626E-20        -0.37253E-20         0.00000E+00
   -0.24224E-20         0.00000E+00         0.00000E+00
   -0.23283E-20         0.00000E+00         0.00000E+00
    0.93132E-21         0.31778E-20         0.00000E+00
   -0.46566E-21         0.37253E-20         0.00000E+00
   -0.26705E-21         0.58617E-20         0.00000E+00
   -0.34220E-22         0.93132E-20         0.00000E+00
   -0.69849E-21        -0.58617E-20         0.00000E+00
   -0.18626E-20        -0.24214E-19         0.00000E+00
   -0.14312E-20        -0.29529E-19         0.00000E+00
   -0.68439E-22        -0.37253E-19         0.00000E+00
   -0.46566E-21        -0.37253E-19         0.00000E+00
   -0.14654E-20        -0.29802E-19         0.00000E+00
   -0.14312E-20        -0.29802E-19         0.00000E+00
   -0.28282E-20        -0.18626E-19         0.00000E+00
   -0.14312E-20        -0.74506E-20         0.00000E+00
   -0.13970E-20        -0.18626E-20         0.00000E+00
    0.00000E+00         0.37253E-20         0.00000E+00
   -0.96554E-21         0.74506E-20         0.00000E+00
    0.89710E-21         0.74506E-20         0.00000E+00
    0.18284E-20         0.71768E-20         0.00000E+00
    0.14141E-20         0.10902E-19         0.00000E+00
    0.23283E-20         0.39990E-20         0.00000E+00
    0.20613E-20        -0.90395E-20         0.00000E+00
    0.20955E-20        -0.13039E-19         0.00000E+00
    0.18626E-20        -0.13039E-19         0.00000E+00
    0.18455E-20        -0.14901E-19         0.00000E+00
    0.13799E-20        -0.18626E-20         0.00000E+00
    0.18284E-20         0.18626E-20         0.00000E+00
    0.16298E-20         0.18626E-20         0.00000E+00
    0.18626E-20         0.16764E-19         0.00000E+00
    0.93132E-21         0.74506E-20         0.00000E+00
   -0.24994E-21        -0.11176E-19         0.00000E+00
    0.68138E-21        -0.74506E-20         0.00000E+00
    0.93132E-21         0.18626E-20         0.00000E+00
    0.44855E-21         0.74506E-20         0.00000E+00
    0.46566E-21         0.11176E-19         0.00000E+00
    0.11642E-20         0.16764E-19         0.00000E+00
    0.80635E-21         0.11176E-19         0.00000E+00
    0.80635E-21        -0.18626E-20         0.00000E+00
    0.10392E-20        -0.14901E-19         0.00000E+00
    0.16127E-20        -0.22352E-19         0.00000E+00
    0.13970E-20        -0.20489E-19         0.00000E+00
    0.57352E-21        -0.26077E-19         0.00000E+00
    0.13799E-20        -0.20763E-19         0.00000E+00
    0.12720E-20        -0.18626E-19         0.00000E+00
    0.26151E-20        -0.27666E-19         0.00000E+00
    0.18626E-20        -0.24488E-19         0.00000E+00
    0.18626E-20        -0.13039E-19         0.00000E+00
    0.10747E-20        -0.34515E-20         0.00000E+00
    0.18626E-20         0.00000E+00         0.00000E+00
    0.60904E-21         0.71768E-20         0.00000E+00
    0.32688E-21         0.74506E-20         0.00000E+00
    0.46566E-21         0.42728E-20         0.00000E+00
    0.41910E-20         0.74506E-20         0.00000E+00
    0.32596E-20         0.93132E-20         0.00000E+00
    0.32938E-20         0.55879E-20         0.00000E+00
    0.42252E-20         0.00000E+00         0.00000E+00
    0.55537E-20         0.15889E-20         0.00000E+00
    0.74506E-20        -0.13039E-19         0.00000E+00
    0.78820E-20        -0.35116E-19         0.00000E+00
    0.74506E-20        -0.35390E-19         0.00000E+00
    0.69507E-20        -0.29802E-19         0.00000E+00
    0.65193E-20        -0.22352E-19         0.00000E+00
    0.55879E-20        -0.14901E-19         0.00000E+00
    0.55879E-20        -0.74506E-20         0.00000E+00
    0.51223E-20        -0.74506E-20         0.00000E+00
    0.55879E-20        -0.11176E-19         0.00000E+00
    0.41910E-20        -0.37253E-20         0.00000E+00
    0.37253E-20         0.37253E-20         0.00000E+00
    0.37595E-20         0.55879E-20         0.00000E+00
    0.23283E-20         0.55879E-20         0.00000E+00
    0.68138E-21         0.93132E-20         0.00000E+00
    0.46566E-21         0.55879E-20         0.00000E+00
    0.17110E-22        -0.74506E-20         0.00000E+00
   -0.48277E-21        -0.11176E-19         0.00000E+00
   -0.34220E-22        -0.13039E-19         0.00000E+00
    0.93132E-21        -0.93132E-20         0.00000E+00
    0.91421E-21        -0.37253E-20         0.00000E+00
    0.16469E-20        -0.37253E-20         0.00000E+00
    0.11470E-20        -0.55879E-20         0.00000E+00
    0.27940E-20         0.37253E-20         0.00000E+00
    0.32596E-20         0.18626E-19         0.00000E+00
    0.23283E-20         0.55879E-20         0.00000E+00
    0.13970E-20        -0.55879E-20         0.00000E+00
    0.69849E-21         0.55879E-20         0.00000E+00
    0.17110E-22         0.16764E-19         0.00000E+00
   -0.13970E-20         0.11176E-19         0.00000E+00
   -0.71560E-21         0.37253E-20         0.00000E+00
    0.93132E-21        -0.18626E-20         0.00000E+00
    0.46566E-21        -0.74506E-20         0.00000E+00
   -0.15220E-20        -0.11176E-19         0.00000E+00
   -0.18626E-20        -0.18626E-19         0.00000E+00
   -0.23283E-20        -0.18626E-19         0.00000E+00
   -0.24362E-20        -0.22352E-19         0.00000E+00
   -0.31347E-20        -0.22352E-19         0.00000E+00
   -0.39581E-20        -0.22352E-19         0.00000E+00
   -0.55879E-20        -0.26351E-19         0.00000E+00
   -0.71638E-20        -0.22352E-19         0.00000E+00
   -0.69849E-20        -0.12765E-19         0.00000E+00
   -0.55879E-20        -0.27376E-21         0.00000E+00
   -0.46566E-20         0.15889E-20         0.00000E+00
   -0.23283E-20         0.18626E-20         0.00000E+00
   -0.13970E-20         0.21364E-20         0.00000E+00
   -0.93132E-21         0.54752E-21         0.00000E+00
    0.32596E-20         0.69031E-20         0.00000E+00
    0.37253E-20         0.74506E-20         0.00000E+00
    0.51223E-20         0.39990E-20         0.00000E+00
    0.51223E-20        -0.37253E-20         0.00000E+00
    0.42252E-20        -0.20763E-19         0.00000E+00
    0.50881E-20        -0.33528E-19         0.00000E+00
    0.41910E-20        -0.31665E-19         0.00000E+00
    0.18969E-20        -0.33528E-19         0.00000E+00
    0.27940E-20        -0.31665E-19         0.00000E+00
    0.37595E-20        -0.22352E-19         0.00000E+00
    0.41910E-20        -0.26077E-19         0.00000E+00
    0.51223E-20        -0.16764E-19         0.00000E+00
    0.60536E-20        -0.71768E-20         0.00000E+00
    0.55879E-20         0.18626E-20         0.00000E+00
    0.41910E-20         0.11176E-19         0.00000E+00
    0.51223E-20         0.11176E-19         0.00000E+00
    0.46224E-20         0.16764E-19         0.00000E+00
    0.32596E-20         0.22352E-19         0.00000E+00
    0.18626E-20         0.22078E-19         0.00000E+00
    0.00000E+00         0.74506E-20         0.00000E+00
   -0.93132E-21        -0.71768E-20         0.00000E+00
   -0.21572E-21        -0.13039E-19         0.00000E+00
    0.93132E-21        -0.18626E-19         0.00000E+00
    0.20955E-20        -0.20489E-19         0.00000E+00
    0.27940E-20        -0.74506E-20         0.00000E+00
    0.32596E-20         0.00000E+00         0.00000E+00
    0.37253E-20        -0.18626E-20         0.00000E+00
    0.27940E-20         0.74506E-20         0.00000E+00
    0.23283E-20         0.93132E-20         0.00000E+00
    0.93132E-21         0.00000E+00         0.00000E+00
    0.00000E+00         0.00000E+00         0.00000E+00
   -0.94843E-21         0.74506E-20         0.00000E+00
   -0.14141E-20         0.18626E-19         0.00000E+00
   -0.13970E-20         0.14901E-19         0.00000E+00
   -0.18626E-20         0.37253E-20         0.00000E+00
   -0.23283E-20         0.55879E-20         0.00000E+00
   -0.27940E-20         0.93132E-20         0.00000E+00
   -0.39581E-20        -0.18626E-20         0.00000E+00
   -0.51223E-20        -0.14901E-19         0.00000E+00
   -0.83819E-20        -0.20489E-19         0.00000E+00
   -0.83819E-20        -0.22352E-19         0.00000E+00
   -0.88476E-20        -0.13039E-19         0.00000E+00
   -0.93672E-20        -0.58617E-20         0.00000E+00
   -0.93132E-20        -0.13039E-19         0.00000E+00
   -0.86147E-20        -0.22078E-19         0.00000E+00
   -0.83819E-20        -0.20489E-19         0.00000E+00
   -0.76834E-20        -0.11450E-19         0.00000E+00
   -0.65193E-20        -0.13039E-19         0.00000E+00
   -0.41910E-20        -0.90395E-20         0.00000E+00
   -0.31656E-20         0.00000E+00         0.00000E+00
   -0.32596E-20         0.00000E+00         0.00000E+00
   -0.13970E-20        -0.54752E-21         0.00000E+00
   -0.18626E-20        -0.27376E-21         0.00000E+00
   -0.23283E-20         0.18626E-20         0.00000E+00
   -0.27940E-20         0.58617E-20         0.00000E+00
   -0.27940E-20         0.18626E-20         0.00000E+00
   -0.55537E-20        -0.13039E-19         0.00000E+00
   -0.62522E-20        -0.22352E-19         0.00000E+00
   -0.51223E-20        -0.28213E-19         0.00000E+00
   -0.64850E-20        -0.36979E-19         0.00000E+00
   -0.60536E-20        -0.31391E-19         0.00000E+00
   -0.46224E-20        -0.22352E-19         0.00000E+00
   -0.55879E-20        -0.15175E-19         0.00000E+00
   -0.51223E-20        -0.93132E-20         0.00000E+00
   -0.46566E-20        -0.34515E-20         0.00000E+00
   -0.32596E-20        -0.18626E-20         0.00000E+00
   -0.32596E-20         0.34515E-20         0.00000E+00
   -0.18284E-20         0.14901E-19         0.00000E+00
   -0.13628E-20         0.18626E-19         0.00000E+00
    0.00000E+00         0.25803E-19         0.00000E+00
    0.00000E+00         0.20763E-19         0.00000E+00
    0.46566E-21        -0.71768E-20         0.00000E+00
    0.13970E-20        -0.20489E-19         0.00000E+00
    0.25954E-20        -0.22352E-19         0.00000E+00
    0.28111E-20        -0.20489E-19         0.00000E+00
    0.25954E-20        -0.11176E-19         0.00000E+00
    0.25782E-20        -0.93132E-20         0.00000E+00
    0.20955E-20        -0.37253E-20         0.00000E+00
    0.46566E-21         0.13039E-19         0.00000E+00
    0.00000E+00         0.27666E-19         0.00000E+00
    0.00000E+00         0.16764E-19         0.00000E+00
    0.69849E-21         0.55879E-20         0.00000E+00
    0.48277E-21         0.13039E-19         0.00000E+00
   -0.44855E-21         0.18626E-19         0.00000E+00
    0.00000E+00         0.13039E-19         0.00000E+00
   -0.21572E-21         0.77243E-20         0.00000E+00
   -0.17377E-20         0.34515E-20         0.00000E+00
   -0.18626E-20        -0.27376E-21         0.00000E+00
   -0.23112E-20         0.00000E+00         0.00000E+00
   -0.32596E-20         0.39990E-20         0.00000E+00
   -0.37253E-20        -0.34515E-20         0.00000E+00
   -0.37253E-20        -0.18626E-19         0.00000E+00
   -0.32596E-20        -0.18626E-19         0.00000E+00
   -0.16837E-20        -0.18626E-19         0.00000E+00
    0.46566E-21        -0.29802E-19         0.00000E+00
    0.87739E-21        -0.29802E-19         0.00000E+00
    0.00000E+00        -0.16106E-19         0.00000E+00
    0.89450E-22        -0.93132E-20         0.00000E+00
    0.00000E+00        -0.14901E-19         0.00000E+00
   -0.10747E-20        -0.12381E-19         0.00000E+00
   -0.26552E-20        -0.53142E-20         0.00000E+00
   -0.23283E-20        -0.31778E-20         0.00000E+00
    0.46566E-21         0.11723E-19         0.00000E+00
    0.00000E+00         0.11176E-19         0.00000E+00
   -0.46566E-21         0.71768E-20         0.00000E+00
   -0.46566E-21         0.27376E-21         0.00000E+00
   -0.46566E-21        -0.55879E-20         0.00000E+00
    0.46566E-21        -0.18900E-19         0.00000E+00
    0.34220E-22        -0.33528E-19         0.00000E+00
    0.00000E+00        -0.29802E-19         0.00000E+00
   -0.46566E-21        -0.27666E-19         0.00000E+00
   -0.27940E-20        -0.33254E-19         0.00000E+00
   -0.42252E-20        -0.28213E-19         0.00000E+00
   -0.46224E-20        -0.11176E-19         0.00000E+00
   -0.55879E-20        -0.11176E-19         0.00000E+00
   -0.69849E-20        -0.93132E-20         0.00000E+00
   -0.79162E-20         0.39990E-20         0.00000E+00
   -0.88476E-20         0.55879E-20         0.00000E+00
   -0.88476E-20         0.74506E-20         0.00000E+00
   -0.65193E-20         0.10902E-19         0.00000E+00
   -0.53551E-20         0.14627E-19         0.00000E+00
   -0.23283E-20         0.37253E-20         0.00000E+00
   -0.13970E-20        -0.14627E-19         0.00000E+00
   -0.18626E-20        -0.22078E-19         0.00000E+00
   -0.32596E-20        -0.26077E-19         0.00000E+00
   -0.28111E-20        -0.22352E-19         0.00000E+00
   -0.25782E-20        -0.58617E-20         0.00000E+00
   -0.37253E-20         0.37253E-20         0.00000E+00
   -0.39410E-20         0.95870E-20         0.00000E+00
   -0.37253E-20         0.18626E-19         0.00000E+00
   -0.41910E-20         0.11176E-19         0.00000E+00
   -0.20955E-20        -0.37253E-20         0.00000E+00
   -0.37082E-20        -0.37253E-20         0.00000E+00
   -0.37253E-20         0.13039E-19         0.00000E+00
   -0.27940E-20         0.22352E-19         0.00000E+00
   -0.93132E-21         0.16490E-19         0.00000E+00
    0.46566E-21         0.11176E-19         0.00000E+00
    0.46566E-21         0.95870E-20         0.00000E+00
    0.23283E-21         0.12765E-19         0.00000E+00
    0.80635E-21         0.55879E-20         0.00000E+00
    0.46566E-21        -0.93132E-20         0.00000E+00
    0.13970E-20        -0.14901E-19         0.00000E+00
    0.93132E-21        -0.22352E-19         0.00000E+00
    0.13970E-20        -0.24214E-19         0.00000E+00
    0.18626E-20        -0.22078E-19         0.00000E+00
    0.16298E-20        -0.28213E-19         0.00000E+00
    0.14509E-20        -0.22352E-19         0.00000E+00
    0.23283E-20        -0.14627E-19         0.00000E+00
    0.31702E-20        -0.11450E-19         0.00000E+00
    0.32596E-20        -0.55879E-20         0.00000E+00
    0.13523E-20         0.39990E-20         0.00000E+00
    0.46566E-21         0.34515E-20         0.00000E+00
    0.00000E+00        -0.42728E-20         0.00000E+00
    0.41910E-20         0.37253E-20         0.00000E+00
    0.51223E-20         0.58617E-20         0.00000E+00
    0.55537E-20         0.37253E-20         0.00000E+00
    0.65193E-20         0.34515E-20         0.00000E+00
    0.55879E-20        -0.37253E-20         0.00000E+00
    0.41910E-20        -0.16764E-19         0.00000E+00
    0.27940E-20        -0.18626E-19         0.00000E+00
    0.13970E-20        -0.23941E-19         0.00000E+00
    0.93132E-21        -0.22352E-19         0.00000E+00
   -0.46566E-21        -0.11176E-19         0.00000E+00
   -0.25269E-20        -0.14627E-19         0.00000E+00
   -0.28282E-20        -0.74506E-20         0.00000E+00
   -0.32254E-20         0.37253E-20         0.00000E+00
   -0.51223E-20         0.55879E-20         0.00000E+00
   -0.65193E-20         0.53142E-20         0.00000E+00
   -0.65193E-20         0.74506E-20         0.00000E+00
   -0.79162E-20         0.55879E-20         0.00000E+00
   -0.84161E-20         0.34515E-20         0.00000E+00
   -0.76663E-20         0.55879E-20         0.00000E+00
   -0.74506E-20        -0.18626E-20         0.00000E+00
   -0.65193E-20        -0.90395E-20         0.00000E+00
   -0.65193E-20        -0.10902E-19         0.00000E+00
   -0.55879E-20        -0.20489E-19         0.00000E+00
   -0.60365E-20        -0.20489E-19         0.00000E+00
   -0.51223E-20        -0.58617E-20         0.00000E+00
   -0.41910E-20        -0.55879E-20         0.00000E+00
   -0.46566E-20        -0.34515E-20         0.00000E+00
   -0.23283E-20         0.14627E-19         0.00000E+00
   -0.23283E-20         0.22352E-19         0.00000E+00
   -0.23112E-20         0.14901E-19         0.00000E+00
   -0.21126E-20         0.11176E-19         0.00000E+00
   -0.13970E-20         0.77243E-20         0.00000E+00
   -0.46566E-21         0.34515E-20         0.00000E+00
   -0.93132E-21         0.00000E+00         0.00000E+00
   -0.69849E-21         0.27376E-21         0.00000E+00
   -0.18626E-20        -0.27376E-21         0.00000E+00
   -0.29018E-20        -0.25146E-33         0.00000E+00
   -0.11642E-20         0.18626E-20         0.00000E+00
   -0.46566E-21         0.15889E-20         0.00000E+00
   -0.93132E-21        -0.53142E-20         0.00000E+00
   -0.18626E-20        -0.20489E-19         0.00000E+00
   -0.93132E-21        -0.22625E-19         0.00000E+00
   -0.17890E-21        -0.18626E-19         0.00000E+00
    0.41173E-21        -0.29529E-19         0.00000E+00
    0.69849E-21        -0.33254E-19         0.00000E+00
    0.32596E-20        -0.22352E-19         0.00000E+00
    0.37253E-20        -0.15175E-19         0.00000E+00
    0.46566E-20        -0.74506E-20         0.00000E+00
    0.67074E-20         0.37253E-20         0.00000E+00
    0.79162E-20         0.34515E-20         0.00000E+00
    0.69849E-20         0.00000E+00         0.00000E+00
   -0.27940E-20         0.37253E-20         0.00000E+00
   -0.23283E-20         0.37253E-20         0.00000E+00
   -0.22941E-20         0.27376E-21         0.00000E+00
   -0.27940E-20         0.00000E+00         0.00000E+00
   -0.23283E-20         0.34515E-20         0.00000E+00
   -0.27940E-20        -0.37253E-20         0.00000E+00
   -0.18626E-20        -0.18626E-19         0.00000E+00
   -0.22941E-20        -0.22352E-19         0.00000E+00
   -0.27940E-20        -0.18626E-19         0.00000E+00
   -0.23283E-20        -0.16764E-19         0.00000E+00
   -0.18626E-20        -0.16490E-19         0.00000E+00
   -0.93132E-21        -0.55879E-20         0.00000E+00
   -0.93132E-21         0.15889E-20         0.00000E+00
    0.00000E+00         0.58617E-20         0.00000E+00
    0.46566E-21         0.11176E-19         0.00000E+00
    0.46566E-21         0.13039E-19         0.00000E+00
    0.46566E-21         0.15175E-19         0.00000E+00
   -0.18284E-20         0.90395E-20         0.00000E+00
   -0.20955E-20         0.10902E-19         0.00000E+00
   -0.37253E-20         0.00000E+00         0.00000E+00
   -0.27940E-20        -0.18626E-19         0.00000E+00
   -0.18626E-20        -0.27666E-19         0.00000E+00
   -0.23283E-21        -0.27666E-19         0.00000E+00
   -0.94843E-21        -0.24214E-19         0.00000E+00
   -0.91421E-21        -0.17038E-19         0.00000E+00
   -0.13970E-20         0.00000E+00         0.00000E+00
   -0.93132E-21         0.27376E-21         0.00000E+00
   -0.46566E-21         0.74506E-20         0.00000E+00
    0.93132E-21         0.11176E-19         0.00000E+00
    0.13799E-20        -0.39990E-20         0.00000E+00
    0.37253E-20        -0.77243E-20         0.00000E+00
    0.51223E-20         0.39990E-20         0.00000E+00
    0.46566E-20         0.18626E-19         0.00000E+00
    0.23283E-20         0.18626E-19         0.00000E+00
    0.19705E-20         0.16764E-19         0.00000E+00
    0.46566E-21         0.18353E-19         0.00000E+00
    0.10392E-20         0.93132E-20         0.00000E+00
    0.82346E-21        -0.34515E-20         0.00000E+00
    0.93132E-21        -0.71768E-20         0.00000E+00
    0.18626E-20        -0.11450E-19         0.00000E+00
    0.13970E-20        -0.26351E-19         0.00000E+00
    0.18626E-20        -0.29529E-19         0.00000E+00
    0.20955E-20        -0.29529E-19         0.00000E+00
    0.37792E-20        -0.35390E-19         0.00000E+00
    0.47105E-20        -0.33801E-19         0.00000E+00
    0.41910E-20        -0.28213E-19         0.00000E+00
    0.51223E-20        -0.18626E-19         0.00000E+00
    0.46566E-20        -0.20489E-19         0.00000E+00
    0.51670E-20        -0.13039E-19         0.00000E+00
    0.51223E-20         0.37253E-20         0.00000E+00
    0.46566E-20         0.74506E-20         0.00000E+00
   -0.18626E-20         0.00000E+00         0.00000E+00
   -0.13970E-20         0.21364E-20         0.00000E+00
   -0.18626E-20         0.39990E-20         0.00000E+00
   -0.37253E-20         0.34515E-20         0.00000E+00
   -0.46566E-20        -0.21364E-20         0.00000E+00
   -0.37253E-20        -0.14627E-19         0.00000E+00
   -0.33281E-20        -0.22078E-19         0.00000E+00
   -0.37595E-20        -0.24488E-19         0.00000E+00
   -0.23283E-20        -0.22625E-19         0.00000E+00
   -0.46566E-21        -0.16764E-19         0.00000E+00
   -0.46566E-21        -0.20489E-19         0.00000E+00
   -0.89710E-21        -0.11176E-19         0.00000E+00
   -0.49988E-21        -0.18626E-20         0.00000E+00
    0.00000E+00         0.00000E+00         0.00000E+00
    0.13970E-20         0.37253E-20         0.00000E+00
    0.27940E-20         0.74506E-20         0.00000E+00
    0.23283E-20         0.16764E-19         0.00000E+00
    0.32254E-20         0.16764E-19         0.00000E+00
    0.23112E-20         0.12765E-19         0.00000E+00
    0.13970E-20         0.18626E-20         0.00000E+00
    0.46566E-21        -0.18353E-19         0.00000E+00
    0.46566E-21        -0.24214E-19         0.00000E+00
   -0.28111E-20        -0.22352E-19         0.00000E+00
   -0.37082E-20        -0.16490E-19         0.00000E+00
   -0.44409E-20        -0.55879E-20         0.00000E+00
   -0.51223E-20        -0.58617E-20         0.00000E+00
   -0.46566E-20        -0.55879E-20         0.00000E+00
   -0.46566E-20         0.55879E-20         0.00000E+00
   -0.37253E-20         0.11176E-19         0.00000E+00
   -0.18455E-20         0.00000E+00         0.00000E+00
    0.00000E+00        -0.74506E-20         0.00000E+00
   -0.46566E-21         0.37253E-20         0.00000E+00
   -0.71560E-21         0.18626E-19         0.00000E+00
   -0.93132E-21         0.14901E-19         0.00000E+00
   -0.12720E-20         0.93132E-20         0.00000E+00
    0.82346E-21         0.34515E-20         0.00000E+00
    0.23283E-20        -0.18626E-20         0.00000E+00
    0.24362E-20         0.27376E-21         0.00000E+00
    0.18626E-20        -0.18626E-20         0.00000E+00
    0.37253E-20        -0.74506E-20         0.00000E+00
    0.37253E-20        -0.20763E-19         0.00000E+00
    0.34925E-20        -0.26077E-19         0.00000E+00
    0.20415E-20        -0.27392E-19         0.00000E+00
    0.11642E-20        -0.40978E-19         0.00000E+00
    0.35780E-21        -0.39389E-19         0.00000E+00
    0.00000E+00        -0.26077E-19         0.00000E+00
   -0.20955E-20        -0.14627E-19         0.00000E+00
   -0.34925E-20        -0.74506E-20         0.00000E+00
   -0.51223E-20        -0.27376E-21         0.00000E+00
   -0.41910E-20         0.55879E-20         0.00000E+00
   -0.37253E-20         0.37253E-20         0.00000E+00
   -0.32596E-20         0.37253E-20         0.00000E+00
   -0.41910E-20         0.55879E-20         0.00000E+00
   -0.51223E-20         0.11176E-19         0.00000E+00
   -0.51223E-20         0.13312E-19         0.00000E+00
   -0.60536E-20         0.37253E-20         0.00000E+00
   -0.51223E-20        -0.95870E-20         0.00000E+00
   -0.41567E-20        -0.20763E-19         0.00000E+00
   -0.32254E-20        -0.27940E-19         0.00000E+00
   -0.32596E-20        -0.33254E-19         0.00000E+00
   -0.23283E-20        -0.24214E-19         0.00000E+00
   -0.23283E-20        -0.13039E-19         0.00000E+00
   -0.32596E-20        -0.74506E-20         0.00000E+00
   -0.27597E-20        -0.55879E-20         0.00000E+00
   -0.32254E-20        -0.34515E-20         0.00000E+00
   -0.27597E-20        -0.18626E-20         0.00000E+00
   -0.27940E-20         0.71768E-20         0.00000E+00
   -0.23283E-20         0.14901E-19         0.00000E+00
   -0.43144E-21         0.11176E-19         0.00000E+00
   -0.11470E-20         0.18626E-19         0.00000E+00
   -0.46566E-21         0.74506E-20         0.00000E+00
   -0.93132E-21        -0.14901E-19         0.00000E+00
   -0.18626E-20        -0.10902E-19         0.00000E+00
   -0.13799E-20        -0.74506E-20         0.00000E+00
   -0.13970E-20        -0.14901E-19         0.00000E+00
   -0.11642E-20        -0.74506E-20         0.00000E+00
   -0.46566E-21        -0.25146E-33         0.00000E+00
   -0.93132E-21        -0.34515E-20         0.00000E+00
   -0.13970E-20         0.34515E-20         0.00000E+00
   -0.18626E-20        -0.21364E-20         0.00000E+00
   -0.18626E-20        -0.22352E-19         0.00000E+00
   -0.16298E-20        -0.14901E-19         0.00000E+00
   -0.30268E-20         0.77243E-20         0.00000E+00
   -0.20784E-20         0.20763E-19         0.00000E+00
   -0.18626E-20         0.18353E-19         0.00000E+00
   -0.18626E-20         0.71768E-20         0.00000E+00
   -0.93132E-21         0.37253E-20         0.00000E+00
   -0.13970E-20         0.37253E-20         0.00000E+00
   -0.69849E-21        -0.37253E-20         0.00000E+00
   -0.10392E-20        -0.14901E-19         0.00000E+00
   -0.13970E-20        -0.18626E-19         0.00000E+00
   -0.46566E-21        -0.22352E-19         0.00000E+00
    0.35780E-21        -0.20489E-19         0.00000E+00
    0.00000E+00        -0.18900E-19         0.00000E+00
   -0.14509E-20        -0.27666E-19         0.00000E+00
   -0.27940E-20        -0.31391E-19         0.00000E+00
   -0.37253E-20        -0.15175E-19         0.00000E+00
   -0.44777E-20        -0.65756E-21         0.00000E+00
   -0.34030E-20        -0.65193E-20         0.00000E+00
   -0.39134E-20        -0.95870E-20         0.00000E+00
   -0.27940E-20        -0.18626E-20         0.00000E+00
   -0.18626E-20         0.00000E+00         0.00000E+00
   -0.41910E-20         0.74506E-20         0.00000E+00
   -0.46566E-20         0.11176E-19         0.00000E+00
   -0.37253E-20         0.93132E-20         0.00000E+00
   -0.23283E-20         0.93132E-20         0.00000E+00
   -0.46566E-21        -0.18626E-20         0.00000E+00
   -0.46566E-21        -0.26077E-19         0.00000E+00
    0.96554E-21        -0.33528E-19         0.00000E+00
    0.89710E-21        -0.28213E-19         0.00000E+00
    0.96554E-21        -0.24214E-19         0.00000E+00
    0.00000E+00        -0.21804E-19         0.00000E+00
   -0.69849E-21        -0.16490E-19         0.00000E+00
    0.00000E+00        -0.77243E-20         0.00000E+00
    0.46566E-21        -0.39990E-20         0.00000E+00
    0.00000E+00        -0.37253E-20         0.00000E+00
   -0.96554E-21         0.37253E-20         0.00000E+00
   -0.46566E-21         0.74506E-20         0.00000E+00
    0.93132E-21         0.37253E-20         0.00000E+00
    0.46566E-21         0.93132E-20         0.00000E+00
    0.69849E-21         0.14901E-19         0.00000E+00
    0.25611E-20         0.18626E-20         0.00000E+00
    0.23283E-20        -0.13039E-19         0.00000E+00
    0.14141E-20        -0.20489E-19         0.00000E+00
    0.32596E-20        -0.24214E-19         0.00000E+00
    0.37253E-20        -0.18626E-19         0.00000E+00
    0.30439E-20        -0.95870E-20         0.00000E+00
    0.37253E-20        -0.93132E-20         0.00000E+00
    0.41910E-20        -0.15889E-20         0.00000E+00
    0.46566E-20         0.11176E-19         0.00000E+00
    0.23283E-20         0.13039E-19         0.00000E+00
   -0.13970E-20         0.18626E-20         0.00000E+00
   -0.48723E-20        -0.18626E-20         0.00000E+00
   -0.39410E-20         0.58617E-20         0.00000E+00
   -0.27940E-20         0.11176E-19         0.00000E+00
   -0.18626E-20         0.10902E-19         0.00000E+00
   -0.46566E-21         0.74506E-20         0.00000E+00
   -0.46566E-21         0.37253E-20         0.00000E+00
   -0.93132E-21        -0.37253E-20         0.00000E+00
   -0.15048E-20        -0.37253E-20         0.00000E+00
   -0.34069E-21         0.00000E+00         0.00000E+00
   -0.13970E-20        -0.74506E-20         0.00000E+00
   -0.13970E-20        -0.26077E-19         0.00000E+00
   -0.31518E-20        -0.30076E-19         0.00000E+00
   -0.32596E-20        -0.22352E-19         0.00000E+00
   -0.34385E-20        -0.27666E-19         0.00000E+00
   -0.18626E-20        -0.26077E-19         0.00000E+00
   -0.25611E-20        -0.16764E-19         0.00000E+00
   -0.87739E-21        -0.14901E-19         0.00000E+00
    0.14338E-21        -0.93132E-20         0.00000E+00
    0.46566E-21        -0.55879E-20         0.00000E+00
    0.93132E-21        -0.58617E-20         0.00000E+00
    0.46566E-21        -0.42728E-20         0.00000E+00
    0.18626E-20         0.37253E-20         0.00000E+00
    0.23283E-20         0.18626E-20         0.00000E+00
    0.23283E-20         0.00000E+00         0.00000E+00
    0.93132E-21        -0.18626E-20         0.00000E+00
    0.46566E-21        -0.39990E-20         0.00000E+00
   -0.13970E-20        -0.16764E-19         0.00000E+00
   -0.27940E-20        -0.29529E-19         0.00000E+00
   -0.32254E-20        -0.27666E-19         0.00000E+00
   -0.37253E-20        -0.27940E-19         0.00000E+00
   -0.41910E-20        -0.18626E-19         0.00000E+00
   -0.32938E-20        -0.13039E-19         0.00000E+00
   -0.23283E-20        -0.11450E-19         0.00000E+00
   -0.14312E-20        -0.37253E-20         0.00000E+00
   -0.69849E-21         0.18626E-20         0.00000E+00
   -0.13628E-20         0.00000E+00         0.00000E+00
    0.00000E+00        -0.27376E-21         0.00000E+00
   -0.89710E-21         0.74506E-20         0.00000E+00
   -0.23283E-20         0.93132E-20         0.00000E+00
   -0.18455E-20         0.93132E-20         0.00000E+00
   -0.23112E-20         0.21364E-20         0.00000E+00
   -0.13970E-20        -0.74506E-20         0.00000E+00
   -0.24994E-21        -0.16764E-19         0.00000E+00
   -0.11642E-20        -0.20489E-19         0.00000E+00
   -0.13970E-20        -0.13039E-19         0.00000E+00
   -0.94843E-21        -0.77243E-20         0.00000E+00
   -0.13970E-20        -0.71768E-20         0.00000E+00
   -0.23283E-20        -0.90395E-20         0.00000E+00
   -0.23283E-20         0.14627E-19         0.00000E+00
   -0.27940E-20         0.27940E-19         0.00000E+00
   -0.20955E-20         0.11176E-19         0.00000E+00
   -0.13970E-20        -0.18626E-20         0.00000E+00
   -0.69849E-21         0.00000E+00         0.00000E+00
   -0.93132E-21         0.74506E-20         0.00000E+00
    0.00000E+00         0.71768E-20         0.00000E+00
    0.93132E-21         0.37253E-20         0.00000E+00
    0.69849E-21         0.39990E-20         0.00000E+00
    0.13970E-20         0.74506E-20         0.00000E+00
    0.19705E-20        -0.37253E-20         0.00000E+00
    0.20955E-20        -0.14901E-19         0.00000E+00
    0.18626E-20        -0.14901E-19         0.00000E+00
    0.18626E-20        -0.14901E-19         0.00000E+00
    0.15220E-20        -0.11176E-19         0.00000E+00
    0.93132E-21        -0.18626E-19         0.00000E+00
    0.41173E-21        -0.35664E-19         0.00000E+00
    0.46566E-21        -0.33528E-19         0.00000E+00
    0.87739E-21        -0.20873E-19         0.00000E+00
    0.21849E-20        -0.10245E-19         0.00000E+00
    0.21849E-20        -0.13312E-19         0.00000E+00
    0.32596E-20        -0.14901E-19         0.00000E+00
    0.23283E-20        -0.39990E-20         0.00000E+00
    0.18626E-20         0.31778E-20         0.00000E+00
    0.37253E-20         0.74506E-20         0.00000E+00
    0.37253E-20         0.11176E-19         0.00000E+00
    0.32596E-20         0.14627E-19         0.00000E+00
    0.37253E-20         0.18353E-19         0.00000E+00
    0.37253E-20         0.11176E-19         0.00000E+00
    0.32596E-20        -0.11176E-19         0.00000E+00
    0.93132E-21        -0.23941E-19         0.00000E+00
   -0.46566E-21        -0.21804E-19         0.00000E+00
   -0.18969E-20        -0.20215E-19         0.00000E+00
   -0.32596E-20        -0.26351E-19         0.00000E+00
   -0.41567E-20        -0.26351E-19         0.00000E+00
   -0.46908E-20        -0.14901E-19         0.00000E+00
   -0.53209E-20        -0.93132E-20         0.00000E+00
   -0.42252E-20        -0.34515E-20         0.00000E+00
   -0.41910E-20        -0.18626E-20         0.00000E+00
   -0.51223E-20         0.34515E-20         0.00000E+00
   -0.65535E-20         0.14901E-19         0.00000E+00
   -0.37253E-20         0.14627E-19         0.00000E+00
   -0.32767E-20         0.14901E-19         0.00000E+00
   -0.32767E-20         0.27376E-21         0.00000E+00
   -0.41738E-20        -0.22352E-19         0.00000E+00
   -0.37253E-20        -0.22352E-19         0.00000E+00
   -0.46395E-20        -0.18900E-19         0.00000E+00
   -0.32596E-20        -0.18626E-19         0.00000E+00
   -0.34753E-20        -0.11176E-19         0.00000E+00
   -0.37253E-20        -0.34515E-20         0.00000E+00
   -0.37253E-20         0.21364E-20         0.00000E+00
   -0.39581E-20         0.14354E-19         0.00000E+00
   -0.18626E-20         0.13039E-19         0.00000E+00
   -0.17110E-22        -0.71768E-20         0.00000E+00
    0.18626E-20        -0.93132E-20         0.00000E+00
    0.18455E-20         0.55879E-20         0.00000E+00
    0.13970E-20         0.74506E-20         0.00000E+00
    0.93132E-21         0.18626E-20         0.00000E+00
    0.93132E-21         0.37253E-20         0.00000E+00
    0.68138E-21         0.00000E+00         0.00000E+00
    0.13970E-20        -0.74506E-20         0.00000E+00
    0.24533E-20        -0.37253E-20         0.00000E+00
    0.27769E-20         0.00000E+00         0.00000E+00
    0.18626E-20        -0.11176E-19         0.00000E+00
    0.13970E-20        -0.26077E-19         0.00000E+00
    0.27940E-20        -0.22078E-19         0.00000E+00
    0.27940E-20        -0.16764E-19         0.00000E+00
    0.16837E-20        -0.26351E-19         0.00000E+00
    0.18626E-20        -0.28213E-19         0.00000E+00
    0.28479E-20        -0.24488E-19         0.00000E+00
    0.27940E-20        -0.22352E-19         0.00000E+00
    0.30268E-20        -0.16490E-19         0.00000E+00
    0.93132E-21        -0.53142E-20         0.00000E+00
    0.93132E-21         0.15889E-20         0.00000E+00
    0.46566E-21        -0.54752E-21         0.00000E+00
   -0.46566E-21         0.31778E-20         0.00000E+00
   -0.93132E-21         0.37253E-20         0.00000E+00
    0.00000E+00         0.27376E-21         0.00000E+00
    0.18626E-20        -0.18626E-20         0.00000E+00
    0.41910E-20        -0.21364E-20         0.00000E+00
    0.41910E-20        -0.55879E-20         0.00000E+00
    0.36911E-20        -0.90395E-20         0.00000E+00
    0.32254E-20        -0.13039E-19         0.00000E+00
    0.42252E-20        -0.15175E-19         0.00000E+00
    0.51565E-20        -0.74506E-20         0.00000E+00
    0.46224E-20        -0.74506E-20         0.00000E+00
    0.37595E-20        -0.74506E-20         0.00000E+00
    0.18626E-20        -0.53142E-20         0.00000E+00
    0.28282E-20        -0.18626E-20         0.00000E+00
    0.13628E-20         0.37253E-20         0.00000E+00
    0.46566E-21         0.93132E-20         0.00000E+00
    0.93132E-21         0.37253E-20         0.00000E+00
    0.25611E-20        -0.37253E-20         0.00000E+00
    0.32596E-20         0.53142E-20         0.00000E+00
    0.35096E-20         0.55879E-20         0.00000E+00
    0.13970E-20        -0.71768E-20         0.00000E+00
    0.00000E+00        -0.13039E-19         0.00000E+00
   -0.48277E-21        -0.18626E-19         0.00000E+00
   -0.13970E-20        -0.20215E-19         0.00000E+00
   -0.32596E-20        -0.58617E-20         0.00000E+00
   -0.37253E-20        -0.55879E-20         0.00000E+00
   -0.13970E-20        -0.71768E-20         0.00000E+00
    0.94843E-21         0.34515E-20         0.00000E+00
    0.18626E-20         0.74506E-20         0.00000E+00
    0.11813E-20        -0.55879E-20         0.00000E+00
   -0.13970E-20        -0.13039E-19         0.00000E+00
   -0.20955E-20         0.18626E-20         0.00000E+00
   -0.93132E-21         0.14901E-19         0.00000E+00
   -0.13970E-20         0.93132E-20         0.00000E+00
   -0.93132E-21         0.37253E-20         0.00000E+00
    0.11642E-20         0.15889E-20         0.00000E+00
    0.69849E-21        -0.37253E-20         0.00000E+00
    0.00000E+00        -0.10902E-19         0.00000E+00
   -0.10786E-21        -0.95870E-20         0.00000E+00
    0.20955E-20        -0.55879E-20         0.00000E+00
    0.18626E-20        -0.18626E-19         0.00000E+00
    0.11642E-20        -0.20489E-19         0.00000E+00
    0.18626E-20        -0.12765E-19         0.00000E+00
    0.30268E-20        -0.29802E-19         0.00000E+00
    0.25611E-20        -0.41252E-19         0.00000E+00
    0.29729E-20        -0.26077E-19         0.00000E+00
    0.10747E-20        -0.10902E-19         0.00000E+00
    0.14338E-21        -0.37253E-20         0.00000E+00
   -0.93132E-21        -0.39990E-20         0.00000E+00
   -0.46566E-21        -0.27376E-21         0.00000E+00
   -0.93132E-21         0.74506E-20         0.00000E+00
    0.13970E-20         0.74506E-20         0.00000E+00
    0.93132E-21         0.55879E-20         0.00000E+00
   -0.46566E-21         0.15889E-20         0.00000E+00
   -0.93132E-21         0.15889E-20         0.00000E+00
   -0.93132E-21        -0.18626E-20         0.00000E+00
   -0.13970E-20        -0.10902E-19         0.00000E+00
    0.00000E+00        -0.18626E-19         0.00000E+00
    0.14312E-20        -0.24214E-19         0.00000E+00
    0.22941E-20        -0.29529E-19         0.00000E+00
    0.22941E-20        -0.27940E-19         0.00000E+00
    0.32938E-20        -0.18626E-19         0.00000E+00
    0.37253E-20        -0.37253E-20         0.00000E+00
    0.36911E-20        -0.37253E-20         0.00000E+00
    0.39581E-20         0.00000E+00         0.00000E+00
    0.55879E-20         0.74506E-20         0.00000E+00
    0.65193E-20         0.55879E-20         0.00000E+00
    0.60536E-20         0.74506E-20         0.00000E+00
    0.32254E-20         0.53142E-20         0.00000E+00
    0.13970E-20         0.90395E-20         0.00000E+00
   -0.48277E-21         0.77243E-20         0.00000E+00
   -0.11642E-20        -0.55879E-20         0.00000E+00
   -0.46566E-21        -0.13312E-19         0.00000E+00
    0.46566E-21        -0.11176E-19         0.00000E+00
    0.00000E+00        -0.50404E-20         0.00000E+00
    0.93132E-21         0.00000E+00         0.00000E+00
    0.18626E-20        -0.11450E-19         0.00000E+00
    0.13970E-20        -0.20489E-19         0.00000E+00
   -0.24994E-21        -0.39990E-20         0.00000E+00
   -0.18626E-20         0.13312E-19         0.00000E+00
   -0.13970E-20         0.11450E-19         0.00000E+00
   -0.93132E-21         0.55879E-20         0.00000E+00
   -0.13799E-20         0.18626E-20         0.00000E+00
   -0.13970E-20         0.55879E-20         0.00000E+00
   -0.93132E-21         0.37253E-20         0.00000E+00
   -0.13970E-20        -0.93132E-20         0.00000E+00
   -0.15048E-20        -0.95870E-20         0.00000E+00
   -0.22033E-20        -0.18626E-20         0.00000E+00
   -0.23283E-20        -0.15889E-20         0.00000E+00
   -0.17548E-20        -0.11176E-19         0.00000E+00
   -0.10392E-20        -0.16764E-19         0.00000E+00
    0.00000E+00        -0.20489E-19         0.00000E+00
   -0.12497E-21        -0.24214E-19         0.00000E+00
    0.13970E-20        -0.24488E-19         0.00000E+00
    0.36714E-20        -0.29802E-19         0.00000E+00
    0.42449E-20        -0.29802E-19         0.00000E+00
    0.27940E-20        -0.17038E-19         0.00000E+00
    0.33491E-20        -0.74506E-20         0.00000E+00
    0.26506E-20        -0.71768E-20         0.00000E+00
    0.27940E-20        -0.15889E-20         0.00000E+00
    0.32596E-20         0.15889E-20         0.00000E+00
    0.37253E-20        -0.54752E-21         0.00000E+00
    0.32596E-20         0.74506E-20         0.00000E+00
    0.46566E-20         0.12765E-19         0.00000E+00
    0.46908E-20         0.93132E-20         0.00000E+00
    0.37253E-20         0.39990E-20         0.00000E+00
    0.36911E-20        -0.27376E-21         0.00000E+00
    0.32596E-20        -0.13312E-19         0.00000E+00
    0.28282E-20        -0.22078E-19         0.00000E+00
    0.13628E-20        -0.24214E-19         0.00000E+00
   -0.43144E-21        -0.18900E-19         0.00000E+00
   -0.23283E-20        -0.10902E-19         0.00000E+00
   -0.32938E-20        -0.13039E-19         0.00000E+00
   -0.23283E-20        -0.95870E-20         0.00000E+00
   -0.13628E-20        -0.71768E-20         0.00000E+00
   -0.14312E-20        -0.12765E-19         0.00000E+00
    0.00000E+00        -0.93132E-20         0.00000E+00
    0.93132E-21         0.71768E-20         0.00000E+00
    0.18626E-20         0.18353E-19         0.00000E+00
    0.96554E-21         0.18626E-19         0.00000E+00
    0.00000E+00         0.24214E-19         0.00000E+00
    0.23283E-21         0.18900E-19         0.00000E+00
    0.91421E-21        -0.55879E-20         0.00000E+00
    0.93132E-21        -0.22352E-19         0.00000E+00
    0.46566E-21        -0.22352E-19         0.00000E+00
    0.23283E-20        -0.22625E-19         0.00000E+00
    0.32596E-20        -0.16764E-19         0.00000E+00
    0.41910E-20        -0.74506E-20         0.00000E+00
    0.27940E-20         0.55879E-20         0.00000E+00
    0.18626E-20         0.18626E-19         0.00000E+00
    0.13970E-20         0.13039E-19         0.00000E+00
    0.18626E-20        -0.71768E-20         0.00000E+00
    0.23283E-20        -0.13039E-19         0.00000E+00
    0.41910E-20         0.37253E-20         0.00000E+00
    0.41910E-20         0.11176E-19         0.00000E+00
    0.37253E-20         0.90395E-20         0.00000E+00
    0.32596E-20         0.77243E-20         0.00000E+00
    0.35780E-21         0.55879E-20         0.00000E+00
   -0.69849E-21         0.00000E+00         0.00000E+00
    0.00000E+00        -0.13039E-19         0.00000E+00
    0.12497E-21        -0.17038E-19         0.00000E+00
   -0.12891E-20        -0.16490E-19         0.00000E+00
   -0.18626E-20        -0.22352E-19         0.00000E+00
   -0.80635E-21        -0.24488E-19         0.00000E+00
   -0.20415E-20        -0.33254E-19         0.00000E+00
   -0.13431E-20        -0.44430E-19         0.00000E+00
    0.17890E-21        -0.35664E-19         0.00000E+00
    0.53930E-22        -0.21420E-19         0.00000E+00
    0.46566E-21        -0.81081E-20         0.00000E+00
    0.23283E-21        -0.39990E-20         0.00000E+00
    0.00000E+00        -0.55879E-20         0.00000E+00
    0.46566E-21        -0.37253E-20         0.00000E+00
    0.46566E-21        -0.54752E-21         0.00000E+00
    0.27940E-20        -0.42728E-20         0.00000E+00
    0.18626E-20         0.51628E-33         0.00000E+00
    0.27597E-20         0.58617E-20         0.00000E+00
    0.23283E-20         0.71768E-20         0.00000E+00
    0.23625E-20         0.15889E-20         0.00000E+00
    0.18626E-20        -0.74506E-20         0.00000E+00
    0.93132E-21        -0.90395E-20         0.00000E+00
    0.49988E-21        -0.93132E-20         0.00000E+00
    0.13628E-20        -0.13039E-19         0.00000E+00
    0.27940E-20        -0.14627E-19         0.00000E+00
    0.42252E-20        -0.16764E-19         0.00000E+00
    0.60536E-20        -0.11450E-19         0.00000E+00
    0.55879E-20        -0.11450E-19         0.00000E+00
    0.42252E-20        -0.71768E-20         0.00000E+00
    0.14312E-20        -0.15889E-20         0.00000E+00
    0.00000E+00        -0.39990E-20         0.00000E+00
    0.93132E-21         0.71768E-20         0.00000E+00
    0.13970E-20         0.14901E-19         0.00000E+00
    0.13970E-20         0.11176E-19         0.00000E+00
    0.28111E-20         0.37253E-20         0.00000E+00
    0.37253E-20        -0.93132E-20         0.00000E+00
    0.27940E-20        -0.14901E-19         0.00000E+00
    0.13970E-20        -0.16764E-19         0.00000E+00
    0.93132E-21        -0.16490E-19         0.00000E+00
    0.23283E-21        -0.93132E-20         0.00000E+00
    0.00000E+00        -0.93132E-20         0.00000E+00
    0.46566E-21        -0.93132E-20         0.00000E+00
    0.23283E-20         0.34515E-20         0.00000E+00
    0.23283E-20         0.11176E-19         0.00000E+00
    0.18626E-20         0.77243E-20         0.00000E+00
    0.13970E-20        -0.37253E-20         0.00000E+00
   -0.17110E-22        -0.74506E-20         0.00000E+00
    0.00000E+00         0.74506E-20         0.00000E+00
   -0.46566E-21         0.71768E-20         0.00000E+00
   -0.18626E-20         0.74506E-20         0.00000E+00
   -0.13970E-20         0.11176E-19         0.00000E+00
   -0.82346E-21         0.00000E+00         0.00000E+00
   -0.11642E-20        -0.37253E-20         0.00000E+00
   -0.17548E-20        -0.34515E-20         0.00000E+00
   -0.15048E-20        -0.10902E-19         0.00000E+00
   -0.46566E-21        -0.22352E-19         0.00000E+00
   -0.12497E-21        -0.22625E-19         0.00000E+00
    0.23283E-21        -0.22352E-19         0.00000E+00
   -0.98525E-21        -0.40704E-19         0.00000E+00
   -0.27940E-20        -0.37527E-19         0.00000E+00
   -0.19166E-20        -0.17038E-19         0.00000E+00
   -0.14338E-21        -0.90395E-20         0.00000E+00
    0.14864E-20        -0.53142E-20         0.00000E+00
    0.22389E-20        -0.21364E-20         0.00000E+00
    0.13970E-20        -0.27376E-21         0.00000E+00
    0.13970E-20         0.00000E+00         0.00000E+00
   -0.93132E-21         0.15449E-19         0.00000E+00
   -0.23283E-20         0.13312E-19         0.00000E+00
   -0.23283E-20         0.71768E-20         0.00000E+00
   -0.46566E-21         0.53142E-20         0.00000E+00
    0.18626E-20         0.37253E-20         0.00000E+00
    0.37253E-20        -0.55879E-20         0.00000E+00
    0.46566E-20        -0.16490E-19         0.00000E+00
    0.55537E-20        -0.27940E-19         0.00000E+00
    0.65193E-20        -0.31939E-19         0.00000E+00
    0.65193E-20        -0.25803E-19         0.00000E+00
    0.64850E-20        -0.25803E-19         0.00000E+00
    0.74506E-20        -0.16764E-19         0.00000E+00
    0.69849E-20        -0.27376E-21         0.00000E+00
    0.62522E-20         0.93132E-20         0.00000E+00
    0.55537E-20         0.11176E-19         0.00000E+00
    0.46566E-20         0.90395E-20         0.00000E+00
    0.27940E-20         0.11450E-19         0.00000E+00
    0.36911E-20         0.16764E-19         0.00000E+00
    0.18626E-20         0.18353E-19         0.00000E+00
    0.94843E-21         0.74506E-20         0.00000E+00
    0.13970E-20        -0.74506E-20         0.00000E+00
    0.94843E-21        -0.11176E-19         0.00000E+00
    0.18626E-20        -0.11176E-19         0.00000E+00
    0.13799E-20        -0.16490E-19         0.00000E+00
    0.91421E-21        -0.14901E-19         0.00000E+00
    0.93132E-21        -0.95870E-20         0.00000E+00
    0.13970E-20        -0.37253E-20         0.00000E+00
    0.93132E-21         0.11176E-19         0.00000E+00
    0.00000E+00         0.13039E-19         0.00000E+00
   -0.69849E-21        -0.37253E-20         0.00000E+00
   -0.18626E-20        -0.18626E-20         0.00000E+00
   -0.37082E-20         0.11450E-19         0.00000E+00
   -0.60707E-20         0.14901E-19         0.00000E+00
   -0.69849E-20         0.18626E-19         0.00000E+00
   -0.69849E-20         0.11176E-19         0.00000E+00
   -0.60536E-20        -0.27376E-21         0.00000E+00
   -0.51223E-20         0.27376E-21         0.00000E+00
   -0.47816E-20        -0.71768E-20         0.00000E+00
   -0.40660E-20        -0.16764E-19         0.00000E+00
   -0.27940E-20        -0.22352E-19         0.00000E+00
    0.00000E+00        -0.30076E-19         0.00000E+00
    0.46566E-21        -0.28213E-19         0.00000E+00
    0.13431E-20        -0.27940E-19         0.00000E+00
    0.23822E-20        -0.31665E-19         0.00000E+00
    0.13970E-20        -0.33528E-19         0.00000E+00
    0.14509E-20        -0.31665E-19         0.00000E+00
    0.75242E-21        -0.24214E-19         0.00000E+00
    0.17732E-20        -0.16490E-19         0.00000E+00
    0.35372E-20        -0.53142E-20         0.00000E+00
    0.46566E-20        -0.27376E-21         0.00000E+00
    0.55879E-20        -0.54752E-21         0.00000E+00
   -0.37253E-20         0.74506E-20         0.00000E+00
   -0.23283E-20         0.55879E-20         0.00000E+00
   -0.23625E-20        -0.15889E-20         0.00000E+00
   -0.13970E-20        -0.13039E-19         0.00000E+00
   -0.93132E-21        -0.20763E-19         0.00000E+00
    0.00000E+00        -0.22352E-19         0.00000E+00
    0.18284E-20        -0.18626E-19         0.00000E+00
    0.20955E-20        -0.18626E-19         0.00000E+00
    0.49988E-21        -0.16764E-19         0.00000E+00
    0.34220E-22        -0.13039E-19         0.00000E+00
   -0.43144E-21        -0.20489E-19         0.00000E+00
   -0.18626E-20        -0.14627E-19         0.00000E+00
   -0.18626E-20        -0.53142E-20         0.00000E+00
    0.46566E-21         0.00000E+00         0.00000E+00
    0.93132E-21         0.53142E-20         0.00000E+00
    0.23283E-20         0.90395E-20         0.00000E+00
    0.18626E-20         0.11176E-19         0.00000E+00
    0.14312E-20         0.18626E-19         0.00000E+00
    0.23283E-20         0.26077E-19         0.00000E+00
    0.27769E-20         0.74506E-20         0.00000E+00
    0.27940E-20        -0.11176E-19         0.00000E+00
    0.39410E-20        -0.14901E-19         0.00000E+00
    0.41910E-20        -0.18626E-19         0.00000E+00
    0.49066E-20        -0.14901E-19         0.00000E+00
    0.37424E-20        -0.55879E-20         0.00000E+00
    0.37253E-20        -0.11176E-19         0.00000E+00
    0.23283E-20        -0.93132E-20         0.00000E+00
    0.39581E-20         0.11176E-19         0.00000E+00
    0.37253E-20         0.18626E-19         0.00000E+00
    0.27769E-20         0.16764E-19         0.00000E+00
    0.23283E-20         0.11176E-19         0.00000E+00
    0.23112E-20         0.13312E-19         0.00000E+00
    0.18798E-20         0.22352E-19         0.00000E+00
    0.93132E-21         0.10902E-19         0.00000E+00
    0.27940E-20         0.37253E-20         0.00000E+00
    0.23283E-20         0.37253E-20         0.00000E+00
    0.30268E-20        -0.55879E-20         0.00000E+00
    0.47816E-20        -0.93132E-20         0.00000E+00
    0.45488E-20        -0.13039E-19         0.00000E+00
    0.58208E-20        -0.29529E-19         0.00000E+00
    0.46566E-20        -0.40978E-19         0.00000E+00
    0.51223E-20        -0.31665E-19         0.00000E+00
    0.49434E-20        -0.29529E-19         0.00000E+00
    0.48894E-20        -0.40978E-19         0.00000E+00
    0.46566E-20        -0.31939E-19         0.00000E+00
    0.46027E-20        -0.15175E-19         0.00000E+00
    0.52117E-20        -0.12765E-19         0.00000E+00
    0.55879E-20        -0.16764E-19         0.00000E+00
    0.62864E-20        -0.15175E-19         0.00000E+00
    0.67521E-20        -0.11450E-19         0.00000E+00
    0.55879E-20        -0.11723E-19         0.00000E+00
   -0.13970E-20         0.37253E-20         0.00000E+00
   -0.13628E-20         0.55879E-20         0.00000E+00
   -0.18284E-20         0.18626E-20         0.00000E+00
   -0.27940E-20        -0.18626E-20         0.00000E+00
   -0.46566E-20        -0.37253E-20         0.00000E+00
   -0.60536E-20        -0.18353E-19         0.00000E+00
   -0.55537E-20        -0.26077E-19         0.00000E+00
   -0.46224E-20        -0.20489E-19         0.00000E+00
   -0.27940E-20        -0.22352E-19         0.00000E+00
   -0.46566E-21        -0.20763E-19         0.00000E+00
    0.46566E-21        -0.18626E-19         0.00000E+00
    0.00000E+00        -0.11176E-19         0.00000E+00
   -0.34220E-22        -0.74506E-20         0.00000E+00
   -0.66427E-21        -0.34515E-20         0.00000E+00
   -0.18626E-20        -0.10058E-32         0.00000E+00
   -0.16298E-20         0.34515E-20         0.00000E+00
   -0.13970E-20         0.15175E-19         0.00000E+00
   -0.27940E-20         0.14901E-19         0.00000E+00
   -0.18626E-20         0.10902E-19         0.00000E+00
   -0.23112E-20         0.37253E-20         0.00000E+00
   -0.25611E-20        -0.11176E-19         0.00000E+00
   -0.18626E-20        -0.18626E-19         0.00000E+00
   -0.32596E-20        -0.14901E-19         0.00000E+00
   -0.23283E-20        -0.13039E-19         0.00000E+00
   -0.11813E-20        -0.93132E-20         0.00000E+00
   -0.13970E-20        -0.15889E-20         0.00000E+00
   -0.13970E-20        -0.55879E-20         0.00000E+00
   -0.13799E-20         0.34515E-20         0.00000E+00
   -0.93132E-21         0.18626E-19         0.00000E+00
    0.48277E-21         0.37253E-20         0.00000E+00
    0.37253E-20         0.00000E+00         0.00000E+00
    0.46566E-20         0.13039E-19         0.00000E+00
    0.41910E-20         0.20489E-19         0.00000E+00
    0.55879E-20         0.14901E-19         0.00000E+00
    0.55879E-20         0.55879E-20         0.00000E+00
    0.58208E-20        -0.18626E-20         0.00000E+00
    0.59457E-20        -0.11176E-19         0.00000E+00
    0.66271E-20        -0.14901E-19         0.00000E+00
    0.75584E-20        -0.22352E-19         0.00000E+00
    0.75584E-20        -0.24214E-19         0.00000E+00
    0.51223E-20        -0.27666E-19         0.00000E+00
    0.34925E-20        -0.29529E-19         0.00000E+00
    0.15759E-20        -0.28213E-19         0.00000E+00
   -0.53930E-22        -0.27940E-19         0.00000E+00
   -0.13970E-20        -0.29802E-19         0.00000E+00
    0.00000E+00        -0.35390E-19         0.00000E+00
    0.78794E-21        -0.30734E-19         0.00000E+00
    0.11642E-20        -0.21694E-19         0.00000E+00
   -0.65377E-21        -0.93132E-20         0.00000E+00
   -0.14910E-20         0.34515E-20         0.00000E+00
   -0.23283E-20         0.69031E-20         0.00000E+00
   -0.23283E-20         0.79981E-20         0.00000E+00
   -0.23625E-20         0.93132E-20         0.00000E+00
   -0.46566E-21         0.53142E-20         0.00000E+00
   -0.93132E-21         0.00000E+00         0.00000E+00
   -0.96554E-21        -0.37253E-20         0.00000E+00
   -0.93132E-21        -0.14901E-19         0.00000E+00
   -0.18626E-20        -0.26077E-19         0.00000E+00
   -0.14312E-20        -0.33528E-19         0.00000E+00
   -0.46566E-21        -0.37253E-19         0.00000E+00
    0.00000E+00        -0.29802E-19         0.00000E+00
    0.46566E-21        -0.22352E-19         0.00000E+00
    0.20955E-20        -0.11176E-19         0.00000E+00
    0.25954E-20         0.00000E+00         0.00000E+00
    0.15956E-20         0.93132E-20         0.00000E+00
    0.14312E-20         0.74506E-20         0.00000E+00
    0.34220E-22         0.55879E-20         0.00000E+00
   -0.93132E-21         0.16764E-19         0.00000E+00
   -0.93132E-21         0.22352E-19         0.00000E+00
   -0.11642E-20         0.24214E-19         0.00000E+00
   -0.18798E-20         0.93132E-20         0.00000E+00
   -0.25440E-20        -0.11176E-19         0.00000E+00
   -0.37253E-20        -0.13039E-19         0.00000E+00
   -0.37253E-20        -0.16764E-19         0.00000E+00
   -0.23283E-20        -0.22078E-19         0.00000E+00
   -0.34753E-20        -0.13039E-19         0.00000E+00
   -0.37253E-20        -0.11176E-19         0.00000E+00
   -0.23283E-20        -0.74506E-20         0.00000E+00
   -0.20955E-20         0.71768E-20         0.00000E+00
   -0.46566E-21         0.74506E-20         0.00000E+00
    0.93132E-21        -0.55879E-20         0.00000E+00
    0.46566E-21        -0.74506E-20         0.00000E+00
    0.16298E-20         0.11450E-19         0.00000E+00
    0.27940E-20         0.18626E-19         0.00000E+00
    0.51223E-20         0.53142E-20         0.00000E+00
    0.55879E-20         0.18626E-20         0.00000E+00
    0.40660E-20         0.00000E+00         0.00000E+00
    0.36003E-20        -0.93132E-20         0.00000E+00
    0.24533E-20        -0.16764E-19         0.00000E+00
    0.31518E-20        -0.18626E-19         0.00000E+00
    0.16298E-20        -0.18626E-19         0.00000E+00
    0.46566E-21        -0.20489E-19         0.00000E+00
   -0.57352E-21        -0.14901E-19         0.00000E+00
   -0.18626E-20        -0.13039E-19         0.00000E+00
   -0.20415E-20        -0.26077E-19         0.00000E+00
   -0.93132E-21        -0.31665E-19         0.00000E+00
   -0.20955E-20        -0.23941E-19         0.00000E+00
   -0.46027E-20        -0.17695E-19         0.00000E+00
   -0.83819E-20        -0.86557E-20         0.00000E+00
   -0.81491E-20        -0.37253E-20         0.00000E+00
   -0.85207E-20        -0.39990E-20         0.00000E+00
   -0.79162E-20        -0.42728E-20         0.00000E+00
    0.55879E-20         0.00000E+00         0.00000E+00
    0.55879E-20        -0.34515E-20         0.00000E+00
    0.60536E-20        -0.37253E-20         0.00000E+00
    0.46566E-20        -0.51618E-33         0.00000E+00
    0.37253E-20        -0.37253E-20         0.00000E+00
    0.37253E-20        -0.13312E-19         0.00000E+00
    0.37253E-20        -0.22352E-19         0.00000E+00
    0.30610E-20        -0.27940E-19         0.00000E+00
    0.13628E-20        -0.29802E-19         0.00000E+00
   -0.34220E-22        -0.26077E-19         0.00000E+00
    0.46566E-21        -0.26077E-19         0.00000E+00
   -0.96554E-21        -0.18353E-19         0.00000E+00
   -0.49988E-21        -0.95870E-20         0.00000E+00
   -0.89710E-21        -0.27376E-21         0.00000E+00
   -0.46566E-21         0.95870E-20         0.00000E+00
   -0.46566E-21         0.16764E-19         0.00000E+00
   -0.89710E-21         0.22352E-19         0.00000E+00
    0.46566E-21         0.16764E-19         0.00000E+00
    0.18798E-20         0.16764E-19         0.00000E+00
    0.28111E-20         0.93132E-20         0.00000E+00
    0.39581E-20        -0.37253E-20         0.00000E+00
    0.41910E-20        -0.13039E-19         0.00000E+00
    0.48894E-20        -0.22352E-19         0.00000E+00
    0.48894E-20        -0.14627E-19         0.00000E+00
    0.41910E-20        -0.37253E-20         0.00000E+00
    0.44238E-20        -0.74506E-20         0.00000E+00
    0.27940E-20        -0.11176E-19         0.00000E+00
    0.27769E-20        -0.39990E-20         0.00000E+00
    0.18626E-20         0.18626E-20         0.00000E+00
    0.18626E-20        -0.37253E-20         0.00000E+00
    0.93132E-21        -0.18626E-20         0.00000E+00
    0.14141E-20         0.37253E-20         0.00000E+00
    0.41910E-20         0.37253E-20         0.00000E+00
    0.37253E-20         0.00000E+00         0.00000E+00
    0.27940E-20         0.74506E-20         0.00000E+00
    0.34925E-20         0.71768E-20         0.00000E+00
    0.11642E-20        -0.37253E-20         0.00000E+00
   -0.93132E-21        -0.12765E-19         0.00000E+00
   -0.15220E-20        -0.14901E-19         0.00000E+00
   -0.26690E-20        -0.93132E-20         0.00000E+00
   -0.41910E-20        -0.18353E-19         0.00000E+00
   -0.38503E-20        -0.18626E-19         0.00000E+00
   -0.41910E-20        -0.18900E-19         0.00000E+00
   -0.41910E-20        -0.33254E-19         0.00000E+00
   -0.41910E-20        -0.29802E-19         0.00000E+00
   -0.39042E-20        -0.15175E-19         0.00000E+00
   -0.38687E-20        -0.12051E-20         0.00000E+00
   -0.35819E-20        -0.43829E-20         0.00000E+00
   -0.40028E-20        -0.87657E-20         0.00000E+00
   -0.32596E-20         0.50404E-20         0.00000E+00
   -0.27940E-20         0.26303E-20         0.00000E+00
    0.83819E-20         0.74506E-20         0.00000E+00
    0.79162E-20         0.74506E-20         0.00000E+00
    0.65193E-20         0.10902E-19         0.00000E+00
    0.79162E-20         0.11176E-19         0.00000E+00
    0.74848E-20         0.27376E-21         0.00000E+00
    0.74506E-20        -0.14901E-19         0.00000E+00
    0.72177E-20        -0.22078E-19         0.00000E+00
    0.74506E-20        -0.22352E-19         0.00000E+00
    0.65193E-20        -0.22625E-19         0.00000E+00
    0.46566E-20        -0.24214E-19         0.00000E+00
    0.13970E-20        -0.18626E-19         0.00000E+00
   -0.89710E-21        -0.55879E-20         0.00000E+00
   -0.27940E-20         0.00000E+00         0.00000E+00
   -0.55879E-20         0.58617E-20         0.00000E+00
   -0.70191E-20         0.74506E-20         0.00000E+00
   -0.46908E-20         0.11176E-19         0.00000E+00
   -0.32938E-20         0.11176E-19         0.00000E+00
   -0.32596E-20         0.71768E-20         0.00000E+00
   -0.35096E-20         0.11176E-19         0.00000E+00
   -0.18798E-20        -0.18626E-20         0.00000E+00
    0.68138E-21        -0.18626E-19         0.00000E+00
    0.23283E-20        -0.18626E-19         0.00000E+00
    0.30097E-20        -0.18626E-19         0.00000E+00
    0.27769E-20        -0.18626E-19         0.00000E+00
    0.41910E-20        -0.11176E-19         0.00000E+00
    0.46737E-20        -0.37253E-20         0.00000E+00
    0.41910E-20         0.00000E+00         0.00000E+00
    0.18626E-20         0.14901E-19         0.00000E+00
    0.11642E-20         0.14901E-19         0.00000E+00
    0.00000E+00        -0.37253E-20         0.00000E+00
    0.00000E+00        -0.74506E-20         0.00000E+00
    0.11642E-20        -0.37253E-20         0.00000E+00
    0.69849E-21         0.74506E-20         0.00000E+00
    0.00000E+00         0.11176E-19         0.00000E+00
    0.00000E+00         0.18626E-20         0.00000E+00
    0.59063E-21         0.74506E-20         0.00000E+00
    0.82346E-21         0.13312E-19         0.00000E+00
    0.00000E+00         0.27376E-21         0.00000E+00
   -0.57352E-21        -0.95870E-20         0.00000E+00
   -0.46566E-21        -0.77243E-20         0.00000E+00
   -0.93132E-21        -0.11176E-19         0.00000E+00
   -0.18626E-20        -0.14901E-19         0.00000E+00
   -0.18626E-20        -0.13039E-19         0.00000E+00
   -0.20955E-20        -0.24214E-19         0.00000E+00
   -0.27940E-20        -0.33528E-19         0.00000E+00
   -0.30268E-20        -0.27940E-19         0.00000E+00
   -0.32596E-20        -0.18626E-19         0.00000E+00
   -0.16837E-20        -0.74506E-20         0.00000E+00
   -0.13523E-20        -0.55879E-20         0.00000E+00
   -0.46566E-21        -0.95870E-20         0.00000E+00
   -0.46566E-21        -0.79981E-20         0.00000E+00
    0.83819E-20         0.74506E-20         0.00000E+00
    0.90804E-20         0.74506E-20         0.00000E+00
    0.88476E-20        -0.15889E-20         0.00000E+00
    0.93132E-20        -0.37253E-20         0.00000E+00
    0.97789E-20        -0.39990E-20         0.00000E+00
    0.88476E-20        -0.13039E-19         0.00000E+00
    0.64850E-20        -0.20489E-19         0.00000E+00
    0.37253E-20        -0.24214E-19         0.00000E+00
    0.23625E-20        -0.16490E-19         0.00000E+00
    0.93132E-21        -0.18626E-20         0.00000E+00
   -0.18626E-20        -0.27376E-21         0.00000E+00
   -0.27940E-20         0.34515E-20         0.00000E+00
   -0.41567E-20         0.14901E-19         0.00000E+00
   -0.37595E-20         0.18900E-19         0.00000E+00
   -0.27940E-20         0.37253E-20         0.00000E+00
   -0.32254E-20         0.00000E+00         0.00000E+00
   -0.32596E-20         0.14901E-19         0.00000E+00
   -0.46566E-20         0.14901E-19         0.00000E+00
   -0.55879E-20         0.74506E-20         0.00000E+00
   -0.53551E-20        -0.74506E-20         0.00000E+00
   -0.53551E-20        -0.22352E-19         0.00000E+00
   -0.60536E-20        -0.24214E-19         0.00000E+00
   -0.46224E-20        -0.26077E-19         0.00000E+00
   -0.41910E-20        -0.24214E-19         0.00000E+00
   -0.39581E-20        -0.11176E-19         0.00000E+00
   -0.32767E-20        -0.55879E-20         0.00000E+00
   -0.28111E-20         0.18626E-20         0.00000E+00
   -0.18626E-20         0.11176E-19         0.00000E+00
   -0.91421E-21         0.13039E-19         0.00000E+00
    0.00000E+00         0.18626E-20         0.00000E+00
    0.13970E-20        -0.74506E-20         0.00000E+00
    0.20784E-20         0.00000E+00         0.00000E+00
    0.18455E-20         0.55879E-20         0.00000E+00
    0.18626E-20         0.34515E-20         0.00000E+00
    0.27940E-20         0.55879E-20         0.00000E+00
    0.93132E-21         0.39990E-20         0.00000E+00
    0.24362E-20         0.00000E+00         0.00000E+00
    0.27940E-20        -0.74506E-20         0.00000E+00
    0.22033E-20        -0.11176E-19         0.00000E+00
    0.80635E-21        -0.74506E-20         0.00000E+00
    0.13970E-20        -0.13039E-19         0.00000E+00
    0.27940E-20        -0.13039E-19         0.00000E+00
    0.34925E-20        -0.14627E-19         0.00000E+00
    0.39042E-20        -0.27940E-19         0.00000E+00
    0.41910E-20        -0.26351E-19         0.00000E+00
    0.27400E-20        -0.13039E-19         0.00000E+00
    0.30268E-20        -0.90395E-20         0.00000E+00
    0.22389E-20        -0.14901E-19         0.00000E+00
    0.25164E-20        -0.11450E-19         0.00000E+00
    0.20955E-20        -0.21364E-20         0.00000E+00
    0.93132E-21        -0.54752E-21         0.00000E+00
   -0.46566E-21         0.00000E+00         0.00000E+00
   -0.43144E-21         0.37253E-20         0.00000E+00
   -0.46566E-21         0.11176E-19         0.00000E+00
   -0.46566E-21         0.74506E-20         0.00000E+00
    0.00000E+00         0.00000E+00         0.00000E+00
   -0.93132E-21         0.00000E+00         0.00000E+00
    0.34220E-22         0.34515E-20         0.00000E+00
   -0.34220E-22         0.51628E-33         0.00000E+00
   -0.49988E-21        -0.71768E-20         0.00000E+00
    0.11984E-20        -0.37253E-20         0.00000E+00
    0.23283E-20        -0.18626E-20         0.00000E+00
    0.13970E-20         0.55879E-20         0.00000E+00
    0.46566E-21         0.55879E-20         0.00000E+00
    0.18969E-20        -0.15889E-20         0.00000E+00
    0.27940E-20         0.37253E-20         0.00000E+00
    0.00000E+00         0.12765E-19         0.00000E+00
   -0.13970E-20         0.18626E-19         0.00000E+00
    0.00000E+00         0.20489E-19         0.00000E+00
    0.00000E+00         0.14901E-19         0.00000E+00
   -0.13799E-20         0.00000E+00         0.00000E+00
   -0.20784E-20        -0.14901E-19         0.00000E+00
   -0.91421E-21        -0.24214E-19         0.00000E+00
   -0.94843E-21        -0.27940E-19         0.00000E+00
   -0.16127E-20        -0.24214E-19         0.00000E+00
   -0.14141E-20        -0.14901E-19         0.00000E+00
   -0.18626E-20        -0.74506E-20         0.00000E+00
   -0.13799E-20        -0.74506E-20         0.00000E+00
    0.48277E-21         0.37253E-20         0.00000E+00
    0.44855E-21         0.55879E-20         0.00000E+00
    0.46566E-21        -0.14901E-19         0.00000E+00
    0.93132E-21        -0.18626E-19         0.00000E+00
    0.13970E-20        -0.55879E-20         0.00000E+00
    0.34925E-20         0.74506E-20         0.00000E+00
    0.37253E-20         0.93132E-20         0.00000E+00
    0.41910E-20         0.74506E-20         0.00000E+00
    0.41910E-20         0.74506E-20         0.00000E+00
    0.26861E-20         0.55879E-20         0.00000E+00
    0.24362E-20         0.18626E-20         0.00000E+00
    0.15048E-20         0.00000E+00         0.00000E+00
    0.11642E-20        -0.55879E-20         0.00000E+00
    0.13970E-20        -0.20489E-19         0.00000E+00
    0.18626E-20        -0.22352E-19         0.00000E+00
    0.19166E-20        -0.20763E-19         0.00000E+00
    0.18626E-20        -0.29802E-19         0.00000E+00
    0.16298E-20        -0.27666E-19         0.00000E+00
    0.19166E-20        -0.22078E-19         0.00000E+00
    0.24717E-20        -0.15832E-19         0.00000E+00
    0.23283E-20        -0.67930E-20         0.00000E+00
    0.69849E-21        -0.37253E-20         0.00000E+00
    0.37161E-21         0.15889E-20         0.00000E+00
    0.93132E-21         0.31778E-20         0.00000E+00
    0.23283E-20         0.37253E-20         0.00000E+00
    0.22941E-20         0.55879E-20         0.00000E+00
    0.23625E-20         0.00000E+00         0.00000E+00
    0.27940E-20        -0.74506E-20         0.00000E+00
    0.27940E-20        -0.39990E-20         0.00000E+00
    0.51223E-20        -0.11176E-19         0.00000E+00
    0.83477E-20        -0.25803E-19         0.00000E+00
    0.12806E-19        -0.22625E-19         0.00000E+00
    0.14004E-19        -0.18626E-19         0.00000E+00
    0.16264E-19        -0.14627E-19         0.00000E+00
    0.16764E-19        -0.37253E-20         0.00000E+00
    0.17229E-19         0.11176E-19         0.00000E+00
    0.17695E-19         0.11176E-19         0.00000E+00
    0.16264E-19         0.74506E-20         0.00000E+00
    0.15832E-19         0.14901E-19         0.00000E+00
    0.16264E-19         0.22352E-19         0.00000E+00
    0.16298E-19         0.14901E-19         0.00000E+00
    0.16764E-19         0.93132E-20         0.00000E+00
    0.17462E-19         0.14901E-19         0.00000E+00
    0.17678E-19         0.00000E+00         0.00000E+00
    0.17695E-19        -0.26077E-19         0.00000E+00
    0.17911E-19        -0.27940E-19         0.00000E+00
    0.17695E-19        -0.20489E-19         0.00000E+00
    0.17695E-19        -0.22352E-19         0.00000E+00
    0.16781E-19        -0.11176E-19         0.00000E+00
    0.15832E-19        -0.74506E-20         0.00000E+00
    0.14884E-19        -0.93132E-20         0.00000E+00
    0.13021E-19         0.37253E-20         0.00000E+00
    0.13039E-19         0.11176E-19         0.00000E+00
    0.11642E-19         0.00000E+00         0.00000E+00
    0.12107E-19        -0.11176E-19         0.00000E+00
    0.11642E-19        -0.11176E-19         0.00000E+00
    0.11426E-19        -0.37253E-20         0.00000E+00
    0.12107E-19         0.00000E+00         0.00000E+00
    0.11642E-19         0.18626E-20         0.00000E+00
    0.12107E-19         0.71768E-20         0.00000E+00
    0.12681E-19         0.93132E-20         0.00000E+00
    0.13163E-19         0.21364E-20         0.00000E+00
    0.13163E-19        -0.58617E-20         0.00000E+00
    0.14560E-19        -0.74506E-20         0.00000E+00
    0.14901E-19        -0.16490E-19         0.00000E+00
    0.13970E-19        -0.17038E-19         0.00000E+00
    0.14382E-19        -0.15175E-19         0.00000E+00
    0.15600E-19        -0.25803E-19         0.00000E+00
    0.14955E-19        -0.25803E-19         0.00000E+00
    0.13217E-19        -0.19832E-19         0.00000E+00
    0.11498E-19        -0.10245E-19         0.00000E+00
    0.11176E-19        -0.53142E-20         0.00000E+00
    0.10755E-19        -0.39990E-20         0.00000E+00
    0.10804E-19        -0.39990E-20         0.00000E+00
    0.10710E-19        -0.37253E-20         0.00000E+00
    0.88941E-19         0.31778E-20         0.00000E+00
    0.89407E-19         0.55879E-20         0.00000E+00
    0.89838E-19         0.77243E-20         0.00000E+00
    0.88476E-19         0.39990E-20         0.00000E+00
    0.87544E-19        -0.95870E-20         0.00000E+00
    0.88941E-19        -0.28487E-19         0.00000E+00
    0.88976E-19        -0.33254E-19         0.00000E+00
    0.87579E-19        -0.27666E-19         0.00000E+00
    0.89838E-19        -0.26077E-19         0.00000E+00
    0.90838E-19        -0.18626E-19         0.00000E+00
    0.92667E-19        -0.55879E-20         0.00000E+00
    0.94529E-19         0.37253E-20         0.00000E+00
    0.97755E-19         0.93132E-20         0.00000E+00
    0.98754E-19         0.74506E-20         0.00000E+00
    0.97823E-19         0.39990E-20         0.00000E+00
    0.98022E-19         0.12765E-19         0.00000E+00
    0.10012E-18         0.16216E-19         0.00000E+00
    0.10012E-18         0.13039E-19         0.00000E+00
    0.10083E-18         0.11450E-19         0.00000E+00
    0.10010E-18        -0.15889E-20         0.00000E+00
    0.98720E-19        -0.14901E-19         0.00000E+00
    0.96858E-19        -0.22352E-19         0.00000E+00
    0.95461E-19        -0.27940E-19         0.00000E+00
    0.95926E-19        -0.18626E-19         0.00000E+00
    0.94529E-19        -0.74506E-20         0.00000E+00
    0.94064E-19         0.00000E+00         0.00000E+00
    0.93149E-19         0.74506E-20         0.00000E+00
    0.92667E-19         0.13039E-19         0.00000E+00
    0.92201E-19         0.11176E-19         0.00000E+00
    0.92667E-19        -0.93132E-20         0.00000E+00
    0.92201E-19        -0.18626E-19         0.00000E+00
    0.91752E-19        -0.55879E-20         0.00000E+00
    0.91270E-19         0.74506E-20         0.00000E+00
    0.90804E-19         0.93132E-20         0.00000E+00
    0.89407E-19         0.74506E-20         0.00000E+00
    0.88243E-19         0.34515E-20         0.00000E+00
    0.88833E-19        -0.21364E-20         0.00000E+00
    0.88941E-19        -0.18626E-20         0.00000E+00
    0.89873E-19        -0.53142E-20         0.00000E+00
    0.90338E-19        -0.13039E-19         0.00000E+00
    0.91735E-19        -0.18626E-19         0.00000E+00
    0.94064E-19        -0.20215E-19         0.00000E+00
    0.95693E-19        -0.26077E-19         0.00000E+00
    0.95747E-19        -0.31665E-19         0.00000E+00
    0.95407E-19        -0.18900E-19         0.00000E+00
    0.94816E-19        -0.37253E-20         0.00000E+00
    0.95837E-19        -0.46566E-20         0.00000E+00
    0.95461E-19        -0.30677E-20         0.00000E+00
    0.96768E-19        -0.13151E-20         0.00000E+00
    0.96437E-19         0.18626E-20         0.00000E+00
    0.96392E-19        -0.10950E-20         0.00000E+00
    0.59698E-18         0.37253E-20         0.00000E+00
    0.59651E-18         0.18626E-20         0.00000E+00
    0.59512E-18         0.15889E-20         0.00000E+00
    0.59512E-18         0.53142E-20         0.00000E+00
    0.59512E-18        -0.37253E-20         0.00000E+00
    0.59186E-18        -0.20215E-19         0.00000E+00
    0.59092E-18        -0.22078E-19         0.00000E+00
    0.59042E-18        -0.27940E-19         0.00000E+00
    0.59186E-18        -0.33528E-19         0.00000E+00
    0.59229E-18        -0.26077E-19         0.00000E+00
    0.59372E-18        -0.22352E-19         0.00000E+00
    0.59558E-18        -0.14901E-19         0.00000E+00
    0.59655E-18        -0.77243E-20         0.00000E+00
    0.59977E-18         0.74506E-20         0.00000E+00
    0.59974E-18         0.15449E-19         0.00000E+00
    0.60020E-18         0.74506E-20         0.00000E+00
    0.60070E-18         0.34515E-20         0.00000E+00
    0.60137E-18         0.74506E-20         0.00000E+00
    0.60115E-18         0.16490E-19         0.00000E+00
    0.60095E-18         0.93132E-20         0.00000E+00
    0.59977E-18        -0.90395E-20         0.00000E+00
    0.59886E-18        -0.11176E-19         0.00000E+00
    0.59744E-18        -0.14901E-19         0.00000E+00
    0.59721E-18        -0.16764E-19         0.00000E+00
    0.59768E-18        -0.37253E-20         0.00000E+00
    0.59744E-18         0.00000E+00         0.00000E+00
    0.59743E-18        -0.18626E-20         0.00000E+00
    0.59744E-18         0.74506E-20         0.00000E+00
    0.59698E-18         0.13039E-19         0.00000E+00
    0.59581E-18         0.00000E+00         0.00000E+00
    0.59465E-18        -0.74506E-20         0.00000E+00
    0.59440E-18        -0.55879E-20         0.00000E+00
    0.59558E-18         0.00000E+00         0.00000E+00
    0.59605E-18         0.93132E-20         0.00000E+00
    0.59698E-18         0.14901E-19         0.00000E+00
    0.59755E-18         0.11176E-19         0.00000E+00
    0.59755E-18         0.74506E-20         0.00000E+00
    0.59931E-18        -0.37253E-20         0.00000E+00
    0.59931E-18        -0.13039E-19         0.00000E+00
    0.59895E-18        -0.18900E-19         0.00000E+00
    0.59977E-18        -0.35664E-19         0.00000E+00
    0.60013E-18        -0.33254E-19         0.00000E+00
    0.60029E-18        -0.25803E-19         0.00000E+00
    0.59855E-18        -0.26351E-19         0.00000E+00
    0.59843E-18        -0.18900E-19         0.00000E+00
    0.60047E-18        -0.20489E-19         0.00000E+00
    0.60158E-18        -0.17421E-19         0.00000E+00
    0.60000E-18        -0.81081E-20         0.00000E+00
    0.60005E-18        -0.55879E-20         0.00000E+00
    0.60112E-18        -0.21364E-20         0.00000E+00
    0.60163E-18        -0.42728E-20         0.00000E+00
    0.37481E-17         0.10628E-19         0.00000E+00
    0.37479E-17         0.13039E-19         0.00000E+00
    0.37471E-17         0.13312E-19         0.00000E+00
    0.37472E-17         0.74506E-20         0.00000E+00
    0.37467E-17         0.34515E-20         0.00000E+00
    0.37472E-17        -0.93132E-20         0.00000E+00
    0.37476E-17        -0.26077E-19         0.00000E+00
    0.37486E-17        -0.31665E-19         0.00000E+00
    0.37463E-17        -0.35116E-19         0.00000E+00
    0.37462E-17        -0.27940E-19         0.00000E+00
    0.37472E-17        -0.22625E-19         0.00000E+00
    0.37476E-17        -0.13312E-19         0.00000E+00
    0.37476E-17        -0.90395E-20         0.00000E+00
    0.37481E-17        -0.71768E-20         0.00000E+00
    0.37495E-17        -0.18626E-20         0.00000E+00
    0.37505E-17         0.37253E-20         0.00000E+00
    0.37495E-17         0.11176E-19         0.00000E+00
    0.37481E-17         0.13039E-19         0.00000E+00
    0.37486E-17         0.14627E-19         0.00000E+00
    0.37497E-17         0.55879E-20         0.00000E+00
    0.37504E-17        -0.34515E-20         0.00000E+00
    0.37507E-17        -0.11176E-19         0.00000E+00
    0.37528E-17        -0.20489E-19         0.00000E+00
    0.37527E-17        -0.20489E-19         0.00000E+00
    0.37537E-17        -0.93132E-20         0.00000E+00
    0.37537E-17         0.18626E-20         0.00000E+00
    0.37539E-17         0.74506E-20         0.00000E+00
    0.37518E-17         0.14901E-19         0.00000E+00
    0.37509E-17         0.22352E-19         0.00000E+00
    0.37509E-17         0.37253E-20         0.00000E+00
    0.37500E-17        -0.15175E-19         0.00000E+00
    0.37495E-17        -0.93132E-20         0.00000E+00
    0.37495E-17         0.27376E-21         0.00000E+00
    0.37500E-17         0.15889E-20         0.00000E+00
    0.37518E-17         0.00000E+00         0.00000E+00
    0.37531E-17        -0.11915E-33         0.00000E+00
    0.37520E-17        -0.93132E-20         0.00000E+00
    0.37524E-17        -0.90395E-20         0.00000E+00
    0.37514E-17        -0.55879E-20         0.00000E+00
    0.37499E-17        -0.17038E-19         0.00000E+00
    0.37495E-17        -0.24488E-19         0.00000E+00
    0.37474E-17        -0.22078E-19         0.00000E+00
    0.37460E-17        -0.16490E-19         0.00000E+00
    0.37451E-17        -0.24214E-19         0.00000E+00
    0.37441E-17        -0.30076E-19         0.00000E+00
    0.37450E-17        -0.19558E-19         0.00000E+00
    0.37438E-17        -0.37253E-20         0.00000E+00
    0.37452E-17         0.27940E-20         0.00000E+00
    0.37460E-17        -0.34515E-20         0.00000E+00
    0.37468E-17        -0.58617E-20         0.00000E+00
    0.37458E-17        -0.42728E-20         0.00000E+00
    0.23234E-16         0.69031E-20         0.00000E+00
    0.23235E-16         0.53142E-20         0.00000E+00
    0.23237E-16         0.55879E-20         0.00000E+00
    0.23238E-16         0.93132E-20         0.00000E+00
    0.23240E-16        -0.55879E-20         0.00000E+00
    0.23241E-16        -0.23941E-19         0.00000E+00
    0.23240E-16        -0.27940E-19         0.00000E+00
    0.23241E-16        -0.22352E-19         0.00000E+00
    0.23241E-16        -0.22352E-19         0.00000E+00
    0.23240E-16        -0.31665E-19         0.00000E+00
    0.23240E-16        -0.29802E-19         0.00000E+00
    0.23239E-16        -0.16764E-19         0.00000E+00
    0.23238E-16        -0.71768E-20         0.00000E+00
    0.23237E-16        -0.18626E-20         0.00000E+00
    0.23236E-16         0.18626E-20         0.00000E+00
    0.23236E-16         0.53142E-20         0.00000E+00
    0.23236E-16         0.13039E-19         0.00000E+00
    0.23236E-16         0.14901E-19         0.00000E+00
    0.23236E-16         0.11176E-19         0.00000E+00
    0.23235E-16         0.27376E-21         0.00000E+00
    0.23235E-16        -0.14901E-19         0.00000E+00
    0.23235E-16        -0.22352E-19         0.00000E+00
    0.23237E-16        -0.26077E-19         0.00000E+00
    0.23237E-16        -0.22352E-19         0.00000E+00
    0.23238E-16        -0.74506E-20         0.00000E+00
    0.23238E-16        -0.18626E-20         0.00000E+00
    0.23239E-16         0.74506E-20         0.00000E+00
    0.23240E-16         0.22352E-19         0.00000E+00
    0.23240E-16         0.16764E-19         0.00000E+00
    0.23242E-16         0.55879E-20         0.00000E+00
    0.23242E-16        -0.18626E-20         0.00000E+00
    0.23240E-16        -0.37253E-20         0.00000E+00
    0.23239E-16        -0.27376E-21         0.00000E+00
    0.23239E-16        -0.37253E-20         0.00000E+00
    0.23237E-16         0.27376E-21         0.00000E+00
    0.23236E-16         0.11176E-19         0.00000E+00
    0.23238E-16         0.11176E-19         0.00000E+00
    0.23236E-16        -0.27376E-21         0.00000E+00
    0.23236E-16        -0.37253E-20         0.00000E+00
    0.23235E-16        -0.74506E-20         0.00000E+00
    0.23232E-16        -0.20489E-19         0.00000E+00
    0.23231E-16        -0.18626E-19         0.00000E+00
    0.23231E-16        -0.13039E-19         0.00000E+00
    0.23232E-16        -0.16764E-19         0.00000E+00
    0.23232E-16        -0.20763E-19         0.00000E+00
    0.23231E-16        -0.21147E-19         0.00000E+00
    0.23232E-16        -0.17695E-19         0.00000E+00
    0.23233E-16        -0.19558E-19         0.00000E+00
    0.23235E-16        -0.11833E-19         0.00000E+00
    0.23235E-16        -0.27376E-21         0.00000E+00
    0.23234E-16         0.69031E-20         0.00000E+00
    0.14203E-15        -0.31778E-20         0.00000E+00
    0.14203E-15        -0.51609E-33         0.00000E+00
    0.14203E-15        -0.21364E-20         0.00000E+00
    0.14203E-15        -0.10902E-19         0.00000E+00
    0.14203E-15        -0.11176E-19         0.00000E+00
    0.14203E-15        -0.11450E-19         0.00000E+00
    0.14203E-15        -0.25803E-19         0.00000E+00
    0.14203E-15        -0.33254E-19         0.00000E+00
    0.14203E-15        -0.30076E-19         0.00000E+00
    0.14203E-15        -0.24214E-19         0.00000E+00
    0.14203E-15        -0.16490E-19         0.00000E+00
    0.14203E-15        -0.58617E-20         0.00000E+00
    0.14203E-15        -0.51618E-33         0.00000E+00
    0.14203E-15         0.27376E-21         0.00000E+00
    0.14203E-15         0.55879E-20         0.00000E+00
    0.14203E-15         0.10902E-19         0.00000E+00
    0.14203E-15         0.93132E-20         0.00000E+00
    0.14203E-15         0.13039E-19         0.00000E+00
    0.14203E-15         0.20489E-19         0.00000E+00
    0.14203E-15         0.95870E-20         0.00000E+00
    0.14202E-15        -0.74506E-20         0.00000E+00
    0.14202E-15        -0.24214E-19         0.00000E+00
    0.14202E-15        -0.29802E-19         0.00000E+00
    0.14202E-15        -0.24214E-19         0.00000E+00
    0.14202E-15        -0.15175E-19         0.00000E+00
    0.14203E-15        -0.37253E-20         0.00000E+00
    0.14203E-15         0.27376E-21         0.00000E+00
    0.14203E-15         0.11176E-19         0.00000E+00
    0.14203E-15         0.11176E-19         0.00000E+00
    0.14203E-15        -0.74506E-20         0.00000E+00
    0.14203E-15        -0.74506E-20         0.00000E+00
    0.14203E-15         0.55879E-20         0.00000E+00
    0.14203E-15         0.71768E-20         0.00000E+00
    0.14203E-15         0.11176E-19         0.00000E+00
    0.14203E-15         0.14901E-19         0.00000E+00
    0.14203E-15        -0.42728E-20         0.00000E+00
    0.14203E-15        -0.10902E-19         0.00000E+00
    0.14203E-15        -0.34515E-20         0.00000E+00
    0.14203E-15         0.15889E-20         0.00000E+00
    0.14203E-15         0.37253E-20         0.00000E+00
    0.14203E-15        -0.74506E-20         0.00000E+00
    0.14203E-15        -0.16764E-19         0.00000E+00
    0.14203E-15        -0.20489E-19         0.00000E+00
    0.14203E-15        -0.27940E-19         0.00000E+00
    0.14203E-15        -0.22352E-19         0.00000E+00
    0.14203E-15        -0.18626E-19         0.00000E+00
    0.14203E-15        -0.14901E-19         0.00000E+00
    0.14203E-15        -0.11176E-19         0.00000E+00
    0.14203E-15        -0.14901E-19         0.00000E+00
    0.14203E-15        -0.37253E-20         0.00000E+00
    0.14203E-15         0.74506E-20         0.00000E+00
    0.85535E-15         0.11176E-19         0.00000E+00
    0.85535E-15         0.95870E-20         0.00000E+00
    0.85536E-15         0.11450E-19         0.00000E+00
    0.85535E-15         0.13039E-19         0.00000E+00
    0.85535E-15         0.15889E-20         0.00000E+00
    0.85535E-15        -0.20763E-19         0.00000E+00
    0.85535E-15        -0.31391E-19         0.00000E+00
    0.85535E-15        -0.26077E-19         0.00000E+00
    0.85535E-15        -0.29802E-19         0.00000E+00
    0.85535E-15        -0.29529E-19         0.00000E+00
    0.85535E-15        -0.22625E-19         0.00000E+00
    0.85535E-15        -0.14901E-19         0.00000E+00
    0.85535E-15        -0.71768E-20         0.00000E+00
    0.85535E-15         0.39990E-20         0.00000E+00
    0.85535E-15         0.37253E-20         0.00000E+00
    0.85535E-15        -0.54752E-21         0.00000E+00
    0.85535E-15         0.14627E-19         0.00000E+00
    0.85535E-15         0.22352E-19         0.00000E+00
    0.85535E-15         0.22078E-19         0.00000E+00
    0.85535E-15         0.17969E-19         0.00000E+00
    0.85534E-15         0.12051E-20         0.00000E+00
    0.85534E-15        -0.93132E-20         0.00000E+00
    0.85534E-15        -0.16764E-19         0.00000E+00
    0.85534E-15        -0.27940E-19         0.00000E+00
    0.85534E-15        -0.26077E-19         0.00000E+00
    0.85534E-15        -0.18626E-19         0.00000E+00
    0.85534E-15        -0.34515E-20         0.00000E+00
    0.85534E-15         0.74506E-20         0.00000E+00
    0.85534E-15         0.74506E-20         0.00000E+00
    0.85534E-15         0.37253E-20         0.00000E+00
    0.85534E-15        -0.77243E-20         0.00000E+00
    0.85535E-15        -0.37253E-20         0.00000E+00
    0.85535E-15         0.77243E-20         0.00000E+00
    0.85535E-15         0.37253E-20         0.00000E+00
    0.85535E-15         0.71768E-20         0.00000E+00
    0.85535E-15         0.14627E-19         0.00000E+00
    0.85535E-15         0.77243E-20         0.00000E+00
    0.85535E-15         0.11915E-33         0.00000E+00
    0.85535E-15        -0.39990E-20         0.00000E+00
    0.85535E-15        -0.93132E-20         0.00000E+00
    0.85535E-15        -0.18353E-19         0.00000E+00
    0.85535E-15        -0.18626E-19         0.00000E+00
    0.85535E-15        -0.16764E-19         0.00000E+00
    0.85535E-15        -0.27666E-19         0.00000E+00
    0.85535E-15        -0.28213E-19         0.00000E+00
    0.85535E-15        -0.17038E-19         0.00000E+00
    0.85535E-15        -0.11833E-19         0.00000E+00
    0.85535E-15        -0.13970E-19         0.00000E+00
    0.85535E-15        -0.11450E-19         0.00000E+00
    0.85534E-15        -0.39990E-20         0.00000E+00
    0.85534E-15        -0.42728E-20         0.00000E+00
    0.50664E-14        -0.37253E-20         0.00000E+00
    0.50664E-14        -0.15889E-20         0.00000E+00
    0.50664E-14         0.37253E-20         0.00000E+00
    0.50664E-14         0.16490E-19         0.00000E+00
    0.50664E-14         0.14901E-19         0.00000E+00
    0.50664E-14        -0.53142E-20         0.00000E+00
    0.50664E-14        -0.23941E-19         0.00000E+00
    0.50664E-14        -0.33801E-19         0.00000E+00
    0.50664E-14        -0.35664E-19         0.00000E+00
    0.50664E-14        -0.31391E-19         0.00000E+00
    0.50664E-14        -0.23941E-19         0.00000E+00
    0.50664E-14        -0.13312E-19         0.00000E+00
    0.50664E-14        -0.58617E-20         0.00000E+00
    0.50664E-14         0.00000E+00         0.00000E+00
    0.50664E-14         0.21364E-20         0.00000E+00
    0.50664E-14         0.13312E-19         0.00000E+00
    0.50664E-14         0.31665E-19         0.00000E+00
    0.50664E-14         0.38842E-19         0.00000E+00
    0.50664E-14         0.33254E-19         0.00000E+00
    0.50664E-14         0.15175E-19         0.00000E+00
    0.50664E-14        -0.37253E-20         0.00000E+00
    0.50664E-14        -0.18900E-19         0.00000E+00
    0.50664E-14        -0.29529E-19         0.00000E+00
    0.50664E-14        -0.27666E-19         0.00000E+00
    0.50664E-14        -0.11450E-19         0.00000E+00
    0.50664E-14        -0.55879E-20         0.00000E+00
    0.50663E-14         0.39990E-20         0.00000E+00
    0.50663E-14         0.11176E-19         0.00000E+00
    0.50663E-14         0.53142E-20         0.00000E+00
    0.50663E-14        -0.74506E-20         0.00000E+00
    0.50663E-14        -0.14627E-19         0.00000E+00
    0.50663E-14        -0.74506E-20         0.00000E+00
    0.50663E-14         0.00000E+00         0.00000E+00
    0.50663E-14         0.15889E-20         0.00000E+00
    0.50663E-14         0.53142E-20         0.00000E+00
    0.50663E-14         0.37253E-20         0.00000E+00
    0.50663E-14        -0.15889E-20         0.00000E+00
    0.50663E-14         0.21364E-20         0.00000E+00
    0.50663E-14         0.55879E-20         0.00000E+00
    0.50664E-14        -0.77243E-20         0.00000E+00
    0.50664E-14        -0.18626E-19         0.00000E+00
    0.50664E-14        -0.13039E-19         0.00000E+00
    0.50664E-14        -0.22625E-19         0.00000E+00
    0.50664E-14        -0.27940E-19         0.00000E+00
    0.50663E-14        -0.18626E-19         0.00000E+00
    0.50664E-14        -0.15559E-19         0.00000E+00
    0.50664E-14        -0.99708E-20         0.00000E+00
    0.50664E-14        -0.74506E-20         0.00000E+00
    0.50663E-14        -0.21364E-20         0.00000E+00
    0.50663E-14         0.69031E-20         0.00000E+00
    0.50663E-14         0.10628E-19         0.00000E+00
    0.29445E-13         0.37253E-20         0.00000E+00
    0.29445E-13         0.37253E-20         0.00000E+00
    0.29445E-13         0.27376E-21         0.00000E+00
    0.29445E-13        -0.55879E-20         0.00000E+00
    0.29445E-13        -0.39990E-20         0.00000E+00
    0.29445E-13        -0.74506E-20         0.00000E+00
    0.29445E-13        -0.14901E-19         0.00000E+00
    0.29445E-13        -0.13039E-19         0.00000E+00
    0.29445E-13        -0.20215E-19         0.00000E+00
    0.29445E-13        -0.23941E-19         0.00000E+00
    0.29445E-13        -0.24488E-19         0.00000E+00
    0.29445E-13        -0.20489E-19         0.00000E+00
    0.29445E-13        -0.93132E-20         0.00000E+00
    0.29445E-13        -0.18626E-20         0.00000E+00
    0.29445E-13         0.21364E-20         0.00000E+00
    0.29445E-13         0.55879E-20         0.00000E+00
    0.29445E-13         0.12765E-19         0.00000E+00
    0.29445E-13         0.20489E-19         0.00000E+00
    0.29445E-13         0.25803E-19         0.00000E+00
    0.29445E-13         0.11176E-19         0.00000E+00
    0.29445E-13        -0.13151E-20         0.00000E+00
    0.29445E-13        -0.37253E-20         0.00000E+00
    0.29445E-13        -0.11450E-19         0.00000E+00
    0.29445E-13        -0.18626E-19         0.00000E+00
    0.29445E-13        -0.18626E-19         0.00000E+00
    0.29445E-13        -0.37253E-20         0.00000E+00
    0.29445E-13         0.37253E-20         0.00000E+00
    0.29445E-13         0.20215E-19         0.00000E+00
    0.29445E-13         0.29802E-19         0.00000E+00
    0.29445E-13         0.15175E-19         0.00000E+00
    0.29445E-13         0.15889E-20         0.00000E+00
    0.29445E-13        -0.93132E-20         0.00000E+00
    0.29445E-13        -0.50404E-20         0.00000E+00
    0.29445E-13        -0.39990E-20         0.00000E+00
    0.29445E-13        -0.27376E-21         0.00000E+00
    0.29445E-13         0.00000E+00         0.00000E+00
    0.29445E-13         0.18626E-20         0.00000E+00
    0.29445E-13        -0.15889E-20         0.00000E+00
    0.29445E-13        -0.13039E-19         0.00000E+00
    0.29445E-13        -0.13312E-19         0.00000E+00
    0.29445E-13        -0.22352E-19         0.00000E+00
    0.29445E-13        -0.18353E-19         0.00000E+00
    0.29445E-13        -0.18353E-19         0.00000E+00
    0.29445E-13        -0.21037E-19         0.00000E+00
    0.29445E-13        -0.22625E-19         0.00000E+00
    0.29445E-13        -0.22078E-19         0.00000E+00
    0.29445E-13        -0.13039E-19         0.00000E+00
    0.29445E-13        -0.74506E-20         0.00000E+00
    0.29445E-13        -0.34515E-20         0.00000E+00
    0.29445E-13        -0.18626E-20         0.00000E+00
    0.29445E-13        -0.54751E-21         0.00000E+00
    0.16745E-12         0.37253E-20         0.00000E+00
    0.16745E-12         0.00000E+00         0.00000E+00
    0.16745E-12         0.18626E-20         0.00000E+00
    0.16745E-12         0.11176E-19         0.00000E+00
    0.16745E-12         0.74506E-20         0.00000E+00
    0.16745E-12        -0.55879E-20         0.00000E+00
    0.16745E-12        -0.20489E-19         0.00000E+00
    0.16745E-12        -0.27666E-19         0.00000E+00
    0.16745E-12        -0.27940E-19         0.00000E+00
    0.16745E-12        -0.22625E-19         0.00000E+00
    0.16745E-12        -0.13312E-19         0.00000E+00
    0.16745E-12        -0.11176E-19         0.00000E+00
    0.16745E-12        -0.13039E-19         0.00000E+00
    0.16745E-12        -0.43829E-20         0.00000E+00
    0.16745E-12         0.33415E-20         0.00000E+00
    0.16745E-12         0.14627E-19         0.00000E+00
    0.16745E-12         0.22352E-19         0.00000E+00
    0.16745E-12         0.16490E-19         0.00000E+00
    0.16745E-12         0.14627E-19         0.00000E+00
    0.16745E-12         0.79981E-20         0.00000E+00
    0.16745E-12         0.39990E-20         0.00000E+00
    0.16745E-12        -0.27375E-21         0.00000E+00
    0.16745E-12        -0.22625E-19         0.00000E+00
    0.16745E-12        -0.26077E-19         0.00000E+00
    0.16745E-12        -0.11176E-19         0.00000E+00
    0.16745E-12        -0.71768E-20         0.00000E+00
    0.16745E-12         0.37253E-20         0.00000E+00
    0.16745E-12         0.18626E-19         0.00000E+00
    0.16745E-12         0.18900E-19         0.00000E+00
    0.16745E-12         0.55879E-20         0.00000E+00
    0.16745E-12        -0.77243E-20         0.00000E+00
    0.16745E-12        -0.37253E-20         0.00000E+00
    0.16745E-12         0.74506E-20         0.00000E+00
    0.16745E-12         0.55879E-20         0.00000E+00
    0.16745E-12         0.00000E+00         0.00000E+00
    0.16745E-12        -0.27375E-21         0.00000E+00
    0.16745E-12        -0.37253E-20         0.00000E+00
    0.16745E-12        -0.58617E-20         0.00000E+00
    0.16745E-12        -0.18626E-20         0.00000E+00
    0.16745E-12        -0.90395E-20         0.00000E+00
    0.16745E-12        -0.23941E-19         0.00000E+00
    0.16745E-12        -0.18626E-19         0.00000E+00
    0.16745E-12        -0.11176E-19         0.00000E+00
    0.16745E-12        -0.26077E-19         0.00000E+00
    0.16745E-12        -0.30076E-19         0.00000E+00
    0.16745E-12        -0.16764E-19         0.00000E+00
    0.16745E-12        -0.37253E-20         0.00000E+00
    0.16745E-12         0.18626E-20         0.00000E+00
    0.16745E-12         0.37253E-20         0.00000E+00
    0.16745E-12         0.55879E-20         0.00000E+00
    0.16745E-12         0.37253E-20         0.00000E+00
    0.92845E-12         0.37253E-20         0.00000E+00
    0.92845E-12         0.74506E-20         0.00000E+00
    0.92845E-12         0.18626E-20         0.00000E+00
    0.92845E-12        -0.37253E-20         0.00000E+00
    0.92845E-12         0.27373E-21         0.00000E+00
    0.92845E-12        -0.55879E-20         0.00000E+00
    0.92845E-12        -0.11450E-19         0.00000E+00
    0.92845E-12        -0.10902E-19         0.00000E+00
    0.92845E-12        -0.16764E-19         0.00000E+00
    0.92845E-12        -0.22625E-19         0.00000E+00
    0.92845E-12        -0.20215E-19         0.00000E+00
    0.92845E-12        -0.11450E-19         0.00000E+00
    0.92845E-12        -0.11450E-19         0.00000E+00
    0.92845E-12        -0.31778E-20         0.00000E+00
    0.92845E-12         0.95870E-20         0.00000E+00
    0.92845E-12         0.31778E-20         0.00000E+00
    0.92845E-12        -0.18626E-20         0.00000E+00
    0.92845E-12         0.93132E-20         0.00000E+00
    0.92845E-12         0.14354E-19         0.00000E+00
    0.92845E-12         0.95870E-20         0.00000E+00
    0.92845E-12        -0.10902E-19         0.00000E+00
    0.92845E-12        -0.14901E-19         0.00000E+00
    0.92845E-12        -0.90395E-20         0.00000E+00
    0.92845E-12        -0.18353E-19         0.00000E+00
    0.92845E-12        -0.15449E-19         0.00000E+00
    0.92845E-12        -0.93132E-20         0.00000E+00
    0.92845E-12        -0.53142E-20         0.00000E+00
    0.92845E-12         0.14627E-19         0.00000E+00
    0.92845E-12         0.10902E-19         0.00000E+00
    0.92845E-12        -0.34516E-20         0.00000E+00
    0.92845E-12        -0.13152E-20         0.00000E+00
    0.92845E-12         0.11176E-19         0.00000E+00
    0.92845E-12         0.18079E-19         0.00000E+00
    0.92845E-12         0.74506E-20         0.00000E+00
    0.92845E-12         0.21364E-20         0.00000E+00
    0.92845E-12         0.69031E-20         0.00000E+00
    0.92845E-12         0.18626E-20         0.00000E+00
    0.92845E-12        -0.34516E-20         0.00000E+00
    0.92845E-12        -0.37253E-20         0.00000E+00
    0.92845E-12        -0.17038E-19         0.00000E+00
    0.92845E-12        -0.22352E-19         0.00000E+00
    0.92845E-12        -0.18353E-19         0.00000E+00
    0.92845E-12        -0.17038E-19         0.00000E+00
    0.92845E-12        -0.18626E-19         0.00000E+00
    0.92845E-12        -0.16490E-19         0.00000E+00
    0.92845E-12        -0.14244E-19         0.00000E+00
    0.92845E-12        -0.12051E-20         0.00000E+00
    0.92845E-12        -0.13152E-20         0.00000E+00
    0.92845E-12        -0.90395E-20         0.00000E+00
    0.92845E-12        -0.24101E-20         0.00000E+00
    0.92845E-12         0.31778E-20         0.00000E+00
    0.49975E-11         0.14901E-19         0.00000E+00
    0.49975E-11         0.14901E-19         0.00000E+00
    0.49975E-11         0.55879E-20         0.00000E+00
    0.49975E-11         0.00000E+00         0.00000E+00
    0.49975E-11        -0.15890E-20         0.00000E+00
    0.49975E-11        -0.58615E-20         0.00000E+00
    0.49975E-11        -0.11723E-19         0.00000E+00
    0.49975E-11        -0.22078E-19         0.00000E+00
    0.49975E-11        -0.25803E-19         0.00000E+00
    0.49975E-11        -0.14901E-19         0.00000E+00
    0.49975E-11        -0.14901E-19         0.00000E+00
    0.49975E-11        -0.12765E-19         0.00000E+00
    0.49975E-11        -0.71770E-20         0.00000E+00
    0.49975E-11        -0.55879E-20         0.00000E+00
    0.49975E-11        -0.11176E-19         0.00000E+00
    0.49975E-11        -0.93132E-20         0.00000E+00
    0.49975E-11         0.71770E-20         0.00000E+00
    0.49975E-11         0.12491E-19         0.00000E+00
    0.49975E-11         0.10902E-19         0.00000E+00
    0.49975E-11         0.37253E-20         0.00000E+00
    0.49975E-11         0.54722E-21         0.00000E+00
    0.49975E-11        -0.90396E-20         0.00000E+00
    0.49975E-11        -0.15175E-19         0.00000E+00
    0.49975E-11        -0.10902E-19         0.00000E+00
    0.49975E-11        -0.27361E-21         0.00000E+00
    0.49975E-11        -0.27361E-21         0.00000E+00
    0.49975E-11         0.58615E-20         0.00000E+00
    0.49975E-11         0.16764E-19         0.00000E+00
    0.49975E-11         0.77242E-20         0.00000E+00
    0.49975E-11        -0.53143E-20         0.00000E+00
    0.49975E-11        -0.37253E-20         0.00000E+00
    0.49975E-11         0.74506E-20         0.00000E+00
    0.49975E-11         0.13039E-19         0.00000E+00
    0.49975E-11        -0.27361E-21         0.00000E+00
    0.49975E-11         0.15890E-20         0.00000E+00
    0.49975E-11         0.71770E-20         0.00000E+00
    0.49975E-11         0.11910E-33         0.00000E+00
    0.49975E-11        -0.34517E-20         0.00000E+00
    0.49975E-11        -0.11449E-19         0.00000E+00
    0.49975E-11        -0.11449E-19         0.00000E+00
    0.49975E-11        -0.71770E-20         0.00000E+00
    0.49975E-11        -0.31781E-20         0.00000E+00
    0.49975E-11        -0.11176E-19         0.00000E+00
    0.49975E-11        -0.22625E-19         0.00000E+00
    0.49975E-11        -0.26077E-19         0.00000E+00
    0.49975E-11        -0.18626E-19         0.00000E+00
    0.49975E-11        -0.37253E-20         0.00000E+00
    0.49975E-11        -0.37253E-20         0.00000E+00
    0.49975E-11        -0.55879E-20         0.00000E+00
    0.49975E-11        -0.39989E-20         0.00000E+00
    0.49975E-11        -0.42725E-20         0.00000E+00
    0.25966E-10         0.37253E-20         0.00000E+00
    0.25966E-10         0.37253E-20         0.00000E+00
    0.25966E-10         0.34523E-20         0.00000E+00
    0.25966E-10         0.53149E-20         0.00000E+00
    0.25966E-10         0.54599E-21         0.00000E+00
    0.25966E-10        -0.14355E-19         0.00000E+00
    0.25966E-10        -0.17037E-19         0.00000E+00
    0.25966E-10        -0.18899E-19         0.00000E+00
    0.25966E-10        -0.27940E-19         0.00000E+00
    0.25966E-10        -0.26350E-19         0.00000E+00
    0.25966E-10        -0.95862E-20         0.00000E+00
    0.25966E-10         0.27299E-21         0.00000E+00
    0.25966E-10         0.27299E-21         0.00000E+00
    0.25966E-10         0.74506E-20         0.00000E+00
    0.25966E-10         0.13312E-19         0.00000E+00
    0.25966E-10         0.37253E-20         0.00000E+00
    0.25966E-10         0.13167E-20         0.00000E+00
    0.25966E-10         0.14628E-19         0.00000E+00
    0.25966E-10         0.18899E-19         0.00000E+00
    0.25966E-10         0.11176E-19         0.00000E+00
    0.25966E-10        -0.58609E-20         0.00000E+00
    0.25966E-10        -0.74506E-20         0.00000E+00
    0.25966E-10        -0.12766E-19         0.00000E+00
    0.25966E-10        -0.18080E-19         0.00000E+00
    0.25966E-10        -0.95862E-20         0.00000E+00
    0.25966E-10        -0.18626E-19         0.00000E+00
    0.25966E-10        -0.14901E-19         0.00000E+00
    0.25966E-10        -0.27299E-21         0.00000E+00
    0.25966E-10         0.61339E-20         0.00000E+00
    0.25966E-10        -0.15897E-20         0.00000E+00
    0.25966E-10        -0.58609E-20         0.00000E+00
    0.25966E-10         0.18626E-20         0.00000E+00
    0.25966E-10         0.12766E-19         0.00000E+00
    0.25966E-10         0.10630E-19         0.00000E+00
    0.25966E-10         0.39983E-20         0.00000E+00
    0.25966E-10        -0.37056E-33         0.00000E+00
    0.25966E-10        -0.15897E-20         0.00000E+00
    0.25966E-10         0.24086E-20         0.00000E+00
    0.25966E-10         0.53149E-20         0.00000E+00
    0.25966E-10        -0.15447E-19         0.00000E+00
    0.25966E-10        -0.26350E-19         0.00000E+00
    0.25966E-10        -0.22352E-19         0.00000E+00
    0.25966E-10        -0.25804E-19         0.00000E+00
    0.25966E-10        -0.25804E-19         0.00000E+00
    0.25966E-10        -0.16764E-19         0.00000E+00
    0.25966E-10        -0.10903E-19         0.00000E+00
    0.25966E-10        -0.46566E-20         0.00000E+00
    0.25966E-10         0.43836E-20         0.00000E+00
    0.25966E-10         0.34523E-20         0.00000E+00
    0.25966E-10         0.53149E-20         0.00000E+00
    0.25966E-10         0.74506E-20         0.00000E+00
    0.12930E-09         0.69107E-20         0.00000E+00
    0.12930E-09         0.55879E-20         0.00000E+00
    0.12930E-09         0.74506E-20         0.00000E+00
    0.12930E-09         0.55879E-20         0.00000E+00
    0.12930E-09        -0.50481E-20         0.00000E+00
    0.12930E-09        -0.11176E-19         0.00000E+00
    0.12930E-09        -0.18896E-19         0.00000E+00
    0.12930E-09        -0.20759E-19         0.00000E+00
    0.12930E-09        -0.19288E-19         0.00000E+00
    0.12930E-09        -0.17695E-19         0.00000E+00
    0.12930E-09        -0.15171E-19         0.00000E+00
    0.12930E-09        -0.15927E-20         0.00000E+00
    0.12930E-09         0.37253E-20         0.00000E+00
    0.12930E-09        -0.21326E-20         0.00000E+00
    0.12930E-09        -0.34554E-20         0.00000E+00
    0.12930E-09         0.98531E-20         0.00000E+00
    0.12930E-09         0.27400E-19         0.00000E+00
    0.12930E-09         0.14631E-19         0.00000E+00
    0.12930E-09         0.93132E-20         0.00000E+00
    0.12930E-09        -0.26994E-21         0.00000E+00
    0.12930E-09        -0.10906E-19         0.00000E+00
    0.12930E-09        -0.14631E-19         0.00000E+00
    0.12930E-09        -0.20489E-19         0.00000E+00
    0.12930E-09        -0.18357E-19         0.00000E+00
    0.12930E-09        -0.77205E-20         0.00000E+00
    0.12930E-09        -0.11176E-19         0.00000E+00
    0.12930E-09        -0.53180E-20         0.00000E+00
    0.12930E-09         0.16494E-19         0.00000E+00
    0.12930E-09         0.90433E-20         0.00000E+00
    0.12930E-09        -0.53180E-20         0.00000E+00
    0.12930E-09        -0.93132E-20         0.00000E+00
    0.12930E-09         0.00000E+00         0.00000E+00
    0.12930E-09         0.39952E-20         0.00000E+00
    0.12930E-09        -0.13236E-33         0.00000E+00
    0.12930E-09         0.55879E-20         0.00000E+00
    0.12930E-09         0.69107E-20         0.00000E+00
    0.12930E-09         0.18626E-20         0.00000E+00
    0.12930E-09        -0.18626E-20         0.00000E+00
    0.12930E-09        -0.74506E-20         0.00000E+00
    0.12930E-09        -0.93132E-20         0.00000E+00
    0.12930E-09        -0.18626E-19         0.00000E+00
    0.12930E-09        -0.29532E-19         0.00000E+00
    0.12930E-09        -0.31665E-19         0.00000E+00
    0.12930E-09        -0.24214E-19         0.00000E+00
    0.12930E-09        -0.12769E-19         0.00000E+00
    0.12930E-09        -0.13308E-19         0.00000E+00
    0.12930E-09        -0.67892E-20         0.00000E+00
    0.12930E-09        -0.99746E-20         0.00000E+00
    0.12930E-09        -0.11176E-19         0.00000E+00
    0.12930E-09        -0.21326E-20         0.00000E+00
    0.12930E-09        -0.42652E-20         0.00000E+00
    0.61107E-09         0.79618E-20         0.00000E+00
    0.61107E-09         0.55879E-20         0.00000E+00
    0.61107E-09         0.00000E+00         0.00000E+00
    0.61107E-09         0.18626E-20         0.00000E+00
    0.61107E-09        -0.39809E-20         0.00000E+00
    0.61107E-09        -0.15157E-19         0.00000E+00
    0.61107E-09        -0.14901E-19         0.00000E+00
    0.61107E-09        -0.14901E-19         0.00000E+00
    0.61107E-09        -0.16764E-19         0.00000E+00
    0.61107E-09        -0.18626E-19         0.00000E+00
    0.61107E-09        -0.14901E-19         0.00000E+00
    0.61107E-09        -0.53323E-20         0.00000E+00
    0.61107E-09        -0.55879E-20         0.00000E+00
    0.61107E-09         0.39809E-20         0.00000E+00
    0.61107E-09         0.15157E-19         0.00000E+00
    0.61107E-09         0.71950E-20         0.00000E+00
    0.61107E-09         0.00000E+00         0.00000E+00
    0.61107E-09         0.16508E-19         0.00000E+00
    0.61107E-09         0.18115E-19         0.00000E+00
    0.61107E-09        -0.55879E-20         0.00000E+00
    0.61107E-09        -0.14646E-19         0.00000E+00
    0.61107E-09        -0.16508E-19         0.00000E+00
    0.61107E-09        -0.18626E-19         0.00000E+00
    0.61107E-09        -0.23959E-19         0.00000E+00
    0.61107E-09        -0.17019E-19         0.00000E+00
    0.61107E-09        -0.37253E-20         0.00000E+00
    0.61107E-09         0.18626E-20         0.00000E+00
    0.61107E-09         0.37253E-20         0.00000E+00
    0.61107E-09         0.39809E-20         0.00000E+00
    0.61107E-09        -0.26463E-33         0.00000E+00
    0.61107E-09        -0.37253E-20         0.00000E+00
    0.61107E-09        -0.25562E-21         0.00000E+00
    0.61107E-09         0.74506E-20         0.00000E+00
    0.61107E-09         0.71950E-20         0.00000E+00
    0.61107E-09        -0.13236E-33         0.00000E+00
    0.61107E-09        -0.37253E-20         0.00000E+00
    0.61107E-09        -0.74506E-20         0.00000E+00
    0.61107E-09        -0.55879E-20         0.00000E+00
    0.61107E-09        -0.11176E-19         0.00000E+00
    0.61107E-09        -0.16764E-19         0.00000E+00
    0.61107E-09        -0.18626E-19         0.00000E+00
    0.61107E-09        -0.20489E-19         0.00000E+00
    0.61107E-09        -0.15157E-19         0.00000E+00
    0.61107E-09        -0.16764E-19         0.00000E+00
    0.61107E-09        -0.14390E-19         0.00000E+00
    0.61107E-09        -0.13714E-19         0.00000E+00
    0.61107E-09        -0.10500E-19         0.00000E+00
    0.61107E-09        -0.18626E-20         0.00000E+00
    0.61107E-09        -0.55879E-20         0.00000E+00
    0.61107E-09        -0.58436E-20         0.00000E+00
    0.61107E-09         0.32140E-20         0.00000E+00
    0.27056E-08         0.37253E-20         0.00000E+00
    0.27056E-08         0.35323E-20         0.00000E+00
    0.27056E-08        -0.18626E-20         0.00000E+00
    0.27056E-08         0.57810E-20         0.00000E+00
    0.27056E-08         0.11176E-19         0.00000E+00
    0.27056E-08        -0.93132E-20         0.00000E+00
    0.27056E-08        -0.22545E-19         0.00000E+00
    0.27056E-08        -0.18819E-19         0.00000E+00
    0.27056E-08        -0.18626E-19         0.00000E+00
    0.27056E-08        -0.24214E-19         0.00000E+00
    0.27056E-08        -0.22352E-19         0.00000E+00
    0.27056E-08        -0.14766E-20         0.00000E+00
    0.27056E-08         0.11176E-19         0.00000E+00
    0.27056E-08         0.10790E-19         0.00000E+00
    0.27056E-08         0.41114E-20         0.00000E+00
    0.27056E-08         0.00000E+00         0.00000E+00
    0.27056E-08         0.12845E-19         0.00000E+00
    0.27056E-08         0.18626E-19         0.00000E+00
    0.27056E-08         0.10983E-19         0.00000E+00
    0.27056E-08         0.00000E+00         0.00000E+00
    0.27056E-08        -0.91202E-20         0.00000E+00
    0.27056E-08        -0.10983E-19         0.00000E+00
    0.27056E-08        -0.18819E-19         0.00000E+00
    0.27056E-08        -0.22352E-19         0.00000E+00
    0.27056E-08        -0.16764E-19         0.00000E+00
    0.27056E-08        -0.18626E-19         0.00000E+00
    0.27056E-08        -0.91202E-20         0.00000E+00
    0.27056E-08         0.72575E-20         0.00000E+00
    0.27056E-08         0.72575E-20         0.00000E+00
    0.27056E-08        -0.14766E-20         0.00000E+00
    0.27056E-08        -0.55879E-20         0.00000E+00
    0.27056E-08         0.35323E-20         0.00000E+00
    0.27056E-08         0.55879E-20         0.00000E+00
    0.27056E-08        -0.18626E-20         0.00000E+00
    0.27056E-08        -0.35323E-20         0.00000E+00
    0.27056E-08        -0.76436E-20         0.00000E+00
    0.27056E-08        -0.39183E-20         0.00000E+00
    0.27056E-08         0.19304E-21         0.00000E+00
    0.27056E-08        -0.72575E-20         0.00000E+00
    0.27056E-08        -0.15094E-19         0.00000E+00
    0.27056E-08        -0.14901E-19         0.00000E+00
    0.27056E-08        -0.74506E-20         0.00000E+00
    0.27056E-08        -0.15094E-19         0.00000E+00
    0.27056E-08        -0.26077E-19         0.00000E+00
    0.27056E-08        -0.13039E-19         0.00000E+00
    0.27056E-08        -0.74506E-20         0.00000E+00
    0.27056E-08        -0.35323E-20         0.00000E+00
    0.27056E-08         0.19304E-21         0.00000E+00
    0.27056E-08        -0.18626E-20         0.00000E+00
    0.27056E-08        -0.19304E-21         0.00000E+00
    0.27056E-08        -0.38607E-21         0.00000E+00
    0.11024E-07         0.38407E-20         0.00000E+00
    0.11024E-07         0.13039E-19         0.00000E+00
    0.11024E-07         0.14843E-19         0.00000E+00
    0.11024E-07         0.37253E-20         0.00000E+00
    0.11024E-07        -0.37253E-20         0.00000E+00
    0.11024E-07        -0.92555E-20         0.00000E+00
    0.11024E-07        -0.20431E-19         0.00000E+00
    0.11024E-07        -0.22409E-19         0.00000E+00
    0.11024E-07        -0.26077E-19         0.00000E+00
    0.11024E-07        -0.16706E-19         0.00000E+00
    0.11024E-07        -0.56456E-20         0.00000E+00
    0.11024E-07        -0.56456E-20         0.00000E+00
    0.11024E-07         0.57689E-22         0.00000E+00
    0.11024E-07         0.18626E-20         0.00000E+00
    0.11024E-07         0.73352E-20         0.00000E+00
    0.11024E-07         0.11118E-19         0.00000E+00
    0.11024E-07         0.14959E-19         0.00000E+00
    0.11024E-07         0.15017E-19         0.00000E+00
    0.11024E-07         0.14959E-19         0.00000E+00
    0.11024E-07         0.37253E-20         0.00000E+00
    0.11024E-07        -0.74506E-20         0.00000E+00
    0.11024E-07        -0.11176E-19         0.00000E+00
    0.11024E-07        -0.26135E-19         0.00000E+00
    0.11024E-07        -0.26135E-19         0.00000E+00
    0.11024E-07        -0.12981E-19         0.00000E+00
    0.11024E-07        -0.11176E-19         0.00000E+00
    0.11024E-07        -0.56456E-20         0.00000E+00
    0.11024E-07         0.16821E-19         0.00000E+00
    0.11024E-07         0.29860E-19         0.00000E+00
    0.11024E-07         0.18511E-19         0.00000E+00
    0.11024E-07        -0.93709E-20         0.00000E+00
    0.11024E-07        -0.13039E-19         0.00000E+00
    0.11024E-07         0.18626E-20         0.00000E+00
    0.11024E-07         0.37830E-20         0.00000E+00
    0.11024E-07         0.18626E-20         0.00000E+00
    0.11024E-07        -0.73929E-20         0.00000E+00
    0.11024E-07        -0.11118E-19         0.00000E+00
    0.11024E-07        -0.18684E-19         0.00000E+00
    0.11024E-07        -0.26077E-19         0.00000E+00
    0.11024E-07        -0.24157E-19         0.00000E+00
    0.11024E-07        -0.26077E-19         0.00000E+00
    0.11024E-07        -0.16764E-19         0.00000E+00
    0.11024E-07        -0.14959E-19         0.00000E+00
    0.11024E-07        -0.22409E-19         0.00000E+00
    0.11024E-07        -0.22294E-19         0.00000E+00
    0.11024E-07        -0.16764E-19         0.00000E+00
    0.11024E-07        -0.57689E-22         0.00000E+00
    0.11024E-07         0.19203E-20         0.00000E+00
    0.11024E-07        -0.36676E-20         0.00000E+00
    0.11024E-07         0.18626E-20         0.00000E+00
    0.11024E-07         0.37253E-20         0.00000E+00
    0.40313E-07         0.74506E-20         0.00000E+00
    0.40313E-07         0.18841E-20         0.00000E+00
    0.40313E-07         0.37467E-20         0.00000E+00
    0.40313E-07         0.11176E-19         0.00000E+00
    0.40313E-07        -0.28154E-20         0.00000E+00
    0.40313E-07        -0.18626E-19         0.00000E+00
    0.40313E-07        -0.25146E-19         0.00000E+00
    0.40313E-07        -0.29824E-19         0.00000E+00
    0.40313E-07        -0.20489E-19         0.00000E+00
    0.40313E-07        -0.15811E-19         0.00000E+00
    0.40313E-07        -0.23262E-19         0.00000E+00
    0.40313E-07        -0.11176E-19         0.00000E+00
    0.40313E-07        -0.93132E-20         0.00000E+00
    0.40313E-07        -0.28368E-20         0.00000E+00
    0.40313E-07         0.27511E-20         0.00000E+00
    0.40313E-07         0.12150E-19         0.00000E+00
    0.40313E-07         0.19601E-19         0.00000E+00
    0.40313E-07         0.24214E-19         0.00000E+00
    0.40313E-07         0.22352E-19         0.00000E+00
    0.40313E-07         0.74506E-20         0.00000E+00
    0.40313E-07        -0.13039E-19         0.00000E+00
    0.40313E-07        -0.26098E-19         0.00000E+00
    0.40313E-07        -0.22373E-19         0.00000E+00
    0.40313E-07        -0.14901E-19         0.00000E+00
    0.40313E-07        -0.64978E-20         0.00000E+00
    0.40313E-07         0.74506E-20         0.00000E+00
    0.40313E-07         0.15832E-19         0.00000E+00
    0.40313E-07         0.13039E-19         0.00000E+00
    0.40313E-07        -0.19055E-20         0.00000E+00
    0.40313E-07        -0.13948E-19         0.00000E+00
    0.40313E-07        -0.83391E-20         0.00000E+00
    0.40313E-07         0.90991E-21         0.00000E+00
    0.40313E-07         0.65193E-20         0.00000E+00
    0.40313E-07         0.21410E-22         0.00000E+00
    0.40313E-07        -0.37253E-20         0.00000E+00
    0.40313E-07        -0.46780E-20         0.00000E+00
    0.40313E-07        -0.65193E-20         0.00000E+00
    0.40313E-07        -0.11154E-19         0.00000E+00
    0.40313E-07        -0.22352E-19         0.00000E+00
    0.40313E-07        -0.26077E-19         0.00000E+00
    0.40313E-07        -0.20489E-19         0.00000E+00
    0.40313E-07        -0.19579E-19         0.00000E+00
    0.40313E-07        -0.21442E-19         0.00000E+00
    0.40313E-07        -0.32575E-19         0.00000E+00
    0.40313E-07        -0.28850E-19         0.00000E+00
    0.40313E-07        -0.65407E-20         0.00000E+00
    0.40313E-07         0.55879E-20         0.00000E+00
    0.40313E-07        -0.27726E-20         0.00000E+00
    0.40313E-07        -0.46780E-20         0.00000E+00
    0.40313E-07        -0.37253E-20         0.00000E+00
    0.40313E-07        -0.55451E-20         0.00000E+00
    0.12788E-06         0.00000E+00         0.00000E+00
    0.12788E-06         0.56210E-20         0.00000E+00
    0.12788E-06        -0.48976E-33         0.00000E+00
    0.12788E-06         0.18296E-20         0.00000E+00
    0.12788E-06         0.37583E-20         0.00000E+00
    0.12788E-06        -0.74175E-20         0.00000E+00
    0.12788E-06        -0.22385E-19         0.00000E+00
    0.12788E-06        -0.26077E-19         0.00000E+00
    0.12788E-06        -0.33528E-19         0.00000E+00
    0.12788E-06        -0.33561E-19         0.00000E+00
    0.12788E-06        -0.20489E-19         0.00000E+00
    0.12788E-06        -0.55549E-20         0.00000E+00
    0.12788E-06        -0.18296E-20         0.00000E+00
    0.12788E-06        -0.18957E-20         0.00000E+00
    0.12788E-06         0.12140E-19         0.00000E+00
    0.12788E-06         0.74506E-20         0.00000E+00
    0.12788E-06         0.64532E-20         0.00000E+00
    0.12788E-06         0.14901E-19         0.00000E+00
    0.12788E-06         0.24214E-19         0.00000E+00
    0.12788E-06         0.14901E-19         0.00000E+00
    0.12788E-06        -0.89827E-21         0.00000E+00
    0.12788E-06        -0.12074E-19         0.00000E+00
    0.12788E-06        -0.22385E-19         0.00000E+00
    0.12788E-06        -0.18626E-19         0.00000E+00
    0.12788E-06        -0.93132E-20         0.00000E+00
    0.12788E-06        -0.74836E-20         0.00000E+00
    0.12788E-06        -0.18626E-20         0.00000E+00
    0.12788E-06         0.84150E-20         0.00000E+00
    0.12788E-06         0.74506E-20         0.00000E+00
    0.12788E-06        -0.28270E-20         0.00000E+00
    0.12788E-06        -0.11176E-19         0.00000E+00
    0.12788E-06        -0.55879E-20         0.00000E+00
    0.12788E-06        -0.55879E-20         0.00000E+00
    0.12788E-06        -0.18626E-20         0.00000E+00
    0.12788E-06         0.18626E-20         0.00000E+00
    0.12788E-06        -0.18626E-20         0.00000E+00
    0.12788E-06        -0.55879E-20         0.00000E+00
    0.12788E-06        -0.93132E-20         0.00000E+00
    0.12788E-06        -0.73845E-20         0.00000E+00
    0.12788E-06        -0.11176E-19         0.00000E+00
    0.12788E-06        -0.29868E-19         0.00000E+00
    0.12788E-06        -0.29769E-19         0.00000E+00
    0.12788E-06        -0.16764E-19         0.00000E+00
    0.12788E-06        -0.15832E-19         0.00000E+00
    0.12788E-06        -0.12107E-19         0.00000E+00
    0.12788E-06        -0.93463E-20         0.00000E+00
    0.12788E-06        -0.18626E-20         0.00000E+00
    0.12788E-06         0.18957E-20         0.00000E+00
    0.12788E-06         0.55879E-20         0.00000E+00
    0.12788E-06        -0.33049E-22         0.00000E+00
    0.12788E-06        -0.74506E-20         0.00000E+00
    0.33709E-06         0.10598E-19         0.00000E+00
    0.33709E-06         0.37253E-20         0.00000E+00
    0.33709E-06         0.00000E+00         0.00000E+00
    0.33709E-06        -0.11176E-19         0.00000E+00
    0.33709E-06        -0.22352E-19         0.00000E+00
    0.33709E-06        -0.18626E-19         0.00000E+00
    0.33709E-06        -0.18626E-19         0.00000E+00
    0.33709E-06        -0.20489E-19         0.00000E+00
    0.33709E-06        -0.14901E-19         0.00000E+00
    0.33709E-06        -0.18626E-19         0.00000E+00
    0.33709E-06        -0.16764E-19         0.00000E+00
    0.33709E-06        -0.37253E-20         0.00000E+00
    0.33709E-06         0.18626E-20         0.00000E+00
    0.33709E-06         0.34364E-20         0.00000E+00
    0.33709E-06         0.00000E+00         0.00000E+00
    0.33709E-06         0.21515E-20         0.00000E+00
    0.33709E-06         0.11176E-19         0.00000E+00
    0.33709E-06         0.19558E-19         0.00000E+00
    0.33709E-06         0.68081E-20         0.00000E+00
    0.33709E-06        -0.74506E-20         0.00000E+00
    0.33709E-06        -0.11176E-19         0.00000E+00
    0.33709E-06        -0.11176E-19         0.00000E+00
    0.33709E-06        -0.24214E-19         0.00000E+00
    0.33709E-06        -0.33528E-19         0.00000E+00
    0.33709E-06        -0.16764E-19         0.00000E+00
    0.33709E-06        -0.30829E-20         0.00000E+00
    0.33709E-06         0.65193E-20         0.00000E+00
    0.33709E-06         0.13327E-19         0.00000E+00
    0.33709E-06         0.74506E-20         0.00000E+00
    0.33709E-06         0.37253E-20         0.00000E+00
    0.33709E-06         0.43677E-20         0.00000E+00
    0.33709E-06        -0.30829E-20         0.00000E+00
    0.33709E-06         0.37253E-20         0.00000E+00
    0.33709E-06         0.12202E-20         0.00000E+00
    0.33709E-06         0.49455E-20         0.00000E+00
    0.33709E-06         0.55879E-20         0.00000E+00
    0.33709E-06        -0.18626E-20         0.00000E+00
    0.33709E-06        -0.93132E-20         0.00000E+00
    0.33709E-06        -0.10533E-19         0.00000E+00
    0.33709E-06        -0.12107E-19         0.00000E+00
    0.33709E-06        -0.13970E-19         0.00000E+00
    0.33709E-06        -0.13970E-19         0.00000E+00
    0.33709E-06        -0.20200E-19         0.00000E+00
    0.33709E-06        -0.27940E-19         0.00000E+00
    0.33709E-06        -0.22352E-19         0.00000E+00
    0.33709E-06        -0.14901E-19         0.00000E+00
    0.33709E-06        -0.37253E-20         0.00000E+00
    0.33709E-06         0.00000E+00         0.00000E+00
    0.33709E-06        -0.37253E-20         0.00000E+00
    0.33709E-06         0.86708E-20         0.00000E+00
    0.33709E-06         0.21067E-19         0.00000E+00
    0.70473E-06         0.10298E-19         0.00000E+00
    0.70473E-06         0.18626E-20         0.00000E+00
    0.70473E-06        -0.88743E-20         0.00000E+00
    0.70473E-06        -0.32329E-20         0.00000E+00
    0.70473E-06         0.60803E-20         0.00000E+00
    0.70473E-06        -0.14462E-19         0.00000E+00
    0.70473E-06        -0.27501E-19         0.00000E+00
    0.70473E-06        -0.31665E-19         0.00000E+00
    0.70473E-06        -0.70116E-20         0.00000E+00
    0.70473E-06        -0.18626E-19         0.00000E+00
    0.70473E-06        -0.39554E-19         0.00000E+00
    0.70473E-06        -0.11176E-19         0.00000E+00
    0.70473E-06        -0.11176E-19         0.00000E+00
    0.70473E-06        -0.37253E-20         0.00000E+00
    0.70473E-06        -0.37253E-20         0.00000E+00
    0.70473E-06        -0.37253E-20         0.00000E+00
    0.70473E-06         0.74506E-20         0.00000E+00
    0.70473E-06         0.18626E-19         0.00000E+00
    0.70473E-06         0.26077E-19         0.00000E+00
    0.70473E-06         0.14901E-19         0.00000E+00
    0.70473E-06        -0.74506E-20         0.00000E+00
    0.70473E-06        -0.20489E-19         0.00000E+00
    0.70473E-06        -0.20489E-19         0.00000E+00
    0.70473E-06        -0.18626E-19         0.00000E+00
    0.70473E-06        -0.11176E-19         0.00000E+00
    0.70473E-06        -0.93132E-20         0.00000E+00
    0.70473E-06        -0.18626E-20         0.00000E+00
    0.70473E-06         0.14901E-19         0.00000E+00
    0.70473E-06         0.14901E-19         0.00000E+00
    0.70473E-06         0.37253E-20         0.00000E+00
    0.70473E-06        -0.37253E-20         0.00000E+00
    0.70473E-06         0.14237E-20         0.00000E+00
    0.70473E-06         0.65193E-20         0.00000E+00
    0.70473E-06         0.46566E-20         0.00000E+00
    0.70473E-06        -0.37253E-20         0.00000E+00
    0.70473E-06        -0.51490E-20         0.00000E+00
    0.70473E-06        -0.18626E-20         0.00000E+00
    0.70473E-06        -0.43894E-21         0.00000E+00
    0.70473E-06        -0.46566E-20         0.00000E+00
    0.70473E-06        -0.17256E-19         0.00000E+00
    0.70473E-06        -0.20928E-19         0.00000E+00
    0.70473E-06        -0.17695E-19         0.00000E+00
    0.70473E-06        -0.13531E-19         0.00000E+00
    0.70473E-06        -0.93132E-20         0.00000E+00
    0.70473E-06        -0.11176E-19         0.00000E+00
    0.70473E-06        -0.78895E-20         0.00000E+00
    0.70473E-06        -0.93132E-21         0.00000E+00
    0.70473E-06         0.32329E-20         0.00000E+00
    0.70473E-06        -0.13703E-20         0.00000E+00
    0.70473E-06         0.22791E-19         0.00000E+00
    0.70473E-06         0.48322E-19         0.00000E+00
    0.11198E-05         0.18626E-20         0.00000E+00
    0.11198E-05        -0.26992E-19         0.00000E+00
    0.11198E-05         0.27940E-20         0.00000E+00
    0.11198E-05         0.27923E-19         0.00000E+00
    0.11198E-05        -0.36305E-19         0.00000E+00
    0.11198E-05        -0.37237E-19         0.00000E+00
    0.11198E-05         0.64865E-20         0.00000E+00
    0.11198E-05         0.55716E-20         0.00000E+00
    0.11198E-05        -0.21404E-19         0.00000E+00
    0.11198E-05        -0.14901E-19         0.00000E+00
    0.11198E-05        -0.15832E-19         0.00000E+00
    0.11198E-05        -0.13039E-19         0.00000E+00
    0.11198E-05         0.74506E-20         0.00000E+00
    0.11198E-05        -0.22335E-19         0.00000E+00
    0.11198E-05         0.65193E-20         0.00000E+00
    0.11198E-05         0.37237E-19         0.00000E+00
    0.11198E-05         0.13970E-19         0.00000E+00
    0.11198E-05         0.37253E-20         0.00000E+00
    0.11198E-05         0.13039E-19         0.00000E+00
    0.11198E-05         0.11176E-19         0.00000E+00
    0.11198E-05        -0.10245E-19         0.00000E+00
    0.11198E-05        -0.93132E-20         0.00000E+00
    0.11198E-05        -0.13970E-19         0.00000E+00
    0.11198E-05        -0.15832E-19         0.00000E+00
    0.11198E-05        -0.83819E-20         0.00000E+00
    0.11198E-05        -0.27940E-20         0.00000E+00
    0.11198E-05         0.93132E-21         0.00000E+00
    0.11198E-05         0.93132E-20         0.00000E+00
    0.11198E-05         0.74506E-20         0.00000E+00
    0.11198E-05        -0.27940E-20         0.00000E+00
    0.11198E-05        -0.55879E-20         0.00000E+00
    0.11198E-05        -0.18128E-19         0.00000E+00
    0.11198E-05         0.51223E-20         0.00000E+00
    0.11198E-05         0.22319E-19         0.00000E+00
    0.11198E-05         0.37253E-20         0.00000E+00
    0.11198E-05         0.37253E-20         0.00000E+00
    0.11198E-05         0.00000E+00         0.00000E+00
    0.11198E-05        -0.83819E-20         0.00000E+00
    0.11198E-05        -0.13039E-19         0.00000E+00
    0.11198E-05        -0.37253E-20         0.00000E+00
    0.11198E-05        -0.55879E-20         0.00000E+00
    0.11198E-05        -0.17695E-19         0.00000E+00
    0.11198E-05        -0.83819E-20         0.00000E+00
    0.11198E-05        -0.31183E-19         0.00000E+00
    0.11198E-05        -0.13970E-20         0.00000E+00
    0.11198E-05         0.34443E-19         0.00000E+00
    0.11198E-05        -0.21404E-19         0.00000E+00
    0.11198E-05        -0.33511E-19         0.00000E+00
    0.11198E-05         0.37237E-19         0.00000E+00
    0.11198E-05         0.30701E-19         0.00000E+00
    0.11198E-05        -0.29835E-19         0.00000E+00
    0.13114E-05         0.00000E+00         0.00000E+00
    0.13114E-05         0.00000E+00         0.00000E+00
    0.13114E-05         0.00000E+00         0.00000E+00
    0.13114E-05         0.00000E+00         0.00000E+00
    0.13114E-05         0.00000E+00         0.00000E+00
    0.13114E-05         0.00000E+00         0.00000E+00
    0.13114E-05         0.00000E+00         0.00000E+00
    0.13114E-05         0.00000E+00         0.00000E+00
    0.13114E-05         0.00000E+00         0.00000E+00
    0.13114E-05        -0.37253E-19         0.00000E+00
    0.13114E-05         0.00000E+00         0.00000E+00
    0.13114E-05         0.37253E-19         0.00000E+00
    0.13114E-05         0.00000E+00         0.00000E+00
    0.13114E-05         0.00000E+00         0.00000E+00
    0.13114E-05         0.00000E+00         0.00000E+00
    0.13114E-05         0.00000E+00         0.00000E+00
    0.13114E-05         0.00000E+00         0.00000E+00
    0.13114E-05         0.37253E-19         0.00000E+00
    0.13114E-05         0.00000E+00         0.00000E+00
    0.13114E-05        -0.37253E-19         0.00000E+00
    0.13114E-05         0.00000E+00         0.00000E+00
    0.13114E-05         0.00000E+00         0.00000E+00
    0.13114E-05         0.00000E+00         0.00000E+00
    0.13114E-05         0.00000E+00         0.00000E+00
    0.13114E-05         0.00000E+00         0.00000E+00
    0.13114E-05         0.00000E+00         0.00000E+00
    0.13114E-05         0.00000E+00         0.00000E+00
    0.13114E-05         0.00000E+00         0.00000E+00
    0.13114E-05         0.00000E+00         0.00000E+00
    0.13114E-05         0.00000E+00         0.00000E+00
    0.13114E-05         0.00000E+00         0.00000E+00
    0.13114E-05         0.00000E+00         0.00000E+00
    0.13114E-05         0.00000E+00         0.00000E+00
    0.13114E-05         0.00000E+00         0.00000E+00
    0.13114E-05         0.00000E+00         0.00000E+00
    0.13114E-05         0.00000E+00         0.00000E+00
    0.13114E-05         0.00000E+00         0.00000E+00
    0.13114E-05         0.00000E+00         0.00000E+00
    0.13114E-05         0.00000E+00         0.00000E+00
    0.13114E-05        -0.38184E-19         0.00000E+00
    0.13114E-05        -0.37253E-19         0.00000E+00
    0.13114E-05         0.37253E-19         0.00000E+00
    0.13114E-05         0.37253E-19         0.00000E+00
    0.13114E-05         0.00000E+00         0.00000E+00
    0.13114E-05         0.00000E+00         0.00000E+00
    0.13114E-05         0.00000E+00         0.00000E+00
    0.13114E-05         0.00000E+00         0.00000E+00
    0.13114E-05         0.37253E-19         0.00000E+00
    0.13114E-05         0.93132E-21         0.00000E+00
    0.13114E-05         0.00000E+00         0.00000E+00
    0.13114E-05         0.74506E-19         0.00000E+00
CELL_DATA       5000
TENSORS stressef double 
    0.21266E+08        -0.76257E+06         0.00000E+00
   -0.76257E+06         0.15948E+08         0.00000E+00
    0.00000E+00         0.00000E+00         0.10612E+08
 
    0.20308E+08        -0.10306E+07         0.00000E+00
   -0.10306E+07         0.15630E+08         0.00000E+00
    0.00000E+00         0.00000E+00         0.93460E+07
 
    0.19468E+08        -0.11972E+07         0.00000E+00
   -0.11972E+07         0.15273E+08         0.00000E+00
    0.00000E+00         0.00000E+00         0.82251E+07
 
    0.18725E+08        -0.13041E+07         0.00000E+00
   -0.13041E+07         0.14878E+08         0.00000E+00
    0.00000E+00         0.00000E+00         0.72808E+07
 
    0.17928E+08        -0.13618E+07         0.00000E+00
   -0.13618E+07         0.14430E+08         0.00000E+00
    0.00000E+00         0.00000E+00         0.66207E+07
 
    0.17150E+08        -0.13493E+07         0.00000E+00
   -0.13493E+07         0.13975E+08         0.00000E+00
    0.00000E+00         0.00000E+00         0.62250E+07
 
    0.16450E+08        -0.12819E+07         0.00000E+00
   -0.12819E+07         0.13536E+08         0.00000E+00
    0.00000E+00         0.00000E+00         0.59972E+07
 
    0.15900E+08        -0.12020E+07         0.00000E+00
   -0.12020E+07         0.13113E+08         0.00000E+00
    0.00000E+00         0.00000E+00         0.58025E+07
 
    0.15460E+08        -0.11195E+07         0.00000E+00
   -0.11195E+07         0.12710E+08         0.00000E+00
    0.00000E+00         0.00000E+00         0.56339E+07
 
    0.15103E+08        -0.10393E+07         0.00000E+00
   -0.10393E+07         0.12329E+08         0.00000E+00
    0.00000E+00         0.00000E+00         0.54864E+07
 
    0.14810E+08        -0.96338E+06         0.00000E+00
   -0.96338E+06         0.11971E+08         0.00000E+00
    0.00000E+00         0.00000E+00         0.53561E+07
 
    0.14566E+08        -0.89276E+06         0.00000E+00
   -0.89276E+06         0.11635E+08         0.00000E+00
    0.00000E+00         0.00000E+00         0.52402E+07
 
    0.14361E+08        -0.82757E+06         0.00000E+00
   -0.82757E+06         0.11320E+08         0.00000E+00
    0.00000E+00         0.00000E+00         0.51363E+07
 
    0.14187E+08        -0.76766E+06         0.00000E+00
   -0.76766E+06         0.11026E+08         0.00000E+00
    0.00000E+00         0.00000E+00         0.50427E+07
 
    0.14038E+08        -0.71270E+06         0.00000E+00
   -0.71270E+06         0.10751E+08         0.00000E+00
    0.00000E+00         0.00000E+00         0.49578E+07
 
    0.13908E+08        -0.66231E+06         0.00000E+00
   -0.66231E+06         0.10494E+08         0.00000E+00
    0.00000E+00         0.00000E+00         0.48804E+07
 
    0.13794E+08        -0.61609E+06         0.00000E+00
   -0.61609E+06         0.10254E+08         0.00000E+00
    0.00000E+00         0.00000E+00         0.48096E+07
 
    0.13692E+08        -0.57363E+06         0.00000E+00
   -0.57363E+06         0.10029E+08         0.00000E+00
    0.00000E+00         0.00000E+00         0.47443E+07
 
    0.13601E+08        -0.53458E+06         0.00000E+00
   -0.53458E+06         0.98191E+07         0.00000E+00
    0.00000E+00         0.00000E+00         0.46839E+07
 
    0.13516E+08        -0.49858E+06         0.00000E+00
   -0.49858E+06         0.96226E+07         0.00000E+00
    0.00000E+00         0.00000E+00         0.46278E+07
 
    0.13438E+08        -0.46533E+06         0.00000E+00
   -0.46533E+06         0.94388E+07         0.00000E+00
    0.00000E+00         0.00000E+00         0.45753E+07
 
    0.13364E+08        -0.43452E+06         0.00000E+00
   -0.43452E+06         0.92667E+07         0.00000E+00
    0.00000E+00         0.00000E+00         0.45261E+07
 
    0.13292E+08        -0.40589E+06         0.00000E+00
   -0.40589E+06         0.91057E+07         0.00000E+00
    0.00000E+00         0.00000E+00         0.44796E+07
 
    0.13222E+08        -0.37919E+06         0.00000E+00
   -0.37919E+06         0.89550E+07         0.00000E+00
    0.00000E+00         0.00000E+00         0.44355E+07
 
    0.13153E+08        -0.35419E+06         0.00000E+00
   -0.35419E+06         0.88141E+07         0.00000E+00
    0.00000E+00         0.00000E+00         0.43933E+07
 
    0.13082E+08        -0.33067E+06         0.00000E+00
   -0.33067E+06         0.86824E+07         0.00000E+00
    0.00000E+00         0.00000E+00         0.43529E+07
 
    0.13010E+08        -0.30840E+06         0.00000E+00
   -0.30840E+06         0.85593E+07         0.00000E+00
    0.00000E+00         0.00000E+00         0.43138E+07
 
    0.12935E+08        -0.28718E+06         0.00000E+00
   -0.28718E+06         0.84446E+07         0.00000E+00
    0.00000E+00         0.00000E+00         0.42759E+07
 
    0.12855E+08        -0.26679E+06         0.00000E+00
   -0.26679E+06         0.83380E+07         0.00000E+00
    0.00000E+00         0.00000E+00         0.42387E+07
 
    0.12771E+08        -0.24701E+06         0.00000E+00
   -0.24701E+06         0.82391E+07         0.00000E+00
    0.00000E+00         0.00000E+00         0.42020E+07
 
    0.12680E+08        -0.22760E+06         0.00000E+00
   -0.22760E+06         0.81478E+07         0.00000E+00
    0.00000E+00         0.00000E+00         0.41656E+07
 
    0.12581E+08        -0.20829E+06         0.00000E+00
   -0.20829E+06         0.80641E+07         0.00000E+00
    0.00000E+00         0.00000E+00         0.41291E+07
 
    0.12473E+08        -0.18878E+06         0.00000E+00
   -0.18878E+06         0.79881E+07         0.00000E+00
    0.00000E+00         0.00000E+00         0.40922E+07
 
    0.12354E+08        -0.16871E+06         0.00000E+00
   -0.16871E+06         0.79198E+07         0.00000E+00
    0.00000E+00         0.00000E+00         0.40547E+07
 
    0.12221E+08        -0.14765E+06         0.00000E+00
   -0.14765E+06         0.78596E+07         0.00000E+00
    0.00000E+00         0.00000E+00         0.40160E+07
 
    0.12072E+08        -0.12507E+06         0.00000E+00
   -0.12507E+06         0.78081E+07         0.00000E+00
    0.00000E+00         0.00000E+00         0.39759E+07
 
    0.11904E+08        -0.10030E+06         0.00000E+00
   -0.10030E+06         0.77659E+07         0.00000E+00
    0.00000E+00         0.00000E+00         0.39339E+07
 
    0.11713E+08        -0.72509E+05         0.00000E+00
   -0.72509E+05         0.77341E+07         0.00000E+00
    0.00000E+00         0.00000E+00         0.38895E+07
 
    0.11496E+08        -0.40580E+05         0.00000E+00
   -0.40580E+05         0.77140E+07         0.00000E+00
    0.00000E+00         0.00000E+00         0.38420E+07
 
    0.11246E+08        -0.30558E+04         0.00000E+00
   -0.30558E+04         0.77074E+07         0.00000E+00
    0.00000E+00         0.00000E+00         0.37907E+07
 
    0.10957E+08         0.42026E+05         0.00000E+00
    0.42026E+05         0.77167E+07         0.00000E+00
    0.00000E+00         0.00000E+00         0.37347E+07
 
    0.10619E+08         0.97347E+05         0.00000E+00
    0.97347E+05         0.77451E+07         0.00000E+00
    0.00000E+00         0.00000E+00         0.36729E+07
 
    0.10222E+08         0.16664E+06         0.00000E+00
    0.16664E+06         0.77970E+07         0.00000E+00
    0.00000E+00         0.00000E+00         0.36039E+07
 
    0.97514E+07         0.25522E+06         0.00000E+00
    0.25522E+06         0.78779E+07         0.00000E+00
    0.00000E+00         0.00000E+00         0.35259E+07
 
    0.91870E+07         0.37079E+06         0.00000E+00
    0.37079E+06         0.79957E+07         0.00000E+00
    0.00000E+00         0.00000E+00         0.34365E+07
 
    0.85023E+07         0.52488E+06         0.00000E+00
    0.52488E+06         0.81607E+07         0.00000E+00
    0.00000E+00         0.00000E+00         0.33326E+07
 
    0.76605E+07         0.73525E+06         0.00000E+00
    0.73525E+06         0.83875E+07         0.00000E+00
    0.00000E+00         0.00000E+00         0.32096E+07
 
    0.66082E+07         0.10304E+07         0.00000E+00
    0.10304E+07         0.86960E+07         0.00000E+00
    0.00000E+00         0.00000E+00         0.30608E+07
 
    0.52654E+07         0.14578E+07         0.00000E+00
    0.14578E+07         0.91145E+07         0.00000E+00
    0.00000E+00         0.00000E+00         0.28760E+07
 
    0.35061E+07         0.21015E+07         0.00000E+00
    0.21015E+07         0.96836E+07         0.00000E+00
    0.00000E+00         0.00000E+00         0.26379E+07
 
    0.10577E+08        -0.40567E+06         0.00000E+00
   -0.40567E+06         0.79042E+07         0.00000E+00
    0.00000E+00         0.00000E+00         0.36962E+07
 
    0.10629E+08        -0.10913E+07         0.00000E+00
   -0.10913E+07         0.81249E+07         0.00000E+00
    0.00000E+00         0.00000E+00         0.37507E+07
 
    0.10453E+08        -0.15789E+07         0.00000E+00
   -0.15789E+07         0.82620E+07         0.00000E+00
    0.00000E+00         0.00000E+00         0.37430E+07
 
    0.10163E+08        -0.19249E+07         0.00000E+00
   -0.19249E+07         0.83473E+07         0.00000E+00
    0.00000E+00         0.00000E+00         0.37021E+07
 
    0.98154E+07        -0.21607E+07         0.00000E+00
   -0.21607E+07         0.84272E+07         0.00000E+00
    0.00000E+00         0.00000E+00         0.36485E+07
 
    0.94312E+07        -0.22968E+07         0.00000E+00
   -0.22968E+07         0.84650E+07         0.00000E+00
    0.00000E+00         0.00000E+00         0.35792E+07
 
    0.90398E+07        -0.23490E+07         0.00000E+00
   -0.23490E+07         0.84526E+07         0.00000E+00
    0.00000E+00         0.00000E+00         0.34985E+07
 
    0.86685E+07        -0.23399E+07         0.00000E+00
   -0.23399E+07         0.84070E+07         0.00000E+00
    0.00000E+00         0.00000E+00         0.34151E+07
 
    0.83295E+07        -0.22910E+07         0.00000E+00
   -0.22910E+07         0.83353E+07         0.00000E+00
    0.00000E+00         0.00000E+00         0.33330E+07
 
    0.80257E+07        -0.22168E+07         0.00000E+00
   -0.22168E+07         0.82439E+07         0.00000E+00
    0.00000E+00         0.00000E+00         0.32539E+07
 
    0.77560E+07        -0.21276E+07         0.00000E+00
   -0.21276E+07         0.81382E+07         0.00000E+00
    0.00000E+00         0.00000E+00         0.31788E+07
 
    0.75173E+07        -0.20302E+07         0.00000E+00
   -0.20302E+07         0.80225E+07         0.00000E+00
    0.00000E+00         0.00000E+00         0.31080E+07
 
    0.73063E+07        -0.19292E+07         0.00000E+00
   -0.19292E+07         0.79003E+07         0.00000E+00
    0.00000E+00         0.00000E+00         0.30413E+07
 
    0.71194E+07        -0.18279E+07         0.00000E+00
   -0.18279E+07         0.77744E+07         0.00000E+00
    0.00000E+00         0.00000E+00         0.29787E+07
 
    0.69531E+07        -0.17281E+07         0.00000E+00
   -0.17281E+07         0.76470E+07         0.00000E+00
    0.00000E+00         0.00000E+00         0.29200E+07
 
    0.68046E+07        -0.16312E+07         0.00000E+00
   -0.16312E+07         0.75199E+07         0.00000E+00
    0.00000E+00         0.00000E+00         0.28649E+07
 
    0.66710E+07        -0.15380E+07         0.00000E+00
   -0.15380E+07         0.73943E+07         0.00000E+00
    0.00000E+00         0.00000E+00         0.28131E+07
 
    0.65500E+07        -0.14488E+07         0.00000E+00
   -0.14488E+07         0.72713E+07         0.00000E+00
    0.00000E+00         0.00000E+00         0.27643E+07
 
    0.64394E+07        -0.13638E+07         0.00000E+00
   -0.13638E+07         0.71516E+07         0.00000E+00
    0.00000E+00         0.00000E+00         0.27182E+07
 
    0.63375E+07        -0.12830E+07         0.00000E+00
   -0.12830E+07         0.70358E+07         0.00000E+00
    0.00000E+00         0.00000E+00         0.26746E+07
 
    0.62425E+07        -0.12063E+07         0.00000E+00
   -0.12063E+07         0.69242E+07         0.00000E+00
    0.00000E+00         0.00000E+00         0.26333E+07
 
    0.61530E+07        -0.11335E+07         0.00000E+00
   -0.11335E+07         0.68173E+07         0.00000E+00
    0.00000E+00         0.00000E+00         0.25941E+07
 
    0.60676E+07        -0.10642E+07         0.00000E+00
   -0.10642E+07         0.67153E+07         0.00000E+00
    0.00000E+00         0.00000E+00         0.25566E+07
 
    0.59852E+07        -0.99822E+06         0.00000E+00
   -0.99822E+06         0.66183E+07         0.00000E+00
    0.00000E+00         0.00000E+00         0.25207E+07
 
    0.59046E+07        -0.93516E+06         0.00000E+00
   -0.93516E+06         0.65265E+07         0.00000E+00
    0.00000E+00         0.00000E+00         0.24862E+07
 
    0.58248E+07        -0.87467E+06         0.00000E+00
   -0.87467E+06         0.64399E+07         0.00000E+00
    0.00000E+00         0.00000E+00         0.24529E+07
 
    0.57447E+07        -0.81634E+06         0.00000E+00
   -0.81634E+06         0.63588E+07         0.00000E+00
    0.00000E+00         0.00000E+00         0.24207E+07
 
    0.56635E+07        -0.75972E+06         0.00000E+00
   -0.75972E+06         0.62832E+07         0.00000E+00
    0.00000E+00         0.00000E+00         0.23893E+07
 
    0.55800E+07        -0.70435E+06         0.00000E+00
   -0.70435E+06         0.62132E+07         0.00000E+00
    0.00000E+00         0.00000E+00         0.23586E+07
 
    0.54935E+07        -0.64968E+06         0.00000E+00
   -0.64968E+06         0.61490E+07         0.00000E+00
    0.00000E+00         0.00000E+00         0.23285E+07
 
    0.54027E+07        -0.59512E+06         0.00000E+00
   -0.59512E+06         0.60909E+07         0.00000E+00
    0.00000E+00         0.00000E+00         0.22987E+07
 
    0.53067E+07        -0.53998E+06         0.00000E+00
   -0.53998E+06         0.60390E+07         0.00000E+00
    0.00000E+00         0.00000E+00         0.22691E+07
 
    0.52044E+07        -0.48347E+06         0.00000E+00
   -0.48347E+06         0.59936E+07         0.00000E+00
    0.00000E+00         0.00000E+00         0.22396E+07
 
    0.50945E+07        -0.42464E+06         0.00000E+00
   -0.42464E+06         0.59553E+07         0.00000E+00
    0.00000E+00         0.00000E+00         0.22099E+07
 
    0.49757E+07        -0.36237E+06         0.00000E+00
   -0.36237E+06         0.59243E+07         0.00000E+00
    0.00000E+00         0.00000E+00         0.21800E+07
 
    0.48466E+07        -0.29525E+06         0.00000E+00
   -0.29525E+06         0.59013E+07         0.00000E+00
    0.00000E+00         0.00000E+00         0.21496E+07
 
    0.47056E+07        -0.22160E+06         0.00000E+00
   -0.22160E+06         0.58871E+07         0.00000E+00
    0.00000E+00         0.00000E+00         0.21185E+07
 
    0.45510E+07        -0.13927E+06         0.00000E+00
   -0.13927E+06         0.58824E+07         0.00000E+00
    0.00000E+00         0.00000E+00         0.20867E+07
 
    0.43809E+07        -0.45590E+05         0.00000E+00
   -0.45590E+05         0.58884E+07         0.00000E+00
    0.00000E+00         0.00000E+00         0.20539E+07
 
    0.41934E+07         0.62873E+05         0.00000E+00
    0.62873E+05         0.59060E+07         0.00000E+00
    0.00000E+00         0.00000E+00         0.20199E+07
 
    0.39864E+07         0.19053E+06         0.00000E+00
    0.19053E+06         0.59369E+07         0.00000E+00
    0.00000E+00         0.00000E+00         0.19847E+07
 
    0.37579E+07         0.34310E+06         0.00000E+00
    0.34310E+06         0.59824E+07         0.00000E+00
    0.00000E+00         0.00000E+00         0.19481E+07
 
    0.35063E+07         0.52809E+06         0.00000E+00
    0.52809E+06         0.60445E+07         0.00000E+00
    0.00000E+00         0.00000E+00         0.19102E+07
 
    0.32309E+07         0.75544E+06         0.00000E+00
    0.75544E+06         0.61248E+07         0.00000E+00
    0.00000E+00         0.00000E+00         0.18711E+07
 
    0.29327E+07         0.10384E+07         0.00000E+00
    0.10384E+07         0.62252E+07         0.00000E+00
    0.00000E+00         0.00000E+00         0.18316E+07
 
    0.26163E+07         0.13948E+07         0.00000E+00
    0.13948E+07         0.63471E+07         0.00000E+00
    0.00000E+00         0.00000E+00         0.17927E+07
 
    0.22937E+07         0.18487E+07         0.00000E+00
    0.18487E+07         0.64908E+07         0.00000E+00
    0.00000E+00         0.00000E+00         0.17569E+07
 
    0.19910E+07         0.24326E+07         0.00000E+00
    0.24326E+07         0.66550E+07         0.00000E+00
    0.00000E+00         0.00000E+00         0.17292E+07
 
    0.17636E+07         0.31902E+07         0.00000E+00
    0.31902E+07         0.68346E+07         0.00000E+00
    0.00000E+00         0.00000E+00         0.17196E+07
 
    0.17277E+07         0.41782E+07         0.00000E+00
    0.41782E+07         0.70183E+07         0.00000E+00
    0.00000E+00         0.00000E+00         0.17492E+07
 
    0.31606E+07        -0.25935E+06         0.00000E+00
   -0.25935E+06         0.34643E+07         0.00000E+00
    0.00000E+00         0.00000E+00         0.13250E+07
 
    0.35626E+07        -0.64191E+06         0.00000E+00
   -0.64191E+06         0.34923E+07         0.00000E+00
    0.00000E+00         0.00000E+00         0.14110E+07
 
    0.38371E+07        -0.10051E+07         0.00000E+00
   -0.10051E+07         0.35933E+07         0.00000E+00
    0.00000E+00         0.00000E+00         0.14861E+07
 
    0.39858E+07        -0.13204E+07         0.00000E+00
   -0.13204E+07         0.37305E+07         0.00000E+00
    0.00000E+00         0.00000E+00         0.15433E+07
 
    0.40314E+07        -0.15802E+07         0.00000E+00
   -0.15802E+07         0.38754E+07         0.00000E+00
    0.00000E+00         0.00000E+00         0.15814E+07
 
    0.40007E+07        -0.17868E+07         0.00000E+00
   -0.17868E+07         0.40260E+07         0.00000E+00
    0.00000E+00         0.00000E+00         0.16053E+07
 
    0.39135E+07        -0.19423E+07         0.00000E+00
   -0.19423E+07         0.41748E+07         0.00000E+00
    0.00000E+00         0.00000E+00         0.16177E+07
 
    0.37862E+07        -0.20498E+07         0.00000E+00
   -0.20498E+07         0.43109E+07         0.00000E+00
    0.00000E+00         0.00000E+00         0.16194E+07
 
    0.36337E+07        -0.21150E+07         0.00000E+00
   -0.21150E+07         0.44300E+07         0.00000E+00
    0.00000E+00         0.00000E+00         0.16127E+07
 
    0.34681E+07        -0.21448E+07         0.00000E+00
   -0.21448E+07         0.45304E+07         0.00000E+00
    0.00000E+00         0.00000E+00         0.15997E+07
 
    0.32979E+07        -0.21459E+07         0.00000E+00
   -0.21459E+07         0.46122E+07         0.00000E+00
    0.00000E+00         0.00000E+00         0.15820E+07
 
    0.31289E+07        -0.21246E+07         0.00000E+00
   -0.21246E+07         0.46764E+07         0.00000E+00
    0.00000E+00         0.00000E+00         0.15611E+07
 
    0.29647E+07        -0.20860E+07         0.00000E+00
   -0.20860E+07         0.47247E+07         0.00000E+00
    0.00000E+00         0.00000E+00         0.15379E+07
 
    0.28075E+07        -0.20344E+07         0.00000E+00
   -0.20344E+07         0.47587E+07         0.00000E+00
    0.00000E+00         0.00000E+00         0.15132E+07
 
    0.26582E+07        -0.19732E+07         0.00000E+00
   -0.19732E+07         0.47805E+07         0.00000E+00
    0.00000E+00         0.00000E+00         0.14877E+07
 
    0.25174E+07        -0.19053E+07         0.00000E+00
   -0.19053E+07         0.47917E+07         0.00000E+00
    0.00000E+00         0.00000E+00         0.14618E+07
 
    0.23849E+07        -0.18328E+07         0.00000E+00
   -0.18328E+07         0.47941E+07         0.00000E+00
    0.00000E+00         0.00000E+00         0.14358E+07
 
    0.22604E+07        -0.17573E+07         0.00000E+00
   -0.17573E+07         0.47893E+07         0.00000E+00
    0.00000E+00         0.00000E+00         0.14099E+07
 
    0.21431E+07        -0.16801E+07         0.00000E+00
   -0.16801E+07         0.47786E+07         0.00000E+00
    0.00000E+00         0.00000E+00         0.13843E+07
 
    0.20325E+07        -0.16020E+07         0.00000E+00
   -0.16020E+07         0.47634E+07         0.00000E+00
    0.00000E+00         0.00000E+00         0.13592E+07
 
    0.19277E+07        -0.15238E+07         0.00000E+00
   -0.15238E+07         0.47446E+07         0.00000E+00
    0.00000E+00         0.00000E+00         0.13345E+07
 
    0.18281E+07        -0.14459E+07         0.00000E+00
   -0.14459E+07         0.47234E+07         0.00000E+00
    0.00000E+00         0.00000E+00         0.13103E+07
 
    0.17329E+07        -0.13686E+07         0.00000E+00
   -0.13686E+07         0.47007E+07         0.00000E+00
    0.00000E+00         0.00000E+00         0.12867E+07
 
    0.16412E+07        -0.12918E+07         0.00000E+00
   -0.12918E+07         0.46772E+07         0.00000E+00
    0.00000E+00         0.00000E+00         0.12637E+07
 
    0.15525E+07        -0.12157E+07         0.00000E+00
   -0.12157E+07         0.46536E+07         0.00000E+00
    0.00000E+00         0.00000E+00         0.12412E+07
 
    0.14660E+07        -0.11401E+07         0.00000E+00
   -0.11401E+07         0.46306E+07         0.00000E+00
    0.00000E+00         0.00000E+00         0.12193E+07
 
    0.13811E+07        -0.10647E+07         0.00000E+00
   -0.10647E+07         0.46088E+07         0.00000E+00
    0.00000E+00         0.00000E+00         0.11980E+07
 
    0.12971E+07        -0.98924E+06         0.00000E+00
   -0.98924E+06         0.45887E+07         0.00000E+00
    0.00000E+00         0.00000E+00         0.11771E+07
 
    0.12134E+07        -0.91324E+06         0.00000E+00
   -0.91324E+06         0.45708E+07         0.00000E+00
    0.00000E+00         0.00000E+00         0.11568E+07
 
    0.11296E+07        -0.83617E+06         0.00000E+00
   -0.83617E+06         0.45555E+07         0.00000E+00
    0.00000E+00         0.00000E+00         0.11370E+07
 
    0.10451E+07        -0.75737E+06         0.00000E+00
   -0.75737E+06         0.45435E+07         0.00000E+00
    0.00000E+00         0.00000E+00         0.11177E+07
 
    0.95952E+06        -0.67605E+06         0.00000E+00
   -0.67605E+06         0.45350E+07         0.00000E+00
    0.00000E+00         0.00000E+00         0.10989E+07
 
    0.87244E+06        -0.59128E+06         0.00000E+00
   -0.59128E+06         0.45305E+07         0.00000E+00
    0.00000E+00         0.00000E+00         0.10806E+07
 
    0.78362E+06        -0.50195E+06         0.00000E+00
   -0.50195E+06         0.45304E+07         0.00000E+00
    0.00000E+00         0.00000E+00         0.10628E+07
 
    0.69289E+06        -0.40674E+06         0.00000E+00
   -0.40674E+06         0.45351E+07         0.00000E+00
    0.00000E+00         0.00000E+00         0.10456E+07
 
    0.60029E+06        -0.30407E+06         0.00000E+00
   -0.30407E+06         0.45449E+07         0.00000E+00
    0.00000E+00         0.00000E+00         0.10290E+07
 
    0.50604E+06        -0.19210E+06         0.00000E+00
   -0.19210E+06         0.45601E+07         0.00000E+00
    0.00000E+00         0.00000E+00         0.10132E+07
 
    0.41071E+06        -0.68595E+05         0.00000E+00
   -0.68595E+05         0.45810E+07         0.00000E+00
    0.00000E+00         0.00000E+00         0.99835E+06
 
    0.31531E+06         0.69062E+05         0.00000E+00
    0.69062E+05         0.46077E+07         0.00000E+00
    0.00000E+00         0.00000E+00         0.98459E+06
 
    0.22145E+06         0.22399E+06         0.00000E+00
    0.22399E+06         0.46399E+07         0.00000E+00
    0.00000E+00         0.00000E+00         0.97227E+06
 
    0.13159E+06         0.39985E+06         0.00000E+00
    0.39985E+06         0.46773E+07         0.00000E+00
    0.00000E+00         0.00000E+00         0.96179E+06
 
    0.49393E+05         0.60094E+06         0.00000E+00
    0.60094E+06         0.47191E+07         0.00000E+00
    0.00000E+00         0.00000E+00         0.95370E+06
 
   -0.19858E+05         0.83218E+06         0.00000E+00
    0.83218E+06         0.47637E+07         0.00000E+00
    0.00000E+00         0.00000E+00         0.94877E+06
 
   -0.68639E+05         0.10991E+07         0.00000E+00
    0.10991E+07         0.48085E+07         0.00000E+00
    0.00000E+00         0.00000E+00         0.94798E+06
 
   -0.86428E+05         0.14075E+07         0.00000E+00
    0.14075E+07         0.48497E+07         0.00000E+00
    0.00000E+00         0.00000E+00         0.95265E+06
 
   -0.58849E+05         0.17631E+07         0.00000E+00
    0.17631E+07         0.48810E+07         0.00000E+00
    0.00000E+00         0.00000E+00         0.96444E+06
 
    0.32968E+05         0.21702E+07         0.00000E+00
    0.21702E+07         0.48934E+07         0.00000E+00
    0.00000E+00         0.00000E+00         0.98528E+06
 
    0.21187E+06         0.26294E+07         0.00000E+00
    0.26294E+07         0.48731E+07         0.00000E+00
    0.00000E+00         0.00000E+00         0.10170E+07
 
    0.50024E+06         0.31329E+07         0.00000E+00
    0.31329E+07         0.47991E+07         0.00000E+00
    0.00000E+00         0.00000E+00         0.10599E+07
 
    0.90384E+06         0.36561E+07         0.00000E+00
    0.36561E+07         0.46396E+07         0.00000E+00
    0.00000E+00         0.00000E+00         0.11087E+07
 
   -0.60563E+06        -0.68446E+05         0.00000E+00
   -0.68446E+05         0.11772E+07         0.00000E+00
    0.00000E+00         0.00000E+00         0.11432E+06
 
   -0.12317E+06        -0.28341E+06         0.00000E+00
   -0.28341E+06         0.12337E+07         0.00000E+00
    0.00000E+00         0.00000E+00         0.22212E+06
 
    0.25094E+06        -0.49394E+06         0.00000E+00
   -0.49394E+06         0.13081E+07         0.00000E+00
    0.00000E+00         0.00000E+00         0.31181E+06
 
    0.53701E+06        -0.69893E+06         0.00000E+00
   -0.69893E+06         0.14042E+07         0.00000E+00
    0.00000E+00         0.00000E+00         0.38824E+06
 
    0.74623E+06        -0.89189E+06         0.00000E+00
   -0.89189E+06         0.15204E+07         0.00000E+00
    0.00000E+00         0.00000E+00         0.45333E+06
 
    0.88835E+06        -0.10666E+07         0.00000E+00
   -0.10666E+07         0.16489E+07         0.00000E+00
    0.00000E+00         0.00000E+00         0.50745E+06
 
    0.97390E+06        -0.12202E+07         0.00000E+00
   -0.12202E+07         0.17845E+07         0.00000E+00
    0.00000E+00         0.00000E+00         0.55168E+06
 
    0.10127E+07        -0.13509E+07         0.00000E+00
   -0.13509E+07         0.19239E+07         0.00000E+00
    0.00000E+00         0.00000E+00         0.58732E+06
 
    0.10135E+07        -0.14582E+07         0.00000E+00
   -0.14582E+07         0.20631E+07         0.00000E+00
    0.00000E+00         0.00000E+00         0.61532E+06
 
    0.98402E+06        -0.15424E+07         0.00000E+00
   -0.15424E+07         0.21989E+07         0.00000E+00
    0.00000E+00         0.00000E+00         0.63658E+06
 
    0.93142E+06        -0.16044E+07         0.00000E+00
   -0.16044E+07         0.23286E+07         0.00000E+00
    0.00000E+00         0.00000E+00         0.65200E+06
 
    0.86171E+06        -0.16462E+07         0.00000E+00
   -0.16462E+07         0.24505E+07         0.00000E+00
    0.00000E+00         0.00000E+00         0.66244E+06
 
    0.77986E+06        -0.16699E+07         0.00000E+00
   -0.16699E+07         0.25635E+07         0.00000E+00
    0.00000E+00         0.00000E+00         0.66868E+06
 
    0.68988E+06        -0.16775E+07         0.00000E+00
   -0.16775E+07         0.26672E+07         0.00000E+00
    0.00000E+00         0.00000E+00         0.67142E+06
 
    0.59488E+06        -0.16713E+07         0.00000E+00
   -0.16713E+07         0.27615E+07         0.00000E+00
    0.00000E+00         0.00000E+00         0.67128E+06
 
    0.49723E+06        -0.16533E+07         0.00000E+00
   -0.16533E+07         0.28467E+07         0.00000E+00
    0.00000E+00         0.00000E+00         0.66878E+06
 
    0.39870E+06        -0.16251E+07         0.00000E+00
   -0.16251E+07         0.29231E+07         0.00000E+00
    0.00000E+00         0.00000E+00         0.66437E+06
 
    0.30058E+06        -0.15886E+07         0.00000E+00
   -0.15886E+07         0.29915E+07         0.00000E+00
    0.00000E+00         0.00000E+00         0.65842E+06
 
    0.20376E+06        -0.15449E+07         0.00000E+00
   -0.15449E+07         0.30525E+07         0.00000E+00
    0.00000E+00         0.00000E+00         0.65124E+06
 
    0.10885E+06        -0.14953E+07         0.00000E+00
   -0.14953E+07         0.31068E+07         0.00000E+00
    0.00000E+00         0.00000E+00         0.64312E+06
 
    0.16206E+05        -0.14407E+07         0.00000E+00
   -0.14407E+07         0.31552E+07         0.00000E+00
    0.00000E+00         0.00000E+00         0.63427E+06
 
   -0.73953E+05        -0.13819E+07         0.00000E+00
   -0.13819E+07         0.31984E+07         0.00000E+00
    0.00000E+00         0.00000E+00         0.62489E+06
 
   -0.16154E+06        -0.13194E+07         0.00000E+00
   -0.13194E+07         0.32373E+07         0.00000E+00
    0.00000E+00         0.00000E+00         0.61515E+06
 
   -0.24657E+06        -0.12537E+07         0.00000E+00
   -0.12537E+07         0.32724E+07         0.00000E+00
    0.00000E+00         0.00000E+00         0.60517E+06
 
   -0.32908E+06        -0.11850E+07         0.00000E+00
   -0.11850E+07         0.33045E+07         0.00000E+00
    0.00000E+00         0.00000E+00         0.59509E+06
 
   -0.40915E+06        -0.11135E+07         0.00000E+00
   -0.11135E+07         0.33342E+07         0.00000E+00
    0.00000E+00         0.00000E+00         0.58502E+06
 
   -0.48686E+06        -0.10393E+07         0.00000E+00
   -0.10393E+07         0.33621E+07         0.00000E+00
    0.00000E+00         0.00000E+00         0.57505E+06
 
   -0.56228E+06        -0.96216E+06         0.00000E+00
   -0.96216E+06         0.33887E+07         0.00000E+00
    0.00000E+00         0.00000E+00         0.56528E+06
 
   -0.63545E+06        -0.88198E+06         0.00000E+00
   -0.88198E+06         0.34144E+07         0.00000E+00
    0.00000E+00         0.00000E+00         0.55580E+06
 
   -0.70632E+06        -0.79841E+06         0.00000E+00
   -0.79841E+06         0.34398E+07         0.00000E+00
    0.00000E+00         0.00000E+00         0.54670E+06
 
   -0.77481E+06        -0.71101E+06         0.00000E+00
   -0.71101E+06         0.34652E+07         0.00000E+00
    0.00000E+00         0.00000E+00         0.53808E+06
 
   -0.84069E+06        -0.61924E+06         0.00000E+00
   -0.61924E+06         0.34909E+07         0.00000E+00
    0.00000E+00         0.00000E+00         0.53005E+06
 
   -0.90364E+06        -0.52245E+06         0.00000E+00
   -0.52245E+06         0.35172E+07         0.00000E+00
    0.00000E+00         0.00000E+00         0.52271E+06
 
   -0.96313E+06        -0.41986E+06         0.00000E+00
   -0.41986E+06         0.35441E+07         0.00000E+00
    0.00000E+00         0.00000E+00         0.51620E+06
 
   -0.10185E+07        -0.31058E+06         0.00000E+00
   -0.31058E+06         0.35718E+07         0.00000E+00
    0.00000E+00         0.00000E+00         0.51066E+06
 
   -0.10686E+07        -0.19361E+06         0.00000E+00
   -0.19361E+06         0.36001E+07         0.00000E+00
    0.00000E+00         0.00000E+00         0.50629E+06
 
   -0.11124E+07        -0.67829E+05         0.00000E+00
   -0.67829E+05         0.36288E+07         0.00000E+00
    0.00000E+00         0.00000E+00         0.50328E+06
 
   -0.11480E+07         0.67971E+05         0.00000E+00
    0.67971E+05         0.36574E+07         0.00000E+00
    0.00000E+00         0.00000E+00         0.50188E+06
 
   -0.11733E+07         0.21507E+06         0.00000E+00
    0.21507E+06         0.36851E+07         0.00000E+00
    0.00000E+00         0.00000E+00         0.50237E+06
 
   -0.11855E+07         0.37475E+06         0.00000E+00
    0.37475E+06         0.37110E+07         0.00000E+00
    0.00000E+00         0.00000E+00         0.50511E+06
 
   -0.11811E+07         0.54824E+06         0.00000E+00
    0.54824E+06         0.37335E+07         0.00000E+00
    0.00000E+00         0.00000E+00         0.51048E+06
 
   -0.11559E+07         0.73661E+06         0.00000E+00
    0.73661E+06         0.37506E+07         0.00000E+00
    0.00000E+00         0.00000E+00         0.51893E+06
 
   -0.11047E+07         0.94051E+06         0.00000E+00
    0.94051E+06         0.37597E+07         0.00000E+00
    0.00000E+00         0.00000E+00         0.53098E+06
 
   -0.10216E+07         0.11600E+07         0.00000E+00
    0.11600E+07         0.37574E+07         0.00000E+00
    0.00000E+00         0.00000E+00         0.54716E+06
 
   -0.89949E+06         0.13942E+07         0.00000E+00
    0.13942E+07         0.37396E+07         0.00000E+00
    0.00000E+00         0.00000E+00         0.56802E+06
 
   -0.73109E+06         0.16409E+07         0.00000E+00
    0.16409E+07         0.37012E+07         0.00000E+00
    0.00000E+00         0.00000E+00         0.59402E+06
 
   -0.50899E+06         0.18958E+07         0.00000E+00
    0.18958E+07         0.36365E+07         0.00000E+00
    0.00000E+00         0.00000E+00         0.62550E+06
 
   -0.22642E+06         0.21533E+07         0.00000E+00
    0.21533E+07         0.35397E+07         0.00000E+00
    0.00000E+00         0.00000E+00         0.66266E+06
 
    0.12302E+06         0.24064E+07         0.00000E+00
    0.24064E+07         0.34065E+07         0.00000E+00
    0.00000E+00         0.00000E+00         0.70591E+06
 
    0.55085E+06         0.26517E+07         0.00000E+00
    0.26517E+07         0.32381E+07         0.00000E+00
    0.00000E+00         0.00000E+00         0.75778E+06
 
   -0.20672E+07        -0.48339E+04         0.00000E+00
   -0.48339E+04         0.35430E+06         0.00000E+00
    0.00000E+00         0.00000E+00        -0.34259E+06
 
   -0.16893E+07        -0.82545E+05         0.00000E+00
   -0.82545E+05         0.36644E+06         0.00000E+00
    0.00000E+00         0.00000E+00        -0.26457E+06
 
   -0.13581E+07        -0.18246E+06         0.00000E+00
   -0.18246E+06         0.40121E+06         0.00000E+00
    0.00000E+00         0.00000E+00        -0.19137E+06
 
   -0.10763E+07        -0.29376E+06         0.00000E+00
   -0.29376E+06         0.45356E+06         0.00000E+00
    0.00000E+00         0.00000E+00        -0.12454E+06
 
   -0.84163E+06        -0.41006E+06         0.00000E+00
   -0.41006E+06         0.52064E+06         0.00000E+00
    0.00000E+00         0.00000E+00        -0.64198E+05
 
   -0.65094E+06        -0.52658E+06         0.00000E+00
   -0.52658E+06         0.60096E+06         0.00000E+00
    0.00000E+00         0.00000E+00        -0.99958E+04
 
   -0.50067E+06        -0.63916E+06         0.00000E+00
   -0.63916E+06         0.69214E+06         0.00000E+00
    0.00000E+00         0.00000E+00         0.38295E+05
 
   -0.38690E+06        -0.74461E+06         0.00000E+00
   -0.74461E+06         0.79154E+06         0.00000E+00
    0.00000E+00         0.00000E+00         0.80928E+05
 
   -0.30547E+06        -0.84073E+06         0.00000E+00
   -0.84073E+06         0.89689E+06         0.00000E+00
    0.00000E+00         0.00000E+00         0.11828E+06
 
   -0.25231E+06        -0.92600E+06         0.00000E+00
   -0.92600E+06         0.10061E+07         0.00000E+00
    0.00000E+00         0.00000E+00         0.15076E+06
 
   -0.22351E+06        -0.99945E+06         0.00000E+00
   -0.99945E+06         0.11173E+07         0.00000E+00
    0.00000E+00         0.00000E+00         0.17875E+06
 
   -0.21538E+06        -0.10606E+07         0.00000E+00
   -0.10606E+07         0.12287E+07         0.00000E+00
    0.00000E+00         0.00000E+00         0.20266E+06
 
   -0.22449E+06        -0.11095E+07         0.00000E+00
   -0.11095E+07         0.13389E+07         0.00000E+00
    0.00000E+00         0.00000E+00         0.22287E+06
 
   -0.24774E+06        -0.11463E+07         0.00000E+00
   -0.11463E+07         0.14467E+07         0.00000E+00
    0.00000E+00         0.00000E+00         0.23978E+06
 
   -0.28238E+06        -0.11716E+07         0.00000E+00
   -0.11716E+07         0.15512E+07         0.00000E+00
    0.00000E+00         0.00000E+00         0.25376E+06
 
   -0.32599E+06        -0.11860E+07         0.00000E+00
   -0.11860E+07         0.16517E+07         0.00000E+00
    0.00000E+00         0.00000E+00         0.26515E+06
 
   -0.37651E+06        -0.11903E+07         0.00000E+00
   -0.11903E+07         0.17479E+07         0.00000E+00
    0.00000E+00         0.00000E+00         0.27429E+06
 
   -0.43219E+06        -0.11852E+07         0.00000E+00
   -0.11852E+07         0.18395E+07         0.00000E+00
    0.00000E+00         0.00000E+00         0.28147E+06
 
   -0.49158E+06        -0.11715E+07         0.00000E+00
   -0.11715E+07         0.19264E+07         0.00000E+00
    0.00000E+00         0.00000E+00         0.28696E+06
 
   -0.55343E+06        -0.11500E+07         0.00000E+00
   -0.11500E+07         0.20086E+07         0.00000E+00
    0.00000E+00         0.00000E+00         0.29103E+06
 
   -0.61674E+06        -0.11213E+07         0.00000E+00
   -0.11213E+07         0.20862E+07         0.00000E+00
    0.00000E+00         0.00000E+00         0.29388E+06
 
   -0.68067E+06        -0.10859E+07         0.00000E+00
   -0.10859E+07         0.21594E+07         0.00000E+00
    0.00000E+00         0.00000E+00         0.29574E+06
 
   -0.74451E+06        -0.10446E+07         0.00000E+00
   -0.10446E+07         0.22284E+07         0.00000E+00
    0.00000E+00         0.00000E+00         0.29678E+06
 
   -0.80768E+06        -0.99754E+06         0.00000E+00
   -0.99754E+06         0.22936E+07         0.00000E+00
    0.00000E+00         0.00000E+00         0.29718E+06
 
   -0.86965E+06        -0.94521E+06         0.00000E+00
   -0.94521E+06         0.23551E+07         0.00000E+00
    0.00000E+00         0.00000E+00         0.29709E+06
 
   -0.92999E+06        -0.88786E+06         0.00000E+00
   -0.88786E+06         0.24133E+07         0.00000E+00
    0.00000E+00         0.00000E+00         0.29667E+06
 
   -0.98825E+06        -0.82565E+06         0.00000E+00
   -0.82565E+06         0.24685E+07         0.00000E+00
    0.00000E+00         0.00000E+00         0.29605E+06
 
   -0.10440E+07        -0.75868E+06         0.00000E+00
   -0.75868E+06         0.25208E+07         0.00000E+00
    0.00000E+00         0.00000E+00         0.29536E+06
 
   -0.10969E+07        -0.68699E+06         0.00000E+00
   -0.68699E+06         0.25706E+07         0.00000E+00
    0.00000E+00         0.00000E+00         0.29474E+06
 
   -0.11463E+07        -0.61054E+06         0.00000E+00
   -0.61054E+06         0.26179E+07         0.00000E+00
    0.00000E+00         0.00000E+00         0.29431E+06
 
   -0.11919E+07        -0.52921E+06         0.00000E+00
   -0.52921E+06         0.26628E+07         0.00000E+00
    0.00000E+00         0.00000E+00         0.29419E+06
 
   -0.12329E+07        -0.44285E+06         0.00000E+00
   -0.44285E+06         0.27055E+07         0.00000E+00
    0.00000E+00         0.00000E+00         0.29453E+06
 
   -0.12686E+07        -0.35126E+06         0.00000E+00
   -0.35126E+06         0.27459E+07         0.00000E+00
    0.00000E+00         0.00000E+00         0.29545E+06
 
   -0.12983E+07        -0.25420E+06         0.00000E+00
   -0.25420E+06         0.27839E+07         0.00000E+00
    0.00000E+00         0.00000E+00         0.29711E+06
 
   -0.13209E+07        -0.15145E+06         0.00000E+00
   -0.15145E+06         0.28191E+07         0.00000E+00
    0.00000E+00         0.00000E+00         0.29963E+06
 
   -0.13353E+07        -0.42754E+05         0.00000E+00
   -0.42754E+05         0.28513E+07         0.00000E+00
    0.00000E+00         0.00000E+00         0.30320E+06
 
   -0.13401E+07         0.72071E+05         0.00000E+00
    0.72071E+05         0.28800E+07         0.00000E+00
    0.00000E+00         0.00000E+00         0.30798E+06
 
   -0.13336E+07         0.19314E+06         0.00000E+00
    0.19314E+06         0.29044E+07         0.00000E+00
    0.00000E+00         0.00000E+00         0.31415E+06
 
   -0.13142E+07         0.32045E+06         0.00000E+00
    0.32045E+06         0.29237E+07         0.00000E+00
    0.00000E+00         0.00000E+00         0.32190E+06
 
   -0.12797E+07         0.45379E+06         0.00000E+00
    0.45379E+06         0.29368E+07         0.00000E+00
    0.00000E+00         0.00000E+00         0.33143E+06
 
   -0.12279E+07         0.59271E+06         0.00000E+00
    0.59271E+06         0.29425E+07         0.00000E+00
    0.00000E+00         0.00000E+00         0.34293E+06
 
   -0.11562E+07         0.73640E+06         0.00000E+00
    0.73640E+06         0.29393E+07         0.00000E+00
    0.00000E+00         0.00000E+00         0.35662E+06
 
   -0.10621E+07         0.88364E+06         0.00000E+00
    0.88364E+06         0.29254E+07         0.00000E+00
    0.00000E+00         0.00000E+00         0.37266E+06
 
   -0.94306E+06         0.10327E+07         0.00000E+00
    0.10327E+07         0.28991E+07         0.00000E+00
    0.00000E+00         0.00000E+00         0.39121E+06
 
   -0.79644E+06         0.11811E+07         0.00000E+00
    0.11811E+07         0.28585E+07         0.00000E+00
    0.00000E+00         0.00000E+00         0.41241E+06
 
   -0.62001E+06         0.13260E+07         0.00000E+00
    0.13260E+07         0.28017E+07         0.00000E+00
    0.00000E+00         0.00000E+00         0.43635E+06
 
   -0.41180E+06         0.14638E+07         0.00000E+00
    0.14638E+07         0.27273E+07         0.00000E+00
    0.00000E+00         0.00000E+00         0.46310E+06
 
   -0.17015E+06         0.15903E+07         0.00000E+00
    0.15903E+07         0.26340E+07         0.00000E+00
    0.00000E+00         0.00000E+00         0.49278E+06
 
    0.10608E+06         0.17006E+07         0.00000E+00
    0.17006E+07         0.25207E+07         0.00000E+00
    0.00000E+00         0.00000E+00         0.52536E+06
 
    0.41530E+06         0.17871E+07         0.00000E+00
    0.17871E+07         0.23848E+07         0.00000E+00
    0.00000E+00         0.00000E+00         0.56002E+06
 
   -0.24978E+07         0.15548E+05         0.00000E+00
    0.15548E+05         0.90719E+05         0.00000E+00
    0.00000E+00         0.00000E+00        -0.48141E+06
 
   -0.22243E+07        -0.25505E+04         0.00000E+00
   -0.25505E+04         0.96667E+05         0.00000E+00
    0.00000E+00         0.00000E+00        -0.42553E+06
 
   -0.19720E+07        -0.36329E+05         0.00000E+00
   -0.36329E+05         0.11042E+06         0.00000E+00
    0.00000E+00         0.00000E+00        -0.37233E+06
 
   -0.17424E+07        -0.83299E+05         0.00000E+00
   -0.83299E+05         0.13403E+06         0.00000E+00
    0.00000E+00         0.00000E+00        -0.32168E+06
 
   -0.15370E+07        -0.13991E+06         0.00000E+00
   -0.13991E+06         0.16780E+06         0.00000E+00
    0.00000E+00         0.00000E+00        -0.27384E+06
 
   -0.13563E+07        -0.20279E+06         0.00000E+00
   -0.20279E+06         0.21119E+06         0.00000E+00
    0.00000E+00         0.00000E+00        -0.22903E+06
 
   -0.12001E+07        -0.26907E+06         0.00000E+00
   -0.26907E+06         0.26352E+06         0.00000E+00
    0.00000E+00         0.00000E+00        -0.18731E+06
 
   -0.10674E+07        -0.33622E+06         0.00000E+00
   -0.33622E+06         0.32396E+06         0.00000E+00
    0.00000E+00         0.00000E+00        -0.14870E+06
 
   -0.95723E+06        -0.40207E+06         0.00000E+00
   -0.40207E+06         0.39143E+06         0.00000E+00
    0.00000E+00         0.00000E+00        -0.11316E+06
 
   -0.86791E+06        -0.46483E+06         0.00000E+00
   -0.46483E+06         0.46480E+06         0.00000E+00
    0.00000E+00         0.00000E+00        -0.80622E+05
 
   -0.79779E+06        -0.52308E+06         0.00000E+00
   -0.52308E+06         0.54293E+06         0.00000E+00
    0.00000E+00         0.00000E+00        -0.50973E+05
 
   -0.74507E+06        -0.57574E+06         0.00000E+00
   -0.57574E+06         0.62470E+06         0.00000E+00
    0.00000E+00         0.00000E+00        -0.24073E+05
 
   -0.70791E+06        -0.62198E+06         0.00000E+00
   -0.62198E+06         0.70907E+06         0.00000E+00
    0.00000E+00         0.00000E+00         0.23277E+03
 
   -0.68450E+06        -0.66126E+06         0.00000E+00
   -0.66126E+06         0.79507E+06         0.00000E+00
    0.00000E+00         0.00000E+00         0.22114E+05
 
   -0.67307E+06        -0.69322E+06         0.00000E+00
   -0.69322E+06         0.88180E+06         0.00000E+00
    0.00000E+00         0.00000E+00         0.41745E+05
 
   -0.67196E+06        -0.71770E+06         0.00000E+00
   -0.71770E+06         0.96850E+06         0.00000E+00
    0.00000E+00         0.00000E+00         0.59309E+05
 
   -0.67959E+06        -0.73466E+06         0.00000E+00
   -0.73466E+06         0.10545E+07         0.00000E+00
    0.00000E+00         0.00000E+00         0.74985E+05
 
   -0.69451E+06        -0.74421E+06         0.00000E+00
   -0.74421E+06         0.11393E+07         0.00000E+00
    0.00000E+00         0.00000E+00         0.88952E+05
 
   -0.71539E+06        -0.74650E+06         0.00000E+00
   -0.74650E+06         0.12223E+07         0.00000E+00
    0.00000E+00         0.00000E+00         0.10139E+06
 
   -0.74102E+06        -0.74175E+06         0.00000E+00
   -0.74175E+06         0.13033E+07         0.00000E+00
    0.00000E+00         0.00000E+00         0.11246E+06
 
   -0.77030E+06        -0.73022E+06         0.00000E+00
   -0.73022E+06         0.13820E+07         0.00000E+00
    0.00000E+00         0.00000E+00         0.12233E+06
 
   -0.80223E+06        -0.71218E+06         0.00000E+00
   -0.71218E+06         0.14580E+07         0.00000E+00
    0.00000E+00         0.00000E+00         0.13116E+06
 
   -0.83592E+06        -0.68791E+06         0.00000E+00
   -0.68791E+06         0.15314E+07         0.00000E+00
    0.00000E+00         0.00000E+00         0.13909E+06
 
   -0.87054E+06        -0.65766E+06         0.00000E+00
   -0.65766E+06         0.16019E+07         0.00000E+00
    0.00000E+00         0.00000E+00         0.14627E+06
 
   -0.90532E+06        -0.62169E+06         0.00000E+00
   -0.62169E+06         0.16695E+07         0.00000E+00
    0.00000E+00         0.00000E+00         0.15284E+06
 
   -0.93957E+06        -0.58021E+06         0.00000E+00
   -0.58021E+06         0.17341E+07         0.00000E+00
    0.00000E+00         0.00000E+00         0.15891E+06
 
   -0.97259E+06        -0.53345E+06         0.00000E+00
   -0.53345E+06         0.17957E+07         0.00000E+00
    0.00000E+00         0.00000E+00         0.16462E+06
 
   -0.10037E+07        -0.48157E+06         0.00000E+00
   -0.48157E+06         0.18542E+07         0.00000E+00
    0.00000E+00         0.00000E+00         0.17009E+06
 
   -0.10324E+07        -0.42476E+06         0.00000E+00
   -0.42476E+06         0.19096E+07         0.00000E+00
    0.00000E+00         0.00000E+00         0.17544E+06
 
   -0.10578E+07        -0.36314E+06         0.00000E+00
   -0.36314E+06         0.19617E+07         0.00000E+00
    0.00000E+00         0.00000E+00         0.18078E+06
 
   -0.10794E+07        -0.29687E+06         0.00000E+00
   -0.29687E+06         0.20104E+07         0.00000E+00
    0.00000E+00         0.00000E+00         0.18621E+06
 
   -0.10964E+07        -0.22608E+06         0.00000E+00
   -0.22608E+06         0.20557E+07         0.00000E+00
    0.00000E+00         0.00000E+00         0.19186E+06
 
   -0.11081E+07        -0.15092E+06         0.00000E+00
   -0.15092E+06         0.20972E+07         0.00000E+00
    0.00000E+00         0.00000E+00         0.19782E+06
 
   -0.11137E+07        -0.71571E+05         0.00000E+00
   -0.71571E+05         0.21348E+07         0.00000E+00
    0.00000E+00         0.00000E+00         0.20422E+06
 
   -0.11123E+07         0.11755E+05         0.00000E+00
    0.11755E+05         0.21681E+07         0.00000E+00
    0.00000E+00         0.00000E+00         0.21115E+06
 
   -0.11031E+07         0.98781E+05         0.00000E+00
    0.98781E+05         0.21967E+07         0.00000E+00
    0.00000E+00         0.00000E+00         0.21872E+06
 
   -0.10850E+07         0.18915E+06         0.00000E+00
    0.18915E+06         0.22202E+07         0.00000E+00
    0.00000E+00         0.00000E+00         0.22702E+06
 
   -0.10572E+07         0.28239E+06         0.00000E+00
    0.28239E+06         0.22380E+07         0.00000E+00
    0.00000E+00         0.00000E+00         0.23617E+06
 
   -0.10184E+07         0.37792E+06         0.00000E+00
    0.37792E+06         0.22497E+07         0.00000E+00
    0.00000E+00         0.00000E+00         0.24625E+06
 
   -0.96778E+06         0.47496E+06         0.00000E+00
    0.47496E+06         0.22544E+07         0.00000E+00
    0.00000E+00         0.00000E+00         0.25733E+06
 
   -0.90421E+06         0.57258E+06         0.00000E+00
    0.57258E+06         0.22517E+07         0.00000E+00
    0.00000E+00         0.00000E+00         0.26950E+06
 
   -0.82677E+06         0.66961E+06         0.00000E+00
    0.66961E+06         0.22408E+07         0.00000E+00
    0.00000E+00         0.00000E+00         0.28281E+06
 
   -0.73462E+06         0.76467E+06         0.00000E+00
    0.76467E+06         0.22211E+07         0.00000E+00
    0.00000E+00         0.00000E+00         0.29730E+06
 
   -0.62708E+06         0.85612E+06         0.00000E+00
    0.85612E+06         0.21920E+07         0.00000E+00
    0.00000E+00         0.00000E+00         0.31298E+06
 
   -0.50370E+06         0.94211E+06         0.00000E+00
    0.94211E+06         0.21530E+07         0.00000E+00
    0.00000E+00         0.00000E+00         0.32986E+06
 
   -0.36432E+06         0.10205E+07         0.00000E+00
    0.10205E+07         0.21038E+07         0.00000E+00
    0.00000E+00         0.00000E+00         0.34790E+06
 
   -0.20918E+06         0.10890E+07         0.00000E+00
    0.10890E+07         0.20444E+07         0.00000E+00
    0.00000E+00         0.00000E+00         0.36704E+06
 
   -0.39035E+05         0.11448E+07         0.00000E+00
    0.11448E+07         0.19747E+07         0.00000E+00
    0.00000E+00         0.00000E+00         0.38713E+06
 
    0.14464E+06         0.11852E+07         0.00000E+00
    0.11852E+07         0.18954E+07         0.00000E+00
    0.00000E+00         0.00000E+00         0.40801E+06
 
    0.34017E+06         0.12080E+07         0.00000E+00
    0.12080E+07         0.18081E+07         0.00000E+00
    0.00000E+00         0.00000E+00         0.42966E+06
 
   -0.25405E+07         0.20117E+05         0.00000E+00
    0.20117E+05         0.21175E+05         0.00000E+00
    0.00000E+00         0.00000E+00        -0.50386E+06
 
   -0.23415E+07         0.30782E+05         0.00000E+00
    0.30782E+05         0.22739E+05         0.00000E+00
    0.00000E+00         0.00000E+00        -0.46375E+06
 
   -0.21517E+07         0.29990E+05         0.00000E+00
    0.29990E+05         0.29037E+05         0.00000E+00
    0.00000E+00         0.00000E+00        -0.42453E+06
 
   -0.19729E+07         0.19485E+05         0.00000E+00
    0.19485E+05         0.40440E+05         0.00000E+00
    0.00000E+00         0.00000E+00        -0.38649E+06
 
   -0.18064E+07         0.76755E+03         0.00000E+00
    0.76755E+03         0.57481E+05         0.00000E+00
    0.00000E+00         0.00000E+00        -0.34978E+06
 
   -0.16531E+07        -0.24584E+05         0.00000E+00
   -0.24584E+05         0.80514E+05         0.00000E+00
    0.00000E+00         0.00000E+00        -0.31452E+06
 
   -0.15136E+07        -0.54944E+05         0.00000E+00
   -0.54944E+05         0.10959E+06         0.00000E+00
    0.00000E+00         0.00000E+00        -0.28081E+06
 
   -0.13882E+07        -0.88755E+05         0.00000E+00
   -0.88755E+05         0.14455E+06         0.00000E+00
    0.00000E+00         0.00000E+00        -0.24874E+06
 
   -0.12769E+07        -0.12457E+06         0.00000E+00
   -0.12457E+06         0.18511E+06         0.00000E+00
    0.00000E+00         0.00000E+00        -0.21835E+06
 
   -0.11792E+07        -0.16106E+06         0.00000E+00
   -0.16106E+06         0.23085E+06         0.00000E+00
    0.00000E+00         0.00000E+00        -0.18967E+06
 
   -0.10948E+07        -0.19704E+06         0.00000E+00
   -0.19704E+06         0.28126E+06         0.00000E+00
    0.00000E+00         0.00000E+00        -0.16271E+06
 
   -0.10229E+07        -0.23148E+06         0.00000E+00
   -0.23148E+06         0.33577E+06         0.00000E+00
    0.00000E+00         0.00000E+00        -0.13743E+06
 
   -0.96278E+06        -0.26351E+06         0.00000E+00
   -0.26351E+06         0.39377E+06         0.00000E+00
    0.00000E+00         0.00000E+00        -0.11380E+06
 
   -0.91351E+06        -0.29238E+06         0.00000E+00
   -0.29238E+06         0.45467E+06         0.00000E+00
    0.00000E+00         0.00000E+00        -0.91769E+05
 
   -0.87416E+06        -0.31751E+06         0.00000E+00
   -0.31751E+06         0.51784E+06         0.00000E+00
    0.00000E+00         0.00000E+00        -0.71265E+05
 
   -0.84377E+06        -0.33844E+06         0.00000E+00
   -0.33844E+06         0.58270E+06         0.00000E+00
    0.00000E+00         0.00000E+00        -0.52213E+05
 
   -0.82134E+06        -0.35480E+06         0.00000E+00
   -0.35480E+06         0.64870E+06         0.00000E+00
    0.00000E+00         0.00000E+00        -0.34529E+05
 
   -0.80592E+06        -0.36635E+06         0.00000E+00
   -0.36635E+06         0.71531E+06         0.00000E+00
    0.00000E+00         0.00000E+00        -0.18123E+05
 
   -0.79655E+06        -0.37291E+06         0.00000E+00
   -0.37291E+06         0.78205E+06         0.00000E+00
    0.00000E+00         0.00000E+00        -0.29000E+04
 
   -0.79230E+06        -0.37441E+06         0.00000E+00
   -0.37441E+06         0.84848E+06         0.00000E+00
    0.00000E+00         0.00000E+00         0.11235E+05
 
   -0.79230E+06        -0.37080E+06         0.00000E+00
   -0.37080E+06         0.91421E+06         0.00000E+00
    0.00000E+00         0.00000E+00         0.24381E+05
 
   -0.79570E+06        -0.36211E+06         0.00000E+00
   -0.36211E+06         0.97887E+06         0.00000E+00
    0.00000E+00         0.00000E+00         0.36634E+05
 
   -0.80168E+06        -0.34840E+06         0.00000E+00
   -0.34840E+06         0.10421E+07         0.00000E+00
    0.00000E+00         0.00000E+00         0.48093E+05
 
   -0.80948E+06        -0.32976E+06         0.00000E+00
   -0.32976E+06         0.11037E+07         0.00000E+00
    0.00000E+00         0.00000E+00         0.58852E+05
 
   -0.81835E+06        -0.30631E+06         0.00000E+00
   -0.30631E+06         0.11634E+07         0.00000E+00
    0.00000E+00         0.00000E+00         0.69006E+05
 
   -0.82759E+06        -0.27820E+06         0.00000E+00
   -0.27820E+06         0.12208E+07         0.00000E+00
    0.00000E+00         0.00000E+00         0.78647E+05
 
   -0.83653E+06        -0.24558E+06         0.00000E+00
   -0.24558E+06         0.12759E+07         0.00000E+00
    0.00000E+00         0.00000E+00         0.87864E+05
 
   -0.84450E+06        -0.20863E+06         0.00000E+00
   -0.20863E+06         0.13282E+07         0.00000E+00
    0.00000E+00         0.00000E+00         0.96744E+05
 
   -0.85087E+06        -0.16754E+06         0.00000E+00
   -0.16754E+06         0.13777E+07         0.00000E+00
    0.00000E+00         0.00000E+00         0.10537E+06
 
   -0.85500E+06        -0.12253E+06         0.00000E+00
   -0.12253E+06         0.14242E+07         0.00000E+00
    0.00000E+00         0.00000E+00         0.11383E+06
 
   -0.85629E+06        -0.73847E+05         0.00000E+00
   -0.73847E+05         0.14673E+07         0.00000E+00
    0.00000E+00         0.00000E+00         0.12220E+06
 
   -0.85411E+06        -0.21742E+05         0.00000E+00
   -0.21742E+05         0.15068E+07         0.00000E+00
    0.00000E+00         0.00000E+00         0.13055E+06
 
   -0.84787E+06         0.33481E+05         0.00000E+00
    0.33481E+05         0.15426E+07         0.00000E+00
    0.00000E+00         0.00000E+00         0.13895E+06
 
   -0.83698E+06         0.91485E+05         0.00000E+00
    0.91485E+05         0.15744E+07         0.00000E+00
    0.00000E+00         0.00000E+00         0.14748E+06
 
   -0.82084E+06         0.15188E+06         0.00000E+00
    0.15188E+06         0.16018E+07         0.00000E+00
    0.00000E+00         0.00000E+00         0.15619E+06
 
   -0.79890E+06         0.21422E+06         0.00000E+00
    0.21422E+06         0.16246E+07         0.00000E+00
    0.00000E+00         0.00000E+00         0.16514E+06
 
   -0.77060E+06         0.27800E+06         0.00000E+00
    0.27800E+06         0.16426E+07         0.00000E+00
    0.00000E+00         0.00000E+00         0.17439E+06
 
   -0.73544E+06         0.34263E+06         0.00000E+00
    0.34263E+06         0.16553E+07         0.00000E+00
    0.00000E+00         0.00000E+00         0.18398E+06
 
   -0.69296E+06         0.40745E+06         0.00000E+00
    0.40745E+06         0.16626E+07         0.00000E+00
    0.00000E+00         0.00000E+00         0.19394E+06
 
   -0.64278E+06         0.47169E+06         0.00000E+00
    0.47169E+06         0.16642E+07         0.00000E+00
    0.00000E+00         0.00000E+00         0.20429E+06
 
   -0.58458E+06         0.53451E+06         0.00000E+00
    0.53451E+06         0.16599E+07         0.00000E+00
    0.00000E+00         0.00000E+00         0.21506E+06
 
   -0.51818E+06         0.59497E+06         0.00000E+00
    0.59497E+06         0.16494E+07         0.00000E+00
    0.00000E+00         0.00000E+00         0.22625E+06
 
   -0.44353E+06         0.65204E+06         0.00000E+00
    0.65204E+06         0.16328E+07         0.00000E+00
    0.00000E+00         0.00000E+00         0.23785E+06
 
   -0.36073E+06         0.70460E+06         0.00000E+00
    0.70460E+06         0.16098E+07         0.00000E+00
    0.00000E+00         0.00000E+00         0.24982E+06
 
   -0.27007E+06         0.75145E+06         0.00000E+00
    0.75145E+06         0.15808E+07         0.00000E+00
    0.00000E+00         0.00000E+00         0.26214E+06
 
   -0.17209E+06         0.79135E+06         0.00000E+00
    0.79135E+06         0.15458E+07         0.00000E+00
    0.00000E+00         0.00000E+00         0.27474E+06
 
   -0.67565E+05         0.82301E+06         0.00000E+00
    0.82301E+06         0.15053E+07         0.00000E+00
    0.00000E+00         0.00000E+00         0.28755E+06
 
    0.42485E+05         0.84520E+06         0.00000E+00
    0.84520E+06         0.14599E+07         0.00000E+00
    0.00000E+00         0.00000E+00         0.30048E+06
 
    0.15680E+06         0.85675E+06         0.00000E+00
    0.85675E+06         0.14104E+07         0.00000E+00
    0.00000E+00         0.00000E+00         0.31345E+06
 
    0.27375E+06         0.85640E+06         0.00000E+00
    0.85640E+06         0.13577E+07         0.00000E+00
    0.00000E+00         0.00000E+00         0.32628E+06
 
   -0.24425E+07         0.21818E+05         0.00000E+00
    0.21818E+05         0.41703E+04         0.00000E+00
    0.00000E+00         0.00000E+00        -0.48766E+06
 
   -0.22922E+07         0.46187E+05         0.00000E+00
    0.46187E+05         0.51308E+04         0.00000E+00
    0.00000E+00         0.00000E+00        -0.45741E+06
 
   -0.21465E+07         0.62963E+05         0.00000E+00
    0.62963E+05         0.83029E+04         0.00000E+00
    0.00000E+00         0.00000E+00        -0.42765E+06
 
   -0.20065E+07         0.72705E+05         0.00000E+00
    0.72705E+05         0.14323E+05         0.00000E+00
    0.00000E+00         0.00000E+00        -0.39844E+06
 
   -0.18731E+07         0.76180E+05         0.00000E+00
    0.76180E+05         0.23586E+05         0.00000E+00
    0.00000E+00         0.00000E+00        -0.36990E+06
 
   -0.17469E+07         0.74208E+05         0.00000E+00
    0.74208E+05         0.36376E+05         0.00000E+00
    0.00000E+00         0.00000E+00        -0.34211E+06
 
   -0.16286E+07         0.67639E+05         0.00000E+00
    0.67639E+05         0.52892E+05         0.00000E+00
    0.00000E+00         0.00000E+00        -0.31514E+06
 
   -0.15185E+07         0.57343E+05         0.00000E+00
    0.57343E+05         0.73227E+05         0.00000E+00
    0.00000E+00         0.00000E+00        -0.28905E+06
 
   -0.14169E+07         0.44192E+05         0.00000E+00
    0.44192E+05         0.97372E+05         0.00000E+00
    0.00000E+00         0.00000E+00        -0.26390E+06
 
   -0.13239E+07         0.29030E+05         0.00000E+00
    0.29030E+05         0.12523E+06         0.00000E+00
    0.00000E+00         0.00000E+00        -0.23973E+06
 
   -0.12394E+07         0.12659E+05         0.00000E+00
    0.12659E+05         0.15663E+06         0.00000E+00
    0.00000E+00         0.00000E+00        -0.21655E+06
 
   -0.11633E+07        -0.41690E+04         0.00000E+00
   -0.41690E+04         0.19134E+06         0.00000E+00
    0.00000E+00         0.00000E+00        -0.19438E+06
 
   -0.10952E+07        -0.20767E+05         0.00000E+00
   -0.20767E+05         0.22907E+06         0.00000E+00
    0.00000E+00         0.00000E+00        -0.17323E+06
 
   -0.10349E+07        -0.36516E+05         0.00000E+00
   -0.36516E+05         0.26950E+06         0.00000E+00
    0.00000E+00         0.00000E+00        -0.15309E+06
 
   -0.98193E+06        -0.50868E+05         0.00000E+00
   -0.50868E+05         0.31228E+06         0.00000E+00
    0.00000E+00         0.00000E+00        -0.13393E+06
 
   -0.93573E+06        -0.63351E+05         0.00000E+00
   -0.63351E+05         0.35703E+06         0.00000E+00
    0.00000E+00         0.00000E+00        -0.11574E+06
 
   -0.89578E+06        -0.73559E+05         0.00000E+00
   -0.73559E+05         0.40337E+06         0.00000E+00
    0.00000E+00         0.00000E+00        -0.98482E+05
 
   -0.86152E+06        -0.81159E+05         0.00000E+00
   -0.81159E+05         0.45094E+06         0.00000E+00
    0.00000E+00         0.00000E+00        -0.82117E+05
 
   -0.83236E+06        -0.85880E+05         0.00000E+00
   -0.85880E+05         0.49935E+06         0.00000E+00
    0.00000E+00         0.00000E+00        -0.66602E+05
 
   -0.80768E+06        -0.87514E+05         0.00000E+00
   -0.87514E+05         0.54824E+06         0.00000E+00
    0.00000E+00         0.00000E+00        -0.51889E+05
 
   -0.78689E+06        -0.85906E+05         0.00000E+00
   -0.85906E+05         0.59725E+06         0.00000E+00
    0.00000E+00         0.00000E+00        -0.37928E+05
 
   -0.76936E+06        -0.80954E+05         0.00000E+00
   -0.80954E+05         0.64603E+06         0.00000E+00
    0.00000E+00         0.00000E+00        -0.24665E+05
 
   -0.75451E+06        -0.72604E+05         0.00000E+00
   -0.72604E+05         0.69428E+06         0.00000E+00
    0.00000E+00         0.00000E+00        -0.12047E+05
 
   -0.74174E+06        -0.60843E+05         0.00000E+00
   -0.60843E+05         0.74166E+06         0.00000E+00
    0.00000E+00         0.00000E+00        -0.16870E+02
 
   -0.73048E+06        -0.45698E+05         0.00000E+00
   -0.45698E+05         0.78788E+06         0.00000E+00
    0.00000E+00         0.00000E+00         0.11481E+05
 
   -0.72016E+06        -0.27232E+05         0.00000E+00
   -0.27232E+05         0.83266E+06         0.00000E+00
    0.00000E+00         0.00000E+00         0.22501E+05
 
   -0.71023E+06        -0.55441E+04         0.00000E+00
   -0.55441E+04         0.87573E+06         0.00000E+00
    0.00000E+00         0.00000E+00         0.33100E+05
 
   -0.70018E+06         0.19236E+05         0.00000E+00
    0.19236E+05         0.91683E+06         0.00000E+00
    0.00000E+00         0.00000E+00         0.43330E+05
 
   -0.68948E+06         0.46947E+05         0.00000E+00
    0.46947E+05         0.95570E+06         0.00000E+00
    0.00000E+00         0.00000E+00         0.53243E+05
 
   -0.67765E+06         0.77393E+05         0.00000E+00
    0.77393E+05         0.99210E+06         0.00000E+00
    0.00000E+00         0.00000E+00         0.62890E+05
 
   -0.66423E+06         0.11035E+06         0.00000E+00
    0.11035E+06         0.10258E+07         0.00000E+00
    0.00000E+00         0.00000E+00         0.72317E+05
 
   -0.64876E+06         0.14555E+06         0.00000E+00
    0.14555E+06         0.10566E+07         0.00000E+00
    0.00000E+00         0.00000E+00         0.81570E+05
 
   -0.63082E+06         0.18271E+06         0.00000E+00
    0.18271E+06         0.10843E+07         0.00000E+00
    0.00000E+00         0.00000E+00         0.90688E+05
 
   -0.61004E+06         0.22150E+06         0.00000E+00
    0.22150E+06         0.11086E+07         0.00000E+00
    0.00000E+00         0.00000E+00         0.99708E+05
 
   -0.58604E+06         0.26154E+06         0.00000E+00
    0.26154E+06         0.11294E+07         0.00000E+00
    0.00000E+00         0.00000E+00         0.10866E+06
 
   -0.55853E+06         0.30242E+06         0.00000E+00
    0.30242E+06         0.11464E+07         0.00000E+00
    0.00000E+00         0.00000E+00         0.11758E+06
 
   -0.52722E+06         0.34371E+06         0.00000E+00
    0.34371E+06         0.11597E+07         0.00000E+00
    0.00000E+00         0.00000E+00         0.12649E+06
 
   -0.49190E+06         0.38490E+06         0.00000E+00
    0.38490E+06         0.11689E+07         0.00000E+00
    0.00000E+00         0.00000E+00         0.13540E+06
 
   -0.45243E+06         0.42547E+06         0.00000E+00
    0.42547E+06         0.11740E+07         0.00000E+00
    0.00000E+00         0.00000E+00         0.14431E+06
 
   -0.40873E+06         0.46485E+06         0.00000E+00
    0.46485E+06         0.11750E+07         0.00000E+00
    0.00000E+00         0.00000E+00         0.15325E+06
 
   -0.36079E+06         0.50243E+06         0.00000E+00
    0.50243E+06         0.11717E+07         0.00000E+00
    0.00000E+00         0.00000E+00         0.16219E+06
 
   -0.30871E+06         0.53758E+06         0.00000E+00
    0.53758E+06         0.11644E+07         0.00000E+00
    0.00000E+00         0.00000E+00         0.17113E+06
 
   -0.25268E+06         0.56963E+06         0.00000E+00
    0.56963E+06         0.11529E+07         0.00000E+00
    0.00000E+00         0.00000E+00         0.18005E+06
 
   -0.19302E+06         0.59793E+06         0.00000E+00
    0.59793E+06         0.11376E+07         0.00000E+00
    0.00000E+00         0.00000E+00         0.18892E+06
 
   -0.13016E+06         0.62178E+06         0.00000E+00
    0.62178E+06         0.11187E+07         0.00000E+00
    0.00000E+00         0.00000E+00         0.19770E+06
 
   -0.64637E+05         0.64053E+06         0.00000E+00
    0.64053E+06         0.10964E+07         0.00000E+00
    0.00000E+00         0.00000E+00         0.20635E+06
 
    0.28592E+04         0.65355E+06         0.00000E+00
    0.65355E+06         0.10712E+07         0.00000E+00
    0.00000E+00         0.00000E+00         0.21482E+06
 
    0.71523E+05         0.66025E+06         0.00000E+00
    0.66025E+06         0.10437E+07         0.00000E+00
    0.00000E+00         0.00000E+00         0.22304E+06
 
    0.14040E+06         0.66008E+06         0.00000E+00
    0.66008E+06         0.10143E+07         0.00000E+00
    0.00000E+00         0.00000E+00         0.23095E+06
 
    0.20846E+06         0.65263E+06         0.00000E+00
    0.65263E+06         0.98394E+06         0.00000E+00
    0.00000E+00         0.00000E+00         0.23848E+06
 
   -0.22872E+07         0.22751E+05         0.00000E+00
    0.22751E+05         0.61095E+03         0.00000E+00
    0.00000E+00         0.00000E+00        -0.45733E+06
 
   -0.21705E+07         0.54592E+05         0.00000E+00
    0.54592E+05         0.10877E+04         0.00000E+00
    0.00000E+00         0.00000E+00        -0.43387E+06
 
   -0.20561E+07         0.80903E+05         0.00000E+00
    0.80903E+05         0.28466E+04         0.00000E+00
    0.00000E+00         0.00000E+00        -0.41066E+06
 
   -0.19449E+07         0.10205E+06         0.00000E+00
    0.10205E+06         0.61614E+04         0.00000E+00
    0.00000E+00         0.00000E+00        -0.38775E+06
 
   -0.18373E+07         0.11842E+06         0.00000E+00
    0.11842E+06         0.11309E+05         0.00000E+00
    0.00000E+00         0.00000E+00        -0.36520E+06
 
   -0.17338E+07         0.13045E+06         0.00000E+00
    0.13045E+06         0.18516E+05         0.00000E+00
    0.00000E+00         0.00000E+00        -0.34306E+06
 
   -0.16348E+07         0.13864E+06         0.00000E+00
    0.13864E+06         0.27951E+05         0.00000E+00
    0.00000E+00         0.00000E+00        -0.32138E+06
 
   -0.15407E+07         0.14347E+06         0.00000E+00
    0.14347E+06         0.39732E+05         0.00000E+00
    0.00000E+00         0.00000E+00        -0.30019E+06
 
   -0.14517E+07         0.14549E+06         0.00000E+00
    0.14549E+06         0.53924E+05         0.00000E+00
    0.00000E+00         0.00000E+00        -0.27955E+06
 
   -0.13679E+07         0.14519E+06         0.00000E+00
    0.14519E+06         0.70541E+05         0.00000E+00
    0.00000E+00         0.00000E+00        -0.25948E+06
 
   -0.12895E+07         0.14311E+06         0.00000E+00
    0.14311E+06         0.89547E+05         0.00000E+00
    0.00000E+00         0.00000E+00        -0.24000E+06
 
   -0.12165E+07         0.13973E+06         0.00000E+00
    0.13973E+06         0.11086E+06         0.00000E+00
    0.00000E+00         0.00000E+00        -0.22113E+06
 
   -0.11488E+07         0.13554E+06         0.00000E+00
    0.13554E+06         0.13437E+06         0.00000E+00
    0.00000E+00         0.00000E+00        -0.20289E+06
 
   -0.10863E+07         0.13098E+06         0.00000E+00
    0.13098E+06         0.15991E+06         0.00000E+00
    0.00000E+00         0.00000E+00        -0.18528E+06
 
   -0.10289E+07         0.12647E+06         0.00000E+00
    0.12647E+06         0.18730E+06         0.00000E+00
    0.00000E+00         0.00000E+00        -0.16831E+06
 
   -0.97620E+06         0.12239E+06         0.00000E+00
    0.12239E+06         0.21633E+06         0.00000E+00
    0.00000E+00         0.00000E+00        -0.15197E+06
 
   -0.92808E+06         0.11908E+06         0.00000E+00
    0.11908E+06         0.24678E+06         0.00000E+00
    0.00000E+00         0.00000E+00        -0.13626E+06
 
   -0.88418E+06         0.11683E+06         0.00000E+00
    0.11683E+06         0.27839E+06         0.00000E+00
    0.00000E+00         0.00000E+00        -0.12116E+06
 
   -0.84417E+06         0.11591E+06         0.00000E+00
    0.11591E+06         0.31092E+06         0.00000E+00
    0.00000E+00         0.00000E+00        -0.10665E+06
 
   -0.80770E+06         0.11652E+06         0.00000E+00
    0.11652E+06         0.34411E+06         0.00000E+00
    0.00000E+00         0.00000E+00        -0.92719E+05
 
   -0.77440E+06         0.11884E+06         0.00000E+00
    0.11884E+06         0.37769E+06         0.00000E+00
    0.00000E+00         0.00000E+00        -0.79342E+05
 
   -0.74387E+06         0.12300E+06         0.00000E+00
    0.12300E+06         0.41140E+06         0.00000E+00
    0.00000E+00         0.00000E+00        -0.66493E+05
 
   -0.71573E+06         0.12911E+06         0.00000E+00
    0.12911E+06         0.44499E+06         0.00000E+00
    0.00000E+00         0.00000E+00        -0.54147E+05
 
   -0.68957E+06         0.13722E+06         0.00000E+00
    0.13722E+06         0.47819E+06         0.00000E+00
    0.00000E+00         0.00000E+00        -0.42276E+05
 
   -0.66502E+06         0.14734E+06         0.00000E+00
    0.14734E+06         0.51076E+06         0.00000E+00
    0.00000E+00         0.00000E+00        -0.30850E+05
 
   -0.64167E+06         0.15948E+06         0.00000E+00
    0.15948E+06         0.54246E+06         0.00000E+00
    0.00000E+00         0.00000E+00        -0.19842E+05
 
   -0.61915E+06         0.17359E+06         0.00000E+00
    0.17359E+06         0.57304E+06         0.00000E+00
    0.00000E+00         0.00000E+00        -0.92222E+04
 
   -0.59710E+06         0.18958E+06         0.00000E+00
    0.18958E+06         0.60229E+06         0.00000E+00
    0.00000E+00         0.00000E+00         0.10379E+04
 
   -0.57516E+06         0.20735E+06         0.00000E+00
    0.20735E+06         0.62999E+06         0.00000E+00
    0.00000E+00         0.00000E+00         0.10966E+05
 
   -0.55299E+06         0.22676E+06         0.00000E+00
    0.22676E+06         0.65593E+06         0.00000E+00
    0.00000E+00         0.00000E+00         0.20588E+05
 
   -0.53029E+06         0.24765E+06         0.00000E+00
    0.24765E+06         0.67993E+06         0.00000E+00
    0.00000E+00         0.00000E+00         0.29928E+05
 
   -0.50677E+06         0.26981E+06         0.00000E+00
    0.26981E+06         0.70182E+06         0.00000E+00
    0.00000E+00         0.00000E+00         0.39010E+05
 
   -0.48216E+06         0.29303E+06         0.00000E+00
    0.29303E+06         0.72142E+06         0.00000E+00
    0.00000E+00         0.00000E+00         0.47853E+05
 
   -0.45623E+06         0.31705E+06         0.00000E+00
    0.31705E+06         0.73861E+06         0.00000E+00
    0.00000E+00         0.00000E+00         0.56475E+05
 
   -0.42879E+06         0.34160E+06         0.00000E+00
    0.34160E+06         0.75324E+06         0.00000E+00
    0.00000E+00         0.00000E+00         0.64890E+05
 
   -0.39967E+06         0.36638E+06         0.00000E+00
    0.36638E+06         0.76522E+06         0.00000E+00
    0.00000E+00         0.00000E+00         0.73110E+05
 
   -0.36876E+06         0.39106E+06         0.00000E+00
    0.39106E+06         0.77447E+06         0.00000E+00
    0.00000E+00         0.00000E+00         0.81142E+05
 
   -0.33599E+06         0.41530E+06         0.00000E+00
    0.41530E+06         0.78094E+06         0.00000E+00
    0.00000E+00         0.00000E+00         0.88989E+05
 
   -0.30135E+06         0.43875E+06         0.00000E+00
    0.43875E+06         0.78461E+06         0.00000E+00
    0.00000E+00         0.00000E+00         0.96652E+05
 
   -0.26487E+06         0.46103E+06         0.00000E+00
    0.46103E+06         0.78549E+06         0.00000E+00
    0.00000E+00         0.00000E+00         0.10412E+06
 
   -0.22664E+06         0.48175E+06         0.00000E+00
    0.48175E+06         0.78364E+06         0.00000E+00
    0.00000E+00         0.00000E+00         0.11140E+06
 
   -0.18683E+06         0.50052E+06         0.00000E+00
    0.50052E+06         0.77913E+06         0.00000E+00
    0.00000E+00         0.00000E+00         0.11846E+06
 
   -0.14566E+06         0.51697E+06         0.00000E+00
    0.51697E+06         0.77211E+06         0.00000E+00
    0.00000E+00         0.00000E+00         0.12529E+06
 
   -0.10343E+06         0.53071E+06         0.00000E+00
    0.53071E+06         0.76276E+06         0.00000E+00
    0.00000E+00         0.00000E+00         0.13187E+06
 
   -0.60483E+05         0.54139E+06         0.00000E+00
    0.54139E+06         0.75130E+06         0.00000E+00
    0.00000E+00         0.00000E+00         0.13816E+06
 
   -0.17262E+05         0.54866E+06         0.00000E+00
    0.54866E+06         0.73800E+06         0.00000E+00
    0.00000E+00         0.00000E+00         0.14415E+06
 
    0.25739E+05         0.55221E+06         0.00000E+00
    0.55221E+06         0.72319E+06         0.00000E+00
    0.00000E+00         0.00000E+00         0.14979E+06
 
    0.67955E+05         0.55178E+06         0.00000E+00
    0.55178E+06         0.70723E+06         0.00000E+00
    0.00000E+00         0.00000E+00         0.15504E+06
 
    0.10877E+06         0.54716E+06         0.00000E+00
    0.54716E+06         0.69053E+06         0.00000E+00
    0.00000E+00         0.00000E+00         0.15986E+06
 
    0.14750E+06         0.53817E+06         0.00000E+00
    0.53817E+06         0.67354E+06         0.00000E+00
    0.00000E+00         0.00000E+00         0.16421E+06
 
   -0.21056E+07         0.23115E+05         0.00000E+00
    0.23115E+05        -0.16559E+02         0.00000E+00
    0.00000E+00         0.00000E+00        -0.42112E+06
 
   -0.20136E+07         0.58846E+05         0.00000E+00
    0.58846E+05         0.13478E+03         0.00000E+00
    0.00000E+00         0.00000E+00        -0.40269E+06
 
   -0.19228E+07         0.90331E+05         0.00000E+00
    0.90331E+05         0.90031E+03         0.00000E+00
    0.00000E+00         0.00000E+00        -0.38438E+06
 
   -0.18336E+07         0.11778E+06         0.00000E+00
    0.11778E+06         0.24845E+04         0.00000E+00
    0.00000E+00         0.00000E+00        -0.36623E+06
 
   -0.17464E+07         0.14146E+06         0.00000E+00
    0.14146E+06         0.50600E+04         0.00000E+00
    0.00000E+00         0.00000E+00        -0.34827E+06
 
   -0.16614E+07         0.16164E+06         0.00000E+00
    0.16164E+06         0.87793E+04         0.00000E+00
    0.00000E+00         0.00000E+00        -0.33053E+06
 
   -0.15790E+07         0.17860E+06         0.00000E+00
    0.17860E+06         0.13771E+05         0.00000E+00
    0.00000E+00         0.00000E+00        -0.31305E+06
 
   -0.14994E+07         0.19267E+06         0.00000E+00
    0.19267E+06         0.20136E+05         0.00000E+00
    0.00000E+00         0.00000E+00        -0.29586E+06
 
   -0.14228E+07         0.20417E+06         0.00000E+00
    0.20417E+06         0.27944E+05         0.00000E+00
    0.00000E+00         0.00000E+00        -0.27898E+06
 
   -0.13494E+07         0.21343E+06         0.00000E+00
    0.21343E+06         0.37238E+05         0.00000E+00
    0.00000E+00         0.00000E+00        -0.26244E+06
 
   -0.12793E+07         0.22077E+06         0.00000E+00
    0.22077E+06         0.48031E+05         0.00000E+00
    0.00000E+00         0.00000E+00        -0.24625E+06
 
   -0.12126E+07         0.22652E+06         0.00000E+00
    0.22652E+06         0.60305E+05         0.00000E+00
    0.00000E+00         0.00000E+00        -0.23045E+06
 
   -0.11492E+07         0.23102E+06         0.00000E+00
    0.23102E+06         0.74019E+05         0.00000E+00
    0.00000E+00         0.00000E+00        -0.21504E+06
 
   -0.10892E+07         0.23455E+06         0.00000E+00
    0.23455E+06         0.89104E+05         0.00000E+00
    0.00000E+00         0.00000E+00        -0.20003E+06
 
   -0.10326E+07         0.23742E+06         0.00000E+00
    0.23742E+06         0.10547E+06         0.00000E+00
    0.00000E+00         0.00000E+00        -0.18543E+06
 
   -0.97926E+06         0.23989E+06         0.00000E+00
    0.23989E+06         0.12301E+06         0.00000E+00
    0.00000E+00         0.00000E+00        -0.17125E+06
 
   -0.92904E+06         0.24223E+06         0.00000E+00
    0.24223E+06         0.14158E+06         0.00000E+00
    0.00000E+00         0.00000E+00        -0.15749E+06
 
   -0.88181E+06         0.24466E+06         0.00000E+00
    0.24466E+06         0.16105E+06         0.00000E+00
    0.00000E+00         0.00000E+00        -0.14415E+06
 
   -0.83740E+06         0.24738E+06         0.00000E+00
    0.24738E+06         0.18127E+06         0.00000E+00
    0.00000E+00         0.00000E+00        -0.13123E+06
 
   -0.79563E+06         0.25058E+06         0.00000E+00
    0.25058E+06         0.20206E+06         0.00000E+00
    0.00000E+00         0.00000E+00        -0.11872E+06
 
   -0.75629E+06         0.25441E+06         0.00000E+00
    0.25441E+06         0.22324E+06         0.00000E+00
    0.00000E+00         0.00000E+00        -0.10661E+06
 
   -0.71916E+06         0.25898E+06         0.00000E+00
    0.25898E+06         0.24465E+06         0.00000E+00
    0.00000E+00         0.00000E+00        -0.94901E+05
 
   -0.68401E+06         0.26441E+06         0.00000E+00
    0.26441E+06         0.26611E+06         0.00000E+00
    0.00000E+00         0.00000E+00        -0.83580E+05
 
   -0.65059E+06         0.27075E+06         0.00000E+00
    0.27075E+06         0.28742E+06         0.00000E+00
    0.00000E+00         0.00000E+00        -0.72635E+05
 
   -0.61869E+06         0.27805E+06         0.00000E+00
    0.27805E+06         0.30841E+06         0.00000E+00
    0.00000E+00         0.00000E+00        -0.62056E+05
 
   -0.58805E+06         0.28633E+06         0.00000E+00
    0.28633E+06         0.32890E+06         0.00000E+00
    0.00000E+00         0.00000E+00        -0.51829E+05
 
   -0.55844E+06         0.29559E+06         0.00000E+00
    0.29559E+06         0.34873E+06         0.00000E+00
    0.00000E+00         0.00000E+00        -0.41942E+05
 
   -0.52964E+06         0.30577E+06         0.00000E+00
    0.30577E+06         0.36772E+06         0.00000E+00
    0.00000E+00         0.00000E+00        -0.32384E+05
 
   -0.50143E+06         0.31684E+06         0.00000E+00
    0.31684E+06         0.38572E+06         0.00000E+00
    0.00000E+00         0.00000E+00        -0.23142E+05
 
   -0.47361E+06         0.32870E+06         0.00000E+00
    0.32870E+06         0.40258E+06         0.00000E+00
    0.00000E+00         0.00000E+00        -0.14206E+05
 
   -0.44598E+06         0.34126E+06         0.00000E+00
    0.34126E+06         0.41816E+06         0.00000E+00
    0.00000E+00         0.00000E+00        -0.55643E+04
 
   -0.41838E+06         0.35438E+06         0.00000E+00
    0.35438E+06         0.43234E+06         0.00000E+00
    0.00000E+00         0.00000E+00         0.27912E+04
 
   -0.39067E+06         0.36794E+06         0.00000E+00
    0.36794E+06         0.44501E+06         0.00000E+00
    0.00000E+00         0.00000E+00         0.10869E+05
 
   -0.36271E+06         0.38175E+06         0.00000E+00
    0.38175E+06         0.45608E+06         0.00000E+00
    0.00000E+00         0.00000E+00         0.18674E+05
 
   -0.33441E+06         0.39566E+06         0.00000E+00
    0.39566E+06         0.46547E+06         0.00000E+00
    0.00000E+00         0.00000E+00         0.26211E+05
 
   -0.30570E+06         0.40946E+06         0.00000E+00
    0.40946E+06         0.47311E+06         0.00000E+00
    0.00000E+00         0.00000E+00         0.33483E+05
 
   -0.27654E+06         0.42296E+06         0.00000E+00
    0.42296E+06         0.47899E+06         0.00000E+00
    0.00000E+00         0.00000E+00         0.40490E+05
 
   -0.24692E+06         0.43594E+06         0.00000E+00
    0.43594E+06         0.48307E+06         0.00000E+00
    0.00000E+00         0.00000E+00         0.47229E+05
 
   -0.21689E+06         0.44819E+06         0.00000E+00
    0.44819E+06         0.48537E+06         0.00000E+00
    0.00000E+00         0.00000E+00         0.53697E+05
 
   -0.18650E+06         0.45947E+06         0.00000E+00
    0.45947E+06         0.48593E+06         0.00000E+00
    0.00000E+00         0.00000E+00         0.59886E+05
 
   -0.15586E+06         0.46958E+06         0.00000E+00
    0.46958E+06         0.48479E+06         0.00000E+00
    0.00000E+00         0.00000E+00         0.65787E+05
 
   -0.12512E+06         0.47828E+06         0.00000E+00
    0.47828E+06         0.48205E+06         0.00000E+00
    0.00000E+00         0.00000E+00         0.71388E+05
 
   -0.94457E+05         0.48538E+06         0.00000E+00
    0.48538E+06         0.47783E+06         0.00000E+00
    0.00000E+00         0.00000E+00         0.76674E+05
 
   -0.64107E+05         0.49067E+06         0.00000E+00
    0.49067E+06         0.47226E+06         0.00000E+00
    0.00000E+00         0.00000E+00         0.81630E+05
 
   -0.34330E+05         0.49397E+06         0.00000E+00
    0.49397E+06         0.46551E+06         0.00000E+00
    0.00000E+00         0.00000E+00         0.86236E+05
 
   -0.54305E+04         0.49512E+06         0.00000E+00
    0.49512E+06         0.45778E+06         0.00000E+00
    0.00000E+00         0.00000E+00         0.90470E+05
 
    0.22254E+05         0.49398E+06         0.00000E+00
    0.49398E+06         0.44929E+06         0.00000E+00
    0.00000E+00         0.00000E+00         0.94309E+05
 
    0.48350E+05         0.49044E+06         0.00000E+00
    0.49044E+06         0.44029E+06         0.00000E+00
    0.00000E+00         0.00000E+00         0.97728E+05
 
    0.72454E+05         0.48444E+06         0.00000E+00
    0.48444E+06         0.43104E+06         0.00000E+00
    0.00000E+00         0.00000E+00         0.10070E+06
 
    0.94138E+05         0.47594E+06         0.00000E+00
    0.47594E+06         0.42183E+06         0.00000E+00
    0.00000E+00         0.00000E+00         0.10319E+06
 
   -0.19128E+07         0.22803E+05         0.00000E+00
    0.22803E+05        -0.34593E+02         0.00000E+00
    0.00000E+00         0.00000E+00        -0.38257E+06
 
   -0.18403E+07         0.60011E+05         0.00000E+00
    0.60011E+05        -0.19630E+03         0.00000E+00
    0.00000E+00         0.00000E+00        -0.36810E+06
 
   -0.17681E+07         0.93807E+05         0.00000E+00
    0.93807E+05        -0.18062E+03         0.00000E+00
    0.00000E+00         0.00000E+00        -0.35366E+06
 
   -0.16965E+07         0.12435E+06         0.00000E+00
    0.12435E+06         0.14766E+03         0.00000E+00
    0.00000E+00         0.00000E+00        -0.33928E+06
 
   -0.16258E+07         0.15181E+06         0.00000E+00
    0.15181E+06         0.91570E+03         0.00000E+00
    0.00000E+00         0.00000E+00        -0.32498E+06
 
   -0.15562E+07         0.17636E+06         0.00000E+00
    0.17636E+06         0.22361E+04         0.00000E+00
    0.00000E+00         0.00000E+00        -0.31079E+06
 
   -0.14879E+07         0.19821E+06         0.00000E+00
    0.19821E+06         0.42060E+04         0.00000E+00
    0.00000E+00         0.00000E+00        -0.29673E+06
 
   -0.14211E+07         0.21756E+06         0.00000E+00
    0.21756E+06         0.69068E+04         0.00000E+00
    0.00000E+00         0.00000E+00        -0.28283E+06
 
   -0.13560E+07         0.23462E+06         0.00000E+00
    0.23462E+06         0.10402E+05         0.00000E+00
    0.00000E+00         0.00000E+00        -0.26911E+06
 
   -0.12927E+07         0.24960E+06         0.00000E+00
    0.24960E+06         0.14739E+05         0.00000E+00
    0.00000E+00         0.00000E+00        -0.25559E+06
 
   -0.12313E+07         0.26272E+06         0.00000E+00
    0.26272E+06         0.19946E+05         0.00000E+00
    0.00000E+00         0.00000E+00        -0.24227E+06
 
   -0.11720E+07         0.27420E+06         0.00000E+00
    0.27420E+06         0.26033E+05         0.00000E+00
    0.00000E+00         0.00000E+00        -0.22919E+06
 
   -0.11148E+07         0.28425E+06         0.00000E+00
    0.28425E+06         0.32993E+05         0.00000E+00
    0.00000E+00         0.00000E+00        -0.21636E+06
 
   -0.10597E+07         0.29308E+06         0.00000E+00
    0.29308E+06         0.40804E+05         0.00000E+00
    0.00000E+00         0.00000E+00        -0.20378E+06
 
   -0.10068E+07         0.30089E+06         0.00000E+00
    0.30089E+06         0.49424E+05         0.00000E+00
    0.00000E+00         0.00000E+00        -0.19147E+06
 
   -0.95599E+06         0.30787E+06         0.00000E+00
    0.30787E+06         0.58801E+05         0.00000E+00
    0.00000E+00         0.00000E+00        -0.17944E+06
 
   -0.90731E+06         0.31421E+06         0.00000E+00
    0.31421E+06         0.68867E+05         0.00000E+00
    0.00000E+00         0.00000E+00        -0.16769E+06
 
   -0.86069E+06         0.32007E+06         0.00000E+00
    0.32007E+06         0.79543E+05         0.00000E+00
    0.00000E+00         0.00000E+00        -0.15623E+06
 
   -0.81606E+06         0.32560E+06         0.00000E+00
    0.32560E+06         0.90739E+05         0.00000E+00
    0.00000E+00         0.00000E+00        -0.14506E+06
 
   -0.77333E+06         0.33094E+06         0.00000E+00
    0.33094E+06         0.10236E+06         0.00000E+00
    0.00000E+00         0.00000E+00        -0.13419E+06
 
   -0.73241E+06         0.33621E+06         0.00000E+00
    0.33621E+06         0.11429E+06         0.00000E+00
    0.00000E+00         0.00000E+00        -0.12362E+06
 
   -0.69318E+06         0.34151E+06         0.00000E+00
    0.34151E+06         0.12643E+06         0.00000E+00
    0.00000E+00         0.00000E+00        -0.11335E+06
 
   -0.65553E+06         0.34692E+06         0.00000E+00
    0.34692E+06         0.13866E+06         0.00000E+00
    0.00000E+00         0.00000E+00        -0.10337E+06
 
   -0.61934E+06         0.35252E+06         0.00000E+00
    0.35252E+06         0.15087E+06         0.00000E+00
    0.00000E+00         0.00000E+00        -0.93694E+05
 
   -0.58447E+06         0.35836E+06         0.00000E+00
    0.35836E+06         0.16293E+06         0.00000E+00
    0.00000E+00         0.00000E+00        -0.84308E+05
 
   -0.55081E+06         0.36445E+06         0.00000E+00
    0.36445E+06         0.17474E+06         0.00000E+00
    0.00000E+00         0.00000E+00        -0.75214E+05
 
   -0.51821E+06         0.37083E+06         0.00000E+00
    0.37083E+06         0.18617E+06         0.00000E+00
    0.00000E+00         0.00000E+00        -0.66409E+05
 
   -0.48657E+06         0.37747E+06         0.00000E+00
    0.37747E+06         0.19712E+06         0.00000E+00
    0.00000E+00         0.00000E+00        -0.57889E+05
 
   -0.45576E+06         0.38437E+06         0.00000E+00
    0.38437E+06         0.20749E+06         0.00000E+00
    0.00000E+00         0.00000E+00        -0.49654E+05
 
   -0.42567E+06         0.39149E+06         0.00000E+00
    0.39149E+06         0.21717E+06         0.00000E+00
    0.00000E+00         0.00000E+00        -0.41699E+05
 
   -0.39620E+06         0.39877E+06         0.00000E+00
    0.39877E+06         0.22608E+06         0.00000E+00
    0.00000E+00         0.00000E+00        -0.34023E+05
 
   -0.36727E+06         0.40614E+06         0.00000E+00
    0.40614E+06         0.23414E+06         0.00000E+00
    0.00000E+00         0.00000E+00        -0.26624E+05
 
   -0.33880E+06         0.41354E+06         0.00000E+00
    0.41354E+06         0.24128E+06         0.00000E+00
    0.00000E+00         0.00000E+00        -0.19503E+05
 
   -0.31073E+06         0.42087E+06         0.00000E+00
    0.42087E+06         0.24744E+06         0.00000E+00
    0.00000E+00         0.00000E+00        -0.12658E+05
 
   -0.28304E+06         0.42804E+06         0.00000E+00
    0.42804E+06         0.25258E+06         0.00000E+00
    0.00000E+00         0.00000E+00        -0.60904E+04
 
   -0.25568E+06         0.43493E+06         0.00000E+00
    0.43493E+06         0.25667E+06         0.00000E+00
    0.00000E+00         0.00000E+00         0.19694E+03
 
   -0.22868E+06         0.44145E+06         0.00000E+00
    0.44145E+06         0.25968E+06         0.00000E+00
    0.00000E+00         0.00000E+00         0.62012E+04
 
   -0.20204E+06         0.44746E+06         0.00000E+00
    0.44746E+06         0.26163E+06         0.00000E+00
    0.00000E+00         0.00000E+00         0.11918E+05
 
   -0.17581E+06         0.45285E+06         0.00000E+00
    0.45285E+06         0.26252E+06         0.00000E+00
    0.00000E+00         0.00000E+00         0.17341E+05
 
   -0.15006E+06         0.45751E+06         0.00000E+00
    0.45751E+06         0.26239E+06         0.00000E+00
    0.00000E+00         0.00000E+00         0.22465E+05
 
   -0.12489E+06         0.46132E+06         0.00000E+00
    0.46132E+06         0.26129E+06         0.00000E+00
    0.00000E+00         0.00000E+00         0.27280E+05
 
   -0.10039E+06         0.46417E+06         0.00000E+00
    0.46417E+06         0.25928E+06         0.00000E+00
    0.00000E+00         0.00000E+00         0.31777E+05
 
   -0.76720E+05         0.46595E+06         0.00000E+00
    0.46595E+06         0.25644E+06         0.00000E+00
    0.00000E+00         0.00000E+00         0.35945E+05
 
   -0.54031E+05         0.46658E+06         0.00000E+00
    0.46658E+06         0.25289E+06         0.00000E+00
    0.00000E+00         0.00000E+00         0.39772E+05
 
   -0.32507E+05         0.46599E+06         0.00000E+00
    0.46599E+06         0.24873E+06         0.00000E+00
    0.00000E+00         0.00000E+00         0.43245E+05
 
   -0.12353E+05         0.46409E+06         0.00000E+00
    0.46409E+06         0.24410E+06         0.00000E+00
    0.00000E+00         0.00000E+00         0.46349E+05
 
    0.62091E+04         0.46086E+06         0.00000E+00
    0.46086E+06         0.23913E+06         0.00000E+00
    0.00000E+00         0.00000E+00         0.49068E+05
 
    0.22937E+05         0.45626E+06         0.00000E+00
    0.45626E+06         0.23400E+06         0.00000E+00
    0.00000E+00         0.00000E+00         0.51387E+05
 
    0.37576E+05         0.45030E+06         0.00000E+00
    0.45030E+06         0.22886E+06         0.00000E+00
    0.00000E+00         0.00000E+00         0.53288E+05
 
    0.49856E+05         0.44300E+06         0.00000E+00
    0.44300E+06         0.22390E+06         0.00000E+00
    0.00000E+00         0.00000E+00         0.54752E+05
 
   -0.17191E+07         0.21859E+05         0.00000E+00
    0.21859E+05         0.36675E+02         0.00000E+00
    0.00000E+00         0.00000E+00        -0.34381E+06
 
   -0.16623E+07         0.58762E+05         0.00000E+00
    0.58762E+05        -0.37271E+03         0.00000E+00
    0.00000E+00         0.00000E+00        -0.33254E+06
 
   -0.16052E+07         0.92882E+05         0.00000E+00
    0.92882E+05        -0.92478E+03         0.00000E+00
    0.00000E+00         0.00000E+00        -0.32123E+06
 
   -0.15481E+07         0.12433E+06         0.00000E+00
    0.12433E+06        -0.15108E+04         0.00000E+00
    0.00000E+00         0.00000E+00        -0.30992E+06
 
   -0.14910E+07         0.15321E+06         0.00000E+00
    0.15321E+06        -0.20318E+04         0.00000E+00
    0.00000E+00         0.00000E+00        -0.29861E+06
 
   -0.14343E+07         0.17967E+06         0.00000E+00
    0.17967E+06        -0.23979E+04         0.00000E+00
    0.00000E+00         0.00000E+00        -0.28734E+06
 
   -0.13781E+07         0.20382E+06         0.00000E+00
    0.20382E+06        -0.25295E+04         0.00000E+00
    0.00000E+00         0.00000E+00        -0.27612E+06
 
   -0.13225E+07         0.22581E+06         0.00000E+00
    0.22581E+06        -0.23578E+04         0.00000E+00
    0.00000E+00         0.00000E+00        -0.26497E+06
 
   -0.12677E+07         0.24577E+06         0.00000E+00
    0.24577E+06        -0.18250E+04         0.00000E+00
    0.00000E+00         0.00000E+00        -0.25390E+06
 
   -0.12138E+07         0.26385E+06         0.00000E+00
    0.26385E+06        -0.88487E+03         0.00000E+00
    0.00000E+00         0.00000E+00        -0.24294E+06
 
   -0.11610E+07         0.28020E+06         0.00000E+00
    0.28020E+06         0.49707E+03         0.00000E+00
    0.00000E+00         0.00000E+00        -0.23211E+06
 
   -0.11094E+07         0.29496E+06         0.00000E+00
    0.29496E+06         0.23438E+04         0.00000E+00
    0.00000E+00         0.00000E+00        -0.22140E+06
 
   -0.10589E+07         0.30827E+06         0.00000E+00
    0.30827E+06         0.46669E+04         0.00000E+00
    0.00000E+00         0.00000E+00        -0.21085E+06
 
   -0.10097E+07         0.32027E+06         0.00000E+00
    0.32027E+06         0.74666E+04         0.00000E+00
    0.00000E+00         0.00000E+00        -0.20046E+06
 
   -0.96191E+06         0.33112E+06         0.00000E+00
    0.33112E+06         0.10733E+05         0.00000E+00
    0.00000E+00         0.00000E+00        -0.19023E+06
 
   -0.91542E+06         0.34093E+06         0.00000E+00
    0.34093E+06         0.14445E+05         0.00000E+00
    0.00000E+00         0.00000E+00        -0.18020E+06
 
   -0.87031E+06         0.34983E+06         0.00000E+00
    0.34983E+06         0.18573E+05         0.00000E+00
    0.00000E+00         0.00000E+00        -0.17035E+06
 
   -0.82658E+06         0.35795E+06         0.00000E+00
    0.35795E+06         0.23080E+05         0.00000E+00
    0.00000E+00         0.00000E+00        -0.16070E+06
 
   -0.78421E+06         0.36539E+06         0.00000E+00
    0.36539E+06         0.27918E+05         0.00000E+00
    0.00000E+00         0.00000E+00        -0.15126E+06
 
   -0.74318E+06         0.37226E+06         0.00000E+00
    0.37226E+06         0.33036E+05         0.00000E+00
    0.00000E+00         0.00000E+00        -0.14203E+06
 
   -0.70346E+06         0.37865E+06         0.00000E+00
    0.37865E+06         0.38376E+05         0.00000E+00
    0.00000E+00         0.00000E+00        -0.13302E+06
 
   -0.66502E+06         0.38464E+06         0.00000E+00
    0.38464E+06         0.43874E+05         0.00000E+00
    0.00000E+00         0.00000E+00        -0.12423E+06
 
   -0.62781E+06         0.39030E+06         0.00000E+00
    0.39030E+06         0.49465E+05         0.00000E+00
    0.00000E+00         0.00000E+00        -0.11567E+06
 
   -0.59177E+06         0.39569E+06         0.00000E+00
    0.39569E+06         0.55081E+05         0.00000E+00
    0.00000E+00         0.00000E+00        -0.10734E+06
 
   -0.55686E+06         0.40086E+06         0.00000E+00
    0.40086E+06         0.60653E+05         0.00000E+00
    0.00000E+00         0.00000E+00        -0.99241E+05
 
   -0.52301E+06         0.40583E+06         0.00000E+00
    0.40583E+06         0.66110E+05         0.00000E+00
    0.00000E+00         0.00000E+00        -0.91380E+05
 
   -0.49017E+06         0.41065E+06         0.00000E+00
    0.41065E+06         0.71384E+05         0.00000E+00
    0.00000E+00         0.00000E+00        -0.83757E+05
 
   -0.45829E+06         0.41532E+06         0.00000E+00
    0.41532E+06         0.76411E+05         0.00000E+00
    0.00000E+00         0.00000E+00        -0.76375E+05
 
   -0.42731E+06         0.41985E+06         0.00000E+00
    0.41985E+06         0.81126E+05         0.00000E+00
    0.00000E+00         0.00000E+00        -0.69236E+05
 
   -0.39718E+06         0.42423E+06         0.00000E+00
    0.42423E+06         0.85471E+05         0.00000E+00
    0.00000E+00         0.00000E+00        -0.62342E+05
 
   -0.36787E+06         0.42844E+06         0.00000E+00
    0.42844E+06         0.89393E+05         0.00000E+00
    0.00000E+00         0.00000E+00        -0.55696E+05
 
   -0.33934E+06         0.43246E+06         0.00000E+00
    0.43246E+06         0.92846E+05         0.00000E+00
    0.00000E+00         0.00000E+00        -0.49299E+05
 
   -0.31156E+06         0.43626E+06         0.00000E+00
    0.43626E+06         0.95788E+05         0.00000E+00
    0.00000E+00         0.00000E+00        -0.43154E+05
 
   -0.28452E+06         0.43980E+06         0.00000E+00
    0.43980E+06         0.98187E+05         0.00000E+00
    0.00000E+00         0.00000E+00        -0.37266E+05
 
   -0.25820E+06         0.44304E+06         0.00000E+00
    0.44304E+06         0.10002E+06         0.00000E+00
    0.00000E+00         0.00000E+00        -0.31636E+05
 
   -0.23262E+06         0.44593E+06         0.00000E+00
    0.44593E+06         0.10127E+06         0.00000E+00
    0.00000E+00         0.00000E+00        -0.26270E+05
 
   -0.20780E+06         0.44842E+06         0.00000E+00
    0.44842E+06         0.10194E+06         0.00000E+00
    0.00000E+00         0.00000E+00        -0.21172E+05
 
   -0.18375E+06         0.45045E+06         0.00000E+00
    0.45045E+06         0.10202E+06         0.00000E+00
    0.00000E+00         0.00000E+00        -0.16346E+05
 
   -0.16054E+06         0.45198E+06         0.00000E+00
    0.45198E+06         0.10154E+06         0.00000E+00
    0.00000E+00         0.00000E+00        -0.11800E+05
 
   -0.13820E+06         0.45295E+06         0.00000E+00
    0.45295E+06         0.10052E+06         0.00000E+00
    0.00000E+00         0.00000E+00        -0.75378E+04
 
   -0.11683E+06         0.45332E+06         0.00000E+00
    0.45332E+06         0.98988E+05         0.00000E+00
    0.00000E+00         0.00000E+00        -0.35677E+04
 
   -0.96487E+05         0.45305E+06         0.00000E+00
    0.45305E+06         0.97002E+05         0.00000E+00
    0.00000E+00         0.00000E+00         0.10293E+03
 
   -0.77284E+05         0.45209E+06         0.00000E+00
    0.45209E+06         0.94614E+05         0.00000E+00
    0.00000E+00         0.00000E+00         0.34661E+04
 
   -0.59327E+05         0.45042E+06         0.00000E+00
    0.45042E+06         0.91892E+05         0.00000E+00
    0.00000E+00         0.00000E+00         0.65131E+04
 
   -0.42737E+05         0.44801E+06         0.00000E+00
    0.44801E+06         0.88911E+05         0.00000E+00
    0.00000E+00         0.00000E+00         0.92348E+04
 
   -0.27648E+05         0.44488E+06         0.00000E+00
    0.44488E+06         0.85755E+05         0.00000E+00
    0.00000E+00         0.00000E+00         0.11621E+05
 
   -0.14202E+05         0.44100E+06         0.00000E+00
    0.44100E+06         0.82515E+05         0.00000E+00
    0.00000E+00         0.00000E+00         0.13663E+05
 
   -0.25490E+04         0.43642E+06         0.00000E+00
    0.43642E+06         0.79291E+05         0.00000E+00
    0.00000E+00         0.00000E+00         0.15348E+05
 
    0.71526E+04         0.43115E+06         0.00000E+00
    0.43115E+06         0.76185E+05         0.00000E+00
    0.00000E+00         0.00000E+00         0.16668E+05
 
    0.14740E+05         0.42525E+06         0.00000E+00
    0.42525E+06         0.73307E+05         0.00000E+00
    0.00000E+00         0.00000E+00         0.17609E+05
 
   -0.15317E+07         0.20424E+05         0.00000E+00
    0.20424E+05         0.10159E+03         0.00000E+00
    0.00000E+00         0.00000E+00        -0.30631E+06
 
   -0.14877E+07         0.55754E+05         0.00000E+00
    0.55754E+05        -0.48229E+03         0.00000E+00
    0.00000E+00         0.00000E+00        -0.29764E+06
 
   -0.14430E+07         0.88812E+05         0.00000E+00
    0.88812E+05        -0.14260E+04         0.00000E+00
    0.00000E+00         0.00000E+00        -0.28889E+06
 
   -0.13978E+07         0.11967E+06         0.00000E+00
    0.11967E+06        -0.26396E+04         0.00000E+00
    0.00000E+00         0.00000E+00        -0.28009E+06
 
   -0.13522E+07         0.14840E+06         0.00000E+00
    0.14840E+06        -0.40396E+04         0.00000E+00
    0.00000E+00         0.00000E+00        -0.27124E+06
 
   -0.13063E+07         0.17509E+06         0.00000E+00
    0.17509E+06        -0.55498E+04         0.00000E+00
    0.00000E+00         0.00000E+00        -0.26238E+06
 
   -0.12604E+07         0.19982E+06         0.00000E+00
    0.19982E+06        -0.71014E+04         0.00000E+00
    0.00000E+00         0.00000E+00        -0.25351E+06
 
   -0.12146E+07         0.22268E+06         0.00000E+00
    0.22268E+06        -0.86335E+04         0.00000E+00
    0.00000E+00         0.00000E+00        -0.24465E+06
 
   -0.11690E+07         0.24378E+06         0.00000E+00
    0.24378E+06        -0.10093E+05         0.00000E+00
    0.00000E+00         0.00000E+00        -0.23583E+06
 
   -0.11238E+07         0.26320E+06         0.00000E+00
    0.26320E+06        -0.11433E+05         0.00000E+00
    0.00000E+00         0.00000E+00        -0.22704E+06
 
   -0.10789E+07         0.28103E+06         0.00000E+00
    0.28103E+06        -0.12618E+05         0.00000E+00
    0.00000E+00         0.00000E+00        -0.21831E+06
 
   -0.10347E+07         0.29739E+06         0.00000E+00
    0.29739E+06        -0.13618E+05         0.00000E+00
    0.00000E+00         0.00000E+00        -0.20965E+06
 
   -0.99099E+06         0.31237E+06         0.00000E+00
    0.31237E+06        -0.14411E+05         0.00000E+00
    0.00000E+00         0.00000E+00        -0.20108E+06
 
   -0.94801E+06         0.32606E+06         0.00000E+00
    0.32606E+06        -0.14982E+05         0.00000E+00
    0.00000E+00         0.00000E+00        -0.19260E+06
 
   -0.90580E+06         0.33856E+06         0.00000E+00
    0.33856E+06        -0.15326E+05         0.00000E+00
    0.00000E+00         0.00000E+00        -0.18422E+06
 
   -0.86439E+06         0.34997E+06         0.00000E+00
    0.34997E+06        -0.15441E+05         0.00000E+00
    0.00000E+00         0.00000E+00        -0.17597E+06
 
   -0.82383E+06         0.36036E+06         0.00000E+00
    0.36036E+06        -0.15335E+05         0.00000E+00
    0.00000E+00         0.00000E+00        -0.16783E+06
 
   -0.78416E+06         0.36984E+06         0.00000E+00
    0.36984E+06        -0.15020E+05         0.00000E+00
    0.00000E+00         0.00000E+00        -0.15984E+06
 
   -0.74539E+06         0.37847E+06         0.00000E+00
    0.37847E+06        -0.14514E+05         0.00000E+00
    0.00000E+00         0.00000E+00        -0.15198E+06
 
   -0.70754E+06         0.38633E+06         0.00000E+00
    0.38633E+06        -0.13840E+05         0.00000E+00
    0.00000E+00         0.00000E+00        -0.14428E+06
 
   -0.67063E+06         0.39350E+06         0.00000E+00
    0.39350E+06        -0.13025E+05         0.00000E+00
    0.00000E+00         0.00000E+00        -0.13673E+06
 
   -0.63464E+06         0.40004E+06         0.00000E+00
    0.40004E+06        -0.12099E+05         0.00000E+00
    0.00000E+00         0.00000E+00        -0.12935E+06
 
   -0.59959E+06         0.40600E+06         0.00000E+00
    0.40600E+06        -0.11095E+05         0.00000E+00
    0.00000E+00         0.00000E+00        -0.12214E+06
 
   -0.56547E+06         0.41143E+06         0.00000E+00
    0.41143E+06        -0.10049E+05         0.00000E+00
    0.00000E+00         0.00000E+00        -0.11510E+06
 
   -0.53226E+06         0.41639E+06         0.00000E+00
    0.41639E+06        -0.89967E+04         0.00000E+00
    0.00000E+00         0.00000E+00        -0.10825E+06
 
   -0.49995E+06         0.42090E+06         0.00000E+00
    0.42090E+06        -0.79754E+04         0.00000E+00
    0.00000E+00         0.00000E+00        -0.10159E+06
 
   -0.46854E+06         0.42500E+06         0.00000E+00
    0.42500E+06        -0.70215E+04         0.00000E+00
    0.00000E+00         0.00000E+00        -0.95112E+05
 
   -0.43800E+06         0.42871E+06         0.00000E+00
    0.42871E+06        -0.61709E+04         0.00000E+00
    0.00000E+00         0.00000E+00        -0.88834E+05
 
   -0.40833E+06         0.43205E+06         0.00000E+00
    0.43205E+06        -0.54573E+04         0.00000E+00
    0.00000E+00         0.00000E+00        -0.82758E+05
 
   -0.37952E+06         0.43503E+06         0.00000E+00
    0.43503E+06        -0.49125E+04         0.00000E+00
    0.00000E+00         0.00000E+00        -0.76886E+05
 
   -0.35156E+06         0.43766E+06         0.00000E+00
    0.43766E+06        -0.45648E+04         0.00000E+00
    0.00000E+00         0.00000E+00        -0.71224E+05
 
   -0.32444E+06         0.43993E+06         0.00000E+00
    0.43993E+06        -0.44391E+04         0.00000E+00
    0.00000E+00         0.00000E+00        -0.65776E+05
 
   -0.29817E+06         0.44186E+06         0.00000E+00
    0.44186E+06        -0.45563E+04         0.00000E+00
    0.00000E+00         0.00000E+00        -0.60545E+05
 
   -0.27275E+06         0.44342E+06         0.00000E+00
    0.44342E+06        -0.49321E+04         0.00000E+00
    0.00000E+00         0.00000E+00        -0.55537E+05
 
   -0.24820E+06         0.44462E+06         0.00000E+00
    0.44462E+06        -0.55775E+04         0.00000E+00
    0.00000E+00         0.00000E+00        -0.50755E+05
 
   -0.22453E+06         0.44544E+06         0.00000E+00
    0.44544E+06        -0.64978E+04         0.00000E+00
    0.00000E+00         0.00000E+00        -0.46205E+05
 
   -0.20176E+06         0.44587E+06         0.00000E+00
    0.44587E+06        -0.76925E+04         0.00000E+00
    0.00000E+00         0.00000E+00        -0.41891E+05
 
   -0.17994E+06         0.44589E+06         0.00000E+00
    0.44589E+06        -0.91553E+04         0.00000E+00
    0.00000E+00         0.00000E+00        -0.37819E+05
 
   -0.15909E+06         0.44550E+06         0.00000E+00
    0.44550E+06        -0.10873E+05         0.00000E+00
    0.00000E+00         0.00000E+00        -0.33993E+05
 
   -0.13926E+06         0.44468E+06         0.00000E+00
    0.44468E+06        -0.12828E+05         0.00000E+00
    0.00000E+00         0.00000E+00        -0.30418E+05
 
   -0.12051E+06         0.44343E+06         0.00000E+00
    0.44343E+06        -0.14994E+05         0.00000E+00
    0.00000E+00         0.00000E+00        -0.27102E+05
 
   -0.10290E+06         0.44175E+06         0.00000E+00
    0.44175E+06        -0.17342E+05         0.00000E+00
    0.00000E+00         0.00000E+00        -0.24048E+05
 
   -0.86484E+05         0.43963E+06         0.00000E+00
    0.43963E+06        -0.19833E+05         0.00000E+00
    0.00000E+00         0.00000E+00        -0.21263E+05
 
   -0.71344E+05         0.43708E+06         0.00000E+00
    0.43708E+06        -0.22426E+05         0.00000E+00
    0.00000E+00         0.00000E+00        -0.18754E+05
 
   -0.57557E+05         0.43412E+06         0.00000E+00
    0.43412E+06        -0.25075E+05         0.00000E+00
    0.00000E+00         0.00000E+00        -0.16526E+05
 
   -0.45205E+05         0.43077E+06         0.00000E+00
    0.43077E+06        -0.27727E+05         0.00000E+00
    0.00000E+00         0.00000E+00        -0.14587E+05
 
   -0.34377E+05         0.42705E+06         0.00000E+00
    0.42705E+06        -0.30328E+05         0.00000E+00
    0.00000E+00         0.00000E+00        -0.12941E+05
 
   -0.25163E+05         0.42301E+06         0.00000E+00
    0.42301E+06        -0.32820E+05         0.00000E+00
    0.00000E+00         0.00000E+00        -0.11597E+05
 
   -0.17654E+05         0.41870E+06         0.00000E+00
    0.41870E+06        -0.35141E+05         0.00000E+00
    0.00000E+00         0.00000E+00        -0.10559E+05
 
   -0.11945E+05         0.41417E+06         0.00000E+00
    0.41417E+06        -0.37231E+05         0.00000E+00
    0.00000E+00         0.00000E+00        -0.98353E+04
 
   -0.13556E+07         0.18673E+05         0.00000E+00
    0.18673E+05         0.14477E+03         0.00000E+00
    0.00000E+00         0.00000E+00        -0.27108E+06
 
   -0.13220E+07         0.51599E+05         0.00000E+00
    0.51599E+05        -0.54079E+03         0.00000E+00
    0.00000E+00         0.00000E+00        -0.26451E+06
 
   -0.12874E+07         0.82684E+05         0.00000E+00
    0.82684E+05        -0.17218E+04         0.00000E+00
    0.00000E+00         0.00000E+00        -0.25783E+06
 
   -0.12520E+07         0.11197E+06         0.00000E+00
    0.11197E+06        -0.33209E+04         0.00000E+00
    0.00000E+00         0.00000E+00        -0.25107E+06
 
   -0.12159E+07         0.13950E+06         0.00000E+00
    0.13950E+06        -0.52665E+04         0.00000E+00
    0.00000E+00         0.00000E+00        -0.24424E+06
 
   -0.11793E+07         0.16533E+06         0.00000E+00
    0.16533E+06        -0.74921E+04         0.00000E+00
    0.00000E+00         0.00000E+00        -0.23735E+06
 
   -0.11422E+07         0.18951E+06         0.00000E+00
    0.18951E+06        -0.99367E+04         0.00000E+00
    0.00000E+00         0.00000E+00        -0.23043E+06
 
   -0.11048E+07         0.21209E+06         0.00000E+00
    0.21209E+06        -0.12545E+05         0.00000E+00
    0.00000E+00         0.00000E+00        -0.22347E+06
 
   -0.10673E+07         0.23315E+06         0.00000E+00
    0.23315E+06        -0.15268E+05         0.00000E+00
    0.00000E+00         0.00000E+00        -0.21651E+06
 
   -0.10297E+07         0.25273E+06         0.00000E+00
    0.25273E+06        -0.18060E+05         0.00000E+00
    0.00000E+00         0.00000E+00        -0.20955E+06
 
   -0.99210E+06         0.27092E+06         0.00000E+00
    0.27092E+06        -0.20884E+05         0.00000E+00
    0.00000E+00         0.00000E+00        -0.20260E+06
 
   -0.95466E+06         0.28776E+06         0.00000E+00
    0.28776E+06        -0.23707E+05         0.00000E+00
    0.00000E+00         0.00000E+00        -0.19567E+06
 
   -0.91743E+06         0.30333E+06         0.00000E+00
    0.30333E+06        -0.26502E+05         0.00000E+00
    0.00000E+00         0.00000E+00        -0.18879E+06
 
   -0.88050E+06         0.31769E+06         0.00000E+00
    0.31769E+06        -0.29245E+05         0.00000E+00
    0.00000E+00         0.00000E+00        -0.18195E+06
 
   -0.84392E+06         0.33091E+06         0.00000E+00
    0.33091E+06        -0.31921E+05         0.00000E+00
    0.00000E+00         0.00000E+00        -0.17517E+06
 
   -0.80777E+06         0.34305E+06         0.00000E+00
    0.34305E+06        -0.34517E+05         0.00000E+00
    0.00000E+00         0.00000E+00        -0.16846E+06
 
   -0.77210E+06         0.35418E+06         0.00000E+00
    0.35418E+06        -0.37025E+05         0.00000E+00
    0.00000E+00         0.00000E+00        -0.16183E+06
 
   -0.73696E+06         0.36435E+06         0.00000E+00
    0.36435E+06        -0.39442E+05         0.00000E+00
    0.00000E+00         0.00000E+00        -0.15528E+06
 
   -0.70238E+06         0.37363E+06         0.00000E+00
    0.37363E+06        -0.41769E+05         0.00000E+00
    0.00000E+00         0.00000E+00        -0.14883E+06
 
   -0.66841E+06         0.38208E+06         0.00000E+00
    0.38208E+06        -0.44010E+05         0.00000E+00
    0.00000E+00         0.00000E+00        -0.14248E+06
 
   -0.63507E+06         0.38974E+06         0.00000E+00
    0.38974E+06        -0.46171E+05         0.00000E+00
    0.00000E+00         0.00000E+00        -0.13625E+06
 
   -0.60240E+06         0.39666E+06         0.00000E+00
    0.39666E+06        -0.48263E+05         0.00000E+00
    0.00000E+00         0.00000E+00        -0.13013E+06
 
   -0.57041E+06         0.40290E+06         0.00000E+00
    0.40290E+06        -0.50298E+05         0.00000E+00
    0.00000E+00         0.00000E+00        -0.12414E+06
 
   -0.53913E+06         0.40849E+06         0.00000E+00
    0.40849E+06        -0.52290E+05         0.00000E+00
    0.00000E+00         0.00000E+00        -0.11828E+06
 
   -0.50857E+06         0.41348E+06         0.00000E+00
    0.41348E+06        -0.54252E+05         0.00000E+00
    0.00000E+00         0.00000E+00        -0.11256E+06
 
   -0.47874E+06         0.41790E+06         0.00000E+00
    0.41790E+06        -0.56202E+05         0.00000E+00
    0.00000E+00         0.00000E+00        -0.10699E+06
 
   -0.44965E+06         0.42178E+06         0.00000E+00
    0.42178E+06        -0.58154E+05         0.00000E+00
    0.00000E+00         0.00000E+00        -0.10156E+06
 
   -0.42133E+06         0.42515E+06         0.00000E+00
    0.42515E+06        -0.60125E+05         0.00000E+00
    0.00000E+00         0.00000E+00        -0.96291E+05
 
   -0.39377E+06         0.42803E+06         0.00000E+00
    0.42803E+06        -0.62130E+05         0.00000E+00
    0.00000E+00         0.00000E+00        -0.91181E+05
 
   -0.36700E+06         0.43046E+06         0.00000E+00
    0.43046E+06        -0.64183E+05         0.00000E+00
    0.00000E+00         0.00000E+00        -0.86237E+05
 
   -0.34102E+06         0.43244E+06         0.00000E+00
    0.43244E+06        -0.66295E+05         0.00000E+00
    0.00000E+00         0.00000E+00        -0.81463E+05
 
   -0.31584E+06         0.43399E+06         0.00000E+00
    0.43399E+06        -0.68479E+05         0.00000E+00
    0.00000E+00         0.00000E+00        -0.76865E+05
 
   -0.29149E+06         0.43513E+06         0.00000E+00
    0.43513E+06        -0.70741E+05         0.00000E+00
    0.00000E+00         0.00000E+00        -0.72447E+05
 
   -0.26798E+06         0.43586E+06         0.00000E+00
    0.43586E+06        -0.73088E+05         0.00000E+00
    0.00000E+00         0.00000E+00        -0.68214E+05
 
   -0.24533E+06         0.43621E+06         0.00000E+00
    0.43621E+06        -0.75522E+05         0.00000E+00
    0.00000E+00         0.00000E+00        -0.64170E+05
 
   -0.22356E+06         0.43618E+06         0.00000E+00
    0.43618E+06        -0.78044E+05         0.00000E+00
    0.00000E+00         0.00000E+00        -0.60321E+05
 
   -0.20270E+06         0.43578E+06         0.00000E+00
    0.43578E+06        -0.80650E+05         0.00000E+00
    0.00000E+00         0.00000E+00        -0.56670E+05
 
   -0.18277E+06         0.43502E+06         0.00000E+00
    0.43502E+06        -0.83334E+05         0.00000E+00
    0.00000E+00         0.00000E+00        -0.53222E+05
 
   -0.16382E+06         0.43391E+06         0.00000E+00
    0.43391E+06        -0.86086E+05         0.00000E+00
    0.00000E+00         0.00000E+00        -0.49981E+05
 
   -0.14587E+06         0.43247E+06         0.00000E+00
    0.43247E+06        -0.88892E+05         0.00000E+00
    0.00000E+00         0.00000E+00        -0.46953E+05
 
   -0.12897E+06         0.43071E+06         0.00000E+00
    0.43071E+06        -0.91736E+05         0.00000E+00
    0.00000E+00         0.00000E+00        -0.44140E+05
 
   -0.11315E+06         0.42864E+06         0.00000E+00
    0.42864E+06        -0.94598E+05         0.00000E+00
    0.00000E+00         0.00000E+00        -0.41549E+05
 
   -0.98456E+05         0.42630E+06         0.00000E+00
    0.42630E+06        -0.97456E+05         0.00000E+00
    0.00000E+00         0.00000E+00        -0.39182E+05
 
   -0.84941E+05         0.42371E+06         0.00000E+00
    0.42371E+06        -0.10028E+06         0.00000E+00
    0.00000E+00         0.00000E+00        -0.37045E+05
 
   -0.72651E+05         0.42088E+06         0.00000E+00
    0.42088E+06        -0.10306E+06         0.00000E+00
    0.00000E+00         0.00000E+00        -0.35141E+05
 
   -0.61635E+05         0.41787E+06         0.00000E+00
    0.41787E+06        -0.10574E+06         0.00000E+00
    0.00000E+00         0.00000E+00        -0.33475E+05
 
   -0.51943E+05         0.41472E+06         0.00000E+00
    0.41472E+06        -0.10831E+06         0.00000E+00
    0.00000E+00         0.00000E+00        -0.32050E+05
 
   -0.43627E+05         0.41146E+06         0.00000E+00
    0.41146E+06        -0.11073E+06         0.00000E+00
    0.00000E+00         0.00000E+00        -0.30871E+05
 
   -0.36736E+05         0.40815E+06         0.00000E+00
    0.40815E+06        -0.11297E+06         0.00000E+00
    0.00000E+00         0.00000E+00        -0.29940E+05
 
   -0.31320E+05         0.40485E+06         0.00000E+00
    0.40485E+06        -0.11499E+06         0.00000E+00
    0.00000E+00         0.00000E+00        -0.29262E+05
 
   -0.11938E+07         0.16770E+05         0.00000E+00
    0.16770E+05         0.16821E+03         0.00000E+00
    0.00000E+00         0.00000E+00        -0.23873E+06
 
   -0.11686E+07         0.46821E+05         0.00000E+00
    0.46821E+05        -0.55818E+03         0.00000E+00
    0.00000E+00         0.00000E+00        -0.23383E+06
 
   -0.11422E+07         0.75400E+05         0.00000E+00
    0.75400E+05        -0.18503E+04         0.00000E+00
    0.00000E+00         0.00000E+00        -0.22882E+06
 
   -0.11149E+07         0.10252E+06         0.00000E+00
    0.10252E+06        -0.36422E+04         0.00000E+00
    0.00000E+00         0.00000E+00        -0.22370E+06
 
   -0.10866E+07         0.12822E+06         0.00000E+00
    0.12822E+06        -0.58718E+04         0.00000E+00
    0.00000E+00         0.00000E+00        -0.21849E+06
 
   -0.10576E+07         0.15250E+06         0.00000E+00
    0.15250E+06        -0.84810E+04         0.00000E+00
    0.00000E+00         0.00000E+00        -0.21321E+06
 
   -0.10279E+07         0.17542E+06         0.00000E+00
    0.17542E+06        -0.11416E+05         0.00000E+00
    0.00000E+00         0.00000E+00        -0.20787E+06
 
   -0.99778E+06         0.19699E+06         0.00000E+00
    0.19699E+06        -0.14626E+05         0.00000E+00
    0.00000E+00         0.00000E+00        -0.20248E+06
 
   -0.96719E+06         0.21726E+06         0.00000E+00
    0.21726E+06        -0.18067E+05         0.00000E+00
    0.00000E+00         0.00000E+00        -0.19705E+06
 
   -0.93628E+06         0.23626E+06         0.00000E+00
    0.23626E+06        -0.21695E+05         0.00000E+00
    0.00000E+00         0.00000E+00        -0.19160E+06
 
   -0.90515E+06         0.25404E+06         0.00000E+00
    0.25404E+06        -0.25473E+05         0.00000E+00
    0.00000E+00         0.00000E+00        -0.18612E+06
 
   -0.87387E+06         0.27064E+06         0.00000E+00
    0.27064E+06        -0.29368E+05         0.00000E+00
    0.00000E+00         0.00000E+00        -0.18065E+06
 
   -0.84254E+06         0.28609E+06         0.00000E+00
    0.28609E+06        -0.33349E+05         0.00000E+00
    0.00000E+00         0.00000E+00        -0.17518E+06
 
   -0.81123E+06         0.30045E+06         0.00000E+00
    0.30045E+06        -0.37390E+05         0.00000E+00
    0.00000E+00         0.00000E+00        -0.16972E+06
 
   -0.78000E+06         0.31376E+06         0.00000E+00
    0.31376E+06        -0.41468E+05         0.00000E+00
    0.00000E+00         0.00000E+00        -0.16429E+06
 
   -0.74893E+06         0.32606E+06         0.00000E+00
    0.32606E+06        -0.45565E+05         0.00000E+00
    0.00000E+00         0.00000E+00        -0.15890E+06
 
   -0.71808E+06         0.33740E+06         0.00000E+00
    0.33740E+06        -0.49665E+05         0.00000E+00
    0.00000E+00         0.00000E+00        -0.15355E+06
 
   -0.68749E+06         0.34782E+06         0.00000E+00
    0.34782E+06        -0.53754E+05         0.00000E+00
    0.00000E+00         0.00000E+00        -0.14825E+06
 
   -0.65722E+06         0.35737E+06         0.00000E+00
    0.35737E+06        -0.57824E+05         0.00000E+00
    0.00000E+00         0.00000E+00        -0.14301E+06
 
   -0.62732E+06         0.36608E+06         0.00000E+00
    0.36608E+06        -0.61866E+05         0.00000E+00
    0.00000E+00         0.00000E+00        -0.13784E+06
 
   -0.59783E+06         0.37401E+06         0.00000E+00
    0.37401E+06        -0.65876E+05         0.00000E+00
    0.00000E+00         0.00000E+00        -0.13274E+06
 
   -0.56878E+06         0.38117E+06         0.00000E+00
    0.38117E+06        -0.69851E+05         0.00000E+00
    0.00000E+00         0.00000E+00        -0.12773E+06
 
   -0.54021E+06         0.38763E+06         0.00000E+00
    0.38763E+06        -0.73791E+05         0.00000E+00
    0.00000E+00         0.00000E+00        -0.12280E+06
 
   -0.51216E+06         0.39340E+06         0.00000E+00
    0.39340E+06        -0.77694E+05         0.00000E+00
    0.00000E+00         0.00000E+00        -0.11797E+06
 
   -0.48465E+06         0.39853E+06         0.00000E+00
    0.39853E+06        -0.81564E+05         0.00000E+00
    0.00000E+00         0.00000E+00        -0.11324E+06
 
   -0.45771E+06         0.40304E+06         0.00000E+00
    0.40304E+06        -0.85402E+05         0.00000E+00
    0.00000E+00         0.00000E+00        -0.10862E+06
 
   -0.43137E+06         0.40697E+06         0.00000E+00
    0.40697E+06        -0.89212E+05         0.00000E+00
    0.00000E+00         0.00000E+00        -0.10412E+06
 
   -0.40564E+06         0.41036E+06         0.00000E+00
    0.41036E+06        -0.92996E+05         0.00000E+00
    0.00000E+00         0.00000E+00        -0.99728E+05
 
   -0.38056E+06         0.41321E+06         0.00000E+00
    0.41321E+06        -0.96758E+05         0.00000E+00
    0.00000E+00         0.00000E+00        -0.95464E+05
 
   -0.35615E+06         0.41556E+06         0.00000E+00
    0.41556E+06        -0.10050E+06         0.00000E+00
    0.00000E+00         0.00000E+00        -0.91330E+05
 
   -0.33242E+06         0.41744E+06         0.00000E+00
    0.41744E+06        -0.10423E+06         0.00000E+00
    0.00000E+00         0.00000E+00        -0.87331E+05
 
   -0.30941E+06         0.41887E+06         0.00000E+00
    0.41887E+06        -0.10794E+06         0.00000E+00
    0.00000E+00         0.00000E+00        -0.83470E+05
 
   -0.28713E+06         0.41987E+06         0.00000E+00
    0.41987E+06        -0.11164E+06         0.00000E+00
    0.00000E+00         0.00000E+00        -0.79753E+05
 
   -0.26560E+06         0.42046E+06         0.00000E+00
    0.42046E+06        -0.11532E+06         0.00000E+00
    0.00000E+00         0.00000E+00        -0.76185E+05
 
   -0.24485E+06         0.42067E+06         0.00000E+00
    0.42067E+06        -0.11899E+06         0.00000E+00
    0.00000E+00         0.00000E+00        -0.72769E+05
 
   -0.22490E+06         0.42051E+06         0.00000E+00
    0.42051E+06        -0.12264E+06         0.00000E+00
    0.00000E+00         0.00000E+00        -0.69509E+05
 
   -0.20578E+06         0.42000E+06         0.00000E+00
    0.42000E+06        -0.12627E+06         0.00000E+00
    0.00000E+00         0.00000E+00        -0.66410E+05
 
   -0.18751E+06         0.41918E+06         0.00000E+00
    0.41918E+06        -0.12987E+06         0.00000E+00
    0.00000E+00         0.00000E+00        -0.63475E+05
 
   -0.17011E+06         0.41805E+06         0.00000E+00
    0.41805E+06        -0.13343E+06         0.00000E+00
    0.00000E+00         0.00000E+00        -0.60708E+05
 
   -0.15362E+06         0.41666E+06         0.00000E+00
    0.41666E+06        -0.13694E+06         0.00000E+00
    0.00000E+00         0.00000E+00        -0.58112E+05
 
   -0.13807E+06         0.41501E+06         0.00000E+00
    0.41501E+06        -0.14039E+06         0.00000E+00
    0.00000E+00         0.00000E+00        -0.55692E+05
 
   -0.12347E+06         0.41315E+06         0.00000E+00
    0.41315E+06        -0.14378E+06         0.00000E+00
    0.00000E+00         0.00000E+00        -0.53450E+05
 
   -0.10986E+06         0.41110E+06         0.00000E+00
    0.41110E+06        -0.14709E+06         0.00000E+00
    0.00000E+00         0.00000E+00        -0.51390E+05
 
   -0.97272E+05         0.40889E+06         0.00000E+00
    0.40889E+06        -0.15030E+06         0.00000E+00
    0.00000E+00         0.00000E+00        -0.49514E+05
 
   -0.85727E+05         0.40657E+06         0.00000E+00
    0.40657E+06        -0.15339E+06         0.00000E+00
    0.00000E+00         0.00000E+00        -0.47824E+05
 
   -0.75256E+05         0.40416E+06         0.00000E+00
    0.40416E+06        -0.15637E+06         0.00000E+00
    0.00000E+00         0.00000E+00        -0.46325E+05
 
   -0.65886E+05         0.40172E+06         0.00000E+00
    0.40172E+06        -0.15920E+06         0.00000E+00
    0.00000E+00         0.00000E+00        -0.45017E+05
 
   -0.57641E+05         0.39929E+06         0.00000E+00
    0.39929E+06        -0.16187E+06         0.00000E+00
    0.00000E+00         0.00000E+00        -0.43903E+05
 
   -0.50546E+05         0.39693E+06         0.00000E+00
    0.39693E+06        -0.16438E+06         0.00000E+00
    0.00000E+00         0.00000E+00        -0.42984E+05
 
   -0.44620E+05         0.39468E+06         0.00000E+00
    0.39468E+06        -0.16669E+06         0.00000E+00
    0.00000E+00         0.00000E+00        -0.42263E+05
 
   -0.10479E+07         0.14847E+05         0.00000E+00
    0.14847E+05         0.17642E+03         0.00000E+00
    0.00000E+00         0.00000E+00        -0.20955E+06
 
   -0.10293E+07         0.41832E+05         0.00000E+00
    0.41832E+05        -0.54481E+03         0.00000E+00
    0.00000E+00         0.00000E+00        -0.20596E+06
 
   -0.10094E+07         0.67656E+05         0.00000E+00
    0.67656E+05        -0.18535E+04         0.00000E+00
    0.00000E+00         0.00000E+00        -0.20226E+06
 
   -0.98855E+06         0.92321E+05         0.00000E+00
    0.92321E+05        -0.36940E+04         0.00000E+00
    0.00000E+00         0.00000E+00        -0.19845E+06
 
   -0.96669E+06         0.11583E+06         0.00000E+00
    0.11583E+06        -0.60131E+04         0.00000E+00
    0.00000E+00         0.00000E+00        -0.19454E+06
 
   -0.94399E+06         0.13820E+06         0.00000E+00
    0.13820E+06        -0.87607E+04         0.00000E+00
    0.00000E+00         0.00000E+00        -0.19055E+06
 
   -0.92053E+06         0.15944E+06         0.00000E+00
    0.15944E+06        -0.11889E+05         0.00000E+00
    0.00000E+00         0.00000E+00        -0.18648E+06
 
   -0.89641E+06         0.17957E+06         0.00000E+00
    0.17957E+06        -0.15355E+05         0.00000E+00
    0.00000E+00         0.00000E+00        -0.18235E+06
 
   -0.87174E+06         0.19860E+06         0.00000E+00
    0.19860E+06        -0.19115E+05         0.00000E+00
    0.00000E+00         0.00000E+00        -0.17817E+06
 
   -0.84659E+06         0.21657E+06         0.00000E+00
    0.21657E+06        -0.23132E+05         0.00000E+00
    0.00000E+00         0.00000E+00        -0.17394E+06
 
   -0.82105E+06         0.23348E+06         0.00000E+00
    0.23348E+06        -0.27369E+05         0.00000E+00
    0.00000E+00         0.00000E+00        -0.16968E+06
 
   -0.79519E+06         0.24937E+06         0.00000E+00
    0.24937E+06        -0.31793E+05         0.00000E+00
    0.00000E+00         0.00000E+00        -0.16540E+06
 
   -0.76911E+06         0.26426E+06         0.00000E+00
    0.26426E+06        -0.36375E+05         0.00000E+00
    0.00000E+00         0.00000E+00        -0.16110E+06
 
   -0.74286E+06         0.27819E+06         0.00000E+00
    0.27819E+06        -0.41086E+05         0.00000E+00
    0.00000E+00         0.00000E+00        -0.15679E+06
 
   -0.71652E+06         0.29118E+06         0.00000E+00
    0.29118E+06        -0.45902E+05         0.00000E+00
    0.00000E+00         0.00000E+00        -0.15248E+06
 
   -0.69014E+06         0.30325E+06         0.00000E+00
    0.30325E+06        -0.50800E+05         0.00000E+00
    0.00000E+00         0.00000E+00        -0.14819E+06
 
   -0.66379E+06         0.31446E+06         0.00000E+00
    0.31446E+06        -0.55760E+05         0.00000E+00
    0.00000E+00         0.00000E+00        -0.14391E+06
 
   -0.63753E+06         0.32481E+06         0.00000E+00
    0.32481E+06        -0.60765E+05         0.00000E+00
    0.00000E+00         0.00000E+00        -0.13966E+06
 
   -0.61140E+06         0.33435E+06         0.00000E+00
    0.33435E+06        -0.65798E+05         0.00000E+00
    0.00000E+00         0.00000E+00        -0.13544E+06
 
   -0.58546E+06         0.34311E+06         0.00000E+00
    0.34311E+06        -0.70847E+05         0.00000E+00
    0.00000E+00         0.00000E+00        -0.13126E+06
 
   -0.55974E+06         0.35111E+06         0.00000E+00
    0.35111E+06        -0.75900E+05         0.00000E+00
    0.00000E+00         0.00000E+00        -0.12713E+06
 
   -0.53431E+06         0.35839E+06         0.00000E+00
    0.35839E+06        -0.80946E+05         0.00000E+00
    0.00000E+00         0.00000E+00        -0.12305E+06
 
   -0.50918E+06         0.36498E+06         0.00000E+00
    0.36498E+06        -0.85977E+05         0.00000E+00
    0.00000E+00         0.00000E+00        -0.11903E+06
 
   -0.48441E+06         0.37090E+06         0.00000E+00
    0.37090E+06        -0.90986E+05         0.00000E+00
    0.00000E+00         0.00000E+00        -0.11508E+06
 
   -0.46002E+06         0.37619E+06         0.00000E+00
    0.37619E+06        -0.95966E+05         0.00000E+00
    0.00000E+00         0.00000E+00        -0.11120E+06
 
   -0.43606E+06         0.38088E+06         0.00000E+00
    0.38088E+06        -0.10091E+06         0.00000E+00
    0.00000E+00         0.00000E+00        -0.10739E+06
 
   -0.41255E+06         0.38499E+06         0.00000E+00
    0.38499E+06        -0.10582E+06         0.00000E+00
    0.00000E+00         0.00000E+00        -0.10367E+06
 
   -0.38952E+06         0.38855E+06         0.00000E+00
    0.38855E+06        -0.11068E+06         0.00000E+00
    0.00000E+00         0.00000E+00        -0.10004E+06
 
   -0.36700E+06         0.39159E+06         0.00000E+00
    0.39159E+06        -0.11550E+06         0.00000E+00
    0.00000E+00         0.00000E+00        -0.96500E+05
 
   -0.34502E+06         0.39413E+06         0.00000E+00
    0.39413E+06        -0.12027E+06         0.00000E+00
    0.00000E+00         0.00000E+00        -0.93057E+05
 
   -0.32360E+06         0.39620E+06         0.00000E+00
    0.39620E+06        -0.12498E+06         0.00000E+00
    0.00000E+00         0.00000E+00        -0.89716E+05
 
   -0.30277E+06         0.39782E+06         0.00000E+00
    0.39782E+06        -0.12964E+06         0.00000E+00
    0.00000E+00         0.00000E+00        -0.86482E+05
 
   -0.28255E+06         0.39903E+06         0.00000E+00
    0.39903E+06        -0.13424E+06         0.00000E+00
    0.00000E+00         0.00000E+00        -0.83358E+05
 
   -0.26297E+06         0.39984E+06         0.00000E+00
    0.39984E+06        -0.13878E+06         0.00000E+00
    0.00000E+00         0.00000E+00        -0.80349E+05
 
   -0.24405E+06         0.40028E+06         0.00000E+00
    0.40028E+06        -0.14324E+06         0.00000E+00
    0.00000E+00         0.00000E+00        -0.77459E+05
 
   -0.22581E+06         0.40038E+06         0.00000E+00
    0.40038E+06        -0.14764E+06         0.00000E+00
    0.00000E+00         0.00000E+00        -0.74690E+05
 
   -0.20827E+06         0.40017E+06         0.00000E+00
    0.40017E+06        -0.15196E+06         0.00000E+00
    0.00000E+00         0.00000E+00        -0.72046E+05
 
   -0.19146E+06         0.39966E+06         0.00000E+00
    0.39966E+06        -0.15619E+06         0.00000E+00
    0.00000E+00         0.00000E+00        -0.69531E+05
 
   -0.17540E+06         0.39889E+06         0.00000E+00
    0.39889E+06        -0.16034E+06         0.00000E+00
    0.00000E+00         0.00000E+00        -0.67147E+05
 
   -0.16010E+06         0.39789E+06         0.00000E+00
    0.39789E+06        -0.16439E+06         0.00000E+00
    0.00000E+00         0.00000E+00        -0.64898E+05
 
   -0.14559E+06         0.39668E+06         0.00000E+00
    0.39668E+06        -0.16834E+06         0.00000E+00
    0.00000E+00         0.00000E+00        -0.62786E+05
 
   -0.13188E+06         0.39530E+06         0.00000E+00
    0.39530E+06        -0.17218E+06         0.00000E+00
    0.00000E+00         0.00000E+00        -0.60813E+05
 
   -0.11900E+06         0.39378E+06         0.00000E+00
    0.39378E+06        -0.17591E+06         0.00000E+00
    0.00000E+00         0.00000E+00        -0.58981E+05
 
   -0.10695E+06         0.39216E+06         0.00000E+00
    0.39216E+06        -0.17952E+06         0.00000E+00
    0.00000E+00         0.00000E+00        -0.57293E+05
 
   -0.95761E+05         0.39047E+06         0.00000E+00
    0.39047E+06        -0.18299E+06         0.00000E+00
    0.00000E+00         0.00000E+00        -0.55751E+05
 
   -0.85440E+05         0.38876E+06         0.00000E+00
    0.38876E+06        -0.18633E+06         0.00000E+00
    0.00000E+00         0.00000E+00        -0.54354E+05
 
   -0.76000E+05         0.38705E+06         0.00000E+00
    0.38705E+06        -0.18953E+06         0.00000E+00
    0.00000E+00         0.00000E+00        -0.53106E+05
 
   -0.67450E+05         0.38541E+06         0.00000E+00
    0.38541E+06        -0.19258E+06         0.00000E+00
    0.00000E+00         0.00000E+00        -0.52007E+05
 
   -0.59796E+05         0.38386E+06         0.00000E+00
    0.38386E+06        -0.19549E+06         0.00000E+00
    0.00000E+00         0.00000E+00        -0.51057E+05
 
   -0.53044E+05         0.38247E+06         0.00000E+00
    0.38247E+06        -0.19824E+06         0.00000E+00
    0.00000E+00         0.00000E+00        -0.50257E+05
 
   -0.91810E+06         0.12999E+05         0.00000E+00
    0.12999E+05         0.17389E+03         0.00000E+00
    0.00000E+00         0.00000E+00        -0.18358E+06
 
   -0.90458E+06         0.36928E+05         0.00000E+00
    0.36928E+05        -0.51074E+03         0.00000E+00
    0.00000E+00         0.00000E+00        -0.18102E+06
 
   -0.88990E+06         0.59957E+05         0.00000E+00
    0.59957E+05        -0.17707E+04         0.00000E+00
    0.00000E+00         0.00000E+00        -0.17833E+06
 
   -0.87416E+06         0.82076E+05         0.00000E+00
    0.82076E+05        -0.35595E+04         0.00000E+00
    0.00000E+00         0.00000E+00        -0.17554E+06
 
   -0.85745E+06         0.10328E+06         0.00000E+00
    0.10328E+06        -0.58326E+04         0.00000E+00
    0.00000E+00         0.00000E+00        -0.17266E+06
 
   -0.83987E+06         0.12357E+06         0.00000E+00
    0.12357E+06        -0.85473E+04         0.00000E+00
    0.00000E+00         0.00000E+00        -0.16968E+06
 
   -0.82148E+06         0.14294E+06         0.00000E+00
    0.14294E+06        -0.11663E+05         0.00000E+00
    0.00000E+00         0.00000E+00        -0.16663E+06
 
   -0.80238E+06         0.16140E+06         0.00000E+00
    0.16140E+06        -0.15140E+05         0.00000E+00
    0.00000E+00         0.00000E+00        -0.16350E+06
 
   -0.78265E+06         0.17896E+06         0.00000E+00
    0.17896E+06        -0.18942E+05         0.00000E+00
    0.00000E+00         0.00000E+00        -0.16032E+06
 
   -0.76236E+06         0.19563E+06         0.00000E+00
    0.19563E+06        -0.23035E+05         0.00000E+00
    0.00000E+00         0.00000E+00        -0.15708E+06
 
   -0.74159E+06         0.21141E+06         0.00000E+00
    0.21141E+06        -0.27384E+05         0.00000E+00
    0.00000E+00         0.00000E+00        -0.15380E+06
 
   -0.72041E+06         0.22633E+06         0.00000E+00
    0.22633E+06        -0.31960E+05         0.00000E+00
    0.00000E+00         0.00000E+00        -0.15047E+06
 
   -0.69889E+06         0.24039E+06         0.00000E+00
    0.24039E+06        -0.36734E+05         0.00000E+00
    0.00000E+00         0.00000E+00        -0.14712E+06
 
   -0.67709E+06         0.25361E+06         0.00000E+00
    0.25361E+06        -0.41677E+05         0.00000E+00
    0.00000E+00         0.00000E+00        -0.14375E+06
 
   -0.65507E+06         0.26602E+06         0.00000E+00
    0.26602E+06        -0.46766E+05         0.00000E+00
    0.00000E+00         0.00000E+00        -0.14037E+06
 
   -0.63290E+06         0.27763E+06         0.00000E+00
    0.27763E+06        -0.51977E+05         0.00000E+00
    0.00000E+00         0.00000E+00        -0.13697E+06
 
   -0.61062E+06         0.28846E+06         0.00000E+00
    0.28846E+06        -0.57289E+05         0.00000E+00
    0.00000E+00         0.00000E+00        -0.13358E+06
 
   -0.58829E+06         0.29853E+06         0.00000E+00
    0.29853E+06        -0.62681E+05         0.00000E+00
    0.00000E+00         0.00000E+00        -0.13020E+06
 
   -0.56597E+06         0.30787E+06         0.00000E+00
    0.30787E+06        -0.68136E+05         0.00000E+00
    0.00000E+00         0.00000E+00        -0.12682E+06
 
   -0.54370E+06         0.31650E+06         0.00000E+00
    0.31650E+06        -0.73637E+05         0.00000E+00
    0.00000E+00         0.00000E+00        -0.12347E+06
 
   -0.52152E+06         0.32444E+06         0.00000E+00
    0.32444E+06        -0.79169E+05         0.00000E+00
    0.00000E+00         0.00000E+00        -0.12014E+06
 
   -0.49949E+06         0.33172E+06         0.00000E+00
    0.33172E+06        -0.84718E+05         0.00000E+00
    0.00000E+00         0.00000E+00        -0.11684E+06
 
   -0.47763E+06         0.33836E+06         0.00000E+00
    0.33836E+06        -0.90271E+05         0.00000E+00
    0.00000E+00         0.00000E+00        -0.11358E+06
 
   -0.45599E+06         0.34438E+06         0.00000E+00
    0.34438E+06        -0.95817E+05         0.00000E+00
    0.00000E+00         0.00000E+00        -0.11036E+06
 
   -0.43460E+06         0.34980E+06         0.00000E+00
    0.34980E+06        -0.10135E+06         0.00000E+00
    0.00000E+00         0.00000E+00        -0.10719E+06
 
   -0.41351E+06         0.35466E+06         0.00000E+00
    0.35466E+06        -0.10685E+06         0.00000E+00
    0.00000E+00         0.00000E+00        -0.10407E+06
 
   -0.39273E+06         0.35898E+06         0.00000E+00
    0.35898E+06        -0.11231E+06         0.00000E+00
    0.00000E+00         0.00000E+00        -0.10101E+06
 
   -0.37231E+06         0.36277E+06         0.00000E+00
    0.36277E+06        -0.11773E+06         0.00000E+00
    0.00000E+00         0.00000E+00        -0.98010E+05
 
   -0.35228E+06         0.36607E+06         0.00000E+00
    0.36607E+06        -0.12311E+06         0.00000E+00
    0.00000E+00         0.00000E+00        -0.95076E+05
 
   -0.33265E+06         0.36890E+06         0.00000E+00
    0.36890E+06        -0.12842E+06         0.00000E+00
    0.00000E+00         0.00000E+00        -0.92213E+05
 
   -0.31346E+06         0.37129E+06         0.00000E+00
    0.37129E+06        -0.13367E+06         0.00000E+00
    0.00000E+00         0.00000E+00        -0.89425E+05
 
   -0.29473E+06         0.37325E+06         0.00000E+00
    0.37325E+06        -0.13884E+06         0.00000E+00
    0.00000E+00         0.00000E+00        -0.86715E+05
 
   -0.27649E+06         0.37482E+06         0.00000E+00
    0.37482E+06        -0.14394E+06         0.00000E+00
    0.00000E+00         0.00000E+00        -0.84086E+05
 
   -0.25875E+06         0.37602E+06         0.00000E+00
    0.37602E+06        -0.14896E+06         0.00000E+00
    0.00000E+00         0.00000E+00        -0.81544E+05
 
   -0.24155E+06         0.37688E+06         0.00000E+00
    0.37688E+06        -0.15390E+06         0.00000E+00
    0.00000E+00         0.00000E+00        -0.79089E+05
 
   -0.22490E+06         0.37741E+06         0.00000E+00
    0.37741E+06        -0.15874E+06         0.00000E+00
    0.00000E+00         0.00000E+00        -0.76726E+05
 
   -0.20881E+06         0.37765E+06         0.00000E+00
    0.37765E+06        -0.16348E+06         0.00000E+00
    0.00000E+00         0.00000E+00        -0.74458E+05
 
   -0.19331E+06         0.37763E+06         0.00000E+00
    0.37763E+06        -0.16812E+06         0.00000E+00
    0.00000E+00         0.00000E+00        -0.72287E+05
 
   -0.17842E+06         0.37738E+06         0.00000E+00
    0.37738E+06        -0.17265E+06         0.00000E+00
    0.00000E+00         0.00000E+00        -0.70215E+05
 
   -0.16415E+06         0.37691E+06         0.00000E+00
    0.37691E+06        -0.17707E+06         0.00000E+00
    0.00000E+00         0.00000E+00        -0.68244E+05
 
   -0.15050E+06         0.37627E+06         0.00000E+00
    0.37627E+06        -0.18138E+06         0.00000E+00
    0.00000E+00         0.00000E+00        -0.66378E+05
 
   -0.13751E+06         0.37548E+06         0.00000E+00
    0.37548E+06        -0.18557E+06         0.00000E+00
    0.00000E+00         0.00000E+00        -0.64616E+05
 
   -0.12517E+06         0.37457E+06         0.00000E+00
    0.37457E+06        -0.18964E+06         0.00000E+00
    0.00000E+00         0.00000E+00        -0.62962E+05
 
   -0.11349E+06         0.37358E+06         0.00000E+00
    0.37358E+06        -0.19358E+06         0.00000E+00
    0.00000E+00         0.00000E+00        -0.61416E+05
 
   -0.10249E+06         0.37255E+06         0.00000E+00
    0.37255E+06        -0.19740E+06         0.00000E+00
    0.00000E+00         0.00000E+00        -0.59979E+05
 
   -0.92170E+05         0.37150E+06         0.00000E+00
    0.37150E+06        -0.20109E+06         0.00000E+00
    0.00000E+00         0.00000E+00        -0.58652E+05
 
   -0.82527E+05         0.37047E+06         0.00000E+00
    0.37047E+06        -0.20465E+06         0.00000E+00
    0.00000E+00         0.00000E+00        -0.57436E+05
 
   -0.73566E+05         0.36951E+06         0.00000E+00
    0.36951E+06        -0.20809E+06         0.00000E+00
    0.00000E+00         0.00000E+00        -0.56331E+05
 
   -0.65283E+05         0.36865E+06         0.00000E+00
    0.36865E+06        -0.21140E+06         0.00000E+00
    0.00000E+00         0.00000E+00        -0.55337E+05
 
   -0.57675E+05         0.36793E+06         0.00000E+00
    0.36793E+06        -0.21459E+06         0.00000E+00
    0.00000E+00         0.00000E+00        -0.54453E+05
 
   -0.80385E+06         0.11285E+05         0.00000E+00
    0.11285E+05         0.16438E+03         0.00000E+00
    0.00000E+00         0.00000E+00        -0.16074E+06
 
   -0.79424E+06         0.32305E+05         0.00000E+00
    0.32305E+05        -0.46456E+03         0.00000E+00
    0.00000E+00         0.00000E+00        -0.15894E+06
 
   -0.78355E+06         0.52638E+05         0.00000E+00
    0.52638E+05        -0.16347E+04         0.00000E+00
    0.00000E+00         0.00000E+00        -0.15704E+06
 
   -0.77186E+06         0.72268E+05         0.00000E+00
    0.72268E+05        -0.33081E+04         0.00000E+00
    0.00000E+00         0.00000E+00        -0.15503E+06
 
   -0.75922E+06         0.91183E+05         0.00000E+00
    0.91183E+05        -0.54480E+04         0.00000E+00
    0.00000E+00         0.00000E+00        -0.15293E+06
 
   -0.74573E+06         0.10937E+06         0.00000E+00
    0.10937E+06        -0.80186E+04         0.00000E+00
    0.00000E+00         0.00000E+00        -0.15075E+06
 
   -0.73145E+06         0.12683E+06         0.00000E+00
    0.12683E+06        -0.10985E+05         0.00000E+00
    0.00000E+00         0.00000E+00        -0.14849E+06
 
   -0.71644E+06         0.14356E+06         0.00000E+00
    0.14356E+06        -0.14315E+05         0.00000E+00
    0.00000E+00         0.00000E+00        -0.14615E+06
 
   -0.70079E+06         0.15955E+06         0.00000E+00
    0.15955E+06        -0.17976E+05         0.00000E+00
    0.00000E+00         0.00000E+00        -0.14375E+06
 
   -0.68455E+06         0.17480E+06         0.00000E+00
    0.17480E+06        -0.21937E+05         0.00000E+00
    0.00000E+00         0.00000E+00        -0.14130E+06
 
   -0.66778E+06         0.18933E+06         0.00000E+00
    0.18933E+06        -0.26169E+05         0.00000E+00
    0.00000E+00         0.00000E+00        -0.13879E+06
 
   -0.65055E+06         0.20313E+06         0.00000E+00
    0.20313E+06        -0.30645E+05         0.00000E+00
    0.00000E+00         0.00000E+00        -0.13624E+06
 
   -0.63292E+06         0.21621E+06         0.00000E+00
    0.21621E+06        -0.35336E+05         0.00000E+00
    0.00000E+00         0.00000E+00        -0.13365E+06
 
   -0.61494E+06         0.22858E+06         0.00000E+00
    0.22858E+06        -0.40220E+05         0.00000E+00
    0.00000E+00         0.00000E+00        -0.13103E+06
 
   -0.59667E+06         0.24026E+06         0.00000E+00
    0.24026E+06        -0.45270E+05         0.00000E+00
    0.00000E+00         0.00000E+00        -0.12839E+06
 
   -0.57816E+06         0.25124E+06         0.00000E+00
    0.25124E+06        -0.50466E+05         0.00000E+00
    0.00000E+00         0.00000E+00        -0.12573E+06
 
   -0.55947E+06         0.26155E+06         0.00000E+00
    0.26155E+06        -0.55786E+05         0.00000E+00
    0.00000E+00         0.00000E+00        -0.12305E+06
 
   -0.54063E+06         0.27121E+06         0.00000E+00
    0.27121E+06        -0.61210E+05         0.00000E+00
    0.00000E+00         0.00000E+00        -0.12037E+06
 
   -0.52170E+06         0.28021E+06         0.00000E+00
    0.28021E+06        -0.66719E+05         0.00000E+00
    0.00000E+00         0.00000E+00        -0.11768E+06
 
   -0.50273E+06         0.28859E+06         0.00000E+00
    0.28859E+06        -0.72295E+05         0.00000E+00
    0.00000E+00         0.00000E+00        -0.11500E+06
 
   -0.48375E+06         0.29636E+06         0.00000E+00
    0.29636E+06        -0.77924E+05         0.00000E+00
    0.00000E+00         0.00000E+00        -0.11233E+06
 
   -0.46480E+06         0.30353E+06         0.00000E+00
    0.30353E+06        -0.83588E+05         0.00000E+00
    0.00000E+00         0.00000E+00        -0.10968E+06
 
   -0.44593E+06         0.31013E+06         0.00000E+00
    0.31013E+06        -0.89274E+05         0.00000E+00
    0.00000E+00         0.00000E+00        -0.10704E+06
 
   -0.42717E+06         0.31618E+06         0.00000E+00
    0.31618E+06        -0.94969E+05         0.00000E+00
    0.00000E+00         0.00000E+00        -0.10443E+06
 
   -0.40855E+06         0.32168E+06         0.00000E+00
    0.32168E+06        -0.10066E+06         0.00000E+00
    0.00000E+00         0.00000E+00        -0.10184E+06
 
   -0.39011E+06         0.32667E+06         0.00000E+00
    0.32667E+06        -0.10634E+06         0.00000E+00
    0.00000E+00         0.00000E+00        -0.99289E+05
 
   -0.37188E+06         0.33116E+06         0.00000E+00
    0.33116E+06        -0.11199E+06         0.00000E+00
    0.00000E+00         0.00000E+00        -0.96774E+05
 
   -0.35389E+06         0.33518E+06         0.00000E+00
    0.33518E+06        -0.11760E+06         0.00000E+00
    0.00000E+00         0.00000E+00        -0.94298E+05
 
   -0.33616E+06         0.33874E+06         0.00000E+00
    0.33874E+06        -0.12317E+06         0.00000E+00
    0.00000E+00         0.00000E+00        -0.91868E+05
 
   -0.31873E+06         0.34187E+06         0.00000E+00
    0.34187E+06        -0.12869E+06         0.00000E+00
    0.00000E+00         0.00000E+00        -0.89485E+05
 
   -0.30162E+06         0.34460E+06         0.00000E+00
    0.34460E+06        -0.13415E+06         0.00000E+00
    0.00000E+00         0.00000E+00        -0.87155E+05
 
   -0.28486E+06         0.34693E+06         0.00000E+00
    0.34693E+06        -0.13954E+06         0.00000E+00
    0.00000E+00         0.00000E+00        -0.84879E+05
 
   -0.26845E+06         0.34890E+06         0.00000E+00
    0.34890E+06        -0.14485E+06         0.00000E+00
    0.00000E+00         0.00000E+00        -0.82661E+05
 
   -0.25244E+06         0.35052E+06         0.00000E+00
    0.35052E+06        -0.15008E+06         0.00000E+00
    0.00000E+00         0.00000E+00        -0.80503E+05
 
   -0.23682E+06         0.35183E+06         0.00000E+00
    0.35183E+06        -0.15522E+06         0.00000E+00
    0.00000E+00         0.00000E+00        -0.78410E+05
 
   -0.22163E+06         0.35284E+06         0.00000E+00
    0.35284E+06        -0.16028E+06         0.00000E+00
    0.00000E+00         0.00000E+00        -0.76382E+05
 
   -0.20688E+06         0.35359E+06         0.00000E+00
    0.35359E+06        -0.16523E+06         0.00000E+00
    0.00000E+00         0.00000E+00        -0.74423E+05
 
   -0.19258E+06         0.35409E+06         0.00000E+00
    0.35409E+06        -0.17008E+06         0.00000E+00
    0.00000E+00         0.00000E+00        -0.72534E+05
 
   -0.17875E+06         0.35438E+06         0.00000E+00
    0.35438E+06        -0.17483E+06         0.00000E+00
    0.00000E+00         0.00000E+00        -0.70718E+05
 
   -0.16540E+06         0.35447E+06         0.00000E+00
    0.35447E+06        -0.17947E+06         0.00000E+00
    0.00000E+00         0.00000E+00        -0.68975E+05
 
   -0.15254E+06         0.35440E+06         0.00000E+00
    0.35440E+06        -0.18401E+06         0.00000E+00
    0.00000E+00         0.00000E+00        -0.67308E+05
 
   -0.14017E+06         0.35420E+06         0.00000E+00
    0.35420E+06        -0.18842E+06         0.00000E+00
    0.00000E+00         0.00000E+00        -0.65719E+05
 
   -0.12830E+06         0.35389E+06         0.00000E+00
    0.35389E+06        -0.19273E+06         0.00000E+00
    0.00000E+00         0.00000E+00        -0.64207E+05
 
   -0.11695E+06         0.35350E+06         0.00000E+00
    0.35350E+06        -0.19692E+06         0.00000E+00
    0.00000E+00         0.00000E+00        -0.62774E+05
 
   -0.10610E+06         0.35306E+06         0.00000E+00
    0.35306E+06        -0.20100E+06         0.00000E+00
    0.00000E+00         0.00000E+00        -0.61420E+05
 
   -0.95763E+05         0.35261E+06         0.00000E+00
    0.35261E+06        -0.20497E+06         0.00000E+00
    0.00000E+00         0.00000E+00        -0.60147E+05
 
   -0.85934E+05         0.35216E+06         0.00000E+00
    0.35216E+06        -0.20883E+06         0.00000E+00
    0.00000E+00         0.00000E+00        -0.58953E+05
 
   -0.76609E+05         0.35177E+06         0.00000E+00
    0.35177E+06        -0.21259E+06         0.00000E+00
    0.00000E+00         0.00000E+00        -0.57840E+05
 
   -0.67782E+05         0.35145E+06         0.00000E+00
    0.35145E+06        -0.21625E+06         0.00000E+00
    0.00000E+00         0.00000E+00        -0.56805E+05
 
   -0.59442E+05         0.35124E+06         0.00000E+00
    0.35124E+06        -0.21981E+06         0.00000E+00
    0.00000E+00         0.00000E+00        -0.55850E+05
 
   -0.70408E+06         0.97389E+04         0.00000E+00
    0.97389E+04         0.15081E+03         0.00000E+00
    0.00000E+00         0.00000E+00        -0.14079E+06
 
   -0.69742E+06         0.28078E+05         0.00000E+00
    0.28078E+05        -0.41289E+03         0.00000E+00
    0.00000E+00         0.00000E+00        -0.13957E+06
 
   -0.68977E+06         0.45902E+05         0.00000E+00
    0.45902E+05        -0.14712E+04         0.00000E+00
    0.00000E+00         0.00000E+00        -0.13825E+06
 
   -0.68119E+06         0.63191E+05         0.00000E+00
    0.63191E+05        -0.29936E+04         0.00000E+00
    0.00000E+00         0.00000E+00        -0.13684E+06
 
   -0.67174E+06         0.79929E+05         0.00000E+00
    0.79929E+05        -0.49503E+04         0.00000E+00
    0.00000E+00         0.00000E+00        -0.13534E+06
 
   -0.66148E+06         0.96103E+05         0.00000E+00
    0.96103E+05        -0.73120E+04         0.00000E+00
    0.00000E+00         0.00000E+00        -0.13376E+06
 
   -0.65047E+06         0.11170E+06         0.00000E+00
    0.11170E+06        -0.10050E+05         0.00000E+00
    0.00000E+00         0.00000E+00        -0.13210E+06
 
   -0.63877E+06         0.12671E+06         0.00000E+00
    0.12671E+06        -0.13136E+05         0.00000E+00
    0.00000E+00         0.00000E+00        -0.13038E+06
 
   -0.62642E+06         0.14114E+06         0.00000E+00
    0.14114E+06        -0.16544E+05         0.00000E+00
    0.00000E+00         0.00000E+00        -0.12859E+06
 
   -0.61349E+06         0.15497E+06         0.00000E+00
    0.15497E+06        -0.20247E+05         0.00000E+00
    0.00000E+00         0.00000E+00        -0.12675E+06
 
   -0.60003E+06         0.16820E+06         0.00000E+00
    0.16820E+06        -0.24219E+05         0.00000E+00
    0.00000E+00         0.00000E+00        -0.12485E+06
 
   -0.58609E+06         0.18083E+06         0.00000E+00
    0.18083E+06        -0.28437E+05         0.00000E+00
    0.00000E+00         0.00000E+00        -0.12290E+06
 
   -0.57172E+06         0.19287E+06         0.00000E+00
    0.19287E+06        -0.32876E+05         0.00000E+00
    0.00000E+00         0.00000E+00        -0.12092E+06
 
   -0.55697E+06         0.20432E+06         0.00000E+00
    0.20432E+06        -0.37514E+05         0.00000E+00
    0.00000E+00         0.00000E+00        -0.11890E+06
 
   -0.54189E+06         0.21518E+06         0.00000E+00
    0.21518E+06        -0.42328E+05         0.00000E+00
    0.00000E+00         0.00000E+00        -0.11684E+06
 
   -0.52652E+06         0.22546E+06         0.00000E+00
    0.22546E+06        -0.47300E+05         0.00000E+00
    0.00000E+00         0.00000E+00        -0.11476E+06
 
   -0.51091E+06         0.23516E+06         0.00000E+00
    0.23516E+06        -0.52407E+05         0.00000E+00
    0.00000E+00         0.00000E+00        -0.11266E+06
 
   -0.49511E+06         0.24430E+06         0.00000E+00
    0.24430E+06        -0.57633E+05         0.00000E+00
    0.00000E+00         0.00000E+00        -0.11055E+06
 
   -0.47914E+06         0.25288E+06         0.00000E+00
    0.25288E+06        -0.62958E+05         0.00000E+00
    0.00000E+00         0.00000E+00        -0.10842E+06
 
   -0.46306E+06         0.26092E+06         0.00000E+00
    0.26092E+06        -0.68366E+05         0.00000E+00
    0.00000E+00         0.00000E+00        -0.10628E+06
 
   -0.44690E+06         0.26843E+06         0.00000E+00
    0.26843E+06        -0.73841E+05         0.00000E+00
    0.00000E+00         0.00000E+00        -0.10415E+06
 
   -0.43069E+06         0.27542E+06         0.00000E+00
    0.27542E+06        -0.79367E+05         0.00000E+00
    0.00000E+00         0.00000E+00        -0.10201E+06
 
   -0.41448E+06         0.28190E+06         0.00000E+00
    0.28190E+06        -0.84930E+05         0.00000E+00
    0.00000E+00         0.00000E+00        -0.99881E+05
 
   -0.39829E+06         0.28789E+06         0.00000E+00
    0.28789E+06        -0.90517E+05         0.00000E+00
    0.00000E+00         0.00000E+00        -0.97761E+05
 
   -0.38215E+06         0.29341E+06         0.00000E+00
    0.29341E+06        -0.96115E+05         0.00000E+00
    0.00000E+00         0.00000E+00        -0.95653E+05
 
   -0.36611E+06         0.29846E+06         0.00000E+00
    0.29846E+06        -0.10171E+06         0.00000E+00
    0.00000E+00         0.00000E+00        -0.93564E+05
 
   -0.35018E+06         0.30307E+06         0.00000E+00
    0.30307E+06        -0.10730E+06         0.00000E+00
    0.00000E+00         0.00000E+00        -0.91494E+05
 
   -0.33439E+06         0.30726E+06         0.00000E+00
    0.30726E+06        -0.11286E+06         0.00000E+00
    0.00000E+00         0.00000E+00        -0.89449E+05
 
   -0.31877E+06         0.31104E+06         0.00000E+00
    0.31104E+06        -0.11839E+06         0.00000E+00
    0.00000E+00         0.00000E+00        -0.87431E+05
 
   -0.30334E+06         0.31443E+06         0.00000E+00
    0.31443E+06        -0.12388E+06         0.00000E+00
    0.00000E+00         0.00000E+00        -0.85444E+05
 
   -0.28813E+06         0.31744E+06         0.00000E+00
    0.31744E+06        -0.12931E+06         0.00000E+00
    0.00000E+00         0.00000E+00        -0.83489E+05
 
   -0.27316E+06         0.32011E+06         0.00000E+00
    0.32011E+06        -0.13470E+06         0.00000E+00
    0.00000E+00         0.00000E+00        -0.81571E+05
 
   -0.25844E+06         0.32244E+06         0.00000E+00
    0.32244E+06        -0.14001E+06         0.00000E+00
    0.00000E+00         0.00000E+00        -0.79691E+05
 
   -0.24400E+06         0.32447E+06         0.00000E+00
    0.32447E+06        -0.14526E+06         0.00000E+00
    0.00000E+00         0.00000E+00        -0.77852E+05
 
   -0.22985E+06         0.32620E+06         0.00000E+00
    0.32620E+06        -0.15043E+06         0.00000E+00
    0.00000E+00         0.00000E+00        -0.76056E+05
 
   -0.21600E+06         0.32766E+06         0.00000E+00
    0.32766E+06        -0.15552E+06         0.00000E+00
    0.00000E+00         0.00000E+00        -0.74305E+05
 
   -0.20248E+06         0.32888E+06         0.00000E+00
    0.32888E+06        -0.16052E+06         0.00000E+00
    0.00000E+00         0.00000E+00        -0.72601E+05
 
   -0.18929E+06         0.32987E+06         0.00000E+00
    0.32987E+06        -0.16544E+06         0.00000E+00
    0.00000E+00         0.00000E+00        -0.70946E+05
 
   -0.17645E+06         0.33065E+06         0.00000E+00
    0.33065E+06        -0.17026E+06         0.00000E+00
    0.00000E+00         0.00000E+00        -0.69341E+05
 
   -0.16395E+06         0.33126E+06         0.00000E+00
    0.33126E+06        -0.17499E+06         0.00000E+00
    0.00000E+00         0.00000E+00        -0.67788E+05
 
   -0.15182E+06         0.33171E+06         0.00000E+00
    0.33171E+06        -0.17962E+06         0.00000E+00
    0.00000E+00         0.00000E+00        -0.66288E+05
 
   -0.14006E+06         0.33203E+06         0.00000E+00
    0.33203E+06        -0.18415E+06         0.00000E+00
    0.00000E+00         0.00000E+00        -0.64841E+05
 
   -0.12866E+06         0.33224E+06         0.00000E+00
    0.33224E+06        -0.18859E+06         0.00000E+00
    0.00000E+00         0.00000E+00        -0.63449E+05
 
   -0.11763E+06         0.33237E+06         0.00000E+00
    0.33237E+06        -0.19293E+06         0.00000E+00
    0.00000E+00         0.00000E+00        -0.62112E+05
 
   -0.10698E+06         0.33245E+06         0.00000E+00
    0.33245E+06        -0.19718E+06         0.00000E+00
    0.00000E+00         0.00000E+00        -0.60831E+05
 
   -0.96690E+05         0.33249E+06         0.00000E+00
    0.33249E+06        -0.20133E+06         0.00000E+00
    0.00000E+00         0.00000E+00        -0.59605E+05
 
   -0.86769E+05         0.33252E+06         0.00000E+00
    0.33252E+06        -0.20540E+06         0.00000E+00
    0.00000E+00         0.00000E+00        -0.58434E+05
 
   -0.77206E+05         0.33257E+06         0.00000E+00
    0.33257E+06        -0.20939E+06         0.00000E+00
    0.00000E+00         0.00000E+00        -0.57319E+05
 
   -0.67992E+05         0.33267E+06         0.00000E+00
    0.33267E+06        -0.21330E+06         0.00000E+00
    0.00000E+00         0.00000E+00        -0.56259E+05
 
   -0.59117E+05         0.33284E+06         0.00000E+00
    0.33284E+06        -0.21714E+06         0.00000E+00
    0.00000E+00         0.00000E+00        -0.55252E+05
 
   -0.61744E+06         0.83729E+04         0.00000E+00
    0.83729E+04         0.13533E+03         0.00000E+00
    0.00000E+00         0.00000E+00        -0.12346E+06
 
   -0.61296E+06         0.24300E+05         0.00000E+00
    0.24300E+05        -0.36045E+03         0.00000E+00
    0.00000E+00         0.00000E+00        -0.12266E+06
 
   -0.60758E+06         0.39848E+05         0.00000E+00
    0.39848E+05        -0.12985E+04         0.00000E+00
    0.00000E+00         0.00000E+00        -0.12178E+06
 
   -0.60138E+06         0.54996E+05         0.00000E+00
    0.54996E+05        -0.26550E+04         0.00000E+00
    0.00000E+00         0.00000E+00        -0.12081E+06
 
   -0.59438E+06         0.69725E+05         0.00000E+00
    0.69725E+05        -0.44060E+04         0.00000E+00
    0.00000E+00         0.00000E+00        -0.11976E+06
 
   -0.58663E+06         0.84020E+05         0.00000E+00
    0.84020E+05        -0.65278E+04         0.00000E+00
    0.00000E+00         0.00000E+00        -0.11863E+06
 
   -0.57820E+06         0.97868E+05         0.00000E+00
    0.97868E+05        -0.89973E+04         0.00000E+00
    0.00000E+00         0.00000E+00        -0.11744E+06
 
   -0.56911E+06         0.11126E+06         0.00000E+00
    0.11126E+06        -0.11791E+05         0.00000E+00
    0.00000E+00         0.00000E+00        -0.11618E+06
 
   -0.55942E+06         0.12418E+06         0.00000E+00
    0.12418E+06        -0.14887E+05         0.00000E+00
    0.00000E+00         0.00000E+00        -0.11486E+06
 
   -0.54916E+06         0.13662E+06         0.00000E+00
    0.13662E+06        -0.18264E+05         0.00000E+00
    0.00000E+00         0.00000E+00        -0.11349E+06
 
   -0.53840E+06         0.14859E+06         0.00000E+00
    0.14859E+06        -0.21898E+05         0.00000E+00
    0.00000E+00         0.00000E+00        -0.11206E+06
 
   -0.52716E+06         0.16007E+06         0.00000E+00
    0.16007E+06        -0.25770E+05         0.00000E+00
    0.00000E+00         0.00000E+00        -0.11059E+06
 
   -0.51548E+06         0.17106E+06         0.00000E+00
    0.17106E+06        -0.29859E+05         0.00000E+00
    0.00000E+00         0.00000E+00        -0.10907E+06
 
   -0.50342E+06         0.18156E+06         0.00000E+00
    0.18156E+06        -0.34145E+05         0.00000E+00
    0.00000E+00         0.00000E+00        -0.10751E+06
 
   -0.49102E+06         0.19158E+06         0.00000E+00
    0.19158E+06        -0.38608E+05         0.00000E+00
    0.00000E+00         0.00000E+00        -0.10592E+06
 
   -0.47830E+06         0.20111E+06         0.00000E+00
    0.20111E+06        -0.43232E+05         0.00000E+00
    0.00000E+00         0.00000E+00        -0.10431E+06
 
   -0.46531E+06         0.21016E+06         0.00000E+00
    0.21016E+06        -0.47997E+05         0.00000E+00
    0.00000E+00         0.00000E+00        -0.10266E+06
 
   -0.45208E+06         0.21873E+06         0.00000E+00
    0.21873E+06        -0.52886E+05         0.00000E+00
    0.00000E+00         0.00000E+00        -0.10099E+06
 
   -0.43866E+06         0.22683E+06         0.00000E+00
    0.22683E+06        -0.57884E+05         0.00000E+00
    0.00000E+00         0.00000E+00        -0.99308E+05
 
   -0.42507E+06         0.23447E+06         0.00000E+00
    0.23447E+06        -0.62974E+05         0.00000E+00
    0.00000E+00         0.00000E+00        -0.97608E+05
 
   -0.41134E+06         0.24165E+06         0.00000E+00
    0.24165E+06        -0.68142E+05         0.00000E+00
    0.00000E+00         0.00000E+00        -0.95897E+05
 
   -0.39752E+06         0.24839E+06         0.00000E+00
    0.24839E+06        -0.73372E+05         0.00000E+00
    0.00000E+00         0.00000E+00        -0.94179E+05
 
   -0.38363E+06         0.25468E+06         0.00000E+00
    0.25468E+06        -0.78652E+05         0.00000E+00
    0.00000E+00         0.00000E+00        -0.92456E+05
 
   -0.36970E+06         0.26055E+06         0.00000E+00
    0.26055E+06        -0.83969E+05         0.00000E+00
    0.00000E+00         0.00000E+00        -0.90733E+05
 
   -0.35575E+06         0.26601E+06         0.00000E+00
    0.26601E+06        -0.89310E+05         0.00000E+00
    0.00000E+00         0.00000E+00        -0.89013E+05
 
   -0.34182E+06         0.27106E+06         0.00000E+00
    0.27106E+06        -0.94664E+05         0.00000E+00
    0.00000E+00         0.00000E+00        -0.87298E+05
 
   -0.32794E+06         0.27572E+06         0.00000E+00
    0.27572E+06        -0.10002E+06         0.00000E+00
    0.00000E+00         0.00000E+00        -0.85591E+05
 
   -0.31411E+06         0.28001E+06         0.00000E+00
    0.28001E+06        -0.10537E+06         0.00000E+00
    0.00000E+00         0.00000E+00        -0.83896E+05
 
   -0.30037E+06         0.28393E+06         0.00000E+00
    0.28393E+06        -0.11070E+06         0.00000E+00
    0.00000E+00         0.00000E+00        -0.82214E+05
 
   -0.28674E+06         0.28751E+06         0.00000E+00
    0.28751E+06        -0.11600E+06         0.00000E+00
    0.00000E+00         0.00000E+00        -0.80549E+05
 
   -0.27324E+06         0.29076E+06         0.00000E+00
    0.29076E+06        -0.12127E+06         0.00000E+00
    0.00000E+00         0.00000E+00        -0.78903E+05
 
   -0.25989E+06         0.29369E+06         0.00000E+00
    0.29369E+06        -0.12650E+06         0.00000E+00
    0.00000E+00         0.00000E+00        -0.77277E+05
 
   -0.24670E+06         0.29632E+06         0.00000E+00
    0.29632E+06        -0.13168E+06         0.00000E+00
    0.00000E+00         0.00000E+00        -0.75675E+05
 
   -0.23369E+06         0.29867E+06         0.00000E+00
    0.29867E+06        -0.13680E+06         0.00000E+00
    0.00000E+00         0.00000E+00        -0.74098E+05
 
   -0.22088E+06         0.30075E+06         0.00000E+00
    0.30075E+06        -0.14186E+06         0.00000E+00
    0.00000E+00         0.00000E+00        -0.72548E+05
 
   -0.20827E+06         0.30259E+06         0.00000E+00
    0.30259E+06        -0.14686E+06         0.00000E+00
    0.00000E+00         0.00000E+00        -0.71027E+05
 
   -0.19589E+06         0.30421E+06         0.00000E+00
    0.30421E+06        -0.15179E+06         0.00000E+00
    0.00000E+00         0.00000E+00        -0.69535E+05
 
   -0.18373E+06         0.30561E+06         0.00000E+00
    0.30561E+06        -0.15665E+06         0.00000E+00
    0.00000E+00         0.00000E+00        -0.68076E+05
 
   -0.17181E+06         0.30682E+06         0.00000E+00
    0.30682E+06        -0.16143E+06         0.00000E+00
    0.00000E+00         0.00000E+00        -0.66649E+05
 
   -0.16014E+06         0.30786E+06         0.00000E+00
    0.30786E+06        -0.16613E+06         0.00000E+00
    0.00000E+00         0.00000E+00        -0.65255E+05
 
   -0.14872E+06         0.30875E+06         0.00000E+00
    0.30875E+06        -0.17076E+06         0.00000E+00
    0.00000E+00         0.00000E+00        -0.63897E+05
 
   -0.13756E+06         0.30950E+06         0.00000E+00
    0.30950E+06        -0.17531E+06         0.00000E+00
    0.00000E+00         0.00000E+00        -0.62573E+05
 
   -0.12665E+06         0.31015E+06         0.00000E+00
    0.31015E+06        -0.17978E+06         0.00000E+00
    0.00000E+00         0.00000E+00        -0.61286E+05
 
   -0.11600E+06         0.31070E+06         0.00000E+00
    0.31070E+06        -0.18417E+06         0.00000E+00
    0.00000E+00         0.00000E+00        -0.60035E+05
 
   -0.10561E+06         0.31118E+06         0.00000E+00
    0.31118E+06        -0.18849E+06         0.00000E+00
    0.00000E+00         0.00000E+00        -0.58820E+05
 
   -0.95471E+05         0.31162E+06         0.00000E+00
    0.31162E+06        -0.19274E+06         0.00000E+00
    0.00000E+00         0.00000E+00        -0.57642E+05
 
   -0.85580E+05         0.31202E+06         0.00000E+00
    0.31202E+06        -0.19692E+06         0.00000E+00
    0.00000E+00         0.00000E+00        -0.56501E+05
 
   -0.75932E+05         0.31241E+06         0.00000E+00
    0.31241E+06        -0.20104E+06         0.00000E+00
    0.00000E+00         0.00000E+00        -0.55395E+05
 
   -0.66516E+05         0.31282E+06         0.00000E+00
    0.31282E+06        -0.20511E+06         0.00000E+00
    0.00000E+00         0.00000E+00        -0.54325E+05
 
   -0.57323E+05         0.31326E+06         0.00000E+00
    0.31326E+06        -0.20912E+06         0.00000E+00
    0.00000E+00         0.00000E+00        -0.53290E+05
 
   -0.54246E+06         0.71852E+04         0.00000E+00
    0.71852E+04         0.11943E+03         0.00000E+00
    0.00000E+00         0.00000E+00        -0.10847E+06
 
   -0.53955E+06         0.20982E+05         0.00000E+00
    0.20982E+05        -0.31034E+03         0.00000E+00
    0.00000E+00         0.00000E+00        -0.10797E+06
 
   -0.53585E+06         0.34504E+05         0.00000E+00
    0.34504E+05        -0.11293E+04         0.00000E+00
    0.00000E+00         0.00000E+00        -0.10740E+06
 
   -0.53142E+06         0.47732E+05         0.00000E+00
    0.47732E+05        -0.23188E+04         0.00000E+00
    0.00000E+00         0.00000E+00        -0.10675E+06
 
   -0.52628E+06         0.60648E+05         0.00000E+00
    0.60648E+05        -0.38604E+04         0.00000E+00
    0.00000E+00         0.00000E+00        -0.10603E+06
 
   -0.52047E+06         0.73234E+05         0.00000E+00
    0.73234E+05        -0.57351E+04         0.00000E+00
    0.00000E+00         0.00000E+00        -0.10524E+06
 
   -0.51403E+06         0.85477E+05         0.00000E+00
    0.85477E+05        -0.79244E+04         0.00000E+00
    0.00000E+00         0.00000E+00        -0.10439E+06
 
   -0.50700E+06         0.97364E+05         0.00000E+00
    0.97364E+05        -0.10410E+05         0.00000E+00
    0.00000E+00         0.00000E+00        -0.10348E+06
 
   -0.49941E+06         0.10888E+06         0.00000E+00
    0.10888E+06        -0.13172E+05         0.00000E+00
    0.00000E+00         0.00000E+00        -0.10252E+06
 
   -0.49129E+06         0.12003E+06         0.00000E+00
    0.12003E+06        -0.16195E+05         0.00000E+00
    0.00000E+00         0.00000E+00        -0.10150E+06
 
   -0.48269E+06         0.13079E+06         0.00000E+00
    0.13079E+06        -0.19458E+05         0.00000E+00
    0.00000E+00         0.00000E+00        -0.10043E+06
 
   -0.47364E+06         0.14116E+06         0.00000E+00
    0.14116E+06        -0.22945E+05         0.00000E+00
    0.00000E+00         0.00000E+00        -0.99318E+05
 
   -0.46418E+06         0.15114E+06         0.00000E+00
    0.15114E+06        -0.26639E+05         0.00000E+00
    0.00000E+00         0.00000E+00        -0.98163E+05
 
   -0.45433E+06         0.16071E+06         0.00000E+00
    0.16071E+06        -0.30523E+05         0.00000E+00
    0.00000E+00         0.00000E+00        -0.96970E+05
 
   -0.44413E+06         0.16989E+06         0.00000E+00
    0.16989E+06        -0.34579E+05         0.00000E+00
    0.00000E+00         0.00000E+00        -0.95742E+05
 
   -0.43362E+06         0.17867E+06         0.00000E+00
    0.17867E+06        -0.38793E+05         0.00000E+00
    0.00000E+00         0.00000E+00        -0.94482E+05
 
   -0.42282E+06         0.18705E+06         0.00000E+00
    0.18705E+06        -0.43147E+05         0.00000E+00
    0.00000E+00         0.00000E+00        -0.93193E+05
 
   -0.41176E+06         0.19503E+06         0.00000E+00
    0.19503E+06        -0.47629E+05         0.00000E+00
    0.00000E+00         0.00000E+00        -0.91879E+05
 
   -0.40049E+06         0.20262E+06         0.00000E+00
    0.20262E+06        -0.52222E+05         0.00000E+00
    0.00000E+00         0.00000E+00        -0.90542E+05
 
   -0.38902E+06         0.20981E+06         0.00000E+00
    0.20981E+06        -0.56913E+05         0.00000E+00
    0.00000E+00         0.00000E+00        -0.89186E+05
 
   -0.37738E+06         0.21662E+06         0.00000E+00
    0.21662E+06        -0.61688E+05         0.00000E+00
    0.00000E+00         0.00000E+00        -0.87813E+05
 
   -0.36560E+06         0.22305E+06         0.00000E+00
    0.22305E+06        -0.66535E+05         0.00000E+00
    0.00000E+00         0.00000E+00        -0.86427E+05
 
   -0.35371E+06         0.22910E+06         0.00000E+00
    0.22910E+06        -0.71441E+05         0.00000E+00
    0.00000E+00         0.00000E+00        -0.85030E+05
 
   -0.34173E+06         0.23479E+06         0.00000E+00
    0.23479E+06        -0.76393E+05         0.00000E+00
    0.00000E+00         0.00000E+00        -0.83625E+05
 
   -0.32969E+06         0.24012E+06         0.00000E+00
    0.24012E+06        -0.81382E+05         0.00000E+00
    0.00000E+00         0.00000E+00        -0.82215E+05
 
   -0.31761E+06         0.24510E+06         0.00000E+00
    0.24510E+06        -0.86396E+05         0.00000E+00
    0.00000E+00         0.00000E+00        -0.80801E+05
 
   -0.30551E+06         0.24974E+06         0.00000E+00
    0.24974E+06        -0.91426E+05         0.00000E+00
    0.00000E+00         0.00000E+00        -0.79387E+05
 
   -0.29341E+06         0.25406E+06         0.00000E+00
    0.25406E+06        -0.96461E+05         0.00000E+00
    0.00000E+00         0.00000E+00        -0.77975E+05
 
   -0.28134E+06         0.25805E+06         0.00000E+00
    0.25805E+06        -0.10149E+06         0.00000E+00
    0.00000E+00         0.00000E+00        -0.76566E+05
 
   -0.26930E+06         0.26174E+06         0.00000E+00
    0.26174E+06        -0.10651E+06         0.00000E+00
    0.00000E+00         0.00000E+00        -0.75164E+05
 
   -0.25733E+06         0.26514E+06         0.00000E+00
    0.26514E+06        -0.11152E+06         0.00000E+00
    0.00000E+00         0.00000E+00        -0.73769E+05
 
   -0.24542E+06         0.26825E+06         0.00000E+00
    0.26825E+06        -0.11649E+06         0.00000E+00
    0.00000E+00         0.00000E+00        -0.72384E+05
 
   -0.23361E+06         0.27110E+06         0.00000E+00
    0.27110E+06        -0.12144E+06         0.00000E+00
    0.00000E+00         0.00000E+00        -0.71010E+05
 
   -0.22190E+06         0.27370E+06         0.00000E+00
    0.27370E+06        -0.12634E+06         0.00000E+00
    0.00000E+00         0.00000E+00        -0.69649E+05
 
   -0.21031E+06         0.27605E+06         0.00000E+00
    0.27605E+06        -0.13121E+06         0.00000E+00
    0.00000E+00         0.00000E+00        -0.68303E+05
 
   -0.19884E+06         0.27818E+06         0.00000E+00
    0.27818E+06        -0.13602E+06         0.00000E+00
    0.00000E+00         0.00000E+00        -0.66972E+05
 
   -0.18751E+06         0.28010E+06         0.00000E+00
    0.28010E+06        -0.14079E+06         0.00000E+00
    0.00000E+00         0.00000E+00        -0.65659E+05
 
   -0.17632E+06         0.28182E+06         0.00000E+00
    0.28182E+06        -0.14550E+06         0.00000E+00
    0.00000E+00         0.00000E+00        -0.64364E+05
 
   -0.16528E+06         0.28337E+06         0.00000E+00
    0.28337E+06        -0.15015E+06         0.00000E+00
    0.00000E+00         0.00000E+00        -0.63088E+05
 
   -0.15441E+06         0.28474E+06         0.00000E+00
    0.28474E+06        -0.15475E+06         0.00000E+00
    0.00000E+00         0.00000E+00        -0.61832E+05
 
   -0.14369E+06         0.28597E+06         0.00000E+00
    0.28597E+06        -0.15929E+06         0.00000E+00
    0.00000E+00         0.00000E+00        -0.60596E+05
 
   -0.13314E+06         0.28707E+06         0.00000E+00
    0.28707E+06        -0.16377E+06         0.00000E+00
    0.00000E+00         0.00000E+00        -0.59382E+05
 
   -0.12276E+06         0.28805E+06         0.00000E+00
    0.28805E+06        -0.16818E+06         0.00000E+00
    0.00000E+00         0.00000E+00        -0.58189E+05
 
   -0.11254E+06         0.28893E+06         0.00000E+00
    0.28893E+06        -0.17255E+06         0.00000E+00
    0.00000E+00         0.00000E+00        -0.57018E+05
 
   -0.10249E+06         0.28973E+06         0.00000E+00
    0.28973E+06        -0.17685E+06         0.00000E+00
    0.00000E+00         0.00000E+00        -0.55869E+05
 
   -0.92604E+05         0.29046E+06         0.00000E+00
    0.29046E+06        -0.18111E+06         0.00000E+00
    0.00000E+00         0.00000E+00        -0.54742E+05
 
   -0.82872E+05         0.29114E+06         0.00000E+00
    0.29114E+06        -0.18531E+06         0.00000E+00
    0.00000E+00         0.00000E+00        -0.53637E+05
 
   -0.73292E+05         0.29178E+06         0.00000E+00
    0.29178E+06        -0.18947E+06         0.00000E+00
    0.00000E+00         0.00000E+00        -0.52553E+05
 
   -0.63854E+05         0.29240E+06         0.00000E+00
    0.29240E+06        -0.19360E+06         0.00000E+00
    0.00000E+00         0.00000E+00        -0.51490E+05
 
   -0.54551E+05         0.29301E+06         0.00000E+00
    0.29301E+06        -0.19769E+06         0.00000E+00
    0.00000E+00         0.00000E+00        -0.50448E+05
 
   -0.47768E+06         0.61652E+04         0.00000E+00
    0.61652E+04         0.10408E+03         0.00000E+00
    0.00000E+00         0.00000E+00        -0.95515E+05
 
   -0.47587E+06         0.18106E+05         0.00000E+00
    0.18106E+05        -0.26438E+03         0.00000E+00
    0.00000E+00         0.00000E+00        -0.95227E+05
 
   -0.47339E+06         0.29852E+05         0.00000E+00
    0.29852E+05        -0.97107E+03         0.00000E+00
    0.00000E+00         0.00000E+00        -0.94872E+05
 
   -0.47026E+06         0.41386E+05         0.00000E+00
    0.41386E+05        -0.20019E+04         0.00000E+00
    0.00000E+00         0.00000E+00        -0.94452E+05
 
   -0.46651E+06         0.52689E+05         0.00000E+00
    0.52689E+05        -0.33424E+04         0.00000E+00
    0.00000E+00         0.00000E+00        -0.93970E+05
 
   -0.46217E+06         0.63746E+05         0.00000E+00
    0.63746E+05        -0.49780E+04         0.00000E+00
    0.00000E+00         0.00000E+00        -0.93429E+05
 
   -0.45726E+06         0.74544E+05         0.00000E+00
    0.74544E+05        -0.68941E+04         0.00000E+00
    0.00000E+00         0.00000E+00        -0.92831E+05
 
   -0.45182E+06         0.85068E+05         0.00000E+00
    0.85068E+05        -0.90758E+04         0.00000E+00
    0.00000E+00         0.00000E+00        -0.92180E+05
 
   -0.44588E+06         0.95308E+05         0.00000E+00
    0.95308E+05        -0.11508E+05         0.00000E+00
    0.00000E+00         0.00000E+00        -0.91478E+05
 
   -0.43946E+06         0.10525E+06         0.00000E+00
    0.10525E+06        -0.14177E+05         0.00000E+00
    0.00000E+00         0.00000E+00        -0.90727E+05
 
   -0.43259E+06         0.11490E+06         0.00000E+00
    0.11490E+06        -0.17067E+05         0.00000E+00
    0.00000E+00         0.00000E+00        -0.89931E+05
 
   -0.42529E+06         0.12423E+06         0.00000E+00
    0.12423E+06        -0.20164E+05         0.00000E+00
    0.00000E+00         0.00000E+00        -0.89092E+05
 
   -0.41761E+06         0.13324E+06         0.00000E+00
    0.13324E+06        -0.23453E+05         0.00000E+00
    0.00000E+00         0.00000E+00        -0.88213E+05
 
   -0.40956E+06         0.14194E+06         0.00000E+00
    0.14194E+06        -0.26921E+05         0.00000E+00
    0.00000E+00         0.00000E+00        -0.87296E+05
 
   -0.40117E+06         0.15031E+06         0.00000E+00
    0.15031E+06        -0.30554E+05         0.00000E+00
    0.00000E+00         0.00000E+00        -0.86345E+05
 
   -0.39247E+06         0.15835E+06         0.00000E+00
    0.15835E+06        -0.34337E+05         0.00000E+00
    0.00000E+00         0.00000E+00        -0.85362E+05
 
   -0.38349E+06         0.16607E+06         0.00000E+00
    0.16607E+06        -0.38258E+05         0.00000E+00
    0.00000E+00         0.00000E+00        -0.84349E+05
 
   -0.37425E+06         0.17345E+06         0.00000E+00
    0.17345E+06        -0.42303E+05         0.00000E+00
    0.00000E+00         0.00000E+00        -0.83310E+05
 
   -0.36477E+06         0.18051E+06         0.00000E+00
    0.18051E+06        -0.46461E+05         0.00000E+00
    0.00000E+00         0.00000E+00        -0.82245E+05
 
   -0.35508E+06         0.18724E+06         0.00000E+00
    0.18724E+06        -0.50718E+05         0.00000E+00
    0.00000E+00         0.00000E+00        -0.81159E+05
 
   -0.34520E+06         0.19364E+06         0.00000E+00
    0.19364E+06        -0.55064E+05         0.00000E+00
    0.00000E+00         0.00000E+00        -0.80053E+05
 
   -0.33516E+06         0.19973E+06         0.00000E+00
    0.19973E+06        -0.59486E+05         0.00000E+00
    0.00000E+00         0.00000E+00        -0.78929E+05
 
   -0.32498E+06         0.20550E+06         0.00000E+00
    0.20550E+06        -0.63974E+05         0.00000E+00
    0.00000E+00         0.00000E+00        -0.77791E+05
 
   -0.31468E+06         0.21095E+06         0.00000E+00
    0.21095E+06        -0.68517E+05         0.00000E+00
    0.00000E+00         0.00000E+00        -0.76639E+05
 
   -0.30427E+06         0.21610E+06         0.00000E+00
    0.21610E+06        -0.73106E+05         0.00000E+00
    0.00000E+00         0.00000E+00        -0.75476E+05
 
   -0.29379E+06         0.22095E+06         0.00000E+00
    0.22095E+06        -0.77730E+05         0.00000E+00
    0.00000E+00         0.00000E+00        -0.74304E+05
 
   -0.28324E+06         0.22551E+06         0.00000E+00
    0.22551E+06        -0.82381E+05         0.00000E+00
    0.00000E+00         0.00000E+00        -0.73125E+05
 
   -0.27266E+06         0.22978E+06         0.00000E+00
    0.22978E+06        -0.87050E+05         0.00000E+00
    0.00000E+00         0.00000E+00        -0.71941E+05
 
   -0.26204E+06         0.23378E+06         0.00000E+00
    0.23378E+06        -0.91729E+05         0.00000E+00
    0.00000E+00         0.00000E+00        -0.70753E+05
 
   -0.25141E+06         0.23751E+06         0.00000E+00
    0.23751E+06        -0.96411E+05         0.00000E+00
    0.00000E+00         0.00000E+00        -0.69564E+05
 
   -0.24078E+06         0.24097E+06         0.00000E+00
    0.24097E+06        -0.10109E+06         0.00000E+00
    0.00000E+00         0.00000E+00        -0.68374E+05
 
   -0.23017E+06         0.24419E+06         0.00000E+00
    0.24419E+06        -0.10576E+06         0.00000E+00
    0.00000E+00         0.00000E+00        -0.67186E+05
 
   -0.21959E+06         0.24718E+06         0.00000E+00
    0.24718E+06        -0.11041E+06         0.00000E+00
    0.00000E+00         0.00000E+00        -0.66000E+05
 
   -0.20906E+06         0.24993E+06         0.00000E+00
    0.24993E+06        -0.11504E+06         0.00000E+00
    0.00000E+00         0.00000E+00        -0.64819E+05
 
   -0.19857E+06         0.25247E+06         0.00000E+00
    0.25247E+06        -0.11964E+06         0.00000E+00
    0.00000E+00         0.00000E+00        -0.63642E+05
 
   -0.18815E+06         0.25480E+06         0.00000E+00
    0.25480E+06        -0.12421E+06         0.00000E+00
    0.00000E+00         0.00000E+00        -0.62472E+05
 
   -0.17779E+06         0.25693E+06         0.00000E+00
    0.25693E+06        -0.12875E+06         0.00000E+00
    0.00000E+00         0.00000E+00        -0.61309E+05
 
   -0.16751E+06         0.25889E+06         0.00000E+00
    0.25889E+06        -0.13326E+06         0.00000E+00
    0.00000E+00         0.00000E+00        -0.60154E+05
 
   -0.15732E+06         0.26067E+06         0.00000E+00
    0.26067E+06        -0.13772E+06         0.00000E+00
    0.00000E+00         0.00000E+00        -0.59008E+05
 
   -0.14721E+06         0.26230E+06         0.00000E+00
    0.26230E+06        -0.14214E+06         0.00000E+00
    0.00000E+00         0.00000E+00        -0.57871E+05
 
   -0.13720E+06         0.26378E+06         0.00000E+00
    0.26378E+06        -0.14652E+06         0.00000E+00
    0.00000E+00         0.00000E+00        -0.56744E+05
 
   -0.12728E+06         0.26512E+06         0.00000E+00
    0.26512E+06        -0.15087E+06         0.00000E+00
    0.00000E+00         0.00000E+00        -0.55628E+05
 
   -0.11745E+06         0.26635E+06         0.00000E+00
    0.26635E+06        -0.15516E+06         0.00000E+00
    0.00000E+00         0.00000E+00        -0.54523E+05
 
   -0.10772E+06         0.26747E+06         0.00000E+00
    0.26747E+06        -0.15942E+06         0.00000E+00
    0.00000E+00         0.00000E+00        -0.53429E+05
 
   -0.98085E+05         0.26849E+06         0.00000E+00
    0.26849E+06        -0.16364E+06         0.00000E+00
    0.00000E+00         0.00000E+00        -0.52346E+05
 
   -0.88540E+05         0.26943E+06         0.00000E+00
    0.26943E+06        -0.16783E+06         0.00000E+00
    0.00000E+00         0.00000E+00        -0.51274E+05
 
   -0.79083E+05         0.27030E+06         0.00000E+00
    0.27030E+06        -0.17198E+06         0.00000E+00
    0.00000E+00         0.00000E+00        -0.50212E+05
 
   -0.69708E+05         0.27110E+06         0.00000E+00
    0.27110E+06        -0.17610E+06         0.00000E+00
    0.00000E+00         0.00000E+00        -0.49162E+05
 
   -0.60409E+05         0.27186E+06         0.00000E+00
    0.27186E+06        -0.18020E+06         0.00000E+00
    0.00000E+00         0.00000E+00        -0.48122E+05
 
   -0.51178E+05         0.27259E+06         0.00000E+00
    0.27259E+06        -0.18428E+06         0.00000E+00
    0.00000E+00         0.00000E+00        -0.47091E+05
 
   -0.42170E+06         0.52974E+04         0.00000E+00
    0.52974E+04         0.89858E+02         0.00000E+00
    0.00000E+00         0.00000E+00        -0.84321E+05
 
   -0.42065E+06         0.15637E+05         0.00000E+00
    0.15637E+05        -0.22347E+03         0.00000E+00
    0.00000E+00         0.00000E+00        -0.84176E+05
 
   -0.41903E+06         0.25843E+05         0.00000E+00
    0.25843E+05        -0.82809E+03         0.00000E+00
    0.00000E+00         0.00000E+00        -0.83972E+05
 
   -0.41685E+06         0.35898E+05         0.00000E+00
    0.35898E+05        -0.17134E+04         0.00000E+00
    0.00000E+00         0.00000E+00        -0.83712E+05
 
   -0.41412E+06         0.45786E+05         0.00000E+00
    0.45786E+05        -0.28686E+04         0.00000E+00
    0.00000E+00         0.00000E+00        -0.83398E+05
 
   -0.41088E+06         0.55493E+05         0.00000E+00
    0.55493E+05        -0.42824E+04         0.00000E+00
    0.00000E+00         0.00000E+00        -0.83032E+05
 
   -0.40714E+06         0.65005E+05         0.00000E+00
    0.65005E+05        -0.59434E+04         0.00000E+00
    0.00000E+00         0.00000E+00        -0.82616E+05
 
   -0.40292E+06         0.74310E+05         0.00000E+00
    0.74310E+05        -0.78400E+04         0.00000E+00
    0.00000E+00         0.00000E+00        -0.82153E+05
 
   -0.39826E+06         0.83396E+05         0.00000E+00
    0.83396E+05        -0.99606E+04         0.00000E+00
    0.00000E+00         0.00000E+00        -0.81643E+05
 
   -0.39316E+06         0.92254E+05         0.00000E+00
    0.92254E+05        -0.12293E+05         0.00000E+00
    0.00000E+00         0.00000E+00        -0.81090E+05
 
   -0.38765E+06         0.10087E+06         0.00000E+00
    0.10087E+06        -0.14827E+05         0.00000E+00
    0.00000E+00         0.00000E+00        -0.80495E+05
 
   -0.38176E+06         0.10925E+06         0.00000E+00
    0.10925E+06        -0.17548E+05         0.00000E+00
    0.00000E+00         0.00000E+00        -0.79861E+05
 
   -0.37550E+06         0.11737E+06         0.00000E+00
    0.11737E+06        -0.20447E+05         0.00000E+00
    0.00000E+00         0.00000E+00        -0.79190E+05
 
   -0.36891E+06         0.12524E+06         0.00000E+00
    0.12524E+06        -0.23511E+05         0.00000E+00
    0.00000E+00         0.00000E+00        -0.78483E+05
 
   -0.36199E+06         0.13284E+06         0.00000E+00
    0.13284E+06        -0.26729E+05         0.00000E+00
    0.00000E+00         0.00000E+00        -0.77743E+05
 
   -0.35477E+06         0.14018E+06         0.00000E+00
    0.14018E+06        -0.30089E+05         0.00000E+00
    0.00000E+00         0.00000E+00        -0.76972E+05
 
   -0.34728E+06         0.14725E+06         0.00000E+00
    0.14725E+06        -0.33580E+05         0.00000E+00
    0.00000E+00         0.00000E+00        -0.76172E+05
 
   -0.33953E+06         0.15405E+06         0.00000E+00
    0.15405E+06        -0.37192E+05         0.00000E+00
    0.00000E+00         0.00000E+00        -0.75345E+05
 
   -0.33155E+06         0.16058E+06         0.00000E+00
    0.16058E+06        -0.40914E+05         0.00000E+00
    0.00000E+00         0.00000E+00        -0.74492E+05
 
   -0.32334E+06         0.16684E+06         0.00000E+00
    0.16684E+06        -0.44735E+05         0.00000E+00
    0.00000E+00         0.00000E+00        -0.73616E+05
 
   -0.31495E+06         0.17283E+06         0.00000E+00
    0.17283E+06        -0.48645E+05         0.00000E+00
    0.00000E+00         0.00000E+00        -0.72718E+05
 
   -0.30637E+06         0.17855E+06         0.00000E+00
    0.17855E+06        -0.52634E+05         0.00000E+00
    0.00000E+00         0.00000E+00        -0.71801E+05
 
   -0.29764E+06         0.18400E+06         0.00000E+00
    0.18400E+06        -0.56693E+05         0.00000E+00
    0.00000E+00         0.00000E+00        -0.70866E+05
 
   -0.28876E+06         0.18919E+06         0.00000E+00
    0.18919E+06        -0.60814E+05         0.00000E+00
    0.00000E+00         0.00000E+00        -0.69914E+05
 
   -0.27976E+06         0.19411E+06         0.00000E+00
    0.19411E+06        -0.64986E+05         0.00000E+00
    0.00000E+00         0.00000E+00        -0.68948E+05
 
   -0.27065E+06         0.19878E+06         0.00000E+00
    0.19878E+06        -0.69202E+05         0.00000E+00
    0.00000E+00         0.00000E+00        -0.67970E+05
 
   -0.26144E+06         0.20320E+06         0.00000E+00
    0.20320E+06        -0.73454E+05         0.00000E+00
    0.00000E+00         0.00000E+00        -0.66979E+05
 
   -0.25216E+06         0.20738E+06         0.00000E+00
    0.20738E+06        -0.77735E+05         0.00000E+00
    0.00000E+00         0.00000E+00        -0.65979E+05
 
   -0.24282E+06         0.21131E+06         0.00000E+00
    0.21131E+06        -0.82037E+05         0.00000E+00
    0.00000E+00         0.00000E+00        -0.64971E+05
 
   -0.23342E+06         0.21501E+06         0.00000E+00
    0.21501E+06        -0.86353E+05         0.00000E+00
    0.00000E+00         0.00000E+00        -0.63955E+05
 
   -0.22399E+06         0.21848E+06         0.00000E+00
    0.21848E+06        -0.90678E+05         0.00000E+00
    0.00000E+00         0.00000E+00        -0.62933E+05
 
   -0.21453E+06         0.22173E+06         0.00000E+00
    0.22173E+06        -0.95006E+05         0.00000E+00
    0.00000E+00         0.00000E+00        -0.61906E+05
 
   -0.20505E+06         0.22477E+06         0.00000E+00
    0.22477E+06        -0.99331E+05         0.00000E+00
    0.00000E+00         0.00000E+00        -0.60876E+05
 
   -0.19557E+06         0.22760E+06         0.00000E+00
    0.22760E+06        -0.10365E+06         0.00000E+00
    0.00000E+00         0.00000E+00        -0.59843E+05
 
   -0.18609E+06         0.23024E+06         0.00000E+00
    0.23024E+06        -0.10796E+06         0.00000E+00
    0.00000E+00         0.00000E+00        -0.58809E+05
 
   -0.17662E+06         0.23269E+06         0.00000E+00
    0.23269E+06        -0.11225E+06         0.00000E+00
    0.00000E+00         0.00000E+00        -0.57774E+05
 
   -0.16717E+06         0.23496E+06         0.00000E+00
    0.23496E+06        -0.11652E+06         0.00000E+00
    0.00000E+00         0.00000E+00        -0.56739E+05
 
   -0.15775E+06         0.23706E+06         0.00000E+00
    0.23706E+06        -0.12077E+06         0.00000E+00
    0.00000E+00         0.00000E+00        -0.55705E+05
 
   -0.14835E+06         0.23900E+06         0.00000E+00
    0.23900E+06        -0.12500E+06         0.00000E+00
    0.00000E+00         0.00000E+00        -0.54672E+05
 
   -0.13899E+06         0.24079E+06         0.00000E+00
    0.24079E+06        -0.12921E+06         0.00000E+00
    0.00000E+00         0.00000E+00        -0.53641E+05
 
   -0.12967E+06         0.24244E+06         0.00000E+00
    0.24244E+06        -0.13339E+06         0.00000E+00
    0.00000E+00         0.00000E+00        -0.52612E+05
 
   -0.12039E+06         0.24395E+06         0.00000E+00
    0.24395E+06        -0.13754E+06         0.00000E+00
    0.00000E+00         0.00000E+00        -0.51586E+05
 
   -0.11115E+06         0.24534E+06         0.00000E+00
    0.24534E+06        -0.14167E+06         0.00000E+00
    0.00000E+00         0.00000E+00        -0.50563E+05
 
   -0.10195E+06         0.24662E+06         0.00000E+00
    0.24662E+06        -0.14577E+06         0.00000E+00
    0.00000E+00         0.00000E+00        -0.49543E+05
 
   -0.92786E+05         0.24779E+06         0.00000E+00
    0.24779E+06        -0.14985E+06         0.00000E+00
    0.00000E+00         0.00000E+00        -0.48526E+05
 
   -0.83664E+05         0.24887E+06         0.00000E+00
    0.24887E+06        -0.15390E+06         0.00000E+00
    0.00000E+00         0.00000E+00        -0.47513E+05
 
   -0.74578E+05         0.24986E+06         0.00000E+00
    0.24986E+06        -0.15793E+06         0.00000E+00
    0.00000E+00         0.00000E+00        -0.46502E+05
 
   -0.65522E+05         0.25077E+06         0.00000E+00
    0.25077E+06        -0.16195E+06         0.00000E+00
    0.00000E+00         0.00000E+00        -0.45495E+05
 
   -0.56494E+05         0.25161E+06         0.00000E+00
    0.25161E+06        -0.16595E+06         0.00000E+00
    0.00000E+00         0.00000E+00        -0.44490E+05
 
   -0.47486E+05         0.25239E+06         0.00000E+00
    0.25239E+06        -0.16995E+06         0.00000E+00
    0.00000E+00         0.00000E+00        -0.43487E+05
 
   -0.37326E+06         0.45640E+04         0.00000E+00
    0.45640E+04         0.77067E+02         0.00000E+00
    0.00000E+00         0.00000E+00        -0.74637E+05
 
   -0.37273E+06         0.13534E+05         0.00000E+00
    0.13534E+05        -0.18788E+03         0.00000E+00
    0.00000E+00         0.00000E+00        -0.74583E+05
 
   -0.37170E+06         0.22414E+05         0.00000E+00
    0.22414E+05        -0.70206E+03         0.00000E+00
    0.00000E+00         0.00000E+00        -0.74480E+05
 
   -0.37018E+06         0.31190E+05         0.00000E+00
    0.31190E+05        -0.14577E+04         0.00000E+00
    0.00000E+00         0.00000E+00        -0.74328E+05
 
   -0.36820E+06         0.39847E+05         0.00000E+00
    0.39847E+05        -0.24467E+04         0.00000E+00
    0.00000E+00         0.00000E+00        -0.74130E+05
 
   -0.36577E+06         0.48372E+05         0.00000E+00
    0.48372E+05        -0.36606E+04         0.00000E+00
    0.00000E+00         0.00000E+00        -0.73887E+05
 
   -0.36291E+06         0.56752E+05         0.00000E+00
    0.56752E+05        -0.50908E+04         0.00000E+00
    0.00000E+00         0.00000E+00        -0.73599E+05
 
   -0.35962E+06         0.64976E+05         0.00000E+00
    0.64976E+05        -0.67282E+04         0.00000E+00
    0.00000E+00         0.00000E+00        -0.73270E+05
 
   -0.35594E+06         0.73034E+05         0.00000E+00
    0.73034E+05        -0.85638E+04         0.00000E+00
    0.00000E+00         0.00000E+00        -0.72900E+05
 
   -0.35187E+06         0.80916E+05         0.00000E+00
    0.80916E+05        -0.10588E+05         0.00000E+00
    0.00000E+00         0.00000E+00        -0.72491E+05
 
   -0.34743E+06         0.88613E+05         0.00000E+00
    0.88613E+05        -0.12792E+05         0.00000E+00
    0.00000E+00         0.00000E+00        -0.72045E+05
 
   -0.34265E+06         0.96118E+05         0.00000E+00
    0.96118E+05        -0.15167E+05         0.00000E+00
    0.00000E+00         0.00000E+00        -0.71563E+05
 
   -0.33753E+06         0.10342E+06         0.00000E+00
    0.10342E+06        -0.17702E+05         0.00000E+00
    0.00000E+00         0.00000E+00        -0.71046E+05
 
   -0.33210E+06         0.11052E+06         0.00000E+00
    0.11052E+06        -0.20388E+05         0.00000E+00
    0.00000E+00         0.00000E+00        -0.70497E+05
 
   -0.32637E+06         0.11742E+06         0.00000E+00
    0.11742E+06        -0.23216E+05         0.00000E+00
    0.00000E+00         0.00000E+00        -0.69916E+05
 
   -0.32035E+06         0.12409E+06         0.00000E+00
    0.12409E+06        -0.26177E+05         0.00000E+00
    0.00000E+00         0.00000E+00        -0.69306E+05
 
   -0.31408E+06         0.13055E+06         0.00000E+00
    0.13055E+06        -0.29261E+05         0.00000E+00
    0.00000E+00         0.00000E+00        -0.68668E+05
 
   -0.30756E+06         0.13679E+06         0.00000E+00
    0.13679E+06        -0.32460E+05         0.00000E+00
    0.00000E+00         0.00000E+00        -0.68004E+05
 
   -0.30081E+06         0.14280E+06         0.00000E+00
    0.14280E+06        -0.35764E+05         0.00000E+00
    0.00000E+00         0.00000E+00        -0.67314E+05
 
   -0.29384E+06         0.14859E+06         0.00000E+00
    0.14859E+06        -0.39165E+05         0.00000E+00
    0.00000E+00         0.00000E+00        -0.66602E+05
 
   -0.28668E+06         0.15415E+06         0.00000E+00
    0.15415E+06        -0.42654E+05         0.00000E+00
    0.00000E+00         0.00000E+00        -0.65867E+05
 
   -0.27933E+06         0.15950E+06         0.00000E+00
    0.15950E+06        -0.46224E+05         0.00000E+00
    0.00000E+00         0.00000E+00        -0.65111E+05
 
   -0.27182E+06         0.16461E+06         0.00000E+00
    0.16461E+06        -0.49865E+05         0.00000E+00
    0.00000E+00         0.00000E+00        -0.64336E+05
 
   -0.26415E+06         0.16950E+06         0.00000E+00
    0.16950E+06        -0.53570E+05         0.00000E+00
    0.00000E+00         0.00000E+00        -0.63543E+05
 
   -0.25634E+06         0.17418E+06         0.00000E+00
    0.17418E+06        -0.57332E+05         0.00000E+00
    0.00000E+00         0.00000E+00        -0.62734E+05
 
   -0.24840E+06         0.17863E+06         0.00000E+00
    0.17863E+06        -0.61144E+05         0.00000E+00
    0.00000E+00         0.00000E+00        -0.61909E+05
 
   -0.24035E+06         0.18287E+06         0.00000E+00
    0.18287E+06        -0.64999E+05         0.00000E+00
    0.00000E+00         0.00000E+00        -0.61071E+05
 
   -0.23221E+06         0.18690E+06         0.00000E+00
    0.18690E+06        -0.68889E+05         0.00000E+00
    0.00000E+00         0.00000E+00        -0.60219E+05
 
   -0.22397E+06         0.19071E+06         0.00000E+00
    0.19071E+06        -0.72810E+05         0.00000E+00
    0.00000E+00         0.00000E+00        -0.59355E+05
 
   -0.21565E+06         0.19433E+06         0.00000E+00
    0.19433E+06        -0.76755E+05         0.00000E+00
    0.00000E+00         0.00000E+00        -0.58481E+05
 
   -0.20727E+06         0.19774E+06         0.00000E+00
    0.19774E+06        -0.80719E+05         0.00000E+00
    0.00000E+00         0.00000E+00        -0.57597E+05
 
   -0.19882E+06         0.20096E+06         0.00000E+00
    0.20096E+06        -0.84696E+05         0.00000E+00
    0.00000E+00         0.00000E+00        -0.56704E+05
 
   -0.19033E+06         0.20399E+06         0.00000E+00
    0.20399E+06        -0.88683E+05         0.00000E+00
    0.00000E+00         0.00000E+00        -0.55803E+05
 
   -0.18180E+06         0.20684E+06         0.00000E+00
    0.20684E+06        -0.92675E+05         0.00000E+00
    0.00000E+00         0.00000E+00        -0.54895E+05
 
   -0.17324E+06         0.20951E+06         0.00000E+00
    0.20951E+06        -0.96668E+05         0.00000E+00
    0.00000E+00         0.00000E+00        -0.53981E+05
 
   -0.16465E+06         0.21201E+06         0.00000E+00
    0.21201E+06        -0.10066E+06         0.00000E+00
    0.00000E+00         0.00000E+00        -0.53061E+05
 
   -0.15604E+06         0.21435E+06         0.00000E+00
    0.21435E+06        -0.10464E+06         0.00000E+00
    0.00000E+00         0.00000E+00        -0.52136E+05
 
   -0.14741E+06         0.21652E+06         0.00000E+00
    0.21652E+06        -0.10862E+06         0.00000E+00
    0.00000E+00         0.00000E+00        -0.51207E+05
 
   -0.13878E+06         0.21855E+06         0.00000E+00
    0.21855E+06        -0.11259E+06         0.00000E+00
    0.00000E+00         0.00000E+00        -0.50274E+05
 
   -0.13014E+06         0.22043E+06         0.00000E+00
    0.22043E+06        -0.11654E+06         0.00000E+00
    0.00000E+00         0.00000E+00        -0.49337E+05
 
   -0.12150E+06         0.22217E+06         0.00000E+00
    0.22217E+06        -0.12049E+06         0.00000E+00
    0.00000E+00         0.00000E+00        -0.48397E+05
 
   -0.11286E+06         0.22378E+06         0.00000E+00
    0.22378E+06        -0.12442E+06         0.00000E+00
    0.00000E+00         0.00000E+00        -0.47455E+05
 
   -0.10421E+06         0.22527E+06         0.00000E+00
    0.22527E+06        -0.12833E+06         0.00000E+00
    0.00000E+00         0.00000E+00        -0.46510E+05
 
   -0.95573E+05         0.22664E+06         0.00000E+00
    0.22664E+06        -0.13224E+06         0.00000E+00
    0.00000E+00         0.00000E+00        -0.45562E+05
 
   -0.86933E+05         0.22790E+06         0.00000E+00
    0.22790E+06        -0.13613E+06         0.00000E+00
    0.00000E+00         0.00000E+00        -0.44612E+05
 
   -0.78293E+05         0.22905E+06         0.00000E+00
    0.22905E+06        -0.14001E+06         0.00000E+00
    0.00000E+00         0.00000E+00        -0.43660E+05
 
   -0.69651E+05         0.23011E+06         0.00000E+00
    0.23011E+06        -0.14387E+06         0.00000E+00
    0.00000E+00         0.00000E+00        -0.42705E+05
 
   -0.61004E+05         0.23107E+06         0.00000E+00
    0.23107E+06        -0.14773E+06         0.00000E+00
    0.00000E+00         0.00000E+00        -0.41748E+05
 
   -0.52348E+05         0.23195E+06         0.00000E+00
    0.23195E+06        -0.15159E+06         0.00000E+00
    0.00000E+00         0.00000E+00        -0.40788E+05
 
   -0.43680E+05         0.23275E+06         0.00000E+00
    0.23275E+06        -0.15544E+06         0.00000E+00
    0.00000E+00         0.00000E+00        -0.39825E+05
 
   -0.33124E+06         0.39469E+04         0.00000E+00
    0.39469E+04         0.65808E+02         0.00000E+00
    0.00000E+00         0.00000E+00        -0.66236E+05
 
   -0.33104E+06         0.11750E+05         0.00000E+00
    0.11750E+05        -0.15745E+03         0.00000E+00
    0.00000E+00         0.00000E+00        -0.66239E+05
 
   -0.33040E+06         0.19496E+05         0.00000E+00
    0.19496E+05        -0.59305E+03         0.00000E+00
    0.00000E+00         0.00000E+00        -0.66199E+05
 
   -0.32936E+06         0.27171E+05         0.00000E+00
    0.27171E+05        -0.12354E+04         0.00000E+00
    0.00000E+00         0.00000E+00        -0.66119E+05
 
   -0.32791E+06         0.34763E+05         0.00000E+00
    0.34763E+05        -0.20786E+04         0.00000E+00
    0.00000E+00         0.00000E+00        -0.65998E+05
 
   -0.32607E+06         0.42261E+05         0.00000E+00
    0.42261E+05        -0.31164E+04         0.00000E+00
    0.00000E+00         0.00000E+00        -0.65838E+05
 
   -0.32386E+06         0.49652E+05         0.00000E+00
    0.49652E+05        -0.43422E+04         0.00000E+00
    0.00000E+00         0.00000E+00        -0.65640E+05
 
   -0.32128E+06         0.56926E+05         0.00000E+00
    0.56926E+05        -0.57492E+04         0.00000E+00
    0.00000E+00         0.00000E+00        -0.65406E+05
 
   -0.31834E+06         0.64075E+05         0.00000E+00
    0.64075E+05        -0.73305E+04         0.00000E+00
    0.00000E+00         0.00000E+00        -0.65135E+05
 
   -0.31507E+06         0.71088E+05         0.00000E+00
    0.71088E+05        -0.90788E+04         0.00000E+00
    0.00000E+00         0.00000E+00        -0.64830E+05
 
   -0.31147E+06         0.77959E+05         0.00000E+00
    0.77959E+05        -0.10987E+05         0.00000E+00
    0.00000E+00         0.00000E+00        -0.64491E+05
 
   -0.30755E+06         0.84679E+05         0.00000E+00
    0.84679E+05        -0.13047E+05         0.00000E+00
    0.00000E+00         0.00000E+00        -0.64120E+05
 
   -0.30334E+06         0.91242E+05         0.00000E+00
    0.91242E+05        -0.15252E+05         0.00000E+00
    0.00000E+00         0.00000E+00        -0.63718E+05
 
   -0.29884E+06         0.97643E+05         0.00000E+00
    0.97643E+05        -0.17595E+05         0.00000E+00
    0.00000E+00         0.00000E+00        -0.63286E+05
 
   -0.29406E+06         0.10387E+06         0.00000E+00
    0.10387E+06        -0.20067E+05         0.00000E+00
    0.00000E+00         0.00000E+00        -0.62825E+05
 
   -0.28902E+06         0.10993E+06         0.00000E+00
    0.10993E+06        -0.22662E+05         0.00000E+00
    0.00000E+00         0.00000E+00        -0.62337E+05
 
   -0.28374E+06         0.11582E+06         0.00000E+00
    0.11582E+06        -0.25371E+05         0.00000E+00
    0.00000E+00         0.00000E+00        -0.61823E+05
 
   -0.27823E+06         0.12152E+06         0.00000E+00
    0.12152E+06        -0.28188E+05         0.00000E+00
    0.00000E+00         0.00000E+00        -0.61283E+05
 
   -0.27249E+06         0.12704E+06         0.00000E+00
    0.12704E+06        -0.31105E+05         0.00000E+00
    0.00000E+00         0.00000E+00        -0.60719E+05
 
   -0.26655E+06         0.13237E+06         0.00000E+00
    0.13237E+06        -0.34115E+05         0.00000E+00
    0.00000E+00         0.00000E+00        -0.60133E+05
 
   -0.26041E+06         0.13752E+06         0.00000E+00
    0.13752E+06        -0.37210E+05         0.00000E+00
    0.00000E+00         0.00000E+00        -0.59524E+05
 
   -0.25409E+06         0.14248E+06         0.00000E+00
    0.14248E+06        -0.40384E+05         0.00000E+00
    0.00000E+00         0.00000E+00        -0.58895E+05
 
   -0.24760E+06         0.14725E+06         0.00000E+00
    0.14725E+06        -0.43631E+05         0.00000E+00
    0.00000E+00         0.00000E+00        -0.58247E+05
 
   -0.24096E+06         0.15184E+06         0.00000E+00
    0.15184E+06        -0.46943E+05         0.00000E+00
    0.00000E+00         0.00000E+00        -0.57580E+05
 
   -0.23416E+06         0.15624E+06         0.00000E+00
    0.15624E+06        -0.50314E+05         0.00000E+00
    0.00000E+00         0.00000E+00        -0.56895E+05
 
   -0.22723E+06         0.16045E+06         0.00000E+00
    0.16045E+06        -0.53739E+05         0.00000E+00
    0.00000E+00         0.00000E+00        -0.56194E+05
 
   -0.22017E+06         0.16447E+06         0.00000E+00
    0.16447E+06        -0.57210E+05         0.00000E+00
    0.00000E+00         0.00000E+00        -0.55477E+05
 
   -0.21300E+06         0.16832E+06         0.00000E+00
    0.16832E+06        -0.60724E+05         0.00000E+00
    0.00000E+00         0.00000E+00        -0.54745E+05
 
   -0.20573E+06         0.17198E+06         0.00000E+00
    0.17198E+06        -0.64274E+05         0.00000E+00
    0.00000E+00         0.00000E+00        -0.54000E+05
 
   -0.19835E+06         0.17547E+06         0.00000E+00
    0.17547E+06        -0.67856E+05         0.00000E+00
    0.00000E+00         0.00000E+00        -0.53242E+05
 
   -0.19089E+06         0.17878E+06         0.00000E+00
    0.17878E+06        -0.71464E+05         0.00000E+00
    0.00000E+00         0.00000E+00        -0.52471E+05
 
   -0.18335E+06         0.18192E+06         0.00000E+00
    0.18192E+06        -0.75094E+05         0.00000E+00
    0.00000E+00         0.00000E+00        -0.51689E+05
 
   -0.17574E+06         0.18489E+06         0.00000E+00
    0.18489E+06        -0.78743E+05         0.00000E+00
    0.00000E+00         0.00000E+00        -0.50897E+05
 
   -0.16807E+06         0.18770E+06         0.00000E+00
    0.18770E+06        -0.82406E+05         0.00000E+00
    0.00000E+00         0.00000E+00        -0.50094E+05
 
   -0.16033E+06         0.19034E+06         0.00000E+00
    0.19034E+06        -0.86080E+05         0.00000E+00
    0.00000E+00         0.00000E+00        -0.49282E+05
 
   -0.15255E+06         0.19283E+06         0.00000E+00
    0.19283E+06        -0.89762E+05         0.00000E+00
    0.00000E+00         0.00000E+00        -0.48462E+05
 
   -0.14471E+06         0.19517E+06         0.00000E+00
    0.19517E+06        -0.93450E+05         0.00000E+00
    0.00000E+00         0.00000E+00        -0.47632E+05
 
   -0.13684E+06         0.19737E+06         0.00000E+00
    0.19737E+06        -0.97140E+05         0.00000E+00
    0.00000E+00         0.00000E+00        -0.46795E+05
 
   -0.12892E+06         0.19942E+06         0.00000E+00
    0.19942E+06        -0.10083E+06         0.00000E+00
    0.00000E+00         0.00000E+00        -0.45951E+05
 
   -0.12098E+06         0.20133E+06         0.00000E+00
    0.20133E+06        -0.10452E+06         0.00000E+00
    0.00000E+00         0.00000E+00        -0.45099E+05
 
   -0.11300E+06         0.20311E+06         0.00000E+00
    0.20311E+06        -0.10821E+06         0.00000E+00
    0.00000E+00         0.00000E+00        -0.44241E+05
 
   -0.10499E+06         0.20476E+06         0.00000E+00
    0.20476E+06        -0.11189E+06         0.00000E+00
    0.00000E+00         0.00000E+00        -0.43376E+05
 
   -0.96951E+05         0.20629E+06         0.00000E+00
    0.20629E+06        -0.11557E+06         0.00000E+00
    0.00000E+00         0.00000E+00        -0.42505E+05
 
   -0.88887E+05         0.20770E+06         0.00000E+00
    0.20770E+06        -0.11925E+06         0.00000E+00
    0.00000E+00         0.00000E+00        -0.41628E+05
 
   -0.80796E+05         0.20899E+06         0.00000E+00
    0.20899E+06        -0.12292E+06         0.00000E+00
    0.00000E+00         0.00000E+00        -0.40744E+05
 
   -0.72679E+05         0.21018E+06         0.00000E+00
    0.21018E+06        -0.12660E+06         0.00000E+00
    0.00000E+00         0.00000E+00        -0.39855E+05
 
   -0.64533E+05         0.21126E+06         0.00000E+00
    0.21126E+06        -0.13026E+06         0.00000E+00
    0.00000E+00         0.00000E+00        -0.38959E+05
 
   -0.56357E+05         0.21224E+06         0.00000E+00
    0.21224E+06        -0.13393E+06         0.00000E+00
    0.00000E+00         0.00000E+00        -0.38058E+05
 
   -0.48149E+05         0.21312E+06         0.00000E+00
    0.21312E+06        -0.13760E+06         0.00000E+00
    0.00000E+00         0.00000E+00        -0.37150E+05
 
   -0.39907E+05         0.21391E+06         0.00000E+00
    0.21391E+06        -0.14127E+06         0.00000E+00
    0.00000E+00         0.00000E+00        -0.36235E+05
 
   -0.29467E+06         0.34289E+04         0.00000E+00
    0.34289E+04         0.56058E+02         0.00000E+00
    0.00000E+00         0.00000E+00        -0.58924E+05
 
   -0.29466E+06         0.10242E+05         0.00000E+00
    0.10242E+05        -0.13179E+03         0.00000E+00
    0.00000E+00         0.00000E+00        -0.58958E+05
 
   -0.29429E+06         0.17020E+05         0.00000E+00
    0.17020E+05        -0.50013E+03         0.00000E+00
    0.00000E+00         0.00000E+00        -0.58957E+05
 
   -0.29356E+06         0.23753E+05         0.00000E+00
    0.23753E+05        -0.10451E+04         0.00000E+00
    0.00000E+00         0.00000E+00        -0.58921E+05
 
   -0.29249E+06         0.30427E+05         0.00000E+00
    0.30427E+05        -0.17623E+04         0.00000E+00
    0.00000E+00         0.00000E+00        -0.58850E+05
 
   -0.29108E+06         0.37035E+05         0.00000E+00
    0.37035E+05        -0.26473E+04         0.00000E+00
    0.00000E+00         0.00000E+00        -0.58746E+05
 
   -0.28935E+06         0.43565E+05         0.00000E+00
    0.43565E+05        -0.36953E+04         0.00000E+00
    0.00000E+00         0.00000E+00        -0.58609E+05
 
   -0.28729E+06         0.50009E+05         0.00000E+00
    0.50009E+05        -0.49010E+04         0.00000E+00
    0.00000E+00         0.00000E+00        -0.58439E+05
 
   -0.28493E+06         0.56357E+05         0.00000E+00
    0.56357E+05        -0.62593E+04         0.00000E+00
    0.00000E+00         0.00000E+00        -0.58238E+05
 
   -0.28227E+06         0.62603E+05         0.00000E+00
    0.62603E+05        -0.77647E+04         0.00000E+00
    0.00000E+00         0.00000E+00        -0.58006E+05
 
   -0.27932E+06         0.68738E+05         0.00000E+00
    0.68738E+05        -0.94114E+04         0.00000E+00
    0.00000E+00         0.00000E+00        -0.57745E+05
 
   -0.27608E+06         0.74756E+05         0.00000E+00
    0.74756E+05        -0.11194E+05         0.00000E+00
    0.00000E+00         0.00000E+00        -0.57455E+05
 
   -0.27258E+06         0.80650E+05         0.00000E+00
    0.80650E+05        -0.13106E+05         0.00000E+00
    0.00000E+00         0.00000E+00        -0.57137E+05
 
   -0.26882E+06         0.86415E+05         0.00000E+00
    0.86415E+05        -0.15142E+05         0.00000E+00
    0.00000E+00         0.00000E+00        -0.56793E+05
 
   -0.26481E+06         0.92045E+05         0.00000E+00
    0.92045E+05        -0.17295E+05         0.00000E+00
    0.00000E+00         0.00000E+00        -0.56421E+05
 
   -0.26056E+06         0.97536E+05         0.00000E+00
    0.97536E+05        -0.19561E+05         0.00000E+00
    0.00000E+00         0.00000E+00        -0.56025E+05
 
   -0.25609E+06         0.10288E+06         0.00000E+00
    0.10288E+06        -0.21932E+05         0.00000E+00
    0.00000E+00         0.00000E+00        -0.55604E+05
 
   -0.25140E+06         0.10808E+06         0.00000E+00
    0.10808E+06        -0.24403E+05         0.00000E+00
    0.00000E+00         0.00000E+00        -0.55160E+05
 
   -0.24650E+06         0.11313E+06         0.00000E+00
    0.11313E+06        -0.26968E+05         0.00000E+00
    0.00000E+00         0.00000E+00        -0.54693E+05
 
   -0.24140E+06         0.11803E+06         0.00000E+00
    0.11803E+06        -0.29620E+05         0.00000E+00
    0.00000E+00         0.00000E+00        -0.54204E+05
 
   -0.23612E+06         0.12278E+06         0.00000E+00
    0.12278E+06        -0.32355E+05         0.00000E+00
    0.00000E+00         0.00000E+00        -0.53695E+05
 
   -0.23066E+06         0.12736E+06         0.00000E+00
    0.12736E+06        -0.35166E+05         0.00000E+00
    0.00000E+00         0.00000E+00        -0.53165E+05
 
   -0.22503E+06         0.13179E+06         0.00000E+00
    0.13179E+06        -0.38048E+05         0.00000E+00
    0.00000E+00         0.00000E+00        -0.52616E+05
 
   -0.21925E+06         0.13606E+06         0.00000E+00
    0.13606E+06        -0.40996E+05         0.00000E+00
    0.00000E+00         0.00000E+00        -0.52048E+05
 
   -0.21331E+06         0.14018E+06         0.00000E+00
    0.14018E+06        -0.44003E+05         0.00000E+00
    0.00000E+00         0.00000E+00        -0.51463E+05
 
   -0.20724E+06         0.14413E+06         0.00000E+00
    0.14413E+06        -0.47066E+05         0.00000E+00
    0.00000E+00         0.00000E+00        -0.50861E+05
 
   -0.20104E+06         0.14792E+06         0.00000E+00
    0.14792E+06        -0.50178E+05         0.00000E+00
    0.00000E+00         0.00000E+00        -0.50243E+05
 
   -0.19471E+06         0.15156E+06         0.00000E+00
    0.15156E+06        -0.53336E+05         0.00000E+00
    0.00000E+00         0.00000E+00        -0.49610E+05
 
   -0.18827E+06         0.15504E+06         0.00000E+00
    0.15504E+06        -0.56535E+05         0.00000E+00
    0.00000E+00         0.00000E+00        -0.48961E+05
 
   -0.18173E+06         0.15837E+06         0.00000E+00
    0.15837E+06        -0.59770E+05         0.00000E+00
    0.00000E+00         0.00000E+00        -0.48299E+05
 
   -0.17508E+06         0.16154E+06         0.00000E+00
    0.16154E+06        -0.63037E+05         0.00000E+00
    0.00000E+00         0.00000E+00        -0.47623E+05
 
   -0.16834E+06         0.16456E+06         0.00000E+00
    0.16456E+06        -0.66333E+05         0.00000E+00
    0.00000E+00         0.00000E+00        -0.46934E+05
 
   -0.16151E+06         0.16743E+06         0.00000E+00
    0.16743E+06        -0.69653E+05         0.00000E+00
    0.00000E+00         0.00000E+00        -0.46233E+05
 
   -0.15461E+06         0.17016E+06         0.00000E+00
    0.17016E+06        -0.72996E+05         0.00000E+00
    0.00000E+00         0.00000E+00        -0.45520E+05
 
   -0.14763E+06         0.17274E+06         0.00000E+00
    0.17274E+06        -0.76356E+05         0.00000E+00
    0.00000E+00         0.00000E+00        -0.44796E+05
 
   -0.14057E+06         0.17517E+06         0.00000E+00
    0.17517E+06        -0.79733E+05         0.00000E+00
    0.00000E+00         0.00000E+00        -0.44061E+05
 
   -0.13346E+06         0.17747E+06         0.00000E+00
    0.17747E+06        -0.83122E+05         0.00000E+00
    0.00000E+00         0.00000E+00        -0.43316E+05
 
   -0.12628E+06         0.17963E+06         0.00000E+00
    0.17963E+06        -0.86523E+05         0.00000E+00
    0.00000E+00         0.00000E+00        -0.42561E+05
 
   -0.11905E+06         0.18166E+06         0.00000E+00
    0.18166E+06        -0.89933E+05         0.00000E+00
    0.00000E+00         0.00000E+00        -0.41796E+05
 
   -0.11176E+06         0.18356E+06         0.00000E+00
    0.18356E+06        -0.93349E+05         0.00000E+00
    0.00000E+00         0.00000E+00        -0.41022E+05
 
   -0.10442E+06         0.18533E+06         0.00000E+00
    0.18533E+06        -0.96772E+05         0.00000E+00
    0.00000E+00         0.00000E+00        -0.40238E+05
 
   -0.97031E+05         0.18698E+06         0.00000E+00
    0.18698E+06        -0.10020E+06         0.00000E+00
    0.00000E+00         0.00000E+00        -0.39446E+05
 
   -0.89595E+05         0.18850E+06         0.00000E+00
    0.18850E+06        -0.10363E+06         0.00000E+00
    0.00000E+00         0.00000E+00        -0.38645E+05
 
   -0.82113E+05         0.18991E+06         0.00000E+00
    0.18991E+06        -0.10707E+06         0.00000E+00
    0.00000E+00         0.00000E+00        -0.37836E+05
 
   -0.74586E+05         0.19121E+06         0.00000E+00
    0.19121E+06        -0.11050E+06         0.00000E+00
    0.00000E+00         0.00000E+00        -0.37018E+05
 
   -0.67014E+05         0.19239E+06         0.00000E+00
    0.19239E+06        -0.11395E+06         0.00000E+00
    0.00000E+00         0.00000E+00        -0.36192E+05
 
   -0.59396E+05         0.19346E+06         0.00000E+00
    0.19346E+06        -0.11739E+06         0.00000E+00
    0.00000E+00         0.00000E+00        -0.35357E+05
 
   -0.51733E+05         0.19443E+06         0.00000E+00
    0.19443E+06        -0.12084E+06         0.00000E+00
    0.00000E+00         0.00000E+00        -0.34515E+05
 
   -0.44023E+05         0.19529E+06         0.00000E+00
    0.19529E+06        -0.12430E+06         0.00000E+00
    0.00000E+00         0.00000E+00        -0.33664E+05
 
   -0.36264E+05         0.19605E+06         0.00000E+00
    0.19605E+06        -0.12776E+06         0.00000E+00
    0.00000E+00         0.00000E+00        -0.32804E+05
 
   -0.26271E+06         0.29942E+04         0.00000E+00
    0.29942E+04         0.47718E+02         0.00000E+00
    0.00000E+00         0.00000E+00        -0.52533E+05
 
   -0.26280E+06         0.89681E+04         0.00000E+00
    0.89681E+04        -0.11036E+03         0.00000E+00
    0.00000E+00         0.00000E+00        -0.52583E+05
 
   -0.26259E+06         0.14923E+05         0.00000E+00
    0.14923E+05        -0.42178E+03         0.00000E+00
    0.00000E+00         0.00000E+00        -0.52602E+05
 
   -0.26208E+06         0.20848E+05         0.00000E+00
    0.20848E+05        -0.88386E+03         0.00000E+00
    0.00000E+00         0.00000E+00        -0.52592E+05
 
   -0.26127E+06         0.26735E+05         0.00000E+00
    0.26735E+05        -0.14936E+04         0.00000E+00
    0.00000E+00         0.00000E+00        -0.52552E+05
 
   -0.26017E+06         0.32574E+05         0.00000E+00
    0.32574E+05        -0.22478E+04         0.00000E+00
    0.00000E+00         0.00000E+00        -0.52483E+05
 
   -0.25878E+06         0.38357E+05         0.00000E+00
    0.38357E+05        -0.31429E+04         0.00000E+00
    0.00000E+00         0.00000E+00        -0.52386E+05
 
   -0.25713E+06         0.44077E+05         0.00000E+00
    0.44077E+05        -0.41751E+04         0.00000E+00
    0.00000E+00         0.00000E+00        -0.52260E+05
 
   -0.25520E+06         0.49724E+05         0.00000E+00
    0.49724E+05        -0.53404E+04         0.00000E+00
    0.00000E+00         0.00000E+00        -0.52107E+05
 
   -0.25300E+06         0.55293E+05         0.00000E+00
    0.55293E+05        -0.66348E+04         0.00000E+00
    0.00000E+00         0.00000E+00        -0.51928E+05
 
   -0.25055E+06         0.60777E+05         0.00000E+00
    0.60777E+05        -0.80539E+04         0.00000E+00
    0.00000E+00         0.00000E+00        -0.51722E+05
 
   -0.24786E+06         0.66169E+05         0.00000E+00
    0.66169E+05        -0.95932E+04         0.00000E+00
    0.00000E+00         0.00000E+00        -0.51490E+05
 
   -0.24492E+06         0.71463E+05         0.00000E+00
    0.71463E+05        -0.11248E+05         0.00000E+00
    0.00000E+00         0.00000E+00        -0.51234E+05
 
   -0.24175E+06         0.76654E+05         0.00000E+00
    0.76654E+05        -0.13014E+05         0.00000E+00
    0.00000E+00         0.00000E+00        -0.50953E+05
 
   -0.23836E+06         0.81738E+05         0.00000E+00
    0.81738E+05        -0.14887E+05         0.00000E+00
    0.00000E+00         0.00000E+00        -0.50649E+05
 
   -0.23475E+06         0.86709E+05         0.00000E+00
    0.86709E+05        -0.16861E+05         0.00000E+00
    0.00000E+00         0.00000E+00        -0.50322E+05
 
   -0.23093E+06         0.91564E+05         0.00000E+00
    0.91564E+05        -0.18931E+05         0.00000E+00
    0.00000E+00         0.00000E+00        -0.49972E+05
 
   -0.22691E+06         0.96299E+05         0.00000E+00
    0.96299E+05        -0.21094E+05         0.00000E+00
    0.00000E+00         0.00000E+00        -0.49601E+05
 
   -0.22270E+06         0.10091E+06         0.00000E+00
    0.10091E+06        -0.23344E+05         0.00000E+00
    0.00000E+00         0.00000E+00        -0.49209E+05
 
   -0.21831E+06         0.10540E+06         0.00000E+00
    0.10540E+06        -0.25676E+05         0.00000E+00
    0.00000E+00         0.00000E+00        -0.48796E+05
 
   -0.21373E+06         0.10975E+06         0.00000E+00
    0.10975E+06        -0.28086E+05         0.00000E+00
    0.00000E+00         0.00000E+00        -0.48364E+05
 
   -0.20899E+06         0.11398E+06         0.00000E+00
    0.11398E+06        -0.30568E+05         0.00000E+00
    0.00000E+00         0.00000E+00        -0.47912E+05
 
   -0.20409E+06         0.11807E+06         0.00000E+00
    0.11807E+06        -0.33120E+05         0.00000E+00
    0.00000E+00         0.00000E+00        -0.47443E+05
 
   -0.19904E+06         0.12203E+06         0.00000E+00
    0.12203E+06        -0.35735E+05         0.00000E+00
    0.00000E+00         0.00000E+00        -0.46955E+05
 
   -0.19384E+06         0.12585E+06         0.00000E+00
    0.12585E+06        -0.38409E+05         0.00000E+00
    0.00000E+00         0.00000E+00        -0.46450E+05
 
   -0.18850E+06         0.12954E+06         0.00000E+00
    0.12954E+06        -0.41139E+05         0.00000E+00
    0.00000E+00         0.00000E+00        -0.45928E+05
 
   -0.18303E+06         0.13309E+06         0.00000E+00
    0.13309E+06        -0.43920E+05         0.00000E+00
    0.00000E+00         0.00000E+00        -0.45391E+05
 
   -0.17744E+06         0.13651E+06         0.00000E+00
    0.13651E+06        -0.46747E+05         0.00000E+00
    0.00000E+00         0.00000E+00        -0.44838E+05
 
   -0.17173E+06         0.13979E+06         0.00000E+00
    0.13979E+06        -0.49618E+05         0.00000E+00
    0.00000E+00         0.00000E+00        -0.44270E+05
 
   -0.16591E+06         0.14294E+06         0.00000E+00
    0.14294E+06        -0.52529E+05         0.00000E+00
    0.00000E+00         0.00000E+00        -0.43687E+05
 
   -0.15998E+06         0.14594E+06         0.00000E+00
    0.14594E+06        -0.55475E+05         0.00000E+00
    0.00000E+00         0.00000E+00        -0.43090E+05
 
   -0.15395E+06         0.14882E+06         0.00000E+00
    0.14882E+06        -0.58455E+05         0.00000E+00
    0.00000E+00         0.00000E+00        -0.42480E+05
 
   -0.14782E+06         0.15156E+06         0.00000E+00
    0.15156E+06        -0.61463E+05         0.00000E+00
    0.00000E+00         0.00000E+00        -0.41857E+05
 
   -0.14161E+06         0.15417E+06         0.00000E+00
    0.15417E+06        -0.64499E+05         0.00000E+00
    0.00000E+00         0.00000E+00        -0.41222E+05
 
   -0.13531E+06         0.15665E+06         0.00000E+00
    0.15665E+06        -0.67558E+05         0.00000E+00
    0.00000E+00         0.00000E+00        -0.40574E+05
 
   -0.12893E+06         0.15900E+06         0.00000E+00
    0.15900E+06        -0.70638E+05         0.00000E+00
    0.00000E+00         0.00000E+00        -0.39914E+05
 
   -0.12248E+06         0.16122E+06         0.00000E+00
    0.16122E+06        -0.73737E+05         0.00000E+00
    0.00000E+00         0.00000E+00        -0.39243E+05
 
   -0.11595E+06         0.16332E+06         0.00000E+00
    0.16332E+06        -0.76854E+05         0.00000E+00
    0.00000E+00         0.00000E+00        -0.38561E+05
 
   -0.10935E+06         0.16529E+06         0.00000E+00
    0.16529E+06        -0.79985E+05         0.00000E+00
    0.00000E+00         0.00000E+00        -0.37868E+05
 
   -0.10269E+06         0.16714E+06         0.00000E+00
    0.16714E+06        -0.83129E+05         0.00000E+00
    0.00000E+00         0.00000E+00        -0.37164E+05
 
   -0.95964E+05         0.16886E+06         0.00000E+00
    0.16886E+06        -0.86286E+05         0.00000E+00
    0.00000E+00         0.00000E+00        -0.36450E+05
 
   -0.89175E+05         0.17047E+06         0.00000E+00
    0.17047E+06        -0.89452E+05         0.00000E+00
    0.00000E+00         0.00000E+00        -0.35726E+05
 
   -0.82328E+05         0.17197E+06         0.00000E+00
    0.17197E+06        -0.92629E+05         0.00000E+00
    0.00000E+00         0.00000E+00        -0.34991E+05
 
   -0.75422E+05         0.17335E+06         0.00000E+00
    0.17335E+06        -0.95814E+05         0.00000E+00
    0.00000E+00         0.00000E+00        -0.34247E+05
 
   -0.68460E+05         0.17461E+06         0.00000E+00
    0.17461E+06        -0.99008E+05         0.00000E+00
    0.00000E+00         0.00000E+00        -0.33493E+05
 
   -0.61441E+05         0.17576E+06         0.00000E+00
    0.17576E+06        -0.10221E+06         0.00000E+00
    0.00000E+00         0.00000E+00        -0.32730E+05
 
   -0.54367E+05         0.17681E+06         0.00000E+00
    0.17681E+06        -0.10542E+06         0.00000E+00
    0.00000E+00         0.00000E+00        -0.31957E+05
 
   -0.47238E+05         0.17774E+06         0.00000E+00
    0.17774E+06        -0.10864E+06         0.00000E+00
    0.00000E+00         0.00000E+00        -0.31175E+05
 
   -0.40053E+05         0.17857E+06         0.00000E+00
    0.17857E+06        -0.11186E+06         0.00000E+00
    0.00000E+00         0.00000E+00        -0.30383E+05
 
   -0.32813E+05         0.17929E+06         0.00000E+00
    0.17929E+06        -0.11509E+06         0.00000E+00
    0.00000E+00         0.00000E+00        -0.29581E+05
 
   -0.23465E+06         0.26290E+04         0.00000E+00
    0.26290E+04         0.40647E+02         0.00000E+00
    0.00000E+00         0.00000E+00        -0.46921E+05
 
   -0.23478E+06         0.78912E+04         0.00000E+00
    0.78912E+04        -0.92607E+02         0.00000E+00
    0.00000E+00         0.00000E+00        -0.46975E+05
 
   -0.23466E+06         0.13144E+05         0.00000E+00
    0.13144E+05        -0.35624E+03         0.00000E+00
    0.00000E+00         0.00000E+00        -0.47004E+05
 
   -0.23429E+06         0.18379E+05         0.00000E+00
    0.18379E+05        -0.74849E+03         0.00000E+00
    0.00000E+00         0.00000E+00        -0.47007E+05
 
   -0.23366E+06         0.23589E+05         0.00000E+00
    0.23589E+05        -0.12673E+04         0.00000E+00
    0.00000E+00         0.00000E+00        -0.46985E+05
 
   -0.23278E+06         0.28766E+05         0.00000E+00
    0.28766E+05        -0.19104E+04         0.00000E+00
    0.00000E+00         0.00000E+00        -0.46938E+05
 
   -0.23165E+06         0.33902E+05         0.00000E+00
    0.33902E+05        -0.26753E+04         0.00000E+00
    0.00000E+00         0.00000E+00        -0.46866E+05
 
   -0.23029E+06         0.38991E+05         0.00000E+00
    0.38991E+05        -0.35592E+04         0.00000E+00
    0.00000E+00         0.00000E+00        -0.46770E+05
 
   -0.22869E+06         0.44026E+05         0.00000E+00
    0.44026E+05        -0.45592E+04         0.00000E+00
    0.00000E+00         0.00000E+00        -0.46650E+05
 
   -0.22686E+06         0.49001E+05         0.00000E+00
    0.49001E+05        -0.56722E+04         0.00000E+00
    0.00000E+00         0.00000E+00        -0.46506E+05
 
   -0.22480E+06         0.53909E+05         0.00000E+00
    0.53909E+05        -0.68949E+04         0.00000E+00
    0.00000E+00         0.00000E+00        -0.46339E+05
 
   -0.22253E+06         0.58745E+05         0.00000E+00
    0.58745E+05        -0.82240E+04         0.00000E+00
    0.00000E+00         0.00000E+00        -0.46150E+05
 
   -0.22004E+06         0.63504E+05         0.00000E+00
    0.63504E+05        -0.96559E+04         0.00000E+00
    0.00000E+00         0.00000E+00        -0.45939E+05
 
   -0.21734E+06         0.68181E+05         0.00000E+00
    0.68181E+05        -0.11187E+05         0.00000E+00
    0.00000E+00         0.00000E+00        -0.45706E+05
 
   -0.21445E+06         0.72771E+05         0.00000E+00
    0.72771E+05        -0.12814E+05         0.00000E+00
    0.00000E+00         0.00000E+00        -0.45452E+05
 
   -0.21135E+06         0.77270E+05         0.00000E+00
    0.77270E+05        -0.14532E+05         0.00000E+00
    0.00000E+00         0.00000E+00        -0.45177E+05
 
   -0.20807E+06         0.81673E+05         0.00000E+00
    0.81673E+05        -0.16339E+05         0.00000E+00
    0.00000E+00         0.00000E+00        -0.44882E+05
 
   -0.20461E+06         0.85979E+05         0.00000E+00
    0.85979E+05        -0.18229E+05         0.00000E+00
    0.00000E+00         0.00000E+00        -0.44567E+05
 
   -0.20096E+06         0.90182E+05         0.00000E+00
    0.90182E+05        -0.20200E+05         0.00000E+00
    0.00000E+00         0.00000E+00        -0.44233E+05
 
   -0.19715E+06         0.94280E+05         0.00000E+00
    0.94280E+05        -0.22248E+05         0.00000E+00
    0.00000E+00         0.00000E+00        -0.43880E+05
 
   -0.19317E+06         0.98271E+05         0.00000E+00
    0.98271E+05        -0.24368E+05         0.00000E+00
    0.00000E+00         0.00000E+00        -0.43508E+05
 
   -0.18904E+06         0.10215E+06         0.00000E+00
    0.10215E+06        -0.26557E+05         0.00000E+00
    0.00000E+00         0.00000E+00        -0.43119E+05
 
   -0.18475E+06         0.10592E+06         0.00000E+00
    0.10592E+06        -0.28811E+05         0.00000E+00
    0.00000E+00         0.00000E+00        -0.42713E+05
 
   -0.18032E+06         0.10958E+06         0.00000E+00
    0.10958E+06        -0.31127E+05         0.00000E+00
    0.00000E+00         0.00000E+00        -0.42289E+05
 
   -0.17575E+06         0.11312E+06         0.00000E+00
    0.11312E+06        -0.33500E+05         0.00000E+00
    0.00000E+00         0.00000E+00        -0.41850E+05
 
   -0.17104E+06         0.11654E+06         0.00000E+00
    0.11654E+06        -0.35928E+05         0.00000E+00
    0.00000E+00         0.00000E+00        -0.41394E+05
 
   -0.16621E+06         0.11985E+06         0.00000E+00
    0.11985E+06        -0.38406E+05         0.00000E+00
    0.00000E+00         0.00000E+00        -0.40922E+05
 
   -0.16125E+06         0.12304E+06         0.00000E+00
    0.12304E+06        -0.40932E+05         0.00000E+00
    0.00000E+00         0.00000E+00        -0.40436E+05
 
   -0.15617E+06         0.12611E+06         0.00000E+00
    0.12611E+06        -0.43502E+05         0.00000E+00
    0.00000E+00         0.00000E+00        -0.39935E+05
 
   -0.15099E+06         0.12906E+06         0.00000E+00
    0.12906E+06        -0.46113E+05         0.00000E+00
    0.00000E+00         0.00000E+00        -0.39420E+05
 
   -0.14569E+06         0.13189E+06         0.00000E+00
    0.13189E+06        -0.48761E+05         0.00000E+00
    0.00000E+00         0.00000E+00        -0.38890E+05
 
   -0.14029E+06         0.13460E+06         0.00000E+00
    0.13460E+06        -0.51445E+05         0.00000E+00
    0.00000E+00         0.00000E+00        -0.38348E+05
 
   -0.13480E+06         0.13719E+06         0.00000E+00
    0.13719E+06        -0.54162E+05         0.00000E+00
    0.00000E+00         0.00000E+00        -0.37792E+05
 
   -0.12921E+06         0.13967E+06         0.00000E+00
    0.13967E+06        -0.56908E+05         0.00000E+00
    0.00000E+00         0.00000E+00        -0.37223E+05
 
   -0.12353E+06         0.14202E+06         0.00000E+00
    0.14202E+06        -0.59681E+05         0.00000E+00
    0.00000E+00         0.00000E+00        -0.36642E+05
 
   -0.11777E+06         0.14426E+06         0.00000E+00
    0.14426E+06        -0.62479E+05         0.00000E+00
    0.00000E+00         0.00000E+00        -0.36049E+05
 
   -0.11192E+06         0.14638E+06         0.00000E+00
    0.14638E+06        -0.65300E+05         0.00000E+00
    0.00000E+00         0.00000E+00        -0.35444E+05
 
   -0.10599E+06         0.14839E+06         0.00000E+00
    0.14839E+06        -0.68142E+05         0.00000E+00
    0.00000E+00         0.00000E+00        -0.34827E+05
 
   -0.99992E+05         0.15027E+06         0.00000E+00
    0.15027E+06        -0.71004E+05         0.00000E+00
    0.00000E+00         0.00000E+00        -0.34199E+05
 
   -0.93918E+05         0.15205E+06         0.00000E+00
    0.15205E+06        -0.73882E+05         0.00000E+00
    0.00000E+00         0.00000E+00        -0.33560E+05
 
   -0.87773E+05         0.15371E+06         0.00000E+00
    0.15371E+06        -0.76777E+05         0.00000E+00
    0.00000E+00         0.00000E+00        -0.32910E+05
 
   -0.81560E+05         0.15526E+06         0.00000E+00
    0.15526E+06        -0.79686E+05         0.00000E+00
    0.00000E+00         0.00000E+00        -0.32249E+05
 
   -0.75281E+05         0.15670E+06         0.00000E+00
    0.15670E+06        -0.82608E+05         0.00000E+00
    0.00000E+00         0.00000E+00        -0.31578E+05
 
   -0.68937E+05         0.15802E+06         0.00000E+00
    0.15802E+06        -0.85543E+05         0.00000E+00
    0.00000E+00         0.00000E+00        -0.30896E+05
 
   -0.62531E+05         0.15924E+06         0.00000E+00
    0.15924E+06        -0.88490E+05         0.00000E+00
    0.00000E+00         0.00000E+00        -0.30204E+05
 
   -0.56063E+05         0.16034E+06         0.00000E+00
    0.16034E+06        -0.91448E+05         0.00000E+00
    0.00000E+00         0.00000E+00        -0.29502E+05
 
   -0.49534E+05         0.16134E+06         0.00000E+00
    0.16134E+06        -0.94416E+05         0.00000E+00
    0.00000E+00         0.00000E+00        -0.28790E+05
 
   -0.42945E+05         0.16223E+06         0.00000E+00
    0.16223E+06        -0.97394E+05         0.00000E+00
    0.00000E+00         0.00000E+00        -0.28068E+05
 
   -0.36296E+05         0.16301E+06         0.00000E+00
    0.16301E+06        -0.10038E+06         0.00000E+00
    0.00000E+00         0.00000E+00        -0.27336E+05
 
   -0.29589E+05         0.16369E+06         0.00000E+00
    0.16369E+06        -0.10338E+06         0.00000E+00
    0.00000E+00         0.00000E+00        -0.26594E+05
 
   -0.20988E+06         0.23214E+04         0.00000E+00
    0.23214E+04         0.34688E+02         0.00000E+00
    0.00000E+00         0.00000E+00        -0.41969E+05
 
   -0.21003E+06         0.69790E+04         0.00000E+00
    0.69790E+04        -0.77976E+02         0.00000E+00
    0.00000E+00         0.00000E+00        -0.42022E+05
 
   -0.20996E+06         0.11634E+05         0.00000E+00
    0.11634E+05        -0.30172E+03         0.00000E+00
    0.00000E+00         0.00000E+00        -0.42052E+05
 
   -0.20967E+06         0.16279E+05         0.00000E+00
    0.16279E+05        -0.63544E+03         0.00000E+00
    0.00000E+00         0.00000E+00        -0.42061E+05
 
   -0.20916E+06         0.20907E+05         0.00000E+00
    0.20907E+05        -0.10778E+04         0.00000E+00
    0.00000E+00         0.00000E+00        -0.42047E+05
 
   -0.20844E+06         0.25512E+05         0.00000E+00
    0.25512E+05        -0.16272E+04         0.00000E+00
    0.00000E+00         0.00000E+00        -0.42013E+05
 
   -0.20750E+06         0.30088E+05         0.00000E+00
    0.30088E+05        -0.22818E+04         0.00000E+00
    0.00000E+00         0.00000E+00        -0.41957E+05
 
   -0.20636E+06         0.34629E+05         0.00000E+00
    0.34629E+05        -0.30398E+04         0.00000E+00
    0.00000E+00         0.00000E+00        -0.41879E+05
 
   -0.20501E+06         0.39129E+05         0.00000E+00
    0.39129E+05        -0.38990E+04         0.00000E+00
    0.00000E+00         0.00000E+00        -0.41782E+05
 
   -0.20346E+06         0.43582E+05         0.00000E+00
    0.43582E+05        -0.48570E+04         0.00000E+00
    0.00000E+00         0.00000E+00        -0.41663E+05
 
   -0.20171E+06         0.47983E+05         0.00000E+00
    0.47983E+05        -0.59115E+04         0.00000E+00
    0.00000E+00         0.00000E+00        -0.41524E+05
 
   -0.19977E+06         0.52327E+05         0.00000E+00
    0.52327E+05        -0.70599E+04         0.00000E+00
    0.00000E+00         0.00000E+00        -0.41366E+05
 
   -0.19764E+06         0.56609E+05         0.00000E+00
    0.56609E+05        -0.82996E+04         0.00000E+00
    0.00000E+00         0.00000E+00        -0.41188E+05
 
   -0.19532E+06         0.60825E+05         0.00000E+00
    0.60825E+05        -0.96276E+04         0.00000E+00
    0.00000E+00         0.00000E+00        -0.40990E+05
 
   -0.19283E+06         0.64971E+05         0.00000E+00
    0.64971E+05        -0.11041E+05         0.00000E+00
    0.00000E+00         0.00000E+00        -0.40774E+05
 
   -0.19016E+06         0.69043E+05         0.00000E+00
    0.69043E+05        -0.12538E+05         0.00000E+00
    0.00000E+00         0.00000E+00        -0.40539E+05
 
   -0.18732E+06         0.73036E+05         0.00000E+00
    0.73036E+05        -0.14114E+05         0.00000E+00
    0.00000E+00         0.00000E+00        -0.40286E+05
 
   -0.18431E+06         0.76948E+05         0.00000E+00
    0.76948E+05        -0.15766E+05         0.00000E+00
    0.00000E+00         0.00000E+00        -0.40015E+05
 
   -0.18114E+06         0.80775E+05         0.00000E+00
    0.80775E+05        -0.17492E+05         0.00000E+00
    0.00000E+00         0.00000E+00        -0.39726E+05
 
   -0.17781E+06         0.84515E+05         0.00000E+00
    0.84515E+05        -0.19289E+05         0.00000E+00
    0.00000E+00         0.00000E+00        -0.39420E+05
 
   -0.17434E+06         0.88164E+05         0.00000E+00
    0.88164E+05        -0.21153E+05         0.00000E+00
    0.00000E+00         0.00000E+00        -0.39098E+05
 
   -0.17071E+06         0.91720E+05         0.00000E+00
    0.91720E+05        -0.23082E+05         0.00000E+00
    0.00000E+00         0.00000E+00        -0.38759E+05
 
   -0.16695E+06         0.95182E+05         0.00000E+00
    0.95182E+05        -0.25071E+05         0.00000E+00
    0.00000E+00         0.00000E+00        -0.38404E+05
 
   -0.16304E+06         0.98546E+05         0.00000E+00
    0.98546E+05        -0.27119E+05         0.00000E+00
    0.00000E+00         0.00000E+00        -0.38033E+05
 
   -0.15901E+06         0.10181E+06         0.00000E+00
    0.10181E+06        -0.29223E+05         0.00000E+00
    0.00000E+00         0.00000E+00        -0.37646E+05
 
   -0.15485E+06         0.10498E+06         0.00000E+00
    0.10498E+06        -0.31378E+05         0.00000E+00
    0.00000E+00         0.00000E+00        -0.37245E+05
 
   -0.15056E+06         0.10804E+06         0.00000E+00
    0.10804E+06        -0.33583E+05         0.00000E+00
    0.00000E+00         0.00000E+00        -0.36829E+05
 
   -0.14616E+06         0.11100E+06         0.00000E+00
    0.11100E+06        -0.35835E+05         0.00000E+00
    0.00000E+00         0.00000E+00        -0.36399E+05
 
   -0.14164E+06         0.11386E+06         0.00000E+00
    0.11386E+06        -0.38130E+05         0.00000E+00
    0.00000E+00         0.00000E+00        -0.35954E+05
 
   -0.13701E+06         0.11661E+06         0.00000E+00
    0.11661E+06        -0.40467E+05         0.00000E+00
    0.00000E+00         0.00000E+00        -0.35496E+05
 
   -0.13228E+06         0.11925E+06         0.00000E+00
    0.11925E+06        -0.42842E+05         0.00000E+00
    0.00000E+00         0.00000E+00        -0.35025E+05
 
   -0.12745E+06         0.12179E+06         0.00000E+00
    0.12179E+06        -0.45254E+05         0.00000E+00
    0.00000E+00         0.00000E+00        -0.34540E+05
 
   -0.12252E+06         0.12422E+06         0.00000E+00
    0.12422E+06        -0.47699E+05         0.00000E+00
    0.00000E+00         0.00000E+00        -0.34043E+05
 
   -0.11749E+06         0.12655E+06         0.00000E+00
    0.12655E+06        -0.50175E+05         0.00000E+00
    0.00000E+00         0.00000E+00        -0.33533E+05
 
   -0.11237E+06         0.12877E+06         0.00000E+00
    0.12877E+06        -0.52681E+05         0.00000E+00
    0.00000E+00         0.00000E+00        -0.33011E+05
 
   -0.10717E+06         0.13088E+06         0.00000E+00
    0.13088E+06        -0.55214E+05         0.00000E+00
    0.00000E+00         0.00000E+00        -0.32477E+05
 
   -0.10188E+06         0.13289E+06         0.00000E+00
    0.13289E+06        -0.57772E+05         0.00000E+00
    0.00000E+00         0.00000E+00        -0.31931E+05
 
   -0.96512E+05         0.13478E+06         0.00000E+00
    0.13478E+06        -0.60354E+05         0.00000E+00
    0.00000E+00         0.00000E+00        -0.31373E+05
 
   -0.91065E+05         0.13658E+06         0.00000E+00
    0.13658E+06        -0.62957E+05         0.00000E+00
    0.00000E+00         0.00000E+00        -0.30804E+05
 
   -0.85543E+05         0.13826E+06         0.00000E+00
    0.13826E+06        -0.65580E+05         0.00000E+00
    0.00000E+00         0.00000E+00        -0.30225E+05
 
   -0.79947E+05         0.13984E+06         0.00000E+00
    0.13984E+06        -0.68222E+05         0.00000E+00
    0.00000E+00         0.00000E+00        -0.29634E+05
 
   -0.74281E+05         0.14131E+06         0.00000E+00
    0.14131E+06        -0.70881E+05         0.00000E+00
    0.00000E+00         0.00000E+00        -0.29032E+05
 
   -0.68546E+05         0.14267E+06         0.00000E+00
    0.14267E+06        -0.73556E+05         0.00000E+00
    0.00000E+00         0.00000E+00        -0.28420E+05
 
   -0.62744E+05         0.14393E+06         0.00000E+00
    0.14393E+06        -0.76246E+05         0.00000E+00
    0.00000E+00         0.00000E+00        -0.27798E+05
 
   -0.56876E+05         0.14509E+06         0.00000E+00
    0.14509E+06        -0.78949E+05         0.00000E+00
    0.00000E+00         0.00000E+00        -0.27165E+05
 
   -0.50945E+05         0.14613E+06         0.00000E+00
    0.14613E+06        -0.81665E+05         0.00000E+00
    0.00000E+00         0.00000E+00        -0.26522E+05
 
   -0.44952E+05         0.14708E+06         0.00000E+00
    0.14708E+06        -0.84394E+05         0.00000E+00
    0.00000E+00         0.00000E+00        -0.25869E+05
 
   -0.38897E+05         0.14791E+06         0.00000E+00
    0.14791E+06        -0.87134E+05         0.00000E+00
    0.00000E+00         0.00000E+00        -0.25206E+05
 
   -0.32783E+05         0.14864E+06         0.00000E+00
    0.14864E+06        -0.89884E+05         0.00000E+00
    0.00000E+00         0.00000E+00        -0.24533E+05
 
   -0.26609E+05         0.14927E+06         0.00000E+00
    0.14927E+06        -0.92645E+05         0.00000E+00
    0.00000E+00         0.00000E+00        -0.23851E+05
 
   -0.18792E+06         0.20613E+04         0.00000E+00
    0.20613E+04         0.29684E+02         0.00000E+00
    0.00000E+00         0.00000E+00        -0.37578E+05
 
   -0.18806E+06         0.62040E+04         0.00000E+00
    0.62040E+04        -0.65947E+02         0.00000E+00
    0.00000E+00         0.00000E+00        -0.37625E+05
 
   -0.18801E+06         0.10348E+05         0.00000E+00
    0.10348E+05        -0.25650E+03         0.00000E+00
    0.00000E+00         0.00000E+00        -0.37653E+05
 
   -0.18777E+06         0.14486E+05         0.00000E+00
    0.14486E+05        -0.54132E+03         0.00000E+00
    0.00000E+00         0.00000E+00        -0.37662E+05
 
   -0.18734E+06         0.18614E+05         0.00000E+00
    0.18614E+05        -0.91954E+03         0.00000E+00
    0.00000E+00         0.00000E+00        -0.37652E+05
 
   -0.18673E+06         0.22726E+05         0.00000E+00
    0.22726E+05        -0.13901E+04         0.00000E+00
    0.00000E+00         0.00000E+00        -0.37624E+05
 
   -0.18593E+06         0.26816E+05         0.00000E+00
    0.26816E+05        -0.19519E+04         0.00000E+00
    0.00000E+00         0.00000E+00        -0.37577E+05
 
   -0.18496E+06         0.30880E+05         0.00000E+00
    0.30880E+05        -0.26033E+04         0.00000E+00
    0.00000E+00         0.00000E+00        -0.37512E+05
 
   -0.18380E+06         0.34912E+05         0.00000E+00
    0.34912E+05        -0.33431E+04         0.00000E+00
    0.00000E+00         0.00000E+00        -0.37429E+05
 
   -0.18247E+06         0.38908E+05         0.00000E+00
    0.38908E+05        -0.41693E+04         0.00000E+00
    0.00000E+00         0.00000E+00        -0.37328E+05
 
   -0.18097E+06         0.42862E+05         0.00000E+00
    0.42862E+05        -0.50803E+04         0.00000E+00
    0.00000E+00         0.00000E+00        -0.37210E+05
 
   -0.17929E+06         0.46771E+05         0.00000E+00
    0.46771E+05        -0.60741E+04         0.00000E+00
    0.00000E+00         0.00000E+00        -0.37074E+05
 
   -0.17745E+06         0.50630E+05         0.00000E+00
    0.50630E+05        -0.71487E+04         0.00000E+00
    0.00000E+00         0.00000E+00        -0.36920E+05
 
   -0.17545E+06         0.54436E+05         0.00000E+00
    0.54436E+05        -0.83019E+04         0.00000E+00
    0.00000E+00         0.00000E+00        -0.36749E+05
 
   -0.17328E+06         0.58183E+05         0.00000E+00
    0.58183E+05        -0.95316E+04         0.00000E+00
    0.00000E+00         0.00000E+00        -0.36562E+05
 
   -0.17095E+06         0.61870E+05         0.00000E+00
    0.61870E+05        -0.10836E+05         0.00000E+00
    0.00000E+00         0.00000E+00        -0.36358E+05
 
   -0.16848E+06         0.65492E+05         0.00000E+00
    0.65492E+05        -0.12211E+05         0.00000E+00
    0.00000E+00         0.00000E+00        -0.36138E+05
 
   -0.16585E+06         0.69045E+05         0.00000E+00
    0.69045E+05        -0.13656E+05         0.00000E+00
    0.00000E+00         0.00000E+00        -0.35901E+05
 
   -0.16308E+06         0.72528E+05         0.00000E+00
    0.72528E+05        -0.15169E+05         0.00000E+00
    0.00000E+00         0.00000E+00        -0.35649E+05
 
   -0.16016E+06         0.75937E+05         0.00000E+00
    0.75937E+05        -0.16745E+05         0.00000E+00
    0.00000E+00         0.00000E+00        -0.35381E+05
 
   -0.15711E+06         0.79269E+05         0.00000E+00
    0.79269E+05        -0.18384E+05         0.00000E+00
    0.00000E+00         0.00000E+00        -0.35098E+05
 
   -0.15392E+06         0.82522E+05         0.00000E+00
    0.82522E+05        -0.20083E+05         0.00000E+00
    0.00000E+00         0.00000E+00        -0.34800E+05
 
   -0.15060E+06         0.85694E+05         0.00000E+00
    0.85694E+05        -0.21838E+05         0.00000E+00
    0.00000E+00         0.00000E+00        -0.34487E+05
 
   -0.14715E+06         0.88783E+05         0.00000E+00
    0.88783E+05        -0.23649E+05         0.00000E+00
    0.00000E+00         0.00000E+00        -0.34160E+05
 
   -0.14358E+06         0.91786E+05         0.00000E+00
    0.91786E+05        -0.25511E+05         0.00000E+00
    0.00000E+00         0.00000E+00        -0.33818E+05
 
   -0.13989E+06         0.94702E+05         0.00000E+00
    0.94702E+05        -0.27423E+05         0.00000E+00
    0.00000E+00         0.00000E+00        -0.33462E+05
 
   -0.13608E+06         0.97529E+05         0.00000E+00
    0.97529E+05        -0.29383E+05         0.00000E+00
    0.00000E+00         0.00000E+00        -0.33093E+05
 
   -0.13216E+06         0.10027E+06         0.00000E+00
    0.10027E+06        -0.31388E+05         0.00000E+00
    0.00000E+00         0.00000E+00        -0.32710E+05
 
   -0.12814E+06         0.10291E+06         0.00000E+00
    0.10291E+06        -0.33435E+05         0.00000E+00
    0.00000E+00         0.00000E+00        -0.32315E+05
 
   -0.12401E+06         0.10546E+06         0.00000E+00
    0.10546E+06        -0.35522E+05         0.00000E+00
    0.00000E+00         0.00000E+00        -0.31906E+05
 
   -0.11977E+06         0.10792E+06         0.00000E+00
    0.10792E+06        -0.37648E+05         0.00000E+00
    0.00000E+00         0.00000E+00        -0.31484E+05
 
   -0.11544E+06         0.11029E+06         0.00000E+00
    0.11029E+06        -0.39810E+05         0.00000E+00
    0.00000E+00         0.00000E+00        -0.31050E+05
 
   -0.11102E+06         0.11256E+06         0.00000E+00
    0.11256E+06        -0.42006E+05         0.00000E+00
    0.00000E+00         0.00000E+00        -0.30604E+05
 
   -0.10650E+06         0.11473E+06         0.00000E+00
    0.11473E+06        -0.44233E+05         0.00000E+00
    0.00000E+00         0.00000E+00        -0.30146E+05
 
   -0.10189E+06         0.11680E+06         0.00000E+00
    0.11680E+06        -0.46491E+05         0.00000E+00
    0.00000E+00         0.00000E+00        -0.29677E+05
 
   -0.97201E+05         0.11878E+06         0.00000E+00
    0.11878E+06        -0.48777E+05         0.00000E+00
    0.00000E+00         0.00000E+00        -0.29195E+05
 
   -0.92426E+05         0.12066E+06         0.00000E+00
    0.12066E+06        -0.51089E+05         0.00000E+00
    0.00000E+00         0.00000E+00        -0.28703E+05
 
   -0.87571E+05         0.12244E+06         0.00000E+00
    0.12244E+06        -0.53425E+05         0.00000E+00
    0.00000E+00         0.00000E+00        -0.28199E+05
 
   -0.82639E+05         0.12413E+06         0.00000E+00
    0.12413E+06        -0.55785E+05         0.00000E+00
    0.00000E+00         0.00000E+00        -0.27685E+05
 
   -0.77631E+05         0.12571E+06         0.00000E+00
    0.12571E+06        -0.58166E+05         0.00000E+00
    0.00000E+00         0.00000E+00        -0.27159E+05
 
   -0.72551E+05         0.12719E+06         0.00000E+00
    0.12719E+06        -0.60567E+05         0.00000E+00
    0.00000E+00         0.00000E+00        -0.26623E+05
 
   -0.67400E+05         0.12858E+06         0.00000E+00
    0.12858E+06        -0.62986E+05         0.00000E+00
    0.00000E+00         0.00000E+00        -0.26077E+05
 
   -0.62180E+05         0.12986E+06         0.00000E+00
    0.12986E+06        -0.65423E+05         0.00000E+00
    0.00000E+00         0.00000E+00        -0.25521E+05
 
   -0.56894E+05         0.13105E+06         0.00000E+00
    0.13105E+06        -0.67876E+05         0.00000E+00
    0.00000E+00         0.00000E+00        -0.24954E+05
 
   -0.51543E+05         0.13213E+06         0.00000E+00
    0.13213E+06        -0.70344E+05         0.00000E+00
    0.00000E+00         0.00000E+00        -0.24377E+05
 
   -0.46130E+05         0.13311E+06         0.00000E+00
    0.13311E+06        -0.72826E+05         0.00000E+00
    0.00000E+00         0.00000E+00        -0.23791E+05
 
   -0.40654E+05         0.13399E+06         0.00000E+00
    0.13399E+06        -0.75321E+05         0.00000E+00
    0.00000E+00         0.00000E+00        -0.23195E+05
 
   -0.35119E+05         0.13477E+06         0.00000E+00
    0.13477E+06        -0.77827E+05         0.00000E+00
    0.00000E+00         0.00000E+00        -0.22589E+05
 
   -0.29525E+05         0.13545E+06         0.00000E+00
    0.13545E+06        -0.80345E+05         0.00000E+00
    0.00000E+00         0.00000E+00        -0.21974E+05
 
   -0.23875E+05         0.13602E+06         0.00000E+00
    0.13602E+06        -0.82873E+05         0.00000E+00
    0.00000E+00         0.00000E+00        -0.21350E+05
 
   -0.16835E+06         0.18404E+04         0.00000E+00
    0.18404E+04         0.25488E+02         0.00000E+00
    0.00000E+00         0.00000E+00        -0.33664E+05
 
   -0.16846E+06         0.55430E+04         0.00000E+00
    0.55430E+04        -0.56060E+02         0.00000E+00
    0.00000E+00         0.00000E+00        -0.33703E+05
 
   -0.16841E+06         0.92484E+04         0.00000E+00
    0.92484E+04        -0.21901E+03         0.00000E+00
    0.00000E+00         0.00000E+00        -0.33726E+05
 
   -0.16820E+06         0.12952E+05         0.00000E+00
    0.12952E+05        -0.46301E+03         0.00000E+00
    0.00000E+00         0.00000E+00        -0.33733E+05
 
   -0.16783E+06         0.16648E+05         0.00000E+00
    0.16648E+05        -0.78755E+03         0.00000E+00
    0.00000E+00         0.00000E+00        -0.33724E+05
 
   -0.16730E+06         0.20333E+05         0.00000E+00
    0.20333E+05        -0.11920E+04         0.00000E+00
    0.00000E+00         0.00000E+00        -0.33699E+05
 
   -0.16661E+06         0.24002E+05         0.00000E+00
    0.24002E+05        -0.16754E+04         0.00000E+00
    0.00000E+00         0.00000E+00        -0.33658E+05
 
   -0.16577E+06         0.27650E+05         0.00000E+00
    0.27650E+05        -0.22370E+04         0.00000E+00
    0.00000E+00         0.00000E+00        -0.33601E+05
 
   -0.16476E+06         0.31274E+05         0.00000E+00
    0.31274E+05        -0.28755E+04         0.00000E+00
    0.00000E+00         0.00000E+00        -0.33528E+05
 
   -0.16361E+06         0.34868E+05         0.00000E+00
    0.34868E+05        -0.35898E+04         0.00000E+00
    0.00000E+00         0.00000E+00        -0.33439E+05
 
   -0.16230E+06         0.38430E+05         0.00000E+00
    0.38430E+05        -0.43785E+04         0.00000E+00
    0.00000E+00         0.00000E+00        -0.33335E+05
 
   -0.16084E+06         0.41954E+05         0.00000E+00
    0.41954E+05        -0.52403E+04         0.00000E+00
    0.00000E+00         0.00000E+00        -0.33216E+05
 
   -0.15923E+06         0.45438E+05         0.00000E+00
    0.45438E+05        -0.61735E+04         0.00000E+00
    0.00000E+00         0.00000E+00        -0.33081E+05
 
   -0.15748E+06         0.48878E+05         0.00000E+00
    0.48878E+05        -0.71766E+04         0.00000E+00
    0.00000E+00         0.00000E+00        -0.32931E+05
 
   -0.15558E+06         0.52269E+05         0.00000E+00
    0.52269E+05        -0.82479E+04         0.00000E+00
    0.00000E+00         0.00000E+00        -0.32766E+05
 
   -0.15355E+06         0.55610E+05         0.00000E+00
    0.55610E+05        -0.93856E+04         0.00000E+00
    0.00000E+00         0.00000E+00        -0.32587E+05
 
   -0.15138E+06         0.58896E+05         0.00000E+00
    0.58896E+05        -0.10588E+05         0.00000E+00
    0.00000E+00         0.00000E+00        -0.32393E+05
 
   -0.14907E+06         0.62125E+05         0.00000E+00
    0.62125E+05        -0.11853E+05         0.00000E+00
    0.00000E+00         0.00000E+00        -0.32184E+05
 
   -0.14663E+06         0.65294E+05         0.00000E+00
    0.65294E+05        -0.13178E+05         0.00000E+00
    0.00000E+00         0.00000E+00        -0.31961E+05
 
   -0.14406E+06         0.68400E+05         0.00000E+00
    0.68400E+05        -0.14563E+05         0.00000E+00
    0.00000E+00         0.00000E+00        -0.31725E+05
 
   -0.14137E+06         0.71441E+05         0.00000E+00
    0.71441E+05        -0.16004E+05         0.00000E+00
    0.00000E+00         0.00000E+00        -0.31474E+05
 
   -0.13855E+06         0.74413E+05         0.00000E+00
    0.74413E+05        -0.17500E+05         0.00000E+00
    0.00000E+00         0.00000E+00        -0.31210E+05
 
   -0.13561E+06         0.77316E+05         0.00000E+00
    0.77316E+05        -0.19049E+05         0.00000E+00
    0.00000E+00         0.00000E+00        -0.30932E+05
 
   -0.13256E+06         0.80147E+05         0.00000E+00
    0.80147E+05        -0.20649E+05         0.00000E+00
    0.00000E+00         0.00000E+00        -0.30641E+05
 
   -0.12939E+06         0.82903E+05         0.00000E+00
    0.82903E+05        -0.22298E+05         0.00000E+00
    0.00000E+00         0.00000E+00        -0.30338E+05
 
   -0.12611E+06         0.85583E+05         0.00000E+00
    0.85583E+05        -0.23993E+05         0.00000E+00
    0.00000E+00         0.00000E+00        -0.30021E+05
 
   -0.12273E+06         0.88185E+05         0.00000E+00
    0.88185E+05        -0.25733E+05         0.00000E+00
    0.00000E+00         0.00000E+00        -0.29692E+05
 
   -0.11924E+06         0.90708E+05         0.00000E+00
    0.90708E+05        -0.27516E+05         0.00000E+00
    0.00000E+00         0.00000E+00        -0.29350E+05
 
   -0.11564E+06         0.93150E+05         0.00000E+00
    0.93150E+05        -0.29339E+05         0.00000E+00
    0.00000E+00         0.00000E+00        -0.28996E+05
 
   -0.11195E+06         0.95509E+05         0.00000E+00
    0.95509E+05        -0.31201E+05         0.00000E+00
    0.00000E+00         0.00000E+00        -0.28631E+05
 
   -0.10816E+06         0.97785E+05         0.00000E+00
    0.97785E+05        -0.33101E+05         0.00000E+00
    0.00000E+00         0.00000E+00        -0.28253E+05
 
   -0.10428E+06         0.99976E+05         0.00000E+00
    0.99976E+05        -0.35035E+05         0.00000E+00
    0.00000E+00         0.00000E+00        -0.27864E+05
 
   -0.10031E+06         0.10208E+06         0.00000E+00
    0.10208E+06        -0.37003E+05         0.00000E+00
    0.00000E+00         0.00000E+00        -0.27463E+05
 
   -0.96257E+05         0.10410E+06         0.00000E+00
    0.10410E+06        -0.39002E+05         0.00000E+00
    0.00000E+00         0.00000E+00        -0.27052E+05
 
   -0.92114E+05         0.10603E+06         0.00000E+00
    0.10603E+06        -0.41031E+05         0.00000E+00
    0.00000E+00         0.00000E+00        -0.26629E+05
 
   -0.87890E+05         0.10787E+06         0.00000E+00
    0.10787E+06        -0.43088E+05         0.00000E+00
    0.00000E+00         0.00000E+00        -0.26195E+05
 
   -0.83585E+05         0.10962E+06         0.00000E+00
    0.10962E+06        -0.45171E+05         0.00000E+00
    0.00000E+00         0.00000E+00        -0.25751E+05
 
   -0.79204E+05         0.11128E+06         0.00000E+00
    0.11128E+06        -0.47279E+05         0.00000E+00
    0.00000E+00         0.00000E+00        -0.25297E+05
 
   -0.74747E+05         0.11285E+06         0.00000E+00
    0.11285E+06        -0.49411E+05         0.00000E+00
    0.00000E+00         0.00000E+00        -0.24832E+05
 
   -0.70218E+05         0.11433E+06         0.00000E+00
    0.11433E+06        -0.51564E+05         0.00000E+00
    0.00000E+00         0.00000E+00        -0.24356E+05
 
   -0.65618E+05         0.11572E+06         0.00000E+00
    0.11572E+06        -0.53738E+05         0.00000E+00
    0.00000E+00         0.00000E+00        -0.23871E+05
 
   -0.60950E+05         0.11701E+06         0.00000E+00
    0.11701E+06        -0.55931E+05         0.00000E+00
    0.00000E+00         0.00000E+00        -0.23376E+05
 
   -0.56216E+05         0.11821E+06         0.00000E+00
    0.11821E+06        -0.58142E+05         0.00000E+00
    0.00000E+00         0.00000E+00        -0.22872E+05
 
   -0.51418E+05         0.11931E+06         0.00000E+00
    0.11931E+06        -0.60370E+05         0.00000E+00
    0.00000E+00         0.00000E+00        -0.22358E+05
 
   -0.46557E+05         0.12032E+06         0.00000E+00
    0.12032E+06        -0.62612E+05         0.00000E+00
    0.00000E+00         0.00000E+00        -0.21834E+05
 
   -0.41636E+05         0.12124E+06         0.00000E+00
    0.12124E+06        -0.64869E+05         0.00000E+00
    0.00000E+00         0.00000E+00        -0.21301E+05
 
   -0.36656E+05         0.12206E+06         0.00000E+00
    0.12206E+06        -0.67140E+05         0.00000E+00
    0.00000E+00         0.00000E+00        -0.20759E+05
 
   -0.31619E+05         0.12278E+06         0.00000E+00
    0.12278E+06        -0.69422E+05         0.00000E+00
    0.00000E+00         0.00000E+00        -0.20208E+05
 
   -0.26526E+05         0.12340E+06         0.00000E+00
    0.12340E+06        -0.71715E+05         0.00000E+00
    0.00000E+00         0.00000E+00        -0.19648E+05
 
   -0.21380E+05         0.12393E+06         0.00000E+00
    0.12393E+06        -0.74018E+05         0.00000E+00
    0.00000E+00         0.00000E+00        -0.19080E+05
 
   -0.15082E+06         0.16519E+04         0.00000E+00
    0.16519E+04         0.21965E+02         0.00000E+00
    0.00000E+00         0.00000E+00        -0.30159E+05
 
   -0.15090E+06         0.49767E+04         0.00000E+00
    0.49767E+04        -0.47916E+02         0.00000E+00
    0.00000E+00         0.00000E+00        -0.30190E+05
 
   -0.15085E+06         0.83052E+04         0.00000E+00
    0.83052E+04        -0.18787E+03         0.00000E+00
    0.00000E+00         0.00000E+00        -0.30208E+05
 
   -0.15066E+06         0.11633E+05         0.00000E+00
    0.11633E+05        -0.39775E+03         0.00000E+00
    0.00000E+00         0.00000E+00        -0.30211E+05
 
   -0.15033E+06         0.14956E+05         0.00000E+00
    0.14956E+05        -0.67729E+03         0.00000E+00
    0.00000E+00         0.00000E+00        -0.30201E+05
 
   -0.14986E+06         0.18271E+05         0.00000E+00
    0.18271E+05        -0.10261E+04         0.00000E+00
    0.00000E+00         0.00000E+00        -0.30176E+05
 
   -0.14925E+06         0.21574E+05         0.00000E+00
    0.21574E+05        -0.14435E+04         0.00000E+00
    0.00000E+00         0.00000E+00        -0.30138E+05
 
   -0.14850E+06         0.24860E+05         0.00000E+00
    0.24860E+05        -0.19290E+04         0.00000E+00
    0.00000E+00         0.00000E+00        -0.30086E+05
 
   -0.14762E+06         0.28126E+05         0.00000E+00
    0.28126E+05        -0.24818E+04         0.00000E+00
    0.00000E+00         0.00000E+00        -0.30020E+05
 
   -0.14660E+06         0.31369E+05         0.00000E+00
    0.31369E+05        -0.31010E+04         0.00000E+00
    0.00000E+00         0.00000E+00        -0.29941E+05
 
   -0.14545E+06         0.34584E+05         0.00000E+00
    0.34584E+05        -0.37856E+04         0.00000E+00
    0.00000E+00         0.00000E+00        -0.29848E+05
 
   -0.14417E+06         0.37770E+05         0.00000E+00
    0.37770E+05        -0.45345E+04         0.00000E+00
    0.00000E+00         0.00000E+00        -0.29741E+05
 
   -0.14276E+06         0.40921E+05         0.00000E+00
    0.40921E+05        -0.53467E+04         0.00000E+00
    0.00000E+00         0.00000E+00        -0.29621E+05
 
   -0.14122E+06         0.44035E+05         0.00000E+00
    0.44035E+05        -0.62208E+04         0.00000E+00
    0.00000E+00         0.00000E+00        -0.29488E+05
 
   -0.13955E+06         0.47109E+05         0.00000E+00
    0.47109E+05        -0.71556E+04         0.00000E+00
    0.00000E+00         0.00000E+00        -0.29341E+05
 
   -0.13776E+06         0.50140E+05         0.00000E+00
    0.50140E+05        -0.81496E+04         0.00000E+00
    0.00000E+00         0.00000E+00        -0.29181E+05
 
   -0.13584E+06         0.53124E+05         0.00000E+00
    0.53124E+05        -0.92016E+04         0.00000E+00
    0.00000E+00         0.00000E+00        -0.29009E+05
 
   -0.13381E+06         0.56060E+05         0.00000E+00
    0.56060E+05        -0.10310E+05         0.00000E+00
    0.00000E+00         0.00000E+00        -0.28823E+05
 
   -0.13165E+06         0.58944E+05         0.00000E+00
    0.58944E+05        -0.11473E+05         0.00000E+00
    0.00000E+00         0.00000E+00        -0.28625E+05
 
   -0.12938E+06         0.61775E+05         0.00000E+00
    0.61775E+05        -0.12690E+05         0.00000E+00
    0.00000E+00         0.00000E+00        -0.28414E+05
 
   -0.12700E+06         0.64549E+05         0.00000E+00
    0.64549E+05        -0.13958E+05         0.00000E+00
    0.00000E+00         0.00000E+00        -0.28191E+05
 
   -0.12450E+06         0.67264E+05         0.00000E+00
    0.67264E+05        -0.15276E+05         0.00000E+00
    0.00000E+00         0.00000E+00        -0.27956E+05
 
   -0.12190E+06         0.69918E+05         0.00000E+00
    0.69918E+05        -0.16643E+05         0.00000E+00
    0.00000E+00         0.00000E+00        -0.27708E+05
 
   -0.11919E+06         0.72509E+05         0.00000E+00
    0.72509E+05        -0.18057E+05         0.00000E+00
    0.00000E+00         0.00000E+00        -0.27448E+05
 
   -0.11637E+06         0.75035E+05         0.00000E+00
    0.75035E+05        -0.19515E+05         0.00000E+00
    0.00000E+00         0.00000E+00        -0.27177E+05
 
   -0.11345E+06         0.77494E+05         0.00000E+00
    0.77494E+05        -0.21017E+05         0.00000E+00
    0.00000E+00         0.00000E+00        -0.26894E+05
 
   -0.11044E+06         0.79885E+05         0.00000E+00
    0.79885E+05        -0.22561E+05         0.00000E+00
    0.00000E+00         0.00000E+00        -0.26600E+05
 
   -0.10733E+06         0.82205E+05         0.00000E+00
    0.82205E+05        -0.24145E+05         0.00000E+00
    0.00000E+00         0.00000E+00        -0.26294E+05
 
   -0.10412E+06         0.84453E+05         0.00000E+00
    0.84453E+05        -0.25768E+05         0.00000E+00
    0.00000E+00         0.00000E+00        -0.25977E+05
 
   -0.10082E+06         0.86628E+05         0.00000E+00
    0.86628E+05        -0.27427E+05         0.00000E+00
    0.00000E+00         0.00000E+00        -0.25649E+05
 
   -0.97432E+05         0.88727E+05         0.00000E+00
    0.88727E+05        -0.29121E+05         0.00000E+00
    0.00000E+00         0.00000E+00        -0.25311E+05
 
   -0.93958E+05         0.90750E+05         0.00000E+00
    0.90750E+05        -0.30849E+05         0.00000E+00
    0.00000E+00         0.00000E+00        -0.24961E+05
 
   -0.90399E+05         0.92696E+05         0.00000E+00
    0.92696E+05        -0.32609E+05         0.00000E+00
    0.00000E+00         0.00000E+00        -0.24602E+05
 
   -0.86758E+05         0.94563E+05         0.00000E+00
    0.94563E+05        -0.34399E+05         0.00000E+00
    0.00000E+00         0.00000E+00        -0.24231E+05
 
   -0.83037E+05         0.96351E+05         0.00000E+00
    0.96351E+05        -0.36218E+05         0.00000E+00
    0.00000E+00         0.00000E+00        -0.23851E+05
 
   -0.79239E+05         0.98057E+05         0.00000E+00
    0.98057E+05        -0.38065E+05         0.00000E+00
    0.00000E+00         0.00000E+00        -0.23461E+05
 
   -0.75365E+05         0.99681E+05         0.00000E+00
    0.99681E+05        -0.39937E+05         0.00000E+00
    0.00000E+00         0.00000E+00        -0.23060E+05
 
   -0.71419E+05         0.10122E+06         0.00000E+00
    0.10122E+06        -0.41834E+05         0.00000E+00
    0.00000E+00         0.00000E+00        -0.22650E+05
 
   -0.67402E+05         0.10268E+06         0.00000E+00
    0.10268E+06        -0.43753E+05         0.00000E+00
    0.00000E+00         0.00000E+00        -0.22231E+05
 
   -0.63316E+05         0.10405E+06         0.00000E+00
    0.10405E+06        -0.45695E+05         0.00000E+00
    0.00000E+00         0.00000E+00        -0.21802E+05
 
   -0.59163E+05         0.10534E+06         0.00000E+00
    0.10534E+06        -0.47656E+05         0.00000E+00
    0.00000E+00         0.00000E+00        -0.21364E+05
 
   -0.54946E+05         0.10654E+06         0.00000E+00
    0.10654E+06        -0.49637E+05         0.00000E+00
    0.00000E+00         0.00000E+00        -0.20917E+05
 
   -0.50666E+05         0.10765E+06         0.00000E+00
    0.10765E+06        -0.51635E+05         0.00000E+00
    0.00000E+00         0.00000E+00        -0.20460E+05
 
   -0.46325E+05         0.10868E+06         0.00000E+00
    0.10868E+06        -0.53650E+05         0.00000E+00
    0.00000E+00         0.00000E+00        -0.19995E+05
 
   -0.41926E+05         0.10961E+06         0.00000E+00
    0.10961E+06        -0.55680E+05         0.00000E+00
    0.00000E+00         0.00000E+00        -0.19521E+05
 
   -0.37470E+05         0.11046E+06         0.00000E+00
    0.11046E+06        -0.57724E+05         0.00000E+00
    0.00000E+00         0.00000E+00        -0.19039E+05
 
   -0.32958E+05         0.11122E+06         0.00000E+00
    0.11122E+06        -0.59780E+05         0.00000E+00
    0.00000E+00         0.00000E+00        -0.18548E+05
 
   -0.28394E+05         0.11188E+06         0.00000E+00
    0.11188E+06        -0.61849E+05         0.00000E+00
    0.00000E+00         0.00000E+00        -0.18048E+05
 
   -0.23777E+05         0.11245E+06         0.00000E+00
    0.11245E+06        -0.63928E+05         0.00000E+00
    0.00000E+00         0.00000E+00        -0.17541E+05
 
   -0.19111E+05         0.11293E+06         0.00000E+00
    0.11293E+06        -0.66017E+05         0.00000E+00
    0.00000E+00         0.00000E+00        -0.17026E+05
 
   -0.13504E+06         0.14901E+04         0.00000E+00
    0.14901E+04         0.18997E+02         0.00000E+00
    0.00000E+00         0.00000E+00        -0.27004E+05
 
   -0.13510E+06         0.44895E+04         0.00000E+00
    0.44895E+04        -0.41176E+02         0.00000E+00
    0.00000E+00         0.00000E+00        -0.27028E+05
 
   -0.13504E+06         0.74924E+04         0.00000E+00
    0.74924E+04        -0.16190E+03         0.00000E+00
    0.00000E+00         0.00000E+00        -0.27040E+05
 
   -0.13485E+06         0.10496E+05         0.00000E+00
    0.10496E+05        -0.34316E+03         0.00000E+00
    0.00000E+00         0.00000E+00        -0.27039E+05
 
   -0.13455E+06         0.13495E+05         0.00000E+00
    0.13495E+05        -0.58483E+03         0.00000E+00
    0.00000E+00         0.00000E+00        -0.27027E+05
 
   -0.13413E+06         0.16489E+05         0.00000E+00
    0.16489E+05        -0.88668E+03         0.00000E+00
    0.00000E+00         0.00000E+00        -0.27003E+05
 
   -0.13358E+06         0.19472E+05         0.00000E+00
    0.19472E+05        -0.12483E+04         0.00000E+00
    0.00000E+00         0.00000E+00        -0.26966E+05
 
   -0.13292E+06         0.22442E+05         0.00000E+00
    0.22442E+05        -0.16694E+04         0.00000E+00
    0.00000E+00         0.00000E+00        -0.26918E+05
 
   -0.13214E+06         0.25395E+05         0.00000E+00
    0.25395E+05        -0.21493E+04         0.00000E+00
    0.00000E+00         0.00000E+00        -0.26857E+05
 
   -0.13124E+06         0.28329E+05         0.00000E+00
    0.28329E+05        -0.26874E+04         0.00000E+00
    0.00000E+00         0.00000E+00        -0.26785E+05
 
   -0.13022E+06         0.31241E+05         0.00000E+00
    0.31241E+05        -0.32830E+04         0.00000E+00
    0.00000E+00         0.00000E+00        -0.26700E+05
 
   -0.12909E+06         0.34126E+05         0.00000E+00
    0.34126E+05        -0.39354E+04         0.00000E+00
    0.00000E+00         0.00000E+00        -0.26604E+05
 
   -0.12784E+06         0.36983E+05         0.00000E+00
    0.36983E+05        -0.46436E+04         0.00000E+00
    0.00000E+00         0.00000E+00        -0.26496E+05
 
   -0.12647E+06         0.39808E+05         0.00000E+00
    0.39808E+05        -0.54067E+04         0.00000E+00
    0.00000E+00         0.00000E+00        -0.26376E+05
 
   -0.12500E+06         0.42599E+05         0.00000E+00
    0.42599E+05        -0.62237E+04         0.00000E+00
    0.00000E+00         0.00000E+00        -0.26244E+05
 
   -0.12341E+06         0.45353E+05         0.00000E+00
    0.45353E+05        -0.70935E+04         0.00000E+00
    0.00000E+00         0.00000E+00        -0.26101E+05
 
   -0.12172E+06         0.48067E+05         0.00000E+00
    0.48067E+05        -0.80151E+04         0.00000E+00
    0.00000E+00         0.00000E+00        -0.25947E+05
 
   -0.11992E+06         0.50739E+05         0.00000E+00
    0.50739E+05        -0.89872E+04         0.00000E+00
    0.00000E+00         0.00000E+00        -0.25781E+05
 
   -0.11801E+06         0.53367E+05         0.00000E+00
    0.53367E+05        -0.10009E+05         0.00000E+00
    0.00000E+00         0.00000E+00        -0.25603E+05
 
   -0.11599E+06         0.55948E+05         0.00000E+00
    0.55948E+05        -0.11078E+05         0.00000E+00
    0.00000E+00         0.00000E+00        -0.25415E+05
 
   -0.11388E+06         0.58479E+05         0.00000E+00
    0.58479E+05        -0.12195E+05         0.00000E+00
    0.00000E+00         0.00000E+00        -0.25215E+05
 
   -0.11166E+06         0.60959E+05         0.00000E+00
    0.60959E+05        -0.13357E+05         0.00000E+00
    0.00000E+00         0.00000E+00        -0.25004E+05
 
   -0.10935E+06         0.63386E+05         0.00000E+00
    0.63386E+05        -0.14563E+05         0.00000E+00
    0.00000E+00         0.00000E+00        -0.24783E+05
 
   -0.10694E+06         0.65757E+05         0.00000E+00
    0.65757E+05        -0.15811E+05         0.00000E+00
    0.00000E+00         0.00000E+00        -0.24550E+05
 
   -0.10444E+06         0.68070E+05         0.00000E+00
    0.68070E+05        -0.17102E+05         0.00000E+00
    0.00000E+00         0.00000E+00        -0.24308E+05
 
   -0.10184E+06         0.70324E+05         0.00000E+00
    0.70324E+05        -0.18432E+05         0.00000E+00
    0.00000E+00         0.00000E+00        -0.24054E+05
 
   -0.99151E+05         0.72518E+05         0.00000E+00
    0.72518E+05        -0.19801E+05         0.00000E+00
    0.00000E+00         0.00000E+00        -0.23790E+05
 
   -0.96375E+05         0.74648E+05         0.00000E+00
    0.74648E+05        -0.21207E+05         0.00000E+00
    0.00000E+00         0.00000E+00        -0.23516E+05
 
   -0.93513E+05         0.76714E+05         0.00000E+00
    0.76714E+05        -0.22649E+05         0.00000E+00
    0.00000E+00         0.00000E+00        -0.23232E+05
 
   -0.90566E+05         0.78715E+05         0.00000E+00
    0.78715E+05        -0.24125E+05         0.00000E+00
    0.00000E+00         0.00000E+00        -0.22938E+05
 
   -0.87537E+05         0.80647E+05         0.00000E+00
    0.80647E+05        -0.25634E+05         0.00000E+00
    0.00000E+00         0.00000E+00        -0.22634E+05
 
   -0.84429E+05         0.82512E+05         0.00000E+00
    0.82512E+05        -0.27175E+05         0.00000E+00
    0.00000E+00         0.00000E+00        -0.22321E+05
 
   -0.81242E+05         0.84305E+05         0.00000E+00
    0.84305E+05        -0.28746E+05         0.00000E+00
    0.00000E+00         0.00000E+00        -0.21998E+05
 
   -0.77979E+05         0.86028E+05         0.00000E+00
    0.86028E+05        -0.30346E+05         0.00000E+00
    0.00000E+00         0.00000E+00        -0.21665E+05
 
   -0.74642E+05         0.87678E+05         0.00000E+00
    0.87678E+05        -0.31973E+05         0.00000E+00
    0.00000E+00         0.00000E+00        -0.21323E+05
 
   -0.71233E+05         0.89254E+05         0.00000E+00
    0.89254E+05        -0.33627E+05         0.00000E+00
    0.00000E+00         0.00000E+00        -0.20972E+05
 
   -0.67755E+05         0.90755E+05         0.00000E+00
    0.90755E+05        -0.35305E+05         0.00000E+00
    0.00000E+00         0.00000E+00        -0.20612E+05
 
   -0.64208E+05         0.92180E+05         0.00000E+00
    0.92180E+05        -0.37007E+05         0.00000E+00
    0.00000E+00         0.00000E+00        -0.20243E+05
 
   -0.60596E+05         0.93527E+05         0.00000E+00
    0.93527E+05        -0.38730E+05         0.00000E+00
    0.00000E+00         0.00000E+00        -0.19865E+05
 
   -0.56919E+05         0.94797E+05         0.00000E+00
    0.94797E+05        -0.40475E+05         0.00000E+00
    0.00000E+00         0.00000E+00        -0.19479E+05
 
   -0.53181E+05         0.95987E+05         0.00000E+00
    0.95987E+05        -0.42239E+05         0.00000E+00
    0.00000E+00         0.00000E+00        -0.19084E+05
 
   -0.49382E+05         0.97097E+05         0.00000E+00
    0.97097E+05        -0.44022E+05         0.00000E+00
    0.00000E+00         0.00000E+00        -0.18681E+05
 
   -0.45525E+05         0.98127E+05         0.00000E+00
    0.98127E+05        -0.45821E+05         0.00000E+00
    0.00000E+00         0.00000E+00        -0.18269E+05
 
   -0.41612E+05         0.99074E+05         0.00000E+00
    0.99074E+05        -0.47637E+05         0.00000E+00
    0.00000E+00         0.00000E+00        -0.17850E+05
 
   -0.37645E+05         0.99938E+05         0.00000E+00
    0.99938E+05        -0.49467E+05         0.00000E+00
    0.00000E+00         0.00000E+00        -0.17422E+05
 
   -0.33624E+05         0.10072E+06         0.00000E+00
    0.10072E+06        -0.51310E+05         0.00000E+00
    0.00000E+00         0.00000E+00        -0.16987E+05
 
   -0.29553E+05         0.10141E+06         0.00000E+00
    0.10141E+06        -0.53166E+05         0.00000E+00
    0.00000E+00         0.00000E+00        -0.16544E+05
 
   -0.25433E+05         0.10202E+06         0.00000E+00
    0.10202E+06        -0.55034E+05         0.00000E+00
    0.00000E+00         0.00000E+00        -0.16093E+05
 
   -0.21266E+05         0.10255E+06         0.00000E+00
    0.10255E+06        -0.56911E+05         0.00000E+00
    0.00000E+00         0.00000E+00        -0.15635E+05
 
   -0.17053E+05         0.10298E+06         0.00000E+00
    0.10298E+06        -0.58797E+05         0.00000E+00
    0.00000E+00         0.00000E+00        -0.15170E+05
 
   -0.12078E+06         0.13506E+04         0.00000E+00
    0.13506E+04         0.16483E+02         0.00000E+00
    0.00000E+00         0.00000E+00        -0.24152E+05
 
   -0.12081E+06         0.40684E+04         0.00000E+00
    0.40684E+04        -0.35559E+02         0.00000E+00
    0.00000E+00         0.00000E+00        -0.24169E+05
 
   -0.12074E+06         0.67894E+04         0.00000E+00
    0.67894E+04        -0.14011E+03         0.00000E+00
    0.00000E+00         0.00000E+00        -0.24176E+05
 
   -0.12056E+06         0.95107E+04         0.00000E+00
    0.95107E+04        -0.29722E+03         0.00000E+00
    0.00000E+00         0.00000E+00        -0.24172E+05
 
   -0.12028E+06         0.12229E+05         0.00000E+00
    0.12229E+05        -0.50687E+03         0.00000E+00
    0.00000E+00         0.00000E+00        -0.24158E+05
 
   -0.11990E+06         0.14943E+05         0.00000E+00
    0.14943E+05        -0.76892E+03         0.00000E+00
    0.00000E+00         0.00000E+00        -0.24133E+05
 
   -0.11941E+06         0.17647E+05         0.00000E+00
    0.17647E+05        -0.10832E+04         0.00000E+00
    0.00000E+00         0.00000E+00        -0.24098E+05
 
   -0.11881E+06         0.20341E+05         0.00000E+00
    0.20341E+05        -0.14493E+04         0.00000E+00
    0.00000E+00         0.00000E+00        -0.24052E+05
 
   -0.11811E+06         0.23020E+05         0.00000E+00
    0.23020E+05        -0.18670E+04         0.00000E+00
    0.00000E+00         0.00000E+00        -0.23996E+05
 
   -0.11731E+06         0.25683E+05         0.00000E+00
    0.25683E+05        -0.23357E+04         0.00000E+00
    0.00000E+00         0.00000E+00        -0.23929E+05
 
   -0.11640E+06         0.28326E+05         0.00000E+00
    0.28326E+05        -0.28551E+04         0.00000E+00
    0.00000E+00         0.00000E+00        -0.23852E+05
 
   -0.11540E+06         0.30947E+05         0.00000E+00
    0.30947E+05        -0.34243E+04         0.00000E+00
    0.00000E+00         0.00000E+00        -0.23764E+05
 
   -0.11429E+06         0.33544E+05         0.00000E+00
    0.33544E+05        -0.40429E+04         0.00000E+00
    0.00000E+00         0.00000E+00        -0.23666E+05
 
   -0.11308E+06         0.36113E+05         0.00000E+00
    0.36113E+05        -0.47101E+04         0.00000E+00
    0.00000E+00         0.00000E+00        -0.23558E+05
 
   -0.11177E+06         0.38652E+05         0.00000E+00
    0.38652E+05        -0.54251E+04         0.00000E+00
    0.00000E+00         0.00000E+00        -0.23439E+05
 
   -0.11036E+06         0.41159E+05         0.00000E+00
    0.41159E+05        -0.61871E+04         0.00000E+00
    0.00000E+00         0.00000E+00        -0.23310E+05
 
   -0.10886E+06         0.43632E+05         0.00000E+00
    0.43632E+05        -0.69952E+04         0.00000E+00
    0.00000E+00         0.00000E+00        -0.23171E+05
 
   -0.10726E+06         0.46068E+05         0.00000E+00
    0.46068E+05        -0.78485E+04         0.00000E+00
    0.00000E+00         0.00000E+00        -0.23022E+05
 
   -0.10557E+06         0.48465E+05         0.00000E+00
    0.48465E+05        -0.87461E+04         0.00000E+00
    0.00000E+00         0.00000E+00        -0.22862E+05
 
   -0.10378E+06         0.50820E+05         0.00000E+00
    0.50820E+05        -0.96868E+04         0.00000E+00
    0.00000E+00         0.00000E+00        -0.22693E+05
 
   -0.10190E+06         0.53132E+05         0.00000E+00
    0.53132E+05        -0.10670E+05         0.00000E+00
    0.00000E+00         0.00000E+00        -0.22514E+05
 
   -0.99932E+05         0.55399E+05         0.00000E+00
    0.55399E+05        -0.11694E+05         0.00000E+00
    0.00000E+00         0.00000E+00        -0.22325E+05
 
   -0.97875E+05         0.57618E+05         0.00000E+00
    0.57618E+05        -0.12758E+05         0.00000E+00
    0.00000E+00         0.00000E+00        -0.22126E+05
 
   -0.95731E+05         0.59788E+05         0.00000E+00
    0.59788E+05        -0.13861E+05         0.00000E+00
    0.00000E+00         0.00000E+00        -0.21918E+05
 
   -0.93502E+05         0.61907E+05         0.00000E+00
    0.61907E+05        -0.15001E+05         0.00000E+00
    0.00000E+00         0.00000E+00        -0.21701E+05
 
   -0.91189E+05         0.63973E+05         0.00000E+00
    0.63973E+05        -0.16178E+05         0.00000E+00
    0.00000E+00         0.00000E+00        -0.21473E+05
 
   -0.88794E+05         0.65985E+05         0.00000E+00
    0.65985E+05        -0.17391E+05         0.00000E+00
    0.00000E+00         0.00000E+00        -0.21237E+05
 
   -0.86319E+05         0.67940E+05         0.00000E+00
    0.67940E+05        -0.18638E+05         0.00000E+00
    0.00000E+00         0.00000E+00        -0.20991E+05
 
   -0.83766E+05         0.69837E+05         0.00000E+00
    0.69837E+05        -0.19918E+05         0.00000E+00
    0.00000E+00         0.00000E+00        -0.20737E+05
 
   -0.81136E+05         0.71675E+05         0.00000E+00
    0.71675E+05        -0.21229E+05         0.00000E+00
    0.00000E+00         0.00000E+00        -0.20473E+05
 
   -0.78431E+05         0.73452E+05         0.00000E+00
    0.73452E+05        -0.22571E+05         0.00000E+00
    0.00000E+00         0.00000E+00        -0.20201E+05
 
   -0.75653E+05         0.75167E+05         0.00000E+00
    0.75167E+05        -0.23943E+05         0.00000E+00
    0.00000E+00         0.00000E+00        -0.19919E+05
 
   -0.72804E+05         0.76818E+05         0.00000E+00
    0.76818E+05        -0.25342E+05         0.00000E+00
    0.00000E+00         0.00000E+00        -0.19629E+05
 
   -0.69885E+05         0.78405E+05         0.00000E+00
    0.78405E+05        -0.26769E+05         0.00000E+00
    0.00000E+00         0.00000E+00        -0.19331E+05
 
   -0.66899E+05         0.79925E+05         0.00000E+00
    0.79925E+05        -0.28221E+05         0.00000E+00
    0.00000E+00         0.00000E+00        -0.19024E+05
 
   -0.63846E+05         0.81377E+05         0.00000E+00
    0.81377E+05        -0.29698E+05         0.00000E+00
    0.00000E+00         0.00000E+00        -0.18709E+05
 
   -0.60729E+05         0.82761E+05         0.00000E+00
    0.82761E+05        -0.31198E+05         0.00000E+00
    0.00000E+00         0.00000E+00        -0.18385E+05
 
   -0.57550E+05         0.84075E+05         0.00000E+00
    0.84075E+05        -0.32721E+05         0.00000E+00
    0.00000E+00         0.00000E+00        -0.18054E+05
 
   -0.54310E+05         0.85318E+05         0.00000E+00
    0.85318E+05        -0.34264E+05         0.00000E+00
    0.00000E+00         0.00000E+00        -0.17715E+05
 
   -0.51012E+05         0.86489E+05         0.00000E+00
    0.86489E+05        -0.35826E+05         0.00000E+00
    0.00000E+00         0.00000E+00        -0.17368E+05
 
   -0.47656E+05         0.87587E+05         0.00000E+00
    0.87587E+05        -0.37408E+05         0.00000E+00
    0.00000E+00         0.00000E+00        -0.17013E+05
 
   -0.44246E+05         0.88611E+05         0.00000E+00
    0.88611E+05        -0.39007E+05         0.00000E+00
    0.00000E+00         0.00000E+00        -0.16650E+05
 
   -0.40782E+05         0.89560E+05         0.00000E+00
    0.89560E+05        -0.40622E+05         0.00000E+00
    0.00000E+00         0.00000E+00        -0.16281E+05
 
   -0.37266E+05         0.90432E+05         0.00000E+00
    0.90432E+05        -0.42252E+05         0.00000E+00
    0.00000E+00         0.00000E+00        -0.15903E+05
 
   -0.33700E+05         0.91228E+05         0.00000E+00
    0.91228E+05        -0.43895E+05         0.00000E+00
    0.00000E+00         0.00000E+00        -0.15519E+05
 
   -0.30087E+05         0.91946E+05         0.00000E+00
    0.91946E+05        -0.45552E+05         0.00000E+00
    0.00000E+00         0.00000E+00        -0.15128E+05
 
   -0.26427E+05         0.92585E+05         0.00000E+00
    0.92585E+05        -0.47220E+05         0.00000E+00
    0.00000E+00         0.00000E+00        -0.14729E+05
 
   -0.22722E+05         0.93144E+05         0.00000E+00
    0.93144E+05        -0.48899E+05         0.00000E+00
    0.00000E+00         0.00000E+00        -0.14324E+05
 
   -0.18975E+05         0.93622E+05         0.00000E+00
    0.93622E+05        -0.50587E+05         0.00000E+00
    0.00000E+00         0.00000E+00        -0.13912E+05
 
   -0.15187E+05         0.94019E+05         0.00000E+00
    0.94019E+05        -0.52282E+05         0.00000E+00
    0.00000E+00         0.00000E+00        -0.13494E+05
 
   -0.10782E+06         0.12298E+04         0.00000E+00
    0.12298E+04         0.14340E+02         0.00000E+00
    0.00000E+00         0.00000E+00        -0.21562E+05
 
   -0.10783E+06         0.37032E+04         0.00000E+00
    0.37032E+04        -0.30835E+02         0.00000E+00
    0.00000E+00         0.00000E+00        -0.21573E+05
 
   -0.10776E+06         0.61792E+04         0.00000E+00
    0.61792E+04        -0.12167E+03         0.00000E+00
    0.00000E+00         0.00000E+00        -0.21576E+05
 
   -0.10759E+06         0.86554E+04         0.00000E+00
    0.86554E+04        -0.25825E+03         0.00000E+00
    0.00000E+00         0.00000E+00        -0.21569E+05
 
   -0.10732E+06         0.11129E+05         0.00000E+00
    0.11129E+05        -0.44060E+03         0.00000E+00
    0.00000E+00         0.00000E+00        -0.21553E+05
 
   -0.10697E+06         0.13598E+05         0.00000E+00
    0.13598E+05        -0.66868E+03         0.00000E+00
    0.00000E+00         0.00000E+00        -0.21528E+05
 
   -0.10653E+06         0.16059E+05         0.00000E+00
    0.16059E+05        -0.94234E+03         0.00000E+00
    0.00000E+00         0.00000E+00        -0.21494E+05
 
   -0.10599E+06         0.18511E+05         0.00000E+00
    0.18511E+05        -0.12614E+04         0.00000E+00
    0.00000E+00         0.00000E+00        -0.21451E+05
 
   -0.10536E+06         0.20950E+05         0.00000E+00
    0.20950E+05        -0.16256E+04         0.00000E+00
    0.00000E+00         0.00000E+00        -0.21398E+05
 
   -0.10465E+06         0.23375E+05         0.00000E+00
    0.23375E+05        -0.20347E+04         0.00000E+00
    0.00000E+00         0.00000E+00        -0.21336E+05
 
   -0.10384E+06         0.25782E+05         0.00000E+00
    0.25782E+05        -0.24881E+04         0.00000E+00
    0.00000E+00         0.00000E+00        -0.21265E+05
 
   -0.10294E+06         0.28170E+05         0.00000E+00
    0.28170E+05        -0.29856E+04         0.00000E+00
    0.00000E+00         0.00000E+00        -0.21185E+05
 
   -0.10195E+06         0.30537E+05         0.00000E+00
    0.30537E+05        -0.35266E+04         0.00000E+00
    0.00000E+00         0.00000E+00        -0.21096E+05
 
   -0.10088E+06         0.32879E+05         0.00000E+00
    0.32879E+05        -0.41105E+04         0.00000E+00
    0.00000E+00         0.00000E+00        -0.20998E+05
 
   -0.99715E+05         0.35195E+05         0.00000E+00
    0.35195E+05        -0.47367E+04         0.00000E+00
    0.00000E+00         0.00000E+00        -0.20890E+05
 
   -0.98465E+05         0.37483E+05         0.00000E+00
    0.37483E+05        -0.54046E+04         0.00000E+00
    0.00000E+00         0.00000E+00        -0.20774E+05
 
   -0.97129E+05         0.39740E+05         0.00000E+00
    0.39740E+05        -0.61135E+04         0.00000E+00
    0.00000E+00         0.00000E+00        -0.20649E+05
 
   -0.95709E+05         0.41965E+05         0.00000E+00
    0.41965E+05        -0.68627E+04         0.00000E+00
    0.00000E+00         0.00000E+00        -0.20514E+05
 
   -0.94204E+05         0.44155E+05         0.00000E+00
    0.44155E+05        -0.76514E+04         0.00000E+00
    0.00000E+00         0.00000E+00        -0.20371E+05
 
   -0.92617E+05         0.46308E+05         0.00000E+00
    0.46308E+05        -0.84787E+04         0.00000E+00
    0.00000E+00         0.00000E+00        -0.20219E+05
 
   -0.90948E+05         0.48423E+05         0.00000E+00
    0.48423E+05        -0.93438E+04         0.00000E+00
    0.00000E+00         0.00000E+00        -0.20058E+05
 
   -0.89198E+05         0.50497E+05         0.00000E+00
    0.50497E+05        -0.10246E+05         0.00000E+00
    0.00000E+00         0.00000E+00        -0.19889E+05
 
   -0.87370E+05         0.52529E+05         0.00000E+00
    0.52529E+05        -0.11184E+05         0.00000E+00
    0.00000E+00         0.00000E+00        -0.19711E+05
 
   -0.85464E+05         0.54517E+05         0.00000E+00
    0.54517E+05        -0.12157E+05         0.00000E+00
    0.00000E+00         0.00000E+00        -0.19524E+05
 
   -0.83481E+05         0.56459E+05         0.00000E+00
    0.56459E+05        -0.13165E+05         0.00000E+00
    0.00000E+00         0.00000E+00        -0.19329E+05
 
   -0.81423E+05         0.58353E+05         0.00000E+00
    0.58353E+05        -0.14205E+05         0.00000E+00
    0.00000E+00         0.00000E+00        -0.19126E+05
 
   -0.79292E+05         0.60198E+05         0.00000E+00
    0.60198E+05        -0.15278E+05         0.00000E+00
    0.00000E+00         0.00000E+00        -0.18914E+05
 
   -0.77088E+05         0.61993E+05         0.00000E+00
    0.61993E+05        -0.16382E+05         0.00000E+00
    0.00000E+00         0.00000E+00        -0.18694E+05
 
   -0.74814E+05         0.63735E+05         0.00000E+00
    0.63735E+05        -0.17516E+05         0.00000E+00
    0.00000E+00         0.00000E+00        -0.18466E+05
 
   -0.72470E+05         0.65424E+05         0.00000E+00
    0.65424E+05        -0.18679E+05         0.00000E+00
    0.00000E+00         0.00000E+00        -0.18230E+05
 
   -0.70059E+05         0.67057E+05         0.00000E+00
    0.67057E+05        -0.19870E+05         0.00000E+00
    0.00000E+00         0.00000E+00        -0.17986E+05
 
   -0.67581E+05         0.68634E+05         0.00000E+00
    0.68634E+05        -0.21088E+05         0.00000E+00
    0.00000E+00         0.00000E+00        -0.17734E+05
 
   -0.65039E+05         0.70153E+05         0.00000E+00
    0.70153E+05        -0.22332E+05         0.00000E+00
    0.00000E+00         0.00000E+00        -0.17474E+05
 
   -0.62434E+05         0.71612E+05         0.00000E+00
    0.71612E+05        -0.23601E+05         0.00000E+00
    0.00000E+00         0.00000E+00        -0.17207E+05
 
   -0.59767E+05         0.73011E+05         0.00000E+00
    0.73011E+05        -0.24894E+05         0.00000E+00
    0.00000E+00         0.00000E+00        -0.16932E+05
 
   -0.57040E+05         0.74349E+05         0.00000E+00
    0.74349E+05        -0.26209E+05         0.00000E+00
    0.00000E+00         0.00000E+00        -0.16650E+05
 
   -0.54255E+05         0.75623E+05         0.00000E+00
    0.75623E+05        -0.27546E+05         0.00000E+00
    0.00000E+00         0.00000E+00        -0.16360E+05
 
   -0.51414E+05         0.76833E+05         0.00000E+00
    0.76833E+05        -0.28904E+05         0.00000E+00
    0.00000E+00         0.00000E+00        -0.16064E+05
 
   -0.48517E+05         0.77978E+05         0.00000E+00
    0.77978E+05        -0.30281E+05         0.00000E+00
    0.00000E+00         0.00000E+00        -0.15760E+05
 
   -0.45567E+05         0.79057E+05         0.00000E+00
    0.79057E+05        -0.31676E+05         0.00000E+00
    0.00000E+00         0.00000E+00        -0.15449E+05
 
   -0.42565E+05         0.80068E+05         0.00000E+00
    0.80068E+05        -0.33089E+05         0.00000E+00
    0.00000E+00         0.00000E+00        -0.15131E+05
 
   -0.39513E+05         0.81011E+05         0.00000E+00
    0.81011E+05        -0.34518E+05         0.00000E+00
    0.00000E+00         0.00000E+00        -0.14806E+05
 
   -0.36413E+05         0.81884E+05         0.00000E+00
    0.81884E+05        -0.35962E+05         0.00000E+00
    0.00000E+00         0.00000E+00        -0.14475E+05
 
   -0.33266E+05         0.82687E+05         0.00000E+00
    0.82687E+05        -0.37419E+05         0.00000E+00
    0.00000E+00         0.00000E+00        -0.14137E+05
 
   -0.30073E+05         0.83418E+05         0.00000E+00
    0.83418E+05        -0.38890E+05         0.00000E+00
    0.00000E+00         0.00000E+00        -0.13793E+05
 
   -0.26838E+05         0.84078E+05         0.00000E+00
    0.84078E+05        -0.40373E+05         0.00000E+00
    0.00000E+00         0.00000E+00        -0.13442E+05
 
   -0.23560E+05         0.84664E+05         0.00000E+00
    0.84664E+05        -0.41866E+05         0.00000E+00
    0.00000E+00         0.00000E+00        -0.13085E+05
 
   -0.20243E+05         0.85175E+05         0.00000E+00
    0.85175E+05        -0.43369E+05         0.00000E+00
    0.00000E+00         0.00000E+00        -0.12722E+05
 
   -0.16887E+05         0.85612E+05         0.00000E+00
    0.85612E+05        -0.44881E+05         0.00000E+00
    0.00000E+00         0.00000E+00        -0.12354E+05
 
   -0.13495E+05         0.85973E+05         0.00000E+00
    0.85973E+05        -0.46399E+05         0.00000E+00
    0.00000E+00         0.00000E+00        -0.11979E+05
 
   -0.96008E+05         0.11248E+04         0.00000E+00
    0.11248E+04         0.12495E+02         0.00000E+00
    0.00000E+00         0.00000E+00        -0.19199E+05
 
   -0.96003E+05         0.33856E+04         0.00000E+00
    0.33856E+04        -0.26817E+02         0.00000E+00
    0.00000E+00         0.00000E+00        -0.19206E+05
 
   -0.95919E+05         0.56483E+04         0.00000E+00
    0.56483E+04        -0.10590E+03         0.00000E+00
    0.00000E+00         0.00000E+00        -0.19205E+05
 
   -0.95755E+05         0.79107E+04         0.00000E+00
    0.79107E+04        -0.22486E+03         0.00000E+00
    0.00000E+00         0.00000E+00        -0.19196E+05
 
   -0.95512E+05         0.10171E+05         0.00000E+00
    0.10171E+05        -0.38375E+03         0.00000E+00
    0.00000E+00         0.00000E+00        -0.19179E+05
 
   -0.95188E+05         0.12426E+05         0.00000E+00
    0.12426E+05        -0.58256E+03         0.00000E+00
    0.00000E+00         0.00000E+00        -0.19154E+05
 
   -0.94785E+05         0.14675E+05         0.00000E+00
    0.14675E+05        -0.82122E+03         0.00000E+00
    0.00000E+00         0.00000E+00        -0.19121E+05
 
   -0.94301E+05         0.16914E+05         0.00000E+00
    0.16914E+05        -0.10996E+04         0.00000E+00
    0.00000E+00         0.00000E+00        -0.19080E+05
 
   -0.93738E+05         0.19143E+05         0.00000E+00
    0.19143E+05        -0.14175E+04         0.00000E+00
    0.00000E+00         0.00000E+00        -0.19031E+05
 
   -0.93096E+05         0.21359E+05         0.00000E+00
    0.21359E+05        -0.17747E+04         0.00000E+00
    0.00000E+00         0.00000E+00        -0.18974E+05
 
   -0.92374E+05         0.23559E+05         0.00000E+00
    0.23559E+05        -0.21710E+04         0.00000E+00
    0.00000E+00         0.00000E+00        -0.18909E+05
 
   -0.91573E+05         0.25742E+05         0.00000E+00
    0.25742E+05        -0.26059E+04         0.00000E+00
    0.00000E+00         0.00000E+00        -0.18836E+05
 
   -0.90694E+05         0.27905E+05         0.00000E+00
    0.27905E+05        -0.30791E+04         0.00000E+00
    0.00000E+00         0.00000E+00        -0.18755E+05
 
   -0.89738E+05         0.30047E+05         0.00000E+00
    0.30047E+05        -0.35902E+04         0.00000E+00
    0.00000E+00         0.00000E+00        -0.18666E+05
 
   -0.88704E+05         0.32166E+05         0.00000E+00
    0.32166E+05        -0.41387E+04         0.00000E+00
    0.00000E+00         0.00000E+00        -0.18568E+05
 
   -0.87593E+05         0.34259E+05         0.00000E+00
    0.34259E+05        -0.47241E+04         0.00000E+00
    0.00000E+00         0.00000E+00        -0.18463E+05
 
   -0.86407E+05         0.36325E+05         0.00000E+00
    0.36325E+05        -0.53458E+04         0.00000E+00
    0.00000E+00         0.00000E+00        -0.18350E+05
 
   -0.85145E+05         0.38361E+05         0.00000E+00
    0.38361E+05        -0.60032E+04         0.00000E+00
    0.00000E+00         0.00000E+00        -0.18230E+05
 
   -0.83810E+05         0.40367E+05         0.00000E+00
    0.40367E+05        -0.66958E+04         0.00000E+00
    0.00000E+00         0.00000E+00        -0.18101E+05
 
   -0.82401E+05         0.42339E+05         0.00000E+00
    0.42339E+05        -0.74227E+04         0.00000E+00
    0.00000E+00         0.00000E+00        -0.17965E+05
 
   -0.80919E+05         0.44277E+05         0.00000E+00
    0.44277E+05        -0.81834E+04         0.00000E+00
    0.00000E+00         0.00000E+00        -0.17821E+05
 
   -0.79366E+05         0.46179E+05         0.00000E+00
    0.46179E+05        -0.89772E+04         0.00000E+00
    0.00000E+00         0.00000E+00        -0.17669E+05
 
   -0.77743E+05         0.48042E+05         0.00000E+00
    0.48042E+05        -0.98032E+04         0.00000E+00
    0.00000E+00         0.00000E+00        -0.17509E+05
 
   -0.76051E+05         0.49866E+05         0.00000E+00
    0.49866E+05        -0.10661E+05         0.00000E+00
    0.00000E+00         0.00000E+00        -0.17342E+05
 
   -0.74290E+05         0.51648E+05         0.00000E+00
    0.51648E+05        -0.11549E+05         0.00000E+00
    0.00000E+00         0.00000E+00        -0.17168E+05
 
   -0.72462E+05         0.53388E+05         0.00000E+00
    0.53388E+05        -0.12467E+05         0.00000E+00
    0.00000E+00         0.00000E+00        -0.16986E+05
 
   -0.70569E+05         0.55082E+05         0.00000E+00
    0.55082E+05        -0.13414E+05         0.00000E+00
    0.00000E+00         0.00000E+00        -0.16797E+05
 
   -0.68610E+05         0.56731E+05         0.00000E+00
    0.56731E+05        -0.14389E+05         0.00000E+00
    0.00000E+00         0.00000E+00        -0.16600E+05
 
   -0.66589E+05         0.58332E+05         0.00000E+00
    0.58332E+05        -0.15392E+05         0.00000E+00
    0.00000E+00         0.00000E+00        -0.16396E+05
 
   -0.64505E+05         0.59884E+05         0.00000E+00
    0.59884E+05        -0.16421E+05         0.00000E+00
    0.00000E+00         0.00000E+00        -0.16185E+05
 
   -0.62361E+05         0.61386E+05         0.00000E+00
    0.61386E+05        -0.17475E+05         0.00000E+00
    0.00000E+00         0.00000E+00        -0.15967E+05
 
   -0.60157E+05         0.62837E+05         0.00000E+00
    0.62837E+05        -0.18554E+05         0.00000E+00
    0.00000E+00         0.00000E+00        -0.15742E+05
 
   -0.57895E+05         0.64234E+05         0.00000E+00
    0.64234E+05        -0.19657E+05         0.00000E+00
    0.00000E+00         0.00000E+00        -0.15510E+05
 
   -0.55577E+05         0.65577E+05         0.00000E+00
    0.65577E+05        -0.20782E+05         0.00000E+00
    0.00000E+00         0.00000E+00        -0.15272E+05
 
   -0.53203E+05         0.66865E+05         0.00000E+00
    0.66865E+05        -0.21929E+05         0.00000E+00
    0.00000E+00         0.00000E+00        -0.15026E+05
 
   -0.50775E+05         0.68096E+05         0.00000E+00
    0.68096E+05        -0.23097E+05         0.00000E+00
    0.00000E+00         0.00000E+00        -0.14774E+05
 
   -0.48295E+05         0.69269E+05         0.00000E+00
    0.69269E+05        -0.24285E+05         0.00000E+00
    0.00000E+00         0.00000E+00        -0.14516E+05
 
   -0.45763E+05         0.70384E+05         0.00000E+00
    0.70384E+05        -0.25492E+05         0.00000E+00
    0.00000E+00         0.00000E+00        -0.14251E+05
 
   -0.43183E+05         0.71438E+05         0.00000E+00
    0.71438E+05        -0.26716E+05         0.00000E+00
    0.00000E+00         0.00000E+00        -0.13980E+05
 
   -0.40554E+05         0.72431E+05         0.00000E+00
    0.72431E+05        -0.27957E+05         0.00000E+00
    0.00000E+00         0.00000E+00        -0.13702E+05
 
   -0.37878E+05         0.73362E+05         0.00000E+00
    0.73362E+05        -0.29214E+05         0.00000E+00
    0.00000E+00         0.00000E+00        -0.13419E+05
 
   -0.35158E+05         0.74230E+05         0.00000E+00
    0.74230E+05        -0.30486E+05         0.00000E+00
    0.00000E+00         0.00000E+00        -0.13129E+05
 
   -0.32394E+05         0.75033E+05         0.00000E+00
    0.75033E+05        -0.31772E+05         0.00000E+00
    0.00000E+00         0.00000E+00        -0.12833E+05
 
   -0.29588E+05         0.75772E+05         0.00000E+00
    0.75772E+05        -0.33071E+05         0.00000E+00
    0.00000E+00         0.00000E+00        -0.12532E+05
 
   -0.26741E+05         0.76444E+05         0.00000E+00
    0.76444E+05        -0.34382E+05         0.00000E+00
    0.00000E+00         0.00000E+00        -0.12225E+05
 
   -0.23856E+05         0.77049E+05         0.00000E+00
    0.77049E+05        -0.35703E+05         0.00000E+00
    0.00000E+00         0.00000E+00        -0.11912E+05
 
   -0.20933E+05         0.77587E+05         0.00000E+00
    0.77587E+05        -0.37034E+05         0.00000E+00
    0.00000E+00         0.00000E+00        -0.11594E+05
 
   -0.17975E+05         0.78055E+05         0.00000E+00
    0.78055E+05        -0.38374E+05         0.00000E+00
    0.00000E+00         0.00000E+00        -0.11270E+05
 
   -0.14983E+05         0.78455E+05         0.00000E+00
    0.78455E+05        -0.39722E+05         0.00000E+00
    0.00000E+00         0.00000E+00        -0.10941E+05
 
   -0.11959E+05         0.78783E+05         0.00000E+00
    0.78783E+05        -0.41076E+05         0.00000E+00
    0.00000E+00         0.00000E+00        -0.10607E+05
 
   -0.85184E+05         0.10334E+04         0.00000E+00
    0.10334E+04         0.10892E+02         0.00000E+00
    0.00000E+00         0.00000E+00        -0.17035E+05
 
   -0.85166E+05         0.31089E+04         0.00000E+00
    0.31089E+04        -0.23357E+02         0.00000E+00
    0.00000E+00         0.00000E+00        -0.17038E+05
 
   -0.85079E+05         0.51856E+04         0.00000E+00
    0.51856E+04        -0.92267E+02         0.00000E+00
    0.00000E+00         0.00000E+00        -0.17034E+05
 
   -0.84923E+05         0.72617E+04         0.00000E+00
    0.72617E+04        -0.19595E+03         0.00000E+00
    0.00000E+00         0.00000E+00        -0.17024E+05
 
   -0.84697E+05         0.93352E+04         0.00000E+00
    0.93352E+04        -0.33446E+03         0.00000E+00
    0.00000E+00         0.00000E+00        -0.17006E+05
 
   -0.84401E+05         0.11404E+05         0.00000E+00
    0.11404E+05        -0.50780E+03         0.00000E+00
    0.00000E+00         0.00000E+00        -0.16982E+05
 
   -0.84036E+05         0.13467E+05         0.00000E+00
    0.13467E+05        -0.71595E+03         0.00000E+00
    0.00000E+00         0.00000E+00        -0.16950E+05
 
   -0.83601E+05         0.15521E+05         0.00000E+00
    0.15521E+05        -0.95882E+03         0.00000E+00
    0.00000E+00         0.00000E+00        -0.16912E+05
 
   -0.83095E+05         0.17565E+05         0.00000E+00
    0.17565E+05        -0.12363E+04         0.00000E+00
    0.00000E+00         0.00000E+00        -0.16866E+05
 
   -0.82521E+05         0.19597E+05         0.00000E+00
    0.19597E+05        -0.15482E+04         0.00000E+00
    0.00000E+00         0.00000E+00        -0.16814E+05
 
   -0.81877E+05         0.21616E+05         0.00000E+00
    0.21616E+05        -0.18942E+04         0.00000E+00
    0.00000E+00         0.00000E+00        -0.16754E+05
 
   -0.81164E+05         0.23618E+05         0.00000E+00
    0.23618E+05        -0.22743E+04         0.00000E+00
    0.00000E+00         0.00000E+00        -0.16688E+05
 
   -0.80382E+05         0.25603E+05         0.00000E+00
    0.25603E+05        -0.26879E+04         0.00000E+00
    0.00000E+00         0.00000E+00        -0.16614E+05
 
   -0.79532E+05         0.27568E+05         0.00000E+00
    0.27568E+05        -0.31349E+04         0.00000E+00
    0.00000E+00         0.00000E+00        -0.16533E+05
 
   -0.78615E+05         0.29512E+05         0.00000E+00
    0.29512E+05        -0.36148E+04         0.00000E+00
    0.00000E+00         0.00000E+00        -0.16446E+05
 
   -0.77630E+05         0.31434E+05         0.00000E+00
    0.31434E+05        -0.41272E+04         0.00000E+00
    0.00000E+00         0.00000E+00        -0.16351E+05
 
   -0.76578E+05         0.33330E+05         0.00000E+00
    0.33330E+05        -0.46717E+04         0.00000E+00
    0.00000E+00         0.00000E+00        -0.16250E+05
 
   -0.75460E+05         0.35200E+05         0.00000E+00
    0.35200E+05        -0.52478E+04         0.00000E+00
    0.00000E+00         0.00000E+00        -0.16141E+05
 
   -0.74276E+05         0.37042E+05         0.00000E+00
    0.37042E+05        -0.58549E+04         0.00000E+00
    0.00000E+00         0.00000E+00        -0.16026E+05
 
   -0.73028E+05         0.38854E+05         0.00000E+00
    0.38854E+05        -0.64926E+04         0.00000E+00
    0.00000E+00         0.00000E+00        -0.15904E+05
 
   -0.71716E+05         0.40634E+05         0.00000E+00
    0.40634E+05        -0.71602E+04         0.00000E+00
    0.00000E+00         0.00000E+00        -0.15775E+05
 
   -0.70341E+05         0.42382E+05         0.00000E+00
    0.42382E+05        -0.78572E+04         0.00000E+00
    0.00000E+00         0.00000E+00        -0.15640E+05
 
   -0.68903E+05         0.44095E+05         0.00000E+00
    0.44095E+05        -0.85829E+04         0.00000E+00
    0.00000E+00         0.00000E+00        -0.15497E+05
 
   -0.67405E+05         0.45771E+05         0.00000E+00
    0.45771E+05        -0.93367E+04         0.00000E+00
    0.00000E+00         0.00000E+00        -0.15348E+05
 
   -0.65845E+05         0.47410E+05         0.00000E+00
    0.47410E+05        -0.10118E+05         0.00000E+00
    0.00000E+00         0.00000E+00        -0.15193E+05
 
   -0.64226E+05         0.49010E+05         0.00000E+00
    0.49010E+05        -0.10926E+05         0.00000E+00
    0.00000E+00         0.00000E+00        -0.15030E+05
 
   -0.62549E+05         0.50569E+05         0.00000E+00
    0.50569E+05        -0.11760E+05         0.00000E+00
    0.00000E+00         0.00000E+00        -0.14862E+05
 
   -0.60815E+05         0.52087E+05         0.00000E+00
    0.52087E+05        -0.12619E+05         0.00000E+00
    0.00000E+00         0.00000E+00        -0.14687E+05
 
   -0.59024E+05         0.53560E+05         0.00000E+00
    0.53560E+05        -0.13503E+05         0.00000E+00
    0.00000E+00         0.00000E+00        -0.14505E+05
 
   -0.57177E+05         0.54990E+05         0.00000E+00
    0.54990E+05        -0.14410E+05         0.00000E+00
    0.00000E+00         0.00000E+00        -0.14317E+05
 
   -0.55277E+05         0.56373E+05         0.00000E+00
    0.56373E+05        -0.15340E+05         0.00000E+00
    0.00000E+00         0.00000E+00        -0.14123E+05
 
   -0.53324E+05         0.57708E+05         0.00000E+00
    0.57708E+05        -0.16293E+05         0.00000E+00
    0.00000E+00         0.00000E+00        -0.13923E+05
 
   -0.51318E+05         0.58996E+05         0.00000E+00
    0.58996E+05        -0.17267E+05         0.00000E+00
    0.00000E+00         0.00000E+00        -0.13717E+05
 
   -0.49263E+05         0.60233E+05         0.00000E+00
    0.60233E+05        -0.18261E+05         0.00000E+00
    0.00000E+00         0.00000E+00        -0.13505E+05
 
   -0.47158E+05         0.61419E+05         0.00000E+00
    0.61419E+05        -0.19275E+05         0.00000E+00
    0.00000E+00         0.00000E+00        -0.13287E+05
 
   -0.45005E+05         0.62554E+05         0.00000E+00
    0.62554E+05        -0.20308E+05         0.00000E+00
    0.00000E+00         0.00000E+00        -0.13063E+05
 
   -0.42805E+05         0.63635E+05         0.00000E+00
    0.63635E+05        -0.21359E+05         0.00000E+00
    0.00000E+00         0.00000E+00        -0.12833E+05
 
   -0.40559E+05         0.64662E+05         0.00000E+00
    0.64662E+05        -0.22427E+05         0.00000E+00
    0.00000E+00         0.00000E+00        -0.12597E+05
 
   -0.38269E+05         0.65633E+05         0.00000E+00
    0.65633E+05        -0.23511E+05         0.00000E+00
    0.00000E+00         0.00000E+00        -0.12356E+05
 
   -0.35937E+05         0.66548E+05         0.00000E+00
    0.66548E+05        -0.24610E+05         0.00000E+00
    0.00000E+00         0.00000E+00        -0.12109E+05
 
   -0.33563E+05         0.67406E+05         0.00000E+00
    0.67406E+05        -0.25724E+05         0.00000E+00
    0.00000E+00         0.00000E+00        -0.11857E+05
 
   -0.31148E+05         0.68205E+05         0.00000E+00
    0.68205E+05        -0.26852E+05         0.00000E+00
    0.00000E+00         0.00000E+00        -0.11600E+05
 
   -0.28695E+05         0.68945E+05         0.00000E+00
    0.68945E+05        -0.27992E+05         0.00000E+00
    0.00000E+00         0.00000E+00        -0.11337E+05
 
   -0.26205E+05         0.69624E+05         0.00000E+00
    0.69624E+05        -0.29143E+05         0.00000E+00
    0.00000E+00         0.00000E+00        -0.11070E+05
 
   -0.23679E+05         0.70243E+05         0.00000E+00
    0.70243E+05        -0.30306E+05         0.00000E+00
    0.00000E+00         0.00000E+00        -0.10797E+05
 
   -0.21118E+05         0.70799E+05         0.00000E+00
    0.70799E+05        -0.31478E+05         0.00000E+00
    0.00000E+00         0.00000E+00        -0.10519E+05
 
   -0.18524E+05         0.71293E+05         0.00000E+00
    0.71293E+05        -0.32659E+05         0.00000E+00
    0.00000E+00         0.00000E+00        -0.10237E+05
 
   -0.15899E+05         0.71723E+05         0.00000E+00
    0.71723E+05        -0.33847E+05         0.00000E+00
    0.00000E+00         0.00000E+00        -0.99493E+04
 
   -0.13244E+05         0.72088E+05         0.00000E+00
    0.72088E+05        -0.35043E+05         0.00000E+00
    0.00000E+00         0.00000E+00        -0.96574E+04
 
   -0.10560E+05         0.72388E+05         0.00000E+00
    0.72388E+05        -0.36244E+05         0.00000E+00
    0.00000E+00         0.00000E+00        -0.93609E+04
 
   -0.75224E+05         0.95380E+03         0.00000E+00
    0.95380E+03         0.94834E+01         0.00000E+00
    0.00000E+00         0.00000E+00        -0.15043E+05
 
   -0.75197E+05         0.28679E+04         0.00000E+00
    0.28679E+04        -0.20335E+02         0.00000E+00
    0.00000E+00         0.00000E+00        -0.15044E+05
 
   -0.75110E+05         0.47826E+04         0.00000E+00
    0.47826E+04        -0.80329E+02         0.00000E+00
    0.00000E+00         0.00000E+00        -0.15038E+05
 
   -0.74963E+05         0.66962E+04         0.00000E+00
    0.66962E+04        -0.17060E+03         0.00000E+00
    0.00000E+00         0.00000E+00        -0.15027E+05
 
   -0.74754E+05         0.86070E+04         0.00000E+00
    0.86070E+04        -0.29120E+03         0.00000E+00
    0.00000E+00         0.00000E+00        -0.15009E+05
 
   -0.74486E+05         0.10513E+05         0.00000E+00
    0.10513E+05        -0.44215E+03         0.00000E+00
    0.00000E+00         0.00000E+00        -0.14986E+05
 
   -0.74156E+05         0.12414E+05         0.00000E+00
    0.12414E+05        -0.62344E+03         0.00000E+00
    0.00000E+00         0.00000E+00        -0.14956E+05
 
   -0.73765E+05         0.14306E+05         0.00000E+00
    0.14306E+05        -0.83501E+03         0.00000E+00
    0.00000E+00         0.00000E+00        -0.14920E+05
 
   -0.73314E+05         0.16189E+05         0.00000E+00
    0.16189E+05        -0.10768E+04         0.00000E+00
    0.00000E+00         0.00000E+00        -0.14878E+05
 
   -0.72802E+05         0.18061E+05         0.00000E+00
    0.18061E+05        -0.13486E+04         0.00000E+00
    0.00000E+00         0.00000E+00        -0.14830E+05
 
   -0.72229E+05         0.19920E+05         0.00000E+00
    0.19920E+05        -0.16503E+04         0.00000E+00
    0.00000E+00         0.00000E+00        -0.14776E+05
 
   -0.71596E+05         0.21764E+05         0.00000E+00
    0.21764E+05        -0.19816E+04         0.00000E+00
    0.00000E+00         0.00000E+00        -0.14716E+05
 
   -0.70903E+05         0.23592E+05         0.00000E+00
    0.23592E+05        -0.23424E+04         0.00000E+00
    0.00000E+00         0.00000E+00        -0.14649E+05
 
   -0.70151E+05         0.25402E+05         0.00000E+00
    0.25402E+05        -0.27324E+04         0.00000E+00
    0.00000E+00         0.00000E+00        -0.14577E+05
 
   -0.69339E+05         0.27193E+05         0.00000E+00
    0.27193E+05        -0.31513E+04         0.00000E+00
    0.00000E+00         0.00000E+00        -0.14498E+05
 
   -0.68468E+05         0.28963E+05         0.00000E+00
    0.28963E+05        -0.35987E+04         0.00000E+00
    0.00000E+00         0.00000E+00        -0.14413E+05
 
   -0.67539E+05         0.30710E+05         0.00000E+00
    0.30710E+05        -0.40743E+04         0.00000E+00
    0.00000E+00         0.00000E+00        -0.14323E+05
 
   -0.66551E+05         0.32433E+05         0.00000E+00
    0.32433E+05        -0.45777E+04         0.00000E+00
    0.00000E+00         0.00000E+00        -0.14226E+05
 
   -0.65506E+05         0.34130E+05         0.00000E+00
    0.34130E+05        -0.51084E+04         0.00000E+00
    0.00000E+00         0.00000E+00        -0.14123E+05
 
   -0.64405E+05         0.35800E+05         0.00000E+00
    0.35800E+05        -0.56661E+04         0.00000E+00
    0.00000E+00         0.00000E+00        -0.14014E+05
 
   -0.63247E+05         0.37441E+05         0.00000E+00
    0.37441E+05        -0.62502E+04         0.00000E+00
    0.00000E+00         0.00000E+00        -0.13899E+05
 
   -0.62034E+05         0.39052E+05         0.00000E+00
    0.39052E+05        -0.68602E+04         0.00000E+00
    0.00000E+00         0.00000E+00        -0.13779E+05
 
   -0.60766E+05         0.40631E+05         0.00000E+00
    0.40631E+05        -0.74956E+04         0.00000E+00
    0.00000E+00         0.00000E+00        -0.13652E+05
 
   -0.59444E+05         0.42177E+05         0.00000E+00
    0.42177E+05        -0.81559E+04         0.00000E+00
    0.00000E+00         0.00000E+00        -0.13520E+05
 
   -0.58068E+05         0.43688E+05         0.00000E+00
    0.43688E+05        -0.88406E+04         0.00000E+00
    0.00000E+00         0.00000E+00        -0.13382E+05
 
   -0.56641E+05         0.45164E+05         0.00000E+00
    0.45164E+05        -0.95489E+04         0.00000E+00
    0.00000E+00         0.00000E+00        -0.13238E+05
 
   -0.55161E+05         0.46602E+05         0.00000E+00
    0.46602E+05        -0.10280E+05         0.00000E+00
    0.00000E+00         0.00000E+00        -0.13088E+05
 
   -0.53631E+05         0.48002E+05         0.00000E+00
    0.48002E+05        -0.11034E+05         0.00000E+00
    0.00000E+00         0.00000E+00        -0.12933E+05
 
   -0.52051E+05         0.49362E+05         0.00000E+00
    0.49362E+05        -0.11810E+05         0.00000E+00
    0.00000E+00         0.00000E+00        -0.12772E+05
 
   -0.50423E+05         0.50680E+05         0.00000E+00
    0.50680E+05        -0.12607E+05         0.00000E+00
    0.00000E+00         0.00000E+00        -0.12606E+05
 
   -0.48746E+05         0.51957E+05         0.00000E+00
    0.51957E+05        -0.13424E+05         0.00000E+00
    0.00000E+00         0.00000E+00        -0.12434E+05
 
   -0.47023E+05         0.53190E+05         0.00000E+00
    0.53190E+05        -0.14261E+05         0.00000E+00
    0.00000E+00         0.00000E+00        -0.12257E+05
 
   -0.45254E+05         0.54378E+05         0.00000E+00
    0.54378E+05        -0.15117E+05         0.00000E+00
    0.00000E+00         0.00000E+00        -0.12074E+05
 
   -0.43440E+05         0.55520E+05         0.00000E+00
    0.55520E+05        -0.15992E+05         0.00000E+00
    0.00000E+00         0.00000E+00        -0.11886E+05
 
   -0.41583E+05         0.56615E+05         0.00000E+00
    0.56615E+05        -0.16884E+05         0.00000E+00
    0.00000E+00         0.00000E+00        -0.11693E+05
 
   -0.39683E+05         0.57662E+05         0.00000E+00
    0.57662E+05        -0.17793E+05         0.00000E+00
    0.00000E+00         0.00000E+00        -0.11495E+05
 
   -0.37741E+05         0.58661E+05         0.00000E+00
    0.58661E+05        -0.18718E+05         0.00000E+00
    0.00000E+00         0.00000E+00        -0.11292E+05
 
   -0.35759E+05         0.59608E+05         0.00000E+00
    0.59608E+05        -0.19659E+05         0.00000E+00
    0.00000E+00         0.00000E+00        -0.11084E+05
 
   -0.33739E+05         0.60505E+05         0.00000E+00
    0.60505E+05        -0.20614E+05         0.00000E+00
    0.00000E+00         0.00000E+00        -0.10871E+05
 
   -0.31680E+05         0.61349E+05         0.00000E+00
    0.61349E+05        -0.21583E+05         0.00000E+00
    0.00000E+00         0.00000E+00        -0.10652E+05
 
   -0.29584E+05         0.62141E+05         0.00000E+00
    0.62141E+05        -0.22564E+05         0.00000E+00
    0.00000E+00         0.00000E+00        -0.10430E+05
 
   -0.27453E+05         0.62878E+05         0.00000E+00
    0.62878E+05        -0.23558E+05         0.00000E+00
    0.00000E+00         0.00000E+00        -0.10202E+05
 
   -0.25288E+05         0.63561E+05         0.00000E+00
    0.63561E+05        -0.24563E+05         0.00000E+00
    0.00000E+00         0.00000E+00        -0.99703E+04
 
   -0.23090E+05         0.64187E+05         0.00000E+00
    0.64187E+05        -0.25579E+05         0.00000E+00
    0.00000E+00         0.00000E+00        -0.97338E+04
 
   -0.20860E+05         0.64757E+05         0.00000E+00
    0.64757E+05        -0.26604E+05         0.00000E+00
    0.00000E+00         0.00000E+00        -0.94929E+04
 
   -0.18600E+05         0.65270E+05         0.00000E+00
    0.65270E+05        -0.27638E+05         0.00000E+00
    0.00000E+00         0.00000E+00        -0.92476E+04
 
   -0.16311E+05         0.65724E+05         0.00000E+00
    0.65724E+05        -0.28680E+05         0.00000E+00
    0.00000E+00         0.00000E+00        -0.89982E+04
 
   -0.13994E+05         0.66119E+05         0.00000E+00
    0.66119E+05        -0.29729E+05         0.00000E+00
    0.00000E+00         0.00000E+00        -0.87446E+04
 
   -0.11651E+05         0.66454E+05         0.00000E+00
    0.66454E+05        -0.30783E+05         0.00000E+00
    0.00000E+00         0.00000E+00        -0.84870E+04
 
   -0.92836E+04         0.66729E+05         0.00000E+00
    0.66729E+05        -0.31843E+05         0.00000E+00
    0.00000E+00         0.00000E+00        -0.82254E+04
 
   -0.66016E+05         0.88454E+03         0.00000E+00
    0.88454E+03         0.82304E+01         0.00000E+00
    0.00000E+00         0.00000E+00        -0.13201E+05
 
   -0.65983E+05         0.26583E+04         0.00000E+00
    0.26583E+04        -0.17658E+02         0.00000E+00
    0.00000E+00         0.00000E+00        -0.13200E+05
 
   -0.65898E+05         0.44321E+04         0.00000E+00
    0.44321E+04        -0.69735E+02         0.00000E+00
    0.00000E+00         0.00000E+00        -0.13194E+05
 
   -0.65761E+05         0.62045E+04         0.00000E+00
    0.62045E+04        -0.14809E+03         0.00000E+00
    0.00000E+00         0.00000E+00        -0.13182E+05
 
   -0.65571E+05         0.79739E+04         0.00000E+00
    0.79739E+04        -0.25276E+03         0.00000E+00
    0.00000E+00         0.00000E+00        -0.13165E+05
 
   -0.65329E+05         0.97388E+04         0.00000E+00
    0.97388E+04        -0.38379E+03         0.00000E+00
    0.00000E+00         0.00000E+00        -0.13142E+05
 
   -0.65033E+05         0.11498E+05         0.00000E+00
    0.11498E+05        -0.54116E+03         0.00000E+00
    0.00000E+00         0.00000E+00        -0.13115E+05
 
   -0.64685E+05         0.13249E+05         0.00000E+00
    0.13249E+05        -0.72482E+03         0.00000E+00
    0.00000E+00         0.00000E+00        -0.13082E+05
 
   -0.64284E+05         0.14992E+05         0.00000E+00
    0.14992E+05        -0.93472E+03         0.00000E+00
    0.00000E+00         0.00000E+00        -0.13044E+05
 
   -0.63830E+05         0.16723E+05         0.00000E+00
    0.16723E+05        -0.11707E+04         0.00000E+00
    0.00000E+00         0.00000E+00        -0.13000E+05
 
   -0.63324E+05         0.18443E+05         0.00000E+00
    0.18443E+05        -0.14328E+04         0.00000E+00
    0.00000E+00         0.00000E+00        -0.12951E+05
 
   -0.62765E+05         0.20149E+05         0.00000E+00
    0.20149E+05        -0.17206E+04         0.00000E+00
    0.00000E+00         0.00000E+00        -0.12897E+05
 
   -0.62154E+05         0.21841E+05         0.00000E+00
    0.21841E+05        -0.20341E+04         0.00000E+00
    0.00000E+00         0.00000E+00        -0.12838E+05
 
   -0.61492E+05         0.23515E+05         0.00000E+00
    0.23515E+05        -0.23730E+04         0.00000E+00
    0.00000E+00         0.00000E+00        -0.12773E+05
 
   -0.60777E+05         0.25172E+05         0.00000E+00
    0.25172E+05        -0.27371E+04         0.00000E+00
    0.00000E+00         0.00000E+00        -0.12703E+05
 
   -0.60011E+05         0.26809E+05         0.00000E+00
    0.26809E+05        -0.31261E+04         0.00000E+00
    0.00000E+00         0.00000E+00        -0.12627E+05
 
   -0.59194E+05         0.28425E+05         0.00000E+00
    0.28425E+05        -0.35397E+04         0.00000E+00
    0.00000E+00         0.00000E+00        -0.12547E+05
 
   -0.58327E+05         0.30019E+05         0.00000E+00
    0.30019E+05        -0.39776E+04         0.00000E+00
    0.00000E+00         0.00000E+00        -0.12461E+05
 
   -0.57410E+05         0.31589E+05         0.00000E+00
    0.31589E+05        -0.44395E+04         0.00000E+00
    0.00000E+00         0.00000E+00        -0.12370E+05
 
   -0.56443E+05         0.33134E+05         0.00000E+00
    0.33134E+05        -0.49249E+04         0.00000E+00
    0.00000E+00         0.00000E+00        -0.12274E+05
 
   -0.55427E+05         0.34652E+05         0.00000E+00
    0.34652E+05        -0.54335E+04         0.00000E+00
    0.00000E+00         0.00000E+00        -0.12172E+05
 
   -0.54362E+05         0.36143E+05         0.00000E+00
    0.36143E+05        -0.59648E+04         0.00000E+00
    0.00000E+00         0.00000E+00        -0.12065E+05
 
   -0.53250E+05         0.37604E+05         0.00000E+00
    0.37604E+05        -0.65184E+04         0.00000E+00
    0.00000E+00         0.00000E+00        -0.11954E+05
 
   -0.52090E+05         0.39035E+05         0.00000E+00
    0.39035E+05        -0.70939E+04         0.00000E+00
    0.00000E+00         0.00000E+00        -0.11837E+05
 
   -0.50884E+05         0.40433E+05         0.00000E+00
    0.40433E+05        -0.76907E+04         0.00000E+00
    0.00000E+00         0.00000E+00        -0.11715E+05
 
   -0.49632E+05         0.41799E+05         0.00000E+00
    0.41799E+05        -0.83084E+04         0.00000E+00
    0.00000E+00         0.00000E+00        -0.11588E+05
 
   -0.48335E+05         0.43130E+05         0.00000E+00
    0.43130E+05        -0.89465E+04         0.00000E+00
    0.00000E+00         0.00000E+00        -0.11456E+05
 
   -0.46993E+05         0.44426E+05         0.00000E+00
    0.44426E+05        -0.96044E+04         0.00000E+00
    0.00000E+00         0.00000E+00        -0.11320E+05
 
   -0.45608E+05         0.45685E+05         0.00000E+00
    0.45685E+05        -0.10282E+05         0.00000E+00
    0.00000E+00         0.00000E+00        -0.11178E+05
 
   -0.44180E+05         0.46905E+05         0.00000E+00
    0.46905E+05        -0.10977E+05         0.00000E+00
    0.00000E+00         0.00000E+00        -0.11032E+05
 
   -0.42710E+05         0.48087E+05         0.00000E+00
    0.48087E+05        -0.11691E+05         0.00000E+00
    0.00000E+00         0.00000E+00        -0.10880E+05
 
   -0.41200E+05         0.49228E+05         0.00000E+00
    0.49228E+05        -0.12423E+05         0.00000E+00
    0.00000E+00         0.00000E+00        -0.10724E+05
 
   -0.39648E+05         0.50328E+05         0.00000E+00
    0.50328E+05        -0.13171E+05         0.00000E+00
    0.00000E+00         0.00000E+00        -0.10564E+05
 
   -0.38058E+05         0.51386E+05         0.00000E+00
    0.51386E+05        -0.13936E+05         0.00000E+00
    0.00000E+00         0.00000E+00        -0.10399E+05
 
   -0.36429E+05         0.52400E+05         0.00000E+00
    0.52400E+05        -0.14716E+05         0.00000E+00
    0.00000E+00         0.00000E+00        -0.10229E+05
 
   -0.34763E+05         0.53369E+05         0.00000E+00
    0.53369E+05        -0.15511E+05         0.00000E+00
    0.00000E+00         0.00000E+00        -0.10055E+05
 
   -0.33061E+05         0.54293E+05         0.00000E+00
    0.54293E+05        -0.16320E+05         0.00000E+00
    0.00000E+00         0.00000E+00        -0.98763E+04
 
   -0.31323E+05         0.55171E+05         0.00000E+00
    0.55171E+05        -0.17143E+05         0.00000E+00
    0.00000E+00         0.00000E+00        -0.96933E+04
 
   -0.29551E+05         0.56001E+05         0.00000E+00
    0.56001E+05        -0.17979E+05         0.00000E+00
    0.00000E+00         0.00000E+00        -0.95061E+04
 
   -0.27746E+05         0.56782E+05         0.00000E+00
    0.56782E+05        -0.18827E+05         0.00000E+00
    0.00000E+00         0.00000E+00        -0.93147E+04
 
   -0.25909E+05         0.57514E+05         0.00000E+00
    0.57514E+05        -0.19687E+05         0.00000E+00
    0.00000E+00         0.00000E+00        -0.91192E+04
 
   -0.24040E+05         0.58197E+05         0.00000E+00
    0.58197E+05        -0.20557E+05         0.00000E+00
    0.00000E+00         0.00000E+00        -0.89195E+04
 
   -0.22142E+05         0.58828E+05         0.00000E+00
    0.58828E+05        -0.21438E+05         0.00000E+00
    0.00000E+00         0.00000E+00        -0.87159E+04
 
   -0.20215E+05         0.59407E+05         0.00000E+00
    0.59407E+05        -0.22327E+05         0.00000E+00
    0.00000E+00         0.00000E+00        -0.85084E+04
 
   -0.18260E+05         0.59934E+05         0.00000E+00
    0.59934E+05        -0.23226E+05         0.00000E+00
    0.00000E+00         0.00000E+00        -0.82971E+04
 
   -0.16279E+05         0.60407E+05         0.00000E+00
    0.60407E+05        -0.24132E+05         0.00000E+00
    0.00000E+00         0.00000E+00        -0.80820E+04
 
   -0.14272E+05         0.60826E+05         0.00000E+00
    0.60826E+05        -0.25044E+05         0.00000E+00
    0.00000E+00         0.00000E+00        -0.78633E+04
 
   -0.12241E+05         0.61191E+05         0.00000E+00
    0.61191E+05        -0.25963E+05         0.00000E+00
    0.00000E+00         0.00000E+00        -0.76410E+04
 
   -0.10188E+05         0.61500E+05         0.00000E+00
    0.61500E+05        -0.26888E+05         0.00000E+00
    0.00000E+00         0.00000E+00        -0.74151E+04
 
   -0.81132E+04         0.61753E+05         0.00000E+00
    0.61753E+05        -0.27817E+05         0.00000E+00
    0.00000E+00         0.00000E+00        -0.71859E+04
 
   -0.57459E+05         0.82454E+03         0.00000E+00
    0.82454E+03         0.71026E+01         0.00000E+00
    0.00000E+00         0.00000E+00        -0.11490E+05
 
   -0.57424E+05         0.24768E+04         0.00000E+00
    0.24768E+04        -0.15253E+02         0.00000E+00
    0.00000E+00         0.00000E+00        -0.11488E+05
 
   -0.57344E+05         0.41286E+04         0.00000E+00
    0.41286E+04        -0.60209E+02         0.00000E+00
    0.00000E+00         0.00000E+00        -0.11481E+05
 
   -0.57218E+05         0.57787E+04         0.00000E+00
    0.57787E+04        -0.12784E+03         0.00000E+00
    0.00000E+00         0.00000E+00        -0.11469E+05
 
   -0.57047E+05         0.74257E+04         0.00000E+00
    0.74257E+04        -0.21818E+03         0.00000E+00
    0.00000E+00         0.00000E+00        -0.11453E+05
 
   -0.56831E+05         0.90681E+04         0.00000E+00
    0.90681E+04        -0.33126E+03         0.00000E+00
    0.00000E+00         0.00000E+00        -0.11432E+05
 
   -0.56569E+05         0.10705E+05         0.00000E+00
    0.10705E+05        -0.46708E+03         0.00000E+00
    0.00000E+00         0.00000E+00        -0.11407E+05
 
   -0.56261E+05         0.12334E+05         0.00000E+00
    0.12334E+05        -0.62559E+03         0.00000E+00
    0.00000E+00         0.00000E+00        -0.11377E+05
 
   -0.55908E+05         0.13955E+05         0.00000E+00
    0.13955E+05        -0.80674E+03         0.00000E+00
    0.00000E+00         0.00000E+00        -0.11343E+05
 
   -0.55509E+05         0.15565E+05         0.00000E+00
    0.15565E+05        -0.10105E+04         0.00000E+00
    0.00000E+00         0.00000E+00        -0.11304E+05
 
   -0.55065E+05         0.17164E+05         0.00000E+00
    0.17164E+05        -0.12366E+04         0.00000E+00
    0.00000E+00         0.00000E+00        -0.11260E+05
 
   -0.54576E+05         0.18751E+05         0.00000E+00
    0.18751E+05        -0.14851E+04         0.00000E+00
    0.00000E+00         0.00000E+00        -0.11212E+05
 
   -0.54041E+05         0.20323E+05         0.00000E+00
    0.20323E+05        -0.17558E+04         0.00000E+00
    0.00000E+00         0.00000E+00        -0.11159E+05
 
   -0.53462E+05         0.21880E+05         0.00000E+00
    0.21880E+05        -0.20485E+04         0.00000E+00
    0.00000E+00         0.00000E+00        -0.11102E+05
 
   -0.52838E+05         0.23420E+05         0.00000E+00
    0.23420E+05        -0.23630E+04         0.00000E+00
    0.00000E+00         0.00000E+00        -0.11040E+05
 
   -0.52170E+05         0.24942E+05         0.00000E+00
    0.24942E+05        -0.26990E+04         0.00000E+00
    0.00000E+00         0.00000E+00        -0.10974E+05
 
   -0.51458E+05         0.26444E+05         0.00000E+00
    0.26444E+05        -0.30564E+04         0.00000E+00
    0.00000E+00         0.00000E+00        -0.10903E+05
 
   -0.50701E+05         0.27925E+05         0.00000E+00
    0.27925E+05        -0.34348E+04         0.00000E+00
    0.00000E+00         0.00000E+00        -0.10827E+05
 
   -0.49902E+05         0.29385E+05         0.00000E+00
    0.29385E+05        -0.38340E+04         0.00000E+00
    0.00000E+00         0.00000E+00        -0.10747E+05
 
   -0.49060E+05         0.30821E+05         0.00000E+00
    0.30821E+05        -0.42536E+04         0.00000E+00
    0.00000E+00         0.00000E+00        -0.10663E+05
 
   -0.48175E+05         0.32232E+05         0.00000E+00
    0.32232E+05        -0.46934E+04         0.00000E+00
    0.00000E+00         0.00000E+00        -0.10574E+05
 
   -0.47248E+05         0.33617E+05         0.00000E+00
    0.33617E+05        -0.51529E+04         0.00000E+00
    0.00000E+00         0.00000E+00        -0.10480E+05
 
   -0.46280E+05         0.34975E+05         0.00000E+00
    0.34975E+05        -0.56319E+04         0.00000E+00
    0.00000E+00         0.00000E+00        -0.10382E+05
 
   -0.45271E+05         0.36305E+05         0.00000E+00
    0.36305E+05        -0.61299E+04         0.00000E+00
    0.00000E+00         0.00000E+00        -0.10280E+05
 
   -0.44222E+05         0.37605E+05         0.00000E+00
    0.37605E+05        -0.66465E+04         0.00000E+00
    0.00000E+00         0.00000E+00        -0.10174E+05
 
   -0.43132E+05         0.38874E+05         0.00000E+00
    0.38874E+05        -0.71812E+04         0.00000E+00
    0.00000E+00         0.00000E+00        -0.10063E+05
 
   -0.42004E+05         0.40111E+05         0.00000E+00
    0.40111E+05        -0.77338E+04         0.00000E+00
    0.00000E+00         0.00000E+00        -0.99475E+04
 
   -0.40837E+05         0.41316E+05         0.00000E+00
    0.41316E+05        -0.83036E+04         0.00000E+00
    0.00000E+00         0.00000E+00        -0.98281E+04
 
   -0.39632E+05         0.42486E+05         0.00000E+00
    0.42486E+05        -0.88902E+04         0.00000E+00
    0.00000E+00         0.00000E+00        -0.97045E+04
 
   -0.38390E+05         0.43620E+05         0.00000E+00
    0.43620E+05        -0.94932E+04         0.00000E+00
    0.00000E+00         0.00000E+00        -0.95767E+04
 
   -0.37112E+05         0.44719E+05         0.00000E+00
    0.44719E+05        -0.10112E+05         0.00000E+00
    0.00000E+00         0.00000E+00        -0.94448E+04
 
   -0.35798E+05         0.45779E+05         0.00000E+00
    0.45779E+05        -0.10746E+05         0.00000E+00
    0.00000E+00         0.00000E+00        -0.93088E+04
 
   -0.34449E+05         0.46802E+05         0.00000E+00
    0.46802E+05        -0.11395E+05         0.00000E+00
    0.00000E+00         0.00000E+00        -0.91688E+04
 
   -0.33066E+05         0.47785E+05         0.00000E+00
    0.47785E+05        -0.12058E+05         0.00000E+00
    0.00000E+00         0.00000E+00        -0.90248E+04
 
   -0.31650E+05         0.48727E+05         0.00000E+00
    0.48727E+05        -0.12735E+05         0.00000E+00
    0.00000E+00         0.00000E+00        -0.88769E+04
 
   -0.30201E+05         0.49628E+05         0.00000E+00
    0.49628E+05        -0.13425E+05         0.00000E+00
    0.00000E+00         0.00000E+00        -0.87252E+04
 
   -0.28721E+05         0.50486E+05         0.00000E+00
    0.50486E+05        -0.14127E+05         0.00000E+00
    0.00000E+00         0.00000E+00        -0.85696E+04
 
   -0.27210E+05         0.51302E+05         0.00000E+00
    0.51302E+05        -0.14842E+05         0.00000E+00
    0.00000E+00         0.00000E+00        -0.84103E+04
 
   -0.25669E+05         0.52073E+05         0.00000E+00
    0.52073E+05        -0.15567E+05         0.00000E+00
    0.00000E+00         0.00000E+00        -0.82473E+04
 
   -0.24099E+05         0.52799E+05         0.00000E+00
    0.52799E+05        -0.16304E+05         0.00000E+00
    0.00000E+00         0.00000E+00        -0.80806E+04
 
   -0.22502E+05         0.53479E+05         0.00000E+00
    0.53479E+05        -0.17050E+05         0.00000E+00
    0.00000E+00         0.00000E+00        -0.79104E+04
 
   -0.20877E+05         0.54112E+05         0.00000E+00
    0.54112E+05        -0.17806E+05         0.00000E+00
    0.00000E+00         0.00000E+00        -0.77367E+04
 
   -0.19227E+05         0.54698E+05         0.00000E+00
    0.54698E+05        -0.18571E+05         0.00000E+00
    0.00000E+00         0.00000E+00        -0.75596E+04
 
   -0.17552E+05         0.55236E+05         0.00000E+00
    0.55236E+05        -0.19344E+05         0.00000E+00
    0.00000E+00         0.00000E+00        -0.73791E+04
 
   -0.15853E+05         0.55725E+05         0.00000E+00
    0.55725E+05        -0.20124E+05         0.00000E+00
    0.00000E+00         0.00000E+00        -0.71953E+04
 
   -0.14130E+05         0.56164E+05         0.00000E+00
    0.56164E+05        -0.20911E+05         0.00000E+00
    0.00000E+00         0.00000E+00        -0.70082E+04
 
   -0.12387E+05         0.56552E+05         0.00000E+00
    0.56552E+05        -0.21704E+05         0.00000E+00
    0.00000E+00         0.00000E+00        -0.68181E+04
 
   -0.10622E+05         0.56890E+05         0.00000E+00
    0.56890E+05        -0.22502E+05         0.00000E+00
    0.00000E+00         0.00000E+00        -0.66248E+04
 
   -0.88377E+04         0.57176E+05         0.00000E+00
    0.57176E+05        -0.23305E+05         0.00000E+00
    0.00000E+00         0.00000E+00        -0.64286E+04
 
   -0.70350E+04         0.57410E+05         0.00000E+00
    0.57410E+05        -0.24112E+05         0.00000E+00
    0.00000E+00         0.00000E+00        -0.62294E+04
 
   -0.49466E+05         0.77292E+03         0.00000E+00
    0.77292E+03         0.60749E+01         0.00000E+00
    0.00000E+00         0.00000E+00        -0.98920E+04
 
   -0.49431E+05         0.23207E+04         0.00000E+00
    0.23207E+04        -0.13061E+02         0.00000E+00
    0.00000E+00         0.00000E+00        -0.98888E+04
 
   -0.49357E+05         0.38677E+04         0.00000E+00
    0.38677E+04        -0.51529E+02         0.00000E+00
    0.00000E+00         0.00000E+00        -0.98816E+04
 
   -0.49244E+05         0.54127E+04         0.00000E+00
    0.54127E+04        -0.10939E+03         0.00000E+00
    0.00000E+00         0.00000E+00        -0.98706E+04
 
   -0.49092E+05         0.69544E+04         0.00000E+00
    0.69544E+04        -0.18667E+03         0.00000E+00
    0.00000E+00         0.00000E+00        -0.98558E+04
 
   -0.48902E+05         0.84916E+04         0.00000E+00
    0.84916E+04        -0.28339E+03         0.00000E+00
    0.00000E+00         0.00000E+00        -0.98370E+04
 
   -0.48672E+05         0.10023E+05         0.00000E+00
    0.10023E+05        -0.39955E+03         0.00000E+00
    0.00000E+00         0.00000E+00        -0.98143E+04
 
   -0.48404E+05         0.11547E+05         0.00000E+00
    0.11547E+05        -0.53512E+03         0.00000E+00
    0.00000E+00         0.00000E+00        -0.97877E+04
 
   -0.48096E+05         0.13063E+05         0.00000E+00
    0.13063E+05        -0.69006E+03         0.00000E+00
    0.00000E+00         0.00000E+00        -0.97572E+04
 
   -0.47750E+05         0.14570E+05         0.00000E+00
    0.14570E+05        -0.86430E+03         0.00000E+00
    0.00000E+00         0.00000E+00        -0.97228E+04
 
   -0.47365E+05         0.16065E+05         0.00000E+00
    0.16065E+05        -0.10578E+04         0.00000E+00
    0.00000E+00         0.00000E+00        -0.96845E+04
 
   -0.46941E+05         0.17548E+05         0.00000E+00
    0.17548E+05        -0.12703E+04         0.00000E+00
    0.00000E+00         0.00000E+00        -0.96422E+04
 
   -0.46479E+05         0.19018E+05         0.00000E+00
    0.19018E+05        -0.15019E+04         0.00000E+00
    0.00000E+00         0.00000E+00        -0.95961E+04
 
   -0.45978E+05         0.20474E+05         0.00000E+00
    0.20474E+05        -0.17522E+04         0.00000E+00
    0.00000E+00         0.00000E+00        -0.95460E+04
 
   -0.45439E+05         0.21913E+05         0.00000E+00
    0.21913E+05        -0.20213E+04         0.00000E+00
    0.00000E+00         0.00000E+00        -0.94920E+04
 
   -0.44862E+05         0.23335E+05         0.00000E+00
    0.23335E+05        -0.23088E+04         0.00000E+00
    0.00000E+00         0.00000E+00        -0.94341E+04
 
   -0.44247E+05         0.24739E+05         0.00000E+00
    0.24739E+05        -0.26147E+04         0.00000E+00
    0.00000E+00         0.00000E+00        -0.93724E+04
 
   -0.43595E+05         0.26124E+05         0.00000E+00
    0.26124E+05        -0.29386E+04         0.00000E+00
    0.00000E+00         0.00000E+00        -0.93068E+04
 
   -0.42906E+05         0.27487E+05         0.00000E+00
    0.27487E+05        -0.32803E+04         0.00000E+00
    0.00000E+00         0.00000E+00        -0.92373E+04
 
   -0.42180E+05         0.28829E+05         0.00000E+00
    0.28829E+05        -0.36395E+04         0.00000E+00
    0.00000E+00         0.00000E+00        -0.91640E+04
 
   -0.41418E+05         0.30148E+05         0.00000E+00
    0.30148E+05        -0.40161E+04         0.00000E+00
    0.00000E+00         0.00000E+00        -0.90869E+04
 
   -0.40620E+05         0.31442E+05         0.00000E+00
    0.31442E+05        -0.44097E+04         0.00000E+00
    0.00000E+00         0.00000E+00        -0.90059E+04
 
   -0.39786E+05         0.32711E+05         0.00000E+00
    0.32711E+05        -0.48199E+04         0.00000E+00
    0.00000E+00         0.00000E+00        -0.89212E+04
 
   -0.38917E+05         0.33953E+05         0.00000E+00
    0.33953E+05        -0.52465E+04         0.00000E+00
    0.00000E+00         0.00000E+00        -0.88328E+04
 
   -0.38014E+05         0.35168E+05         0.00000E+00
    0.35168E+05        -0.56892E+04         0.00000E+00
    0.00000E+00         0.00000E+00        -0.87406E+04
 
   -0.37076E+05         0.36353E+05         0.00000E+00
    0.36353E+05        -0.61475E+04         0.00000E+00
    0.00000E+00         0.00000E+00        -0.86448E+04
 
   -0.36105E+05         0.37509E+05         0.00000E+00
    0.37509E+05        -0.66211E+04         0.00000E+00
    0.00000E+00         0.00000E+00        -0.85453E+04
 
   -0.35101E+05         0.38634E+05         0.00000E+00
    0.38634E+05        -0.71096E+04         0.00000E+00
    0.00000E+00         0.00000E+00        -0.84421E+04
 
   -0.34064E+05         0.39727E+05         0.00000E+00
    0.39727E+05        -0.76126E+04         0.00000E+00
    0.00000E+00         0.00000E+00        -0.83354E+04
 
   -0.32996E+05         0.40787E+05         0.00000E+00
    0.40787E+05        -0.81297E+04         0.00000E+00
    0.00000E+00         0.00000E+00        -0.82251E+04
 
   -0.31896E+05         0.41813E+05         0.00000E+00
    0.41813E+05        -0.86605E+04         0.00000E+00
    0.00000E+00         0.00000E+00        -0.81113E+04
 
   -0.30766E+05         0.42803E+05         0.00000E+00
    0.42803E+05        -0.92045E+04         0.00000E+00
    0.00000E+00         0.00000E+00        -0.79941E+04
 
   -0.29605E+05         0.43758E+05         0.00000E+00
    0.43758E+05        -0.97613E+04         0.00000E+00
    0.00000E+00         0.00000E+00        -0.78733E+04
 
   -0.28416E+05         0.44676E+05         0.00000E+00
    0.44676E+05        -0.10330E+05         0.00000E+00
    0.00000E+00         0.00000E+00        -0.77492E+04
 
   -0.27198E+05         0.45556E+05         0.00000E+00
    0.45556E+05        -0.10911E+05         0.00000E+00
    0.00000E+00         0.00000E+00        -0.76218E+04
 
   -0.25952E+05         0.46397E+05         0.00000E+00
    0.46397E+05        -0.11503E+05         0.00000E+00
    0.00000E+00         0.00000E+00        -0.74910E+04
 
   -0.24678E+05         0.47199E+05         0.00000E+00
    0.47199E+05        -0.12107E+05         0.00000E+00
    0.00000E+00         0.00000E+00        -0.73570E+04
 
   -0.23379E+05         0.47960E+05         0.00000E+00
    0.47960E+05        -0.12720E+05         0.00000E+00
    0.00000E+00         0.00000E+00        -0.72198E+04
 
   -0.22054E+05         0.48680E+05         0.00000E+00
    0.48680E+05        -0.13343E+05         0.00000E+00
    0.00000E+00         0.00000E+00        -0.70794E+04
 
   -0.20704E+05         0.49357E+05         0.00000E+00
    0.49357E+05        -0.13976E+05         0.00000E+00
    0.00000E+00         0.00000E+00        -0.69360E+04
 
   -0.19331E+05         0.49992E+05         0.00000E+00
    0.49992E+05        -0.14617E+05         0.00000E+00
    0.00000E+00         0.00000E+00        -0.67895E+04
 
   -0.17934E+05         0.50583E+05         0.00000E+00
    0.50583E+05        -0.15266E+05         0.00000E+00
    0.00000E+00         0.00000E+00        -0.66400E+04
 
   -0.16515E+05         0.51130E+05         0.00000E+00
    0.51130E+05        -0.15923E+05         0.00000E+00
    0.00000E+00         0.00000E+00        -0.64876E+04
 
   -0.15075E+05         0.51631E+05         0.00000E+00
    0.51631E+05        -0.16587E+05         0.00000E+00
    0.00000E+00         0.00000E+00        -0.63323E+04
 
   -0.13614E+05         0.52087E+05         0.00000E+00
    0.52087E+05        -0.17257E+05         0.00000E+00
    0.00000E+00         0.00000E+00        -0.61742E+04
 
   -0.12134E+05         0.52496E+05         0.00000E+00
    0.52496E+05        -0.17933E+05         0.00000E+00
    0.00000E+00         0.00000E+00        -0.60134E+04
 
   -0.10635E+05         0.52858E+05         0.00000E+00
    0.52858E+05        -0.18615E+05         0.00000E+00
    0.00000E+00         0.00000E+00        -0.58499E+04
 
   -0.91183E+04         0.53173E+05         0.00000E+00
    0.53173E+05        -0.19301E+05         0.00000E+00
    0.00000E+00         0.00000E+00        -0.56838E+04
 
   -0.75851E+04         0.53439E+05         0.00000E+00
    0.53439E+05        -0.19991E+05         0.00000E+00
    0.00000E+00         0.00000E+00        -0.55152E+04
 
   -0.60361E+04         0.53657E+05         0.00000E+00
    0.53657E+05        -0.20684E+05         0.00000E+00
    0.00000E+00         0.00000E+00        -0.53440E+04
 
   -0.41955E+05         0.72899E+03         0.00000E+00
    0.72899E+03         0.51271E+01         0.00000E+00
    0.00000E+00         0.00000E+00        -0.83899E+04
 
   -0.41921E+05         0.21879E+04         0.00000E+00
    0.21879E+04        -0.11036E+02         0.00000E+00
    0.00000E+00         0.00000E+00        -0.83864E+04
 
   -0.41854E+05         0.36458E+04         0.00000E+00
    0.36458E+04        -0.43517E+02         0.00000E+00
    0.00000E+00         0.00000E+00        -0.83796E+04
 
   -0.41755E+05         0.51015E+04         0.00000E+00
    0.51015E+04        -0.92359E+02         0.00000E+00
    0.00000E+00         0.00000E+00        -0.83695E+04
 
   -0.41623E+05         0.65538E+04         0.00000E+00
    0.65538E+04        -0.15759E+03         0.00000E+00
    0.00000E+00         0.00000E+00        -0.83562E+04
 
   -0.41459E+05         0.80015E+04         0.00000E+00
    0.80015E+04        -0.23922E+03         0.00000E+00
    0.00000E+00         0.00000E+00        -0.83396E+04
 
   -0.41261E+05         0.94435E+04         0.00000E+00
    0.94435E+04        -0.33726E+03         0.00000E+00
    0.00000E+00         0.00000E+00        -0.83197E+04
 
   -0.41031E+05         0.10879E+05         0.00000E+00
    0.10879E+05        -0.45166E+03         0.00000E+00
    0.00000E+00         0.00000E+00        -0.82964E+04
 
   -0.40767E+05         0.12305E+05         0.00000E+00
    0.12305E+05        -0.58241E+03         0.00000E+00
    0.00000E+00         0.00000E+00        -0.82699E+04
 
   -0.40471E+05         0.13723E+05         0.00000E+00
    0.13723E+05        -0.72944E+03         0.00000E+00
    0.00000E+00         0.00000E+00        -0.82401E+04
 
   -0.40142E+05         0.15130E+05         0.00000E+00
    0.15130E+05        -0.89269E+03         0.00000E+00
    0.00000E+00         0.00000E+00        -0.82070E+04
 
   -0.39781E+05         0.16526E+05         0.00000E+00
    0.16526E+05        -0.10721E+04         0.00000E+00
    0.00000E+00         0.00000E+00        -0.81706E+04
 
   -0.39387E+05         0.17909E+05         0.00000E+00
    0.17909E+05        -0.12675E+04         0.00000E+00
    0.00000E+00         0.00000E+00        -0.81309E+04
 
   -0.38960E+05         0.19278E+05         0.00000E+00
    0.19278E+05        -0.14788E+04         0.00000E+00
    0.00000E+00         0.00000E+00        -0.80878E+04
 
   -0.38502E+05         0.20632E+05         0.00000E+00
    0.20632E+05        -0.17058E+04         0.00000E+00
    0.00000E+00         0.00000E+00        -0.80415E+04
 
   -0.38011E+05         0.21969E+05         0.00000E+00
    0.21969E+05        -0.19485E+04         0.00000E+00
    0.00000E+00         0.00000E+00        -0.79920E+04
 
   -0.37489E+05         0.23290E+05         0.00000E+00
    0.23290E+05        -0.22067E+04         0.00000E+00
    0.00000E+00         0.00000E+00        -0.79391E+04
 
   -0.36935E+05         0.24591E+05         0.00000E+00
    0.24591E+05        -0.24801E+04         0.00000E+00
    0.00000E+00         0.00000E+00        -0.78830E+04
 
   -0.36350E+05         0.25874E+05         0.00000E+00
    0.25874E+05        -0.27686E+04         0.00000E+00
    0.00000E+00         0.00000E+00        -0.78236E+04
 
   -0.35733E+05         0.27135E+05         0.00000E+00
    0.27135E+05        -0.30720E+04         0.00000E+00
    0.00000E+00         0.00000E+00        -0.77611E+04
 
   -0.35086E+05         0.28374E+05         0.00000E+00
    0.28374E+05        -0.33899E+04         0.00000E+00
    0.00000E+00         0.00000E+00        -0.76952E+04
 
   -0.34409E+05         0.29591E+05         0.00000E+00
    0.29591E+05        -0.37223E+04         0.00000E+00
    0.00000E+00         0.00000E+00        -0.76262E+04
 
   -0.33701E+05         0.30784E+05         0.00000E+00
    0.30784E+05        -0.40688E+04         0.00000E+00
    0.00000E+00         0.00000E+00        -0.75541E+04
 
   -0.32964E+05         0.31951E+05         0.00000E+00
    0.31951E+05        -0.44292E+04         0.00000E+00
    0.00000E+00         0.00000E+00        -0.74787E+04
 
   -0.32198E+05         0.33093E+05         0.00000E+00
    0.33093E+05        -0.48032E+04         0.00000E+00
    0.00000E+00         0.00000E+00        -0.74003E+04
 
   -0.31403E+05         0.34207E+05         0.00000E+00
    0.34207E+05        -0.51904E+04         0.00000E+00
    0.00000E+00         0.00000E+00        -0.73187E+04
 
   -0.30579E+05         0.35293E+05         0.00000E+00
    0.35293E+05        -0.55907E+04         0.00000E+00
    0.00000E+00         0.00000E+00        -0.72340E+04
 
   -0.29728E+05         0.36350E+05         0.00000E+00
    0.36350E+05        -0.60035E+04         0.00000E+00
    0.00000E+00         0.00000E+00        -0.71463E+04
 
   -0.28849E+05         0.37377E+05         0.00000E+00
    0.37377E+05        -0.64287E+04         0.00000E+00
    0.00000E+00         0.00000E+00        -0.70556E+04
 
   -0.27943E+05         0.38373E+05         0.00000E+00
    0.38373E+05        -0.68659E+04         0.00000E+00
    0.00000E+00         0.00000E+00        -0.69618E+04
 
   -0.27011E+05         0.39336E+05         0.00000E+00
    0.39336E+05        -0.73147E+04         0.00000E+00
    0.00000E+00         0.00000E+00        -0.68651E+04
 
   -0.26053E+05         0.40267E+05         0.00000E+00
    0.40267E+05        -0.77747E+04         0.00000E+00
    0.00000E+00         0.00000E+00        -0.67655E+04
 
   -0.25069E+05         0.41164E+05         0.00000E+00
    0.41164E+05        -0.82455E+04         0.00000E+00
    0.00000E+00         0.00000E+00        -0.66630E+04
 
   -0.24061E+05         0.42026E+05         0.00000E+00
    0.42026E+05        -0.87269E+04         0.00000E+00
    0.00000E+00         0.00000E+00        -0.65576E+04
 
   -0.23029E+05         0.42853E+05         0.00000E+00
    0.42853E+05        -0.92183E+04         0.00000E+00
    0.00000E+00         0.00000E+00        -0.64494E+04
 
   -0.21973E+05         0.43643E+05         0.00000E+00
    0.43643E+05        -0.97193E+04         0.00000E+00
    0.00000E+00         0.00000E+00        -0.63384E+04
 
   -0.20894E+05         0.44395E+05         0.00000E+00
    0.44395E+05        -0.10230E+05         0.00000E+00
    0.00000E+00         0.00000E+00        -0.62247E+04
 
   -0.19793E+05         0.45110E+05         0.00000E+00
    0.45110E+05        -0.10749E+05         0.00000E+00
    0.00000E+00         0.00000E+00        -0.61083E+04
 
   -0.18670E+05         0.45786E+05         0.00000E+00
    0.45786E+05        -0.11276E+05         0.00000E+00
    0.00000E+00         0.00000E+00        -0.59893E+04
 
   -0.17527E+05         0.46422E+05         0.00000E+00
    0.46422E+05        -0.11811E+05         0.00000E+00
    0.00000E+00         0.00000E+00        -0.58676E+04
 
   -0.16363E+05         0.47017E+05         0.00000E+00
    0.47017E+05        -0.12354E+05         0.00000E+00
    0.00000E+00         0.00000E+00        -0.57434E+04
 
   -0.15180E+05         0.47572E+05         0.00000E+00
    0.47572E+05        -0.12903E+05         0.00000E+00
    0.00000E+00         0.00000E+00        -0.56167E+04
 
   -0.13978E+05         0.48085E+05         0.00000E+00
    0.48085E+05        -0.13459E+05         0.00000E+00
    0.00000E+00         0.00000E+00        -0.54875E+04
 
   -0.12758E+05         0.48555E+05         0.00000E+00
    0.48555E+05        -0.14021E+05         0.00000E+00
    0.00000E+00         0.00000E+00        -0.53559E+04
 
   -0.11521E+05         0.48983E+05         0.00000E+00
    0.48983E+05        -0.14589E+05         0.00000E+00
    0.00000E+00         0.00000E+00        -0.52220E+04
 
   -0.10267E+05         0.49367E+05         0.00000E+00
    0.49367E+05        -0.15161E+05         0.00000E+00
    0.00000E+00         0.00000E+00        -0.50858E+04
 
   -0.89982E+04         0.49706E+05         0.00000E+00
    0.49706E+05        -0.15738E+05         0.00000E+00
    0.00000E+00         0.00000E+00        -0.49473E+04
 
   -0.77142E+04         0.50001E+05         0.00000E+00
    0.50001E+05        -0.16319E+05         0.00000E+00
    0.00000E+00         0.00000E+00        -0.48066E+04
 
   -0.64161E+04         0.50250E+05         0.00000E+00
    0.50250E+05        -0.16903E+05         0.00000E+00
    0.00000E+00         0.00000E+00        -0.46638E+04
 
   -0.51048E+04         0.50454E+05         0.00000E+00
    0.50454E+05        -0.17490E+05         0.00000E+00
    0.00000E+00         0.00000E+00        -0.45189E+04
 
   -0.34850E+05         0.69220E+03         0.00000E+00
    0.69220E+03         0.42425E+01         0.00000E+00
    0.00000E+00         0.00000E+00        -0.69692E+04
 
   -0.34819E+05         0.20768E+04         0.00000E+00
    0.20768E+04        -0.91423E+01         0.00000E+00
    0.00000E+00         0.00000E+00        -0.69657E+04
 
   -0.34762E+05         0.34602E+04         0.00000E+00
    0.34602E+04        -0.36030E+02         0.00000E+00
    0.00000E+00         0.00000E+00        -0.69595E+04
 
   -0.34677E+05         0.48412E+04         0.00000E+00
    0.48412E+04        -0.76455E+02         0.00000E+00
    0.00000E+00         0.00000E+00        -0.69506E+04
 
   -0.34565E+05         0.62186E+04         0.00000E+00
    0.62186E+04        -0.13044E+03         0.00000E+00
    0.00000E+00         0.00000E+00        -0.69391E+04
 
   -0.34426E+05         0.75915E+04         0.00000E+00
    0.75915E+04        -0.19799E+03         0.00000E+00
    0.00000E+00         0.00000E+00        -0.69248E+04
 
   -0.34260E+05         0.89588E+04         0.00000E+00
    0.89588E+04        -0.27910E+03         0.00000E+00
    0.00000E+00         0.00000E+00        -0.69077E+04
 
   -0.34066E+05         0.10319E+05         0.00000E+00
    0.10319E+05        -0.37376E+03         0.00000E+00
    0.00000E+00         0.00000E+00        -0.68880E+04
 
   -0.33846E+05         0.11672E+05         0.00000E+00
    0.11672E+05        -0.48193E+03         0.00000E+00
    0.00000E+00         0.00000E+00        -0.68655E+04
 
   -0.33598E+05         0.13015E+05         0.00000E+00
    0.13015E+05        -0.60357E+03         0.00000E+00
    0.00000E+00         0.00000E+00        -0.68403E+04
 
   -0.33323E+05         0.14349E+05         0.00000E+00
    0.14349E+05        -0.73862E+03         0.00000E+00
    0.00000E+00         0.00000E+00        -0.68124E+04
 
   -0.33022E+05         0.15671E+05         0.00000E+00
    0.15671E+05        -0.88702E+03         0.00000E+00
    0.00000E+00         0.00000E+00        -0.67817E+04
 
   -0.32693E+05         0.16981E+05         0.00000E+00
    0.16981E+05        -0.10487E+04         0.00000E+00
    0.00000E+00         0.00000E+00        -0.67483E+04
 
   -0.32338E+05         0.18278E+05         0.00000E+00
    0.18278E+05        -0.12235E+04         0.00000E+00
    0.00000E+00         0.00000E+00        -0.67122E+04
 
   -0.31956E+05         0.19560E+05         0.00000E+00
    0.19560E+05        -0.14114E+04         0.00000E+00
    0.00000E+00         0.00000E+00        -0.66734E+04
 
   -0.31547E+05         0.20827E+05         0.00000E+00
    0.20827E+05        -0.16122E+04         0.00000E+00
    0.00000E+00         0.00000E+00        -0.66319E+04
 
   -0.31112E+05         0.22077E+05         0.00000E+00
    0.22077E+05        -0.18258E+04         0.00000E+00
    0.00000E+00         0.00000E+00        -0.65876E+04
 
   -0.30651E+05         0.23309E+05         0.00000E+00
    0.23309E+05        -0.20521E+04         0.00000E+00
    0.00000E+00         0.00000E+00        -0.65407E+04
 
   -0.30165E+05         0.24523E+05         0.00000E+00
    0.24523E+05        -0.22908E+04         0.00000E+00
    0.00000E+00         0.00000E+00        -0.64911E+04
 
   -0.29652E+05         0.25717E+05         0.00000E+00
    0.25717E+05        -0.25419E+04         0.00000E+00
    0.00000E+00         0.00000E+00        -0.64388E+04
 
   -0.29114E+05         0.26891E+05         0.00000E+00
    0.26891E+05        -0.28051E+04         0.00000E+00
    0.00000E+00         0.00000E+00        -0.63839E+04
 
   -0.28551E+05         0.28042E+05         0.00000E+00
    0.28042E+05        -0.30802E+04         0.00000E+00
    0.00000E+00         0.00000E+00        -0.63263E+04
 
   -0.27963E+05         0.29171E+05         0.00000E+00
    0.29171E+05        -0.33671E+04         0.00000E+00
    0.00000E+00         0.00000E+00        -0.62661E+04
 
   -0.27351E+05         0.30275E+05         0.00000E+00
    0.30275E+05        -0.36654E+04         0.00000E+00
    0.00000E+00         0.00000E+00        -0.62033E+04
 
   -0.26714E+05         0.31355E+05         0.00000E+00
    0.31355E+05        -0.39751E+04         0.00000E+00
    0.00000E+00         0.00000E+00        -0.61379E+04
 
   -0.26054E+05         0.32410E+05         0.00000E+00
    0.32410E+05        -0.42958E+04         0.00000E+00
    0.00000E+00         0.00000E+00        -0.60699E+04
 
   -0.25370E+05         0.33437E+05         0.00000E+00
    0.33437E+05        -0.46272E+04         0.00000E+00
    0.00000E+00         0.00000E+00        -0.59994E+04
 
   -0.24663E+05         0.34437E+05         0.00000E+00
    0.34437E+05        -0.49692E+04         0.00000E+00
    0.00000E+00         0.00000E+00        -0.59264E+04
 
   -0.23933E+05         0.35409E+05         0.00000E+00
    0.35409E+05        -0.53214E+04         0.00000E+00
    0.00000E+00         0.00000E+00        -0.58509E+04
 
   -0.23181E+05         0.36350E+05         0.00000E+00
    0.36350E+05        -0.56835E+04         0.00000E+00
    0.00000E+00         0.00000E+00        -0.57729E+04
 
   -0.22407E+05         0.37262E+05         0.00000E+00
    0.37262E+05        -0.60553E+04         0.00000E+00
    0.00000E+00         0.00000E+00        -0.56924E+04
 
   -0.21611E+05         0.38142E+05         0.00000E+00
    0.38142E+05        -0.64365E+04         0.00000E+00
    0.00000E+00         0.00000E+00        -0.56096E+04
 
   -0.20795E+05         0.38990E+05         0.00000E+00
    0.38990E+05        -0.68267E+04         0.00000E+00
    0.00000E+00         0.00000E+00        -0.55243E+04
 
   -0.19958E+05         0.39805E+05         0.00000E+00
    0.39805E+05        -0.72255E+04         0.00000E+00
    0.00000E+00         0.00000E+00        -0.54367E+04
 
   -0.19101E+05         0.40587E+05         0.00000E+00
    0.40587E+05        -0.76328E+04         0.00000E+00
    0.00000E+00         0.00000E+00        -0.53468E+04
 
   -0.18225E+05         0.41334E+05         0.00000E+00
    0.41334E+05        -0.80481E+04         0.00000E+00
    0.00000E+00         0.00000E+00        -0.52545E+04
 
   -0.17329E+05         0.42045E+05         0.00000E+00
    0.42045E+05        -0.84710E+04         0.00000E+00
    0.00000E+00         0.00000E+00        -0.51601E+04
 
   -0.16415E+05         0.42721E+05         0.00000E+00
    0.42721E+05        -0.89013E+04         0.00000E+00
    0.00000E+00         0.00000E+00        -0.50634E+04
 
   -0.15484E+05         0.43359E+05         0.00000E+00
    0.43359E+05        -0.93385E+04         0.00000E+00
    0.00000E+00         0.00000E+00        -0.49645E+04
 
   -0.14535E+05         0.43960E+05         0.00000E+00
    0.43960E+05        -0.97822E+04         0.00000E+00
    0.00000E+00         0.00000E+00        -0.48634E+04
 
   -0.13569E+05         0.44523E+05         0.00000E+00
    0.44523E+05        -0.10232E+05         0.00000E+00
    0.00000E+00         0.00000E+00        -0.47603E+04
 
   -0.12587E+05         0.45047E+05         0.00000E+00
    0.45047E+05        -0.10688E+05         0.00000E+00
    0.00000E+00         0.00000E+00        -0.46551E+04
 
   -0.11590E+05         0.45532E+05         0.00000E+00
    0.45532E+05        -0.11149E+05         0.00000E+00
    0.00000E+00         0.00000E+00        -0.45478E+04
 
   -0.10578E+05         0.45976E+05         0.00000E+00
    0.45976E+05        -0.11615E+05         0.00000E+00
    0.00000E+00         0.00000E+00        -0.44386E+04
 
   -0.95518E+04         0.46380E+05         0.00000E+00
    0.46380E+05        -0.12086E+05         0.00000E+00
    0.00000E+00         0.00000E+00        -0.43275E+04
 
   -0.85119E+04         0.46742E+05         0.00000E+00
    0.46742E+05        -0.12560E+05         0.00000E+00
    0.00000E+00         0.00000E+00        -0.42144E+04
 
   -0.74591E+04         0.47062E+05         0.00000E+00
    0.47062E+05        -0.13039E+05         0.00000E+00
    0.00000E+00         0.00000E+00        -0.40995E+04
 
   -0.63940E+04         0.47341E+05         0.00000E+00
    0.47341E+05        -0.13520E+05         0.00000E+00
    0.00000E+00         0.00000E+00        -0.39828E+04
 
   -0.53175E+04         0.47576E+05         0.00000E+00
    0.47576E+05        -0.14004E+05         0.00000E+00
    0.00000E+00         0.00000E+00        -0.38644E+04
 
   -0.42301E+04         0.47768E+05         0.00000E+00
    0.47768E+05        -0.14491E+05         0.00000E+00
    0.00000E+00         0.00000E+00        -0.37442E+04
 
   -0.28082E+05         0.66214E+03         0.00000E+00
    0.66214E+03         0.34073E+01         0.00000E+00
    0.00000E+00         0.00000E+00        -0.56157E+04
 
   -0.28055E+05         0.19861E+04         0.00000E+00
    0.19861E+04        -0.73488E+01         0.00000E+00
    0.00000E+00         0.00000E+00        -0.56126E+04
 
   -0.28007E+05         0.33086E+04         0.00000E+00
    0.33086E+04        -0.28951E+02         0.00000E+00
    0.00000E+00         0.00000E+00        -0.56072E+04
 
   -0.27937E+05         0.46286E+04         0.00000E+00
    0.46286E+04        -0.61423E+02         0.00000E+00
    0.00000E+00         0.00000E+00        -0.55998E+04
 
   -0.27846E+05         0.59450E+04         0.00000E+00
    0.59450E+04        -0.10478E+03         0.00000E+00
    0.00000E+00         0.00000E+00        -0.55901E+04
 
   -0.27732E+05         0.72568E+04         0.00000E+00
    0.72568E+04        -0.15904E+03         0.00000E+00
    0.00000E+00         0.00000E+00        -0.55783E+04
 
   -0.27597E+05         0.85631E+04         0.00000E+00
    0.85631E+04        -0.22418E+03         0.00000E+00
    0.00000E+00         0.00000E+00        -0.55642E+04
 
   -0.27440E+05         0.98626E+04         0.00000E+00
    0.98626E+04        -0.30020E+03         0.00000E+00
    0.00000E+00         0.00000E+00        -0.55480E+04
 
   -0.27261E+05         0.11154E+05         0.00000E+00
    0.11154E+05        -0.38706E+03         0.00000E+00
    0.00000E+00         0.00000E+00        -0.55296E+04
 
   -0.27060E+05         0.12437E+05         0.00000E+00
    0.12437E+05        -0.48475E+03         0.00000E+00
    0.00000E+00         0.00000E+00        -0.55090E+04
 
   -0.26838E+05         0.13711E+05         0.00000E+00
    0.13711E+05        -0.59321E+03         0.00000E+00
    0.00000E+00         0.00000E+00        -0.54863E+04
 
   -0.26594E+05         0.14973E+05         0.00000E+00
    0.14973E+05        -0.71238E+03         0.00000E+00
    0.00000E+00         0.00000E+00        -0.54613E+04
 
   -0.26328E+05         0.16224E+05         0.00000E+00
    0.16224E+05        -0.84220E+03         0.00000E+00
    0.00000E+00         0.00000E+00        -0.54341E+04
 
   -0.26041E+05         0.17461E+05         0.00000E+00
    0.17461E+05        -0.98261E+03         0.00000E+00
    0.00000E+00         0.00000E+00        -0.54048E+04
 
   -0.25733E+05         0.18685E+05         0.00000E+00
    0.18685E+05        -0.11335E+04         0.00000E+00
    0.00000E+00         0.00000E+00        -0.53733E+04
 
   -0.25403E+05         0.19894E+05         0.00000E+00
    0.19894E+05        -0.12948E+04         0.00000E+00
    0.00000E+00         0.00000E+00        -0.53396E+04
 
   -0.25052E+05         0.21087E+05         0.00000E+00
    0.21087E+05        -0.14664E+04         0.00000E+00
    0.00000E+00         0.00000E+00        -0.53037E+04
 
   -0.24680E+05         0.22263E+05         0.00000E+00
    0.22263E+05        -0.16481E+04         0.00000E+00
    0.00000E+00         0.00000E+00        -0.52657E+04
 
   -0.24288E+05         0.23421E+05         0.00000E+00
    0.23421E+05        -0.18399E+04         0.00000E+00
    0.00000E+00         0.00000E+00        -0.52255E+04
 
   -0.23875E+05         0.24559E+05         0.00000E+00
    0.24559E+05        -0.20416E+04         0.00000E+00
    0.00000E+00         0.00000E+00        -0.51832E+04
 
   -0.23441E+05         0.25678E+05         0.00000E+00
    0.25678E+05        -0.22530E+04         0.00000E+00
    0.00000E+00         0.00000E+00        -0.51388E+04
 
   -0.22987E+05         0.26777E+05         0.00000E+00
    0.26777E+05        -0.24741E+04         0.00000E+00
    0.00000E+00         0.00000E+00        -0.50922E+04
 
   -0.22513E+05         0.27853E+05         0.00000E+00
    0.27853E+05        -0.27046E+04         0.00000E+00
    0.00000E+00         0.00000E+00        -0.50436E+04
 
   -0.22020E+05         0.28906E+05         0.00000E+00
    0.28906E+05        -0.29444E+04         0.00000E+00
    0.00000E+00         0.00000E+00        -0.49928E+04
 
   -0.21507E+05         0.29936E+05         0.00000E+00
    0.29936E+05        -0.31933E+04         0.00000E+00
    0.00000E+00         0.00000E+00        -0.49400E+04
 
   -0.20974E+05         0.30941E+05         0.00000E+00
    0.30941E+05        -0.34510E+04         0.00000E+00
    0.00000E+00         0.00000E+00        -0.48851E+04
 
   -0.20423E+05         0.31921E+05         0.00000E+00
    0.31921E+05        -0.37174E+04         0.00000E+00
    0.00000E+00         0.00000E+00        -0.48281E+04
 
   -0.19854E+05         0.32874E+05         0.00000E+00
    0.32874E+05        -0.39923E+04         0.00000E+00
    0.00000E+00         0.00000E+00        -0.47692E+04
 
   -0.19266E+05         0.33800E+05         0.00000E+00
    0.33800E+05        -0.42755E+04         0.00000E+00
    0.00000E+00         0.00000E+00        -0.47082E+04
 
   -0.18660E+05         0.34697E+05         0.00000E+00
    0.34697E+05        -0.45667E+04         0.00000E+00
    0.00000E+00         0.00000E+00        -0.46453E+04
 
   -0.18036E+05         0.35566E+05         0.00000E+00
    0.35566E+05        -0.48656E+04         0.00000E+00
    0.00000E+00         0.00000E+00        -0.45804E+04
 
   -0.17396E+05         0.36405E+05         0.00000E+00
    0.36405E+05        -0.51721E+04         0.00000E+00
    0.00000E+00         0.00000E+00        -0.45135E+04
 
   -0.16738E+05         0.37213E+05         0.00000E+00
    0.37213E+05        -0.54859E+04         0.00000E+00
    0.00000E+00         0.00000E+00        -0.44448E+04
 
   -0.16064E+05         0.37989E+05         0.00000E+00
    0.37989E+05        -0.58068E+04         0.00000E+00
    0.00000E+00         0.00000E+00        -0.43741E+04
 
   -0.15374E+05         0.38734E+05         0.00000E+00
    0.38734E+05        -0.61343E+04         0.00000E+00
    0.00000E+00         0.00000E+00        -0.43016E+04
 
   -0.14668E+05         0.39445E+05         0.00000E+00
    0.39445E+05        -0.64684E+04         0.00000E+00
    0.00000E+00         0.00000E+00        -0.42273E+04
 
   -0.13947E+05         0.40123E+05         0.00000E+00
    0.40123E+05        -0.68086E+04         0.00000E+00
    0.00000E+00         0.00000E+00        -0.41511E+04
 
   -0.13211E+05         0.40766E+05         0.00000E+00
    0.40766E+05        -0.71548E+04         0.00000E+00
    0.00000E+00         0.00000E+00        -0.40732E+04
 
   -0.12461E+05         0.41374E+05         0.00000E+00
    0.41374E+05        -0.75065E+04         0.00000E+00
    0.00000E+00         0.00000E+00        -0.39935E+04
 
   -0.11697E+05         0.41947E+05         0.00000E+00
    0.41947E+05        -0.78636E+04         0.00000E+00
    0.00000E+00         0.00000E+00        -0.39121E+04
 
   -0.10919E+05         0.42483E+05         0.00000E+00
    0.42483E+05        -0.82256E+04         0.00000E+00
    0.00000E+00         0.00000E+00        -0.38290E+04
 
   -0.10129E+05         0.42982E+05         0.00000E+00
    0.42982E+05        -0.85923E+04         0.00000E+00
    0.00000E+00         0.00000E+00        -0.37443E+04
 
   -0.93262E+04         0.43443E+05         0.00000E+00
    0.43443E+05        -0.89633E+04         0.00000E+00
    0.00000E+00         0.00000E+00        -0.36579E+04
 
   -0.85114E+04         0.43866E+05         0.00000E+00
    0.43866E+05        -0.93383E+04         0.00000E+00
    0.00000E+00         0.00000E+00        -0.35699E+04
 
   -0.76852E+04         0.44250E+05         0.00000E+00
    0.44250E+05        -0.97170E+04         0.00000E+00
    0.00000E+00         0.00000E+00        -0.34804E+04
 
   -0.68481E+04         0.44595E+05         0.00000E+00
    0.44595E+05        -0.10099E+05         0.00000E+00
    0.00000E+00         0.00000E+00        -0.33894E+04
 
   -0.60007E+04         0.44900E+05         0.00000E+00
    0.44900E+05        -0.10484E+05         0.00000E+00
    0.00000E+00         0.00000E+00        -0.32969E+04
 
   -0.51435E+04         0.45164E+05         0.00000E+00
    0.45164E+05        -0.10871E+05         0.00000E+00
    0.00000E+00         0.00000E+00        -0.32030E+04
 
   -0.42770E+04         0.45388E+05         0.00000E+00
    0.45388E+05        -0.11261E+05         0.00000E+00
    0.00000E+00         0.00000E+00        -0.31077E+04
 
   -0.34019E+04         0.45571E+05         0.00000E+00
    0.45571E+05        -0.11653E+05         0.00000E+00
    0.00000E+00         0.00000E+00        -0.30110E+04
 
   -0.21584E+05         0.63848E+03         0.00000E+00
    0.63848E+03         0.26101E+01         0.00000E+00
    0.00000E+00         0.00000E+00        -0.43163E+04
 
   -0.21563E+05         0.19147E+04         0.00000E+00
    0.19147E+04        -0.56313E+01         0.00000E+00
    0.00000E+00         0.00000E+00        -0.43137E+04
 
   -0.21525E+05         0.31893E+04         0.00000E+00
    0.31893E+04        -0.22181E+02         0.00000E+00
    0.00000E+00         0.00000E+00        -0.43094E+04
 
   -0.21470E+05         0.44613E+04         0.00000E+00
    0.44613E+04        -0.47057E+02         0.00000E+00
    0.00000E+00         0.00000E+00        -0.43035E+04
 
   -0.21399E+05         0.57297E+04         0.00000E+00
    0.57297E+04        -0.80273E+02         0.00000E+00
    0.00000E+00         0.00000E+00        -0.42959E+04
 
   -0.21311E+05         0.69935E+04         0.00000E+00
    0.69935E+04        -0.12183E+03         0.00000E+00
    0.00000E+00         0.00000E+00        -0.42866E+04
 
   -0.21207E+05         0.82518E+04         0.00000E+00
    0.82518E+04        -0.17173E+03         0.00000E+00
    0.00000E+00         0.00000E+00        -0.42756E+04
 
   -0.21085E+05         0.95034E+04         0.00000E+00
    0.95034E+04        -0.22997E+03         0.00000E+00
    0.00000E+00         0.00000E+00        -0.42630E+04
 
   -0.20947E+05         0.10747E+05         0.00000E+00
    0.10747E+05        -0.29651E+03         0.00000E+00
    0.00000E+00         0.00000E+00        -0.42487E+04
 
   -0.20792E+05         0.11983E+05         0.00000E+00
    0.11983E+05        -0.37135E+03         0.00000E+00
    0.00000E+00         0.00000E+00        -0.42327E+04
 
   -0.20621E+05         0.13209E+05         0.00000E+00
    0.13209E+05        -0.45444E+03         0.00000E+00
    0.00000E+00         0.00000E+00        -0.42151E+04
 
   -0.20433E+05         0.14424E+05         0.00000E+00
    0.14424E+05        -0.54575E+03         0.00000E+00
    0.00000E+00         0.00000E+00        -0.41958E+04
 
   -0.20228E+05         0.15628E+05         0.00000E+00
    0.15628E+05        -0.64522E+03         0.00000E+00
    0.00000E+00         0.00000E+00        -0.41747E+04
 
   -0.20007E+05         0.16819E+05         0.00000E+00
    0.16819E+05        -0.75280E+03         0.00000E+00
    0.00000E+00         0.00000E+00        -0.41521E+04
 
   -0.19770E+05         0.17997E+05         0.00000E+00
    0.17997E+05        -0.86842E+03         0.00000E+00
    0.00000E+00         0.00000E+00        -0.41277E+04
 
   -0.19516E+05         0.19160E+05         0.00000E+00
    0.19160E+05        -0.99203E+03         0.00000E+00
    0.00000E+00         0.00000E+00        -0.41017E+04
 
   -0.19247E+05         0.20308E+05         0.00000E+00
    0.20308E+05        -0.11235E+04         0.00000E+00
    0.00000E+00         0.00000E+00        -0.40740E+04
 
   -0.18961E+05         0.21439E+05         0.00000E+00
    0.21439E+05        -0.12628E+04         0.00000E+00
    0.00000E+00         0.00000E+00        -0.40447E+04
 
   -0.18659E+05         0.22553E+05         0.00000E+00
    0.22553E+05        -0.14098E+04         0.00000E+00
    0.00000E+00         0.00000E+00        -0.40137E+04
 
   -0.18341E+05         0.23648E+05         0.00000E+00
    0.23648E+05        -0.15645E+04         0.00000E+00
    0.00000E+00         0.00000E+00        -0.39811E+04
 
   -0.18008E+05         0.24724E+05         0.00000E+00
    0.24724E+05        -0.17266E+04         0.00000E+00
    0.00000E+00         0.00000E+00        -0.39468E+04
 
   -0.17659E+05         0.25781E+05         0.00000E+00
    0.25781E+05        -0.18961E+04         0.00000E+00
    0.00000E+00         0.00000E+00        -0.39110E+04
 
   -0.17295E+05         0.26816E+05         0.00000E+00
    0.26816E+05        -0.20728E+04         0.00000E+00
    0.00000E+00         0.00000E+00        -0.38735E+04
 
   -0.16915E+05         0.27829E+05         0.00000E+00
    0.27829E+05        -0.22567E+04         0.00000E+00
    0.00000E+00         0.00000E+00        -0.38344E+04
 
   -0.16521E+05         0.28819E+05         0.00000E+00
    0.28819E+05        -0.24476E+04         0.00000E+00
    0.00000E+00         0.00000E+00        -0.37937E+04
 
   -0.16112E+05         0.29785E+05         0.00000E+00
    0.29785E+05        -0.26453E+04         0.00000E+00
    0.00000E+00         0.00000E+00        -0.37515E+04
 
   -0.15689E+05         0.30727E+05         0.00000E+00
    0.30727E+05        -0.28496E+04         0.00000E+00
    0.00000E+00         0.00000E+00        -0.37076E+04
 
   -0.15251E+05         0.31643E+05         0.00000E+00
    0.31643E+05        -0.30605E+04         0.00000E+00
    0.00000E+00         0.00000E+00        -0.36623E+04
 
   -0.14799E+05         0.32533E+05         0.00000E+00
    0.32533E+05        -0.32778E+04         0.00000E+00
    0.00000E+00         0.00000E+00        -0.36154E+04
 
   -0.14333E+05         0.33395E+05         0.00000E+00
    0.33395E+05        -0.35012E+04         0.00000E+00
    0.00000E+00         0.00000E+00        -0.35669E+04
 
   -0.13854E+05         0.34230E+05         0.00000E+00
    0.34230E+05        -0.37306E+04         0.00000E+00
    0.00000E+00         0.00000E+00        -0.35170E+04
 
   -0.13362E+05         0.35036E+05         0.00000E+00
    0.35036E+05        -0.39659E+04         0.00000E+00
    0.00000E+00         0.00000E+00        -0.34656E+04
 
   -0.12857E+05         0.35812E+05         0.00000E+00
    0.35812E+05        -0.42067E+04         0.00000E+00
    0.00000E+00         0.00000E+00        -0.34127E+04
 
   -0.12339E+05         0.36559E+05         0.00000E+00
    0.36559E+05        -0.44530E+04         0.00000E+00
    0.00000E+00         0.00000E+00        -0.33584E+04
 
   -0.11809E+05         0.37274E+05         0.00000E+00
    0.37274E+05        -0.47044E+04         0.00000E+00
    0.00000E+00         0.00000E+00        -0.33026E+04
 
   -0.11266E+05         0.37957E+05         0.00000E+00
    0.37957E+05        -0.49609E+04         0.00000E+00
    0.00000E+00         0.00000E+00        -0.32454E+04
 
   -0.10712E+05         0.38608E+05         0.00000E+00
    0.38608E+05        -0.52221E+04         0.00000E+00
    0.00000E+00         0.00000E+00        -0.31869E+04
 
   -0.10147E+05         0.39226E+05         0.00000E+00
    0.39226E+05        -0.54879E+04         0.00000E+00
    0.00000E+00         0.00000E+00        -0.31270E+04
 
   -0.95706E+04         0.39810E+05         0.00000E+00
    0.39810E+05        -0.57580E+04         0.00000E+00
    0.00000E+00         0.00000E+00        -0.30657E+04
 
   -0.89835E+04         0.40360E+05         0.00000E+00
    0.40360E+05        -0.60322E+04         0.00000E+00
    0.00000E+00         0.00000E+00        -0.30031E+04
 
   -0.83861E+04         0.40874E+05         0.00000E+00
    0.40874E+05        -0.63102E+04         0.00000E+00
    0.00000E+00         0.00000E+00        -0.29393E+04
 
   -0.77789E+04         0.41353E+05         0.00000E+00
    0.41353E+05        -0.65918E+04         0.00000E+00
    0.00000E+00         0.00000E+00        -0.28741E+04
 
   -0.71620E+04         0.41796E+05         0.00000E+00
    0.41796E+05        -0.68768E+04         0.00000E+00
    0.00000E+00         0.00000E+00        -0.28078E+04
 
   -0.65360E+04         0.42202E+05         0.00000E+00
    0.42202E+05        -0.71648E+04         0.00000E+00
    0.00000E+00         0.00000E+00        -0.27402E+04
 
   -0.59013E+04         0.42571E+05         0.00000E+00
    0.42571E+05        -0.74556E+04         0.00000E+00
    0.00000E+00         0.00000E+00        -0.26714E+04
 
   -0.52582E+04         0.42902E+05         0.00000E+00
    0.42902E+05        -0.77490E+04         0.00000E+00
    0.00000E+00         0.00000E+00        -0.26015E+04
 
   -0.46072E+04         0.43194E+05         0.00000E+00
    0.43194E+05        -0.80447E+04         0.00000E+00
    0.00000E+00         0.00000E+00        -0.25304E+04
 
   -0.39488E+04         0.43448E+05         0.00000E+00
    0.43448E+05        -0.83424E+04         0.00000E+00
    0.00000E+00         0.00000E+00        -0.24582E+04
 
   -0.32832E+04         0.43663E+05         0.00000E+00
    0.43663E+05        -0.86418E+04         0.00000E+00
    0.00000E+00         0.00000E+00        -0.23850E+04
 
   -0.26110E+04         0.43838E+05         0.00000E+00
    0.43838E+05        -0.89426E+04         0.00000E+00
    0.00000E+00         0.00000E+00        -0.23107E+04
 
   -0.15294E+05         0.62098E+03         0.00000E+00
    0.62098E+03         0.18407E+01         0.00000E+00
    0.00000E+00         0.00000E+00        -0.30584E+04
 
   -0.15278E+05         0.18619E+04         0.00000E+00
    0.18619E+04        -0.39689E+01         0.00000E+00
    0.00000E+00         0.00000E+00        -0.30564E+04
 
   -0.15251E+05         0.31011E+04         0.00000E+00
    0.31011E+04        -0.15637E+02         0.00000E+00
    0.00000E+00         0.00000E+00        -0.30533E+04
 
   -0.15212E+05         0.43376E+04         0.00000E+00
    0.43376E+04        -0.33178E+02         0.00000E+00
    0.00000E+00         0.00000E+00        -0.30490E+04
 
   -0.15161E+05         0.55705E+04         0.00000E+00
    0.55705E+04        -0.56602E+02         0.00000E+00
    0.00000E+00         0.00000E+00        -0.30436E+04
 
   -0.15099E+05         0.67988E+04         0.00000E+00
    0.67988E+04        -0.85913E+02         0.00000E+00
    0.00000E+00         0.00000E+00        -0.30369E+04
 
   -0.15024E+05         0.80215E+04         0.00000E+00
    0.80215E+04        -0.12111E+03         0.00000E+00
    0.00000E+00         0.00000E+00        -0.30291E+04
 
   -0.14938E+05         0.92377E+04         0.00000E+00
    0.92377E+04        -0.16219E+03         0.00000E+00
    0.00000E+00         0.00000E+00        -0.30201E+04
 
   -0.14840E+05         0.10446E+05         0.00000E+00
    0.10446E+05        -0.20914E+03         0.00000E+00
    0.00000E+00         0.00000E+00        -0.30099E+04
 
   -0.14731E+05         0.11647E+05         0.00000E+00
    0.11647E+05        -0.26195E+03         0.00000E+00
    0.00000E+00         0.00000E+00        -0.29985E+04
 
   -0.14609E+05         0.12837E+05         0.00000E+00
    0.12837E+05        -0.32059E+03         0.00000E+00
    0.00000E+00         0.00000E+00        -0.29860E+04
 
   -0.14476E+05         0.14018E+05         0.00000E+00
    0.14018E+05        -0.38503E+03         0.00000E+00
    0.00000E+00         0.00000E+00        -0.29722E+04
 
   -0.14331E+05         0.15187E+05         0.00000E+00
    0.15187E+05        -0.45525E+03         0.00000E+00
    0.00000E+00         0.00000E+00        -0.29573E+04
 
   -0.14175E+05         0.16344E+05         0.00000E+00
    0.16344E+05        -0.53121E+03         0.00000E+00
    0.00000E+00         0.00000E+00        -0.29412E+04
 
   -0.14007E+05         0.17487E+05         0.00000E+00
    0.17487E+05        -0.61286E+03         0.00000E+00
    0.00000E+00         0.00000E+00        -0.29239E+04
 
   -0.13827E+05         0.18616E+05         0.00000E+00
    0.18616E+05        -0.70015E+03         0.00000E+00
    0.00000E+00         0.00000E+00        -0.29055E+04
 
   -0.13636E+05         0.19731E+05         0.00000E+00
    0.19731E+05        -0.79303E+03         0.00000E+00
    0.00000E+00         0.00000E+00        -0.28858E+04
 
   -0.13434E+05         0.20829E+05         0.00000E+00
    0.20829E+05        -0.89144E+03         0.00000E+00
    0.00000E+00         0.00000E+00        -0.28650E+04
 
   -0.13220E+05         0.21910E+05         0.00000E+00
    0.21910E+05        -0.99532E+03         0.00000E+00
    0.00000E+00         0.00000E+00        -0.28431E+04
 
   -0.12995E+05         0.22973E+05         0.00000E+00
    0.22973E+05        -0.11046E+04         0.00000E+00
    0.00000E+00         0.00000E+00        -0.28199E+04
 
   -0.12759E+05         0.24018E+05         0.00000E+00
    0.24018E+05        -0.12192E+04         0.00000E+00
    0.00000E+00         0.00000E+00        -0.27956E+04
 
   -0.12512E+05         0.25043E+05         0.00000E+00
    0.25043E+05        -0.13390E+04         0.00000E+00
    0.00000E+00         0.00000E+00        -0.27702E+04
 
   -0.12254E+05         0.26047E+05         0.00000E+00
    0.26047E+05        -0.14640E+04         0.00000E+00
    0.00000E+00         0.00000E+00        -0.27436E+04
 
   -0.11986E+05         0.27030E+05         0.00000E+00
    0.27030E+05        -0.15940E+04         0.00000E+00
    0.00000E+00         0.00000E+00        -0.27159E+04
 
   -0.11706E+05         0.27990E+05         0.00000E+00
    0.27990E+05        -0.17290E+04         0.00000E+00
    0.00000E+00         0.00000E+00        -0.26871E+04
 
   -0.11417E+05         0.28928E+05         0.00000E+00
    0.28928E+05        -0.18688E+04         0.00000E+00
    0.00000E+00         0.00000E+00        -0.26571E+04
 
   -0.11117E+05         0.29841E+05         0.00000E+00
    0.29841E+05        -0.20134E+04         0.00000E+00
    0.00000E+00         0.00000E+00        -0.26260E+04
 
   -0.10807E+05         0.30730E+05         0.00000E+00
    0.30730E+05        -0.21626E+04         0.00000E+00
    0.00000E+00         0.00000E+00        -0.25939E+04
 
   -0.10487E+05         0.31593E+05         0.00000E+00
    0.31593E+05        -0.23164E+04         0.00000E+00
    0.00000E+00         0.00000E+00        -0.25606E+04
 
   -0.10157E+05         0.32430E+05         0.00000E+00
    0.32430E+05        -0.24745E+04         0.00000E+00
    0.00000E+00         0.00000E+00        -0.25263E+04
 
   -0.98176E+04         0.33239E+05         0.00000E+00
    0.33239E+05        -0.26369E+04         0.00000E+00
    0.00000E+00         0.00000E+00        -0.24909E+04
 
   -0.94689E+04         0.34021E+05         0.00000E+00
    0.34021E+05        -0.28034E+04         0.00000E+00
    0.00000E+00         0.00000E+00        -0.24545E+04
 
   -0.91109E+04         0.34774E+05         0.00000E+00
    0.34774E+05        -0.29739E+04         0.00000E+00
    0.00000E+00         0.00000E+00        -0.24170E+04
 
   -0.87439E+04         0.35497E+05         0.00000E+00
    0.35497E+05        -0.31483E+04         0.00000E+00
    0.00000E+00         0.00000E+00        -0.23785E+04
 
   -0.83682E+04         0.36190E+05         0.00000E+00
    0.36190E+05        -0.33264E+04         0.00000E+00
    0.00000E+00         0.00000E+00        -0.23389E+04
 
   -0.79839E+04         0.36853E+05         0.00000E+00
    0.36853E+05        -0.35081E+04         0.00000E+00
    0.00000E+00         0.00000E+00        -0.22984E+04
 
   -0.75913E+04         0.37484E+05         0.00000E+00
    0.37484E+05        -0.36931E+04         0.00000E+00
    0.00000E+00         0.00000E+00        -0.22569E+04
 
   -0.71906E+04         0.38083E+05         0.00000E+00
    0.38083E+05        -0.38814E+04         0.00000E+00
    0.00000E+00         0.00000E+00        -0.22144E+04
 
   -0.67821E+04         0.38649E+05         0.00000E+00
    0.38649E+05        -0.40728E+04         0.00000E+00
    0.00000E+00         0.00000E+00        -0.21710E+04
 
   -0.63660E+04         0.39182E+05         0.00000E+00
    0.39182E+05        -0.42671E+04         0.00000E+00
    0.00000E+00         0.00000E+00        -0.21266E+04
 
   -0.59426E+04         0.39681E+05         0.00000E+00
    0.39681E+05        -0.44641E+04         0.00000E+00
    0.00000E+00         0.00000E+00        -0.20813E+04
 
   -0.55122E+04         0.40145E+05         0.00000E+00
    0.40145E+05        -0.46636E+04         0.00000E+00
    0.00000E+00         0.00000E+00        -0.20352E+04
 
   -0.50749E+04         0.40574E+05         0.00000E+00
    0.40574E+05        -0.48656E+04         0.00000E+00
    0.00000E+00         0.00000E+00        -0.19881E+04
 
   -0.46312E+04         0.40967E+05         0.00000E+00
    0.40967E+05        -0.50698E+04         0.00000E+00
    0.00000E+00         0.00000E+00        -0.19402E+04
 
   -0.41812E+04         0.41324E+05         0.00000E+00
    0.41324E+05        -0.52759E+04         0.00000E+00
    0.00000E+00         0.00000E+00        -0.18914E+04
 
   -0.37253E+04         0.41645E+05         0.00000E+00
    0.41645E+05        -0.54839E+04         0.00000E+00
    0.00000E+00         0.00000E+00        -0.18418E+04
 
   -0.32638E+04         0.41929E+05         0.00000E+00
    0.41929E+05        -0.56935E+04         0.00000E+00
    0.00000E+00         0.00000E+00        -0.17915E+04
 
   -0.27970E+04         0.42175E+05         0.00000E+00
    0.42175E+05        -0.59045E+04         0.00000E+00
    0.00000E+00         0.00000E+00        -0.17403E+04
 
   -0.23251E+04         0.42383E+05         0.00000E+00
    0.42383E+05        -0.61168E+04         0.00000E+00
    0.00000E+00         0.00000E+00        -0.16884E+04
 
   -0.18486E+04         0.42552E+05         0.00000E+00
    0.42552E+05        -0.63301E+04         0.00000E+00
    0.00000E+00         0.00000E+00        -0.16357E+04
 
   -0.91491E+04         0.60947E+03         0.00000E+00
    0.60947E+03         0.10903E+01         0.00000E+00
    0.00000E+00         0.00000E+00        -0.18296E+04
 
   -0.91399E+04         0.18271E+04         0.00000E+00
    0.18271E+04        -0.23435E+01         0.00000E+00
    0.00000E+00         0.00000E+00        -0.18284E+04
 
   -0.91237E+04         0.30430E+04         0.00000E+00
    0.30430E+04        -0.92460E+01         0.00000E+00
    0.00000E+00         0.00000E+00        -0.18266E+04
 
   -0.91006E+04         0.42561E+04         0.00000E+00
    0.42561E+04        -0.19629E+02         0.00000E+00
    0.00000E+00         0.00000E+00        -0.18241E+04
 
   -0.90705E+04         0.54656E+04         0.00000E+00
    0.54656E+04        -0.33501E+02         0.00000E+00
    0.00000E+00         0.00000E+00        -0.18208E+04
 
   -0.90335E+04         0.66705E+04         0.00000E+00
    0.66705E+04        -0.50867E+02         0.00000E+00
    0.00000E+00         0.00000E+00        -0.18169E+04
 
   -0.89894E+04         0.78698E+04         0.00000E+00
    0.78698E+04        -0.71731E+02         0.00000E+00
    0.00000E+00         0.00000E+00        -0.18122E+04
 
   -0.89383E+04         0.90626E+04         0.00000E+00
    0.90626E+04        -0.96092E+02         0.00000E+00
    0.00000E+00         0.00000E+00        -0.18069E+04
 
   -0.88802E+04         0.10248E+05         0.00000E+00
    0.10248E+05        -0.12395E+03         0.00000E+00
    0.00000E+00         0.00000E+00        -0.18008E+04
 
   -0.88150E+04         0.11425E+05         0.00000E+00
    0.11425E+05        -0.15529E+03         0.00000E+00
    0.00000E+00         0.00000E+00        -0.17941E+04
 
   -0.87429E+04         0.12592E+05         0.00000E+00
    0.12592E+05        -0.19011E+03         0.00000E+00
    0.00000E+00         0.00000E+00        -0.17866E+04
 
   -0.86638E+04         0.13750E+05         0.00000E+00
    0.13750E+05        -0.22839E+03         0.00000E+00
    0.00000E+00         0.00000E+00        -0.17784E+04
 
   -0.85777E+04         0.14896E+05         0.00000E+00
    0.14896E+05        -0.27012E+03         0.00000E+00
    0.00000E+00         0.00000E+00        -0.17696E+04
 
   -0.84846E+04         0.16030E+05         0.00000E+00
    0.16030E+05        -0.31528E+03         0.00000E+00
    0.00000E+00         0.00000E+00        -0.17600E+04
 
   -0.83846E+04         0.17151E+05         0.00000E+00
    0.17151E+05        -0.36385E+03         0.00000E+00
    0.00000E+00         0.00000E+00        -0.17497E+04
 
   -0.82777E+04         0.18258E+05         0.00000E+00
    0.18258E+05        -0.41579E+03         0.00000E+00
    0.00000E+00         0.00000E+00        -0.17387E+04
 
   -0.81640E+04         0.19350E+05         0.00000E+00
    0.19350E+05        -0.47108E+03         0.00000E+00
    0.00000E+00         0.00000E+00        -0.17270E+04
 
   -0.80434E+04         0.20426E+05         0.00000E+00
    0.20426E+05        -0.52968E+03         0.00000E+00
    0.00000E+00         0.00000E+00        -0.17146E+04
 
   -0.79161E+04         0.21485E+05         0.00000E+00
    0.21485E+05        -0.59157E+03         0.00000E+00
    0.00000E+00         0.00000E+00        -0.17015E+04
 
   -0.77820E+04         0.22527E+05         0.00000E+00
    0.22527E+05        -0.65669E+03         0.00000E+00
    0.00000E+00         0.00000E+00        -0.16877E+04
 
   -0.76413E+04         0.23551E+05         0.00000E+00
    0.23551E+05        -0.72500E+03         0.00000E+00
    0.00000E+00         0.00000E+00        -0.16733E+04
 
   -0.74940E+04         0.24555E+05         0.00000E+00
    0.24555E+05        -0.79647E+03         0.00000E+00
    0.00000E+00         0.00000E+00        -0.16581E+04
 
   -0.73401E+04         0.25539E+05         0.00000E+00
    0.25539E+05        -0.87103E+03         0.00000E+00
    0.00000E+00         0.00000E+00        -0.16422E+04
 
   -0.71798E+04         0.26501E+05         0.00000E+00
    0.26501E+05        -0.94864E+03         0.00000E+00
    0.00000E+00         0.00000E+00        -0.16257E+04
 
   -0.70132E+04         0.27442E+05         0.00000E+00
    0.27442E+05        -0.10292E+04         0.00000E+00
    0.00000E+00         0.00000E+00        -0.16085E+04
 
   -0.68402E+04         0.28361E+05         0.00000E+00
    0.28361E+05        -0.11128E+04         0.00000E+00
    0.00000E+00         0.00000E+00        -0.15906E+04
 
   -0.66610E+04         0.29255E+05         0.00000E+00
    0.29255E+05        -0.11992E+04         0.00000E+00
    0.00000E+00         0.00000E+00        -0.15720E+04
 
   -0.64757E+04         0.30126E+05         0.00000E+00
    0.30126E+05        -0.12883E+04         0.00000E+00
    0.00000E+00         0.00000E+00        -0.15528E+04
 
   -0.62845E+04         0.30971E+05         0.00000E+00
    0.30971E+05        -0.13803E+04         0.00000E+00
    0.00000E+00         0.00000E+00        -0.15329E+04
 
   -0.60873E+04         0.31790E+05         0.00000E+00
    0.31790E+05        -0.14748E+04         0.00000E+00
    0.00000E+00         0.00000E+00        -0.15124E+04
 
   -0.58843E+04         0.32583E+05         0.00000E+00
    0.32583E+05        -0.15720E+04         0.00000E+00
    0.00000E+00         0.00000E+00        -0.14913E+04
 
   -0.56756E+04         0.33348E+05         0.00000E+00
    0.33348E+05        -0.16716E+04         0.00000E+00
    0.00000E+00         0.00000E+00        -0.14694E+04
 
   -0.54614E+04         0.34085E+05         0.00000E+00
    0.34085E+05        -0.17737E+04         0.00000E+00
    0.00000E+00         0.00000E+00        -0.14470E+04
 
   -0.52417E+04         0.34794E+05         0.00000E+00
    0.34794E+05        -0.18781E+04         0.00000E+00
    0.00000E+00         0.00000E+00        -0.14240E+04
 
   -0.50167E+04         0.35472E+05         0.00000E+00
    0.35472E+05        -0.19848E+04         0.00000E+00
    0.00000E+00         0.00000E+00        -0.14003E+04
 
   -0.47865E+04         0.36121E+05         0.00000E+00
    0.36121E+05        -0.20936E+04         0.00000E+00
    0.00000E+00         0.00000E+00        -0.13760E+04
 
   -0.45513E+04         0.36739E+05         0.00000E+00
    0.36739E+05        -0.22045E+04         0.00000E+00
    0.00000E+00         0.00000E+00        -0.13512E+04
 
   -0.43113E+04         0.37325E+05         0.00000E+00
    0.37325E+05        -0.23174E+04         0.00000E+00
    0.00000E+00         0.00000E+00        -0.13257E+04
 
   -0.40664E+04         0.37879E+05         0.00000E+00
    0.37879E+05        -0.24321E+04         0.00000E+00
    0.00000E+00         0.00000E+00        -0.12997E+04
 
   -0.38170E+04         0.38400E+05         0.00000E+00
    0.38400E+05        -0.25486E+04         0.00000E+00
    0.00000E+00         0.00000E+00        -0.12731E+04
 
   -0.35631E+04         0.38889E+05         0.00000E+00
    0.38889E+05        -0.26667E+04         0.00000E+00
    0.00000E+00         0.00000E+00        -0.12460E+04
 
   -0.33049E+04         0.39343E+05         0.00000E+00
    0.39343E+05        -0.27864E+04         0.00000E+00
    0.00000E+00         0.00000E+00        -0.12183E+04
 
   -0.30427E+04         0.39763E+05         0.00000E+00
    0.39763E+05        -0.29076E+04         0.00000E+00
    0.00000E+00         0.00000E+00        -0.11901E+04
 
   -0.27765E+04         0.40148E+05         0.00000E+00
    0.40148E+05        -0.30301E+04         0.00000E+00
    0.00000E+00         0.00000E+00        -0.11613E+04
 
   -0.25065E+04         0.40497E+05         0.00000E+00
    0.40497E+05        -0.31538E+04         0.00000E+00
    0.00000E+00         0.00000E+00        -0.11321E+04
 
   -0.22329E+04         0.40811E+05         0.00000E+00
    0.40811E+05        -0.32787E+04         0.00000E+00
    0.00000E+00         0.00000E+00        -0.11023E+04
 
   -0.19559E+04         0.41088E+05         0.00000E+00
    0.41088E+05        -0.34045E+04         0.00000E+00
    0.00000E+00         0.00000E+00        -0.10721E+04
 
   -0.16757E+04         0.41329E+05         0.00000E+00
    0.41329E+05        -0.35312E+04         0.00000E+00
    0.00000E+00         0.00000E+00        -0.10414E+04
 
   -0.13925E+04         0.41532E+05         0.00000E+00
    0.41532E+05        -0.36586E+04         0.00000E+00
    0.00000E+00         0.00000E+00        -0.10102E+04
 
   -0.11064E+04         0.41698E+05         0.00000E+00
    0.41698E+05        -0.37866E+04         0.00000E+00
    0.00000E+00         0.00000E+00        -0.97861E+03
 
   -0.30910E+04         0.60384E+03         0.00000E+00
    0.60384E+03         0.35093E+00         0.00000E+00
    0.00000E+00         0.00000E+00        -0.61814E+03
 
   -0.30885E+04         0.18101E+04         0.00000E+00
    0.18101E+04        -0.73878E+00         0.00000E+00
    0.00000E+00         0.00000E+00        -0.61784E+03
 
   -0.30837E+04         0.30145E+04         0.00000E+00
    0.30145E+04        -0.29423E+01         0.00000E+00
    0.00000E+00         0.00000E+00        -0.61732E+03
 
   -0.30766E+04         0.42161E+04         0.00000E+00
    0.42161E+04        -0.62690E+01         0.00000E+00
    0.00000E+00         0.00000E+00        -0.61658E+03
 
   -0.30673E+04         0.54140E+04         0.00000E+00
    0.54140E+04        -0.10728E+02         0.00000E+00
    0.00000E+00         0.00000E+00        -0.61561E+03
 
   -0.30557E+04         0.66073E+04         0.00000E+00
    0.66073E+04        -0.16326E+02         0.00000E+00
    0.00000E+00         0.00000E+00        -0.61441E+03
 
   -0.30419E+04         0.77950E+04         0.00000E+00
    0.77950E+04        -0.23070E+02         0.00000E+00
    0.00000E+00         0.00000E+00        -0.61299E+03
 
   -0.30257E+04         0.89762E+04         0.00000E+00
    0.89762E+04        -0.30965E+02         0.00000E+00
    0.00000E+00         0.00000E+00        -0.61133E+03
 
   -0.30072E+04         0.10150E+05         0.00000E+00
    0.10150E+05        -0.40017E+02         0.00000E+00
    0.00000E+00         0.00000E+00        -0.60944E+03
 
   -0.29863E+04         0.11315E+05         0.00000E+00
    0.11315E+05        -0.50227E+02         0.00000E+00
    0.00000E+00         0.00000E+00        -0.60731E+03
 
   -0.29632E+04         0.12471E+05         0.00000E+00
    0.12471E+05        -0.61598E+02         0.00000E+00
    0.00000E+00         0.00000E+00        -0.60495E+03
 
   -0.29376E+04         0.13617E+05         0.00000E+00
    0.13617E+05        -0.74131E+02         0.00000E+00
    0.00000E+00         0.00000E+00        -0.60235E+03
 
   -0.29098E+04         0.14752E+05         0.00000E+00
    0.14752E+05        -0.87825E+02         0.00000E+00
    0.00000E+00         0.00000E+00        -0.59952E+03
 
   -0.28795E+04         0.15874E+05         0.00000E+00
    0.15874E+05        -0.10268E+03         0.00000E+00
    0.00000E+00         0.00000E+00        -0.59644E+03
 
   -0.28470E+04         0.16984E+05         0.00000E+00
    0.16984E+05        -0.11869E+03         0.00000E+00
    0.00000E+00         0.00000E+00        -0.59313E+03
 
   -0.28120E+04         0.18079E+05         0.00000E+00
    0.18079E+05        -0.13585E+03         0.00000E+00
    0.00000E+00         0.00000E+00        -0.58958E+03
 
   -0.27748E+04         0.19160E+05         0.00000E+00
    0.19160E+05        -0.15416E+03         0.00000E+00
    0.00000E+00         0.00000E+00        -0.58579E+03
 
   -0.27352E+04         0.20225E+05         0.00000E+00
    0.20225E+05        -0.17360E+03         0.00000E+00
    0.00000E+00         0.00000E+00        -0.58175E+03
 
   -0.26932E+04         0.21274E+05         0.00000E+00
    0.21274E+05        -0.19418E+03         0.00000E+00
    0.00000E+00         0.00000E+00        -0.57748E+03
 
   -0.26489E+04         0.22305E+05         0.00000E+00
    0.22305E+05        -0.21588E+03         0.00000E+00
    0.00000E+00         0.00000E+00        -0.57296E+03
 
   -0.26023E+04         0.23318E+05         0.00000E+00
    0.23318E+05        -0.23868E+03         0.00000E+00
    0.00000E+00         0.00000E+00        -0.56821E+03
 
   -0.25535E+04         0.24311E+05         0.00000E+00
    0.24311E+05        -0.26259E+03         0.00000E+00
    0.00000E+00         0.00000E+00        -0.56321E+03
 
   -0.25023E+04         0.25285E+05         0.00000E+00
    0.25285E+05        -0.28757E+03         0.00000E+00
    0.00000E+00         0.00000E+00        -0.55797E+03
 
   -0.24489E+04         0.26238E+05         0.00000E+00
    0.26238E+05        -0.31363E+03         0.00000E+00
    0.00000E+00         0.00000E+00        -0.55250E+03
 
   -0.23932E+04         0.27169E+05         0.00000E+00
    0.27169E+05        -0.34073E+03         0.00000E+00
    0.00000E+00         0.00000E+00        -0.54679E+03
 
   -0.23353E+04         0.28077E+05         0.00000E+00
    0.28077E+05        -0.36887E+03         0.00000E+00
    0.00000E+00         0.00000E+00        -0.54083E+03
 
   -0.22752E+04         0.28962E+05         0.00000E+00
    0.28962E+05        -0.39803E+03         0.00000E+00
    0.00000E+00         0.00000E+00        -0.53465E+03
 
   -0.22130E+04         0.29823E+05         0.00000E+00
    0.29823E+05        -0.42817E+03         0.00000E+00
    0.00000E+00         0.00000E+00        -0.52823E+03
 
   -0.21486E+04         0.30659E+05         0.00000E+00
    0.30659E+05        -0.45929E+03         0.00000E+00
    0.00000E+00         0.00000E+00        -0.52157E+03
 
   -0.20820E+04         0.31470E+05         0.00000E+00
    0.31470E+05        -0.49136E+03         0.00000E+00
    0.00000E+00         0.00000E+00        -0.51468E+03
 
   -0.20135E+04         0.32254E+05         0.00000E+00
    0.32254E+05        -0.52435E+03         0.00000E+00
    0.00000E+00         0.00000E+00        -0.50756E+03
 
   -0.19429E+04         0.33011E+05         0.00000E+00
    0.33011E+05        -0.55824E+03         0.00000E+00
    0.00000E+00         0.00000E+00        -0.50022E+03
 
   -0.18702E+04         0.33740E+05         0.00000E+00
    0.33740E+05        -0.59300E+03         0.00000E+00
    0.00000E+00         0.00000E+00        -0.49265E+03
 
   -0.17957E+04         0.34440E+05         0.00000E+00
    0.34440E+05        -0.62860E+03         0.00000E+00
    0.00000E+00         0.00000E+00        -0.48485E+03
 
   -0.17192E+04         0.35111E+05         0.00000E+00
    0.35111E+05        -0.66502E+03         0.00000E+00
    0.00000E+00         0.00000E+00        -0.47684E+03
 
   -0.16408E+04         0.35753E+05         0.00000E+00
    0.35753E+05        -0.70222E+03         0.00000E+00
    0.00000E+00         0.00000E+00        -0.46860E+03
 
   -0.15606E+04         0.36364E+05         0.00000E+00
    0.36364E+05        -0.74016E+03         0.00000E+00
    0.00000E+00         0.00000E+00        -0.46015E+03
 
   -0.14786E+04         0.36943E+05         0.00000E+00
    0.36943E+05        -0.77883E+03         0.00000E+00
    0.00000E+00         0.00000E+00        -0.45149E+03
 
   -0.13949E+04         0.37491E+05         0.00000E+00
    0.37491E+05        -0.81818E+03         0.00000E+00
    0.00000E+00         0.00000E+00        -0.44262E+03
 
   -0.13095E+04         0.38007E+05         0.00000E+00
    0.38007E+05        -0.85817E+03         0.00000E+00
    0.00000E+00         0.00000E+00        -0.43354E+03
 
   -0.12225E+04         0.38489E+05         0.00000E+00
    0.38489E+05        -0.89877E+03         0.00000E+00
    0.00000E+00         0.00000E+00        -0.42426E+03
 
   -0.11339E+04         0.38939E+05         0.00000E+00
    0.38939E+05        -0.93995E+03         0.00000E+00
    0.00000E+00         0.00000E+00        -0.41478E+03
 
   -0.10439E+04         0.39354E+05         0.00000E+00
    0.39354E+05        -0.98166E+03         0.00000E+00
    0.00000E+00         0.00000E+00        -0.40511E+03
 
   -0.95235E+03         0.39734E+05         0.00000E+00
    0.39734E+05        -0.10239E+04         0.00000E+00
    0.00000E+00         0.00000E+00        -0.39524E+03
 
   -0.85944E+03         0.40080E+05         0.00000E+00
    0.40080E+05        -0.10665E+04         0.00000E+00
    0.00000E+00         0.00000E+00        -0.38519E+03
 
   -0.76521E+03         0.40390E+05         0.00000E+00
    0.40390E+05        -0.11096E+04         0.00000E+00
    0.00000E+00         0.00000E+00        -0.37496E+03
 
   -0.66973E+03         0.40664E+05         0.00000E+00
    0.40664E+05        -0.11530E+04         0.00000E+00
    0.00000E+00         0.00000E+00        -0.36455E+03
 
   -0.57307E+03         0.40902E+05         0.00000E+00
    0.40902E+05        -0.11968E+04         0.00000E+00
    0.00000E+00         0.00000E+00        -0.35396E+03
 
   -0.47529E+03         0.41103E+05         0.00000E+00
    0.41103E+05        -0.12408E+04         0.00000E+00
    0.00000E+00         0.00000E+00        -0.34321E+03
 
   -0.37646E+03         0.41267E+05         0.00000E+00
    0.41267E+05        -0.12850E+04         0.00000E+00
    0.00000E+00         0.00000E+00        -0.33230E+03
 
    0.29395E+04         0.60405E+03         0.00000E+00
    0.60405E+03        -0.38486E+00         0.00000E+00
    0.00000E+00         0.00000E+00         0.58782E+03
 
    0.29351E+04         0.18106E+04         0.00000E+00
    0.18106E+04         0.86033E+00         0.00000E+00
    0.00000E+00         0.00000E+00         0.58720E+03
 
    0.29283E+04         0.30152E+04         0.00000E+00
    0.30152E+04         0.33357E+01         0.00000E+00
    0.00000E+00         0.00000E+00         0.58633E+03
 
    0.29191E+04         0.42171E+04         0.00000E+00
    0.42171E+04         0.70329E+01         0.00000E+00
    0.00000E+00         0.00000E+00         0.58522E+03
 
    0.29074E+04         0.54152E+04         0.00000E+00
    0.54152E+04         0.11943E+02         0.00000E+00
    0.00000E+00         0.00000E+00         0.58387E+03
 
    0.28933E+04         0.66086E+04         0.00000E+00
    0.66086E+04         0.18056E+02         0.00000E+00
    0.00000E+00         0.00000E+00         0.58228E+03
 
    0.28769E+04         0.77964E+04         0.00000E+00
    0.77964E+04         0.25361E+02         0.00000E+00
    0.00000E+00         0.00000E+00         0.58044E+03
 
    0.28580E+04         0.89777E+04         0.00000E+00
    0.89777E+04         0.33846E+02         0.00000E+00
    0.00000E+00         0.00000E+00         0.57838E+03
 
    0.28369E+04         0.10151E+05         0.00000E+00
    0.10151E+05         0.43500E+02         0.00000E+00
    0.00000E+00         0.00000E+00         0.57607E+03
 
    0.28133E+04         0.11317E+05         0.00000E+00
    0.11317E+05         0.54308E+02         0.00000E+00
    0.00000E+00         0.00000E+00         0.57353E+03
 
    0.27875E+04         0.12473E+05         0.00000E+00
    0.12473E+05         0.66256E+02         0.00000E+00
    0.00000E+00         0.00000E+00         0.57076E+03
 
    0.27595E+04         0.13618E+05         0.00000E+00
    0.13618E+05         0.79331E+02         0.00000E+00
    0.00000E+00         0.00000E+00         0.56776E+03
 
    0.27292E+04         0.14753E+05         0.00000E+00
    0.14753E+05         0.93516E+02         0.00000E+00
    0.00000E+00         0.00000E+00         0.56453E+03
 
    0.26966E+04         0.15875E+05         0.00000E+00
    0.15875E+05         0.10880E+03         0.00000E+00
    0.00000E+00         0.00000E+00         0.56108E+03
 
    0.26619E+04         0.16985E+05         0.00000E+00
    0.16985E+05         0.12515E+03         0.00000E+00
    0.00000E+00         0.00000E+00         0.55741E+03
 
    0.26250E+04         0.18080E+05         0.00000E+00
    0.18080E+05         0.14257E+03         0.00000E+00
    0.00000E+00         0.00000E+00         0.55351E+03
 
    0.25860E+04         0.19161E+05         0.00000E+00
    0.19161E+05         0.16103E+03         0.00000E+00
    0.00000E+00         0.00000E+00         0.54940E+03
 
    0.25448E+04         0.20225E+05         0.00000E+00
    0.20225E+05         0.18051E+03         0.00000E+00
    0.00000E+00         0.00000E+00         0.54507E+03
 
    0.25016E+04         0.21274E+05         0.00000E+00
    0.21274E+05         0.20099E+03         0.00000E+00
    0.00000E+00         0.00000E+00         0.54052E+03
 
    0.24564E+04         0.22304E+05         0.00000E+00
    0.22304E+05         0.22246E+03         0.00000E+00
    0.00000E+00         0.00000E+00         0.53577E+03
 
    0.24092E+04         0.23317E+05         0.00000E+00
    0.23317E+05         0.24488E+03         0.00000E+00
    0.00000E+00         0.00000E+00         0.53081E+03
 
    0.23600E+04         0.24310E+05         0.00000E+00
    0.24310E+05         0.26825E+03         0.00000E+00
    0.00000E+00         0.00000E+00         0.52565E+03
 
    0.23088E+04         0.25283E+05         0.00000E+00
    0.25283E+05         0.29254E+03         0.00000E+00
    0.00000E+00         0.00000E+00         0.52028E+03
 
    0.22558E+04         0.26235E+05         0.00000E+00
    0.26235E+05         0.31772E+03         0.00000E+00
    0.00000E+00         0.00000E+00         0.51471E+03
 
    0.22009E+04         0.27166E+05         0.00000E+00
    0.27166E+05         0.34378E+03         0.00000E+00
    0.00000E+00         0.00000E+00         0.50894E+03
 
    0.21442E+04         0.28074E+05         0.00000E+00
    0.28074E+05         0.37068E+03         0.00000E+00
    0.00000E+00         0.00000E+00         0.50299E+03
 
    0.20858E+04         0.28958E+05         0.00000E+00
    0.28958E+05         0.39841E+03         0.00000E+00
    0.00000E+00         0.00000E+00         0.49684E+03
 
    0.20256E+04         0.29819E+05         0.00000E+00
    0.29819E+05         0.42694E+03         0.00000E+00
    0.00000E+00         0.00000E+00         0.49050E+03
 
    0.19636E+04         0.30654E+05         0.00000E+00
    0.30654E+05         0.45625E+03         0.00000E+00
    0.00000E+00         0.00000E+00         0.48398E+03
 
    0.19001E+04         0.31464E+05         0.00000E+00
    0.31464E+05         0.48630E+03         0.00000E+00
    0.00000E+00         0.00000E+00         0.47727E+03
 
    0.18349E+04         0.32248E+05         0.00000E+00
    0.32248E+05         0.51708E+03         0.00000E+00
    0.00000E+00         0.00000E+00         0.47039E+03
 
    0.17681E+04         0.33004E+05         0.00000E+00
    0.33004E+05         0.54855E+03         0.00000E+00
    0.00000E+00         0.00000E+00         0.46333E+03
 
    0.16998E+04         0.33733E+05         0.00000E+00
    0.33733E+05         0.58069E+03         0.00000E+00
    0.00000E+00         0.00000E+00         0.45610E+03
 
    0.16301E+04         0.34433E+05         0.00000E+00
    0.34433E+05         0.61347E+03         0.00000E+00
    0.00000E+00         0.00000E+00         0.44871E+03
 
    0.15588E+04         0.35104E+05         0.00000E+00
    0.35104E+05         0.64687E+03         0.00000E+00
    0.00000E+00         0.00000E+00         0.44114E+03
 
    0.14862E+04         0.35745E+05         0.00000E+00
    0.35745E+05         0.68085E+03         0.00000E+00
    0.00000E+00         0.00000E+00         0.43341E+03
 
    0.14122E+04         0.36355E+05         0.00000E+00
    0.36355E+05         0.71538E+03         0.00000E+00
    0.00000E+00         0.00000E+00         0.42553E+03
 
    0.13370E+04         0.36934E+05         0.00000E+00
    0.36934E+05         0.75044E+03         0.00000E+00
    0.00000E+00         0.00000E+00         0.41748E+03
 
    0.12604E+04         0.37482E+05         0.00000E+00
    0.37482E+05         0.78600E+03         0.00000E+00
    0.00000E+00         0.00000E+00         0.40929E+03
 
    0.11827E+04         0.37997E+05         0.00000E+00
    0.37997E+05         0.82203E+03         0.00000E+00
    0.00000E+00         0.00000E+00         0.40094E+03
 
    0.11038E+04         0.38479E+05         0.00000E+00
    0.38479E+05         0.85849E+03         0.00000E+00
    0.00000E+00         0.00000E+00         0.39245E+03
 
    0.10237E+04         0.38928E+05         0.00000E+00
    0.38928E+05         0.89536E+03         0.00000E+00
    0.00000E+00         0.00000E+00         0.38382E+03
 
    0.94264E+03         0.39342E+05         0.00000E+00
    0.39342E+05         0.93261E+03         0.00000E+00
    0.00000E+00         0.00000E+00         0.37505E+03
 
    0.86051E+03         0.39723E+05         0.00000E+00
    0.39723E+05         0.97020E+03         0.00000E+00
    0.00000E+00         0.00000E+00         0.36614E+03
 
    0.77741E+03         0.40068E+05         0.00000E+00
    0.40068E+05         0.10081E+04         0.00000E+00
    0.00000E+00         0.00000E+00         0.35710E+03
 
    0.69338E+03         0.40378E+05         0.00000E+00
    0.40378E+05         0.10463E+04         0.00000E+00
    0.00000E+00         0.00000E+00         0.34793E+03
 
    0.60848E+03         0.40652E+05         0.00000E+00
    0.40652E+05         0.10847E+04         0.00000E+00
    0.00000E+00         0.00000E+00         0.33864E+03
 
    0.52274E+03         0.40889E+05         0.00000E+00
    0.40889E+05         0.11234E+04         0.00000E+00
    0.00000E+00         0.00000E+00         0.32923E+03
 
    0.43623E+03         0.41090E+05         0.00000E+00
    0.41090E+05         0.11622E+04         0.00000E+00
    0.00000E+00         0.00000E+00         0.31969E+03
 
    0.34899E+03         0.41254E+05         0.00000E+00
    0.41254E+05         0.12012E+04         0.00000E+00
    0.00000E+00         0.00000E+00         0.31005E+03
 
    0.90009E+04         0.61010E+03         0.00000E+00
    0.61010E+03        -0.11242E+01         0.00000E+00
    0.00000E+00         0.00000E+00         0.18000E+04
 
    0.89895E+04         0.18287E+04         0.00000E+00
    0.18287E+04         0.24682E+01         0.00000E+00
    0.00000E+00         0.00000E+00         0.17984E+04
 
    0.89709E+04         0.30453E+04         0.00000E+00
    0.30453E+04         0.96463E+01         0.00000E+00
    0.00000E+00         0.00000E+00         0.17961E+04
 
    0.89451E+04         0.42592E+04         0.00000E+00
    0.42592E+04         0.20403E+02         0.00000E+00
    0.00000E+00         0.00000E+00         0.17931E+04
 
    0.89122E+04         0.54692E+04         0.00000E+00
    0.54692E+04         0.34728E+02         0.00000E+00
    0.00000E+00         0.00000E+00         0.17894E+04
 
    0.88722E+04         0.66744E+04         0.00000E+00
    0.66744E+04         0.52608E+02         0.00000E+00
    0.00000E+00         0.00000E+00         0.17850E+04
 
    0.88251E+04         0.78740E+04         0.00000E+00
    0.78740E+04         0.74029E+02         0.00000E+00
    0.00000E+00         0.00000E+00         0.17798E+04
 
    0.87709E+04         0.90670E+04         0.00000E+00
    0.90670E+04         0.98973E+02         0.00000E+00
    0.00000E+00         0.00000E+00         0.17740E+04
 
    0.87097E+04         0.10252E+05         0.00000E+00
    0.10252E+05         0.12742E+03         0.00000E+00
    0.00000E+00         0.00000E+00         0.17674E+04
 
    0.86416E+04         0.11429E+05         0.00000E+00
    0.11429E+05         0.15934E+03         0.00000E+00
    0.00000E+00         0.00000E+00         0.17602E+04
 
    0.85664E+04         0.12597E+05         0.00000E+00
    0.12597E+05         0.19472E+03         0.00000E+00
    0.00000E+00         0.00000E+00         0.17522E+04
 
    0.84844E+04         0.13754E+05         0.00000E+00
    0.13754E+05         0.23351E+03         0.00000E+00
    0.00000E+00         0.00000E+00         0.17436E+04
 
    0.83954E+04         0.14899E+05         0.00000E+00
    0.14899E+05         0.27570E+03         0.00000E+00
    0.00000E+00         0.00000E+00         0.17342E+04
 
    0.82997E+04         0.16033E+05         0.00000E+00
    0.16033E+05         0.32125E+03         0.00000E+00
    0.00000E+00         0.00000E+00         0.17242E+04
 
    0.81972E+04         0.17153E+05         0.00000E+00
    0.17153E+05         0.37011E+03         0.00000E+00
    0.00000E+00         0.00000E+00         0.17135E+04
 
    0.80881E+04         0.18259E+05         0.00000E+00
    0.18259E+05         0.42226E+03         0.00000E+00
    0.00000E+00         0.00000E+00         0.17021E+04
 
    0.79723E+04         0.19350E+05         0.00000E+00
    0.19350E+05         0.47764E+03         0.00000E+00
    0.00000E+00         0.00000E+00         0.16900E+04
 
    0.78499E+04         0.20425E+05         0.00000E+00
    0.20425E+05         0.53622E+03         0.00000E+00
    0.00000E+00         0.00000E+00         0.16772E+04
 
    0.77211E+04         0.21484E+05         0.00000E+00
    0.21484E+05         0.59794E+03         0.00000E+00
    0.00000E+00         0.00000E+00         0.16638E+04
 
    0.75858E+04         0.22525E+05         0.00000E+00
    0.22525E+05         0.66276E+03         0.00000E+00
    0.00000E+00         0.00000E+00         0.16497E+04
 
    0.74442E+04         0.23547E+05         0.00000E+00
    0.23547E+05         0.73062E+03         0.00000E+00
    0.00000E+00         0.00000E+00         0.16350E+04
 
    0.72964E+04         0.24550E+05         0.00000E+00
    0.24550E+05         0.80146E+03         0.00000E+00
    0.00000E+00         0.00000E+00         0.16196E+04
 
    0.71424E+04         0.25533E+05         0.00000E+00
    0.25533E+05         0.87524E+03         0.00000E+00
    0.00000E+00         0.00000E+00         0.16035E+04
 
    0.69823E+04         0.26494E+05         0.00000E+00
    0.26494E+05         0.95188E+03         0.00000E+00
    0.00000E+00         0.00000E+00         0.15868E+04
 
    0.68163E+04         0.27434E+05         0.00000E+00
    0.27434E+05         0.10313E+04         0.00000E+00
    0.00000E+00         0.00000E+00         0.15695E+04
 
    0.66444E+04         0.28350E+05         0.00000E+00
    0.28350E+05         0.11135E+04         0.00000E+00
    0.00000E+00         0.00000E+00         0.15516E+04
 
    0.64668E+04         0.29244E+05         0.00000E+00
    0.29244E+05         0.11984E+04         0.00000E+00
    0.00000E+00         0.00000E+00         0.15330E+04
 
    0.62834E+04         0.30113E+05         0.00000E+00
    0.30113E+05         0.12858E+04         0.00000E+00
    0.00000E+00         0.00000E+00         0.15139E+04
 
    0.60946E+04         0.30956E+05         0.00000E+00
    0.30956E+05         0.13758E+04         0.00000E+00
    0.00000E+00         0.00000E+00         0.14941E+04
 
    0.59003E+04         0.31774E+05         0.00000E+00
    0.31774E+05         0.14683E+04         0.00000E+00
    0.00000E+00         0.00000E+00         0.14737E+04
 
    0.57006E+04         0.32565E+05         0.00000E+00
    0.32565E+05         0.15631E+04         0.00000E+00
    0.00000E+00         0.00000E+00         0.14527E+04
 
    0.54958E+04         0.33329E+05         0.00000E+00
    0.33329E+05         0.16602E+04         0.00000E+00
    0.00000E+00         0.00000E+00         0.14312E+04
 
    0.52859E+04         0.34065E+05         0.00000E+00
    0.34065E+05         0.17595E+04         0.00000E+00
    0.00000E+00         0.00000E+00         0.14091E+04
 
    0.50711E+04         0.34771E+05         0.00000E+00
    0.34771E+05         0.18610E+04         0.00000E+00
    0.00000E+00         0.00000E+00         0.13864E+04
 
    0.48515E+04         0.35449E+05         0.00000E+00
    0.35449E+05         0.19645E+04         0.00000E+00
    0.00000E+00         0.00000E+00         0.13632E+04
 
    0.46271E+04         0.36096E+05         0.00000E+00
    0.36096E+05         0.20699E+04         0.00000E+00
    0.00000E+00         0.00000E+00         0.13394E+04
 
    0.43983E+04         0.36712E+05         0.00000E+00
    0.36712E+05         0.21773E+04         0.00000E+00
    0.00000E+00         0.00000E+00         0.13151E+04
 
    0.41650E+04         0.37297E+05         0.00000E+00
    0.37297E+05         0.22864E+04         0.00000E+00
    0.00000E+00         0.00000E+00         0.12903E+04
 
    0.39275E+04         0.37850E+05         0.00000E+00
    0.37850E+05         0.23972E+04         0.00000E+00
    0.00000E+00         0.00000E+00         0.12649E+04
 
    0.36858E+04         0.38370E+05         0.00000E+00
    0.38370E+05         0.25095E+04         0.00000E+00
    0.00000E+00         0.00000E+00         0.12391E+04
 
    0.34402E+04         0.38857E+05         0.00000E+00
    0.38857E+05         0.26234E+04         0.00000E+00
    0.00000E+00         0.00000E+00         0.12127E+04
 
    0.31908E+04         0.39310E+05         0.00000E+00
    0.39310E+05         0.27387E+04         0.00000E+00
    0.00000E+00         0.00000E+00         0.11859E+04
 
    0.29378E+04         0.39728E+05         0.00000E+00
    0.39728E+05         0.28552E+04         0.00000E+00
    0.00000E+00         0.00000E+00         0.11586E+04
 
    0.26812E+04         0.40112E+05         0.00000E+00
    0.40112E+05         0.29729E+04         0.00000E+00
    0.00000E+00         0.00000E+00         0.11308E+04
 
    0.24213E+04         0.40461E+05         0.00000E+00
    0.40461E+05         0.30917E+04         0.00000E+00
    0.00000E+00         0.00000E+00         0.11026E+04
 
    0.21583E+04         0.40774E+05         0.00000E+00
    0.40774E+05         0.32115E+04         0.00000E+00
    0.00000E+00         0.00000E+00         0.10740E+04
 
    0.18922E+04         0.41050E+05         0.00000E+00
    0.41050E+05         0.33322E+04         0.00000E+00
    0.00000E+00         0.00000E+00         0.10449E+04
 
    0.16233E+04         0.41290E+05         0.00000E+00
    0.41290E+05         0.34536E+04         0.00000E+00
    0.00000E+00         0.00000E+00         0.10154E+04
 
    0.13517E+04         0.41493E+05         0.00000E+00
    0.41493E+05         0.35757E+04         0.00000E+00
    0.00000E+00         0.00000E+00         0.98547E+03
 
    0.10776E+04         0.41659E+05         0.00000E+00
    0.41659E+05         0.36983E+04         0.00000E+00
    0.00000E+00         0.00000E+00         0.95517E+03
 
    0.15152E+05         0.62204E+03         0.00000E+00
    0.62204E+03        -0.18742E+01         0.00000E+00
    0.00000E+00         0.00000E+00         0.30301E+04
 
    0.15134E+05         0.18645E+04         0.00000E+00
    0.18645E+04         0.40991E+01         0.00000E+00
    0.00000E+00         0.00000E+00         0.30275E+04
 
    0.15103E+05         0.31050E+04         0.00000E+00
    0.31050E+04         0.16047E+02         0.00000E+00
    0.00000E+00         0.00000E+00         0.30238E+04
 
    0.15060E+05         0.43427E+04         0.00000E+00
    0.43427E+04         0.33964E+02         0.00000E+00
    0.00000E+00         0.00000E+00         0.30189E+04
 
    0.15006E+05         0.55764E+04         0.00000E+00
    0.55764E+04         0.57839E+02         0.00000E+00
    0.00000E+00         0.00000E+00         0.30128E+04
 
    0.14940E+05         0.68054E+04         0.00000E+00
    0.68054E+04         0.87656E+02         0.00000E+00
    0.00000E+00         0.00000E+00         0.30055E+04
 
    0.14861E+05         0.80285E+04         0.00000E+00
    0.80285E+04         0.12340E+03         0.00000E+00
    0.00000E+00         0.00000E+00         0.29970E+04
 
    0.14771E+05         0.92449E+04         0.00000E+00
    0.92449E+04         0.16503E+03         0.00000E+00
    0.00000E+00         0.00000E+00         0.29873E+04
 
    0.14670E+05         0.10454E+05         0.00000E+00
    0.10454E+05         0.21254E+03         0.00000E+00
    0.00000E+00         0.00000E+00         0.29764E+04
 
    0.14556E+05         0.11654E+05         0.00000E+00
    0.11654E+05         0.26589E+03         0.00000E+00
    0.00000E+00         0.00000E+00         0.29644E+04
 
    0.14431E+05         0.12844E+05         0.00000E+00
    0.12844E+05         0.32502E+03         0.00000E+00
    0.00000E+00         0.00000E+00         0.29512E+04
 
    0.14294E+05         0.14024E+05         0.00000E+00
    0.14024E+05         0.38992E+03         0.00000E+00
    0.00000E+00         0.00000E+00         0.29368E+04
 
    0.14146E+05         0.15192E+05         0.00000E+00
    0.15192E+05         0.46052E+03         0.00000E+00
    0.00000E+00         0.00000E+00         0.29212E+04
 
    0.13986E+05         0.16348E+05         0.00000E+00
    0.16348E+05         0.53677E+03         0.00000E+00
    0.00000E+00         0.00000E+00         0.29045E+04
 
    0.13815E+05         0.17490E+05         0.00000E+00
    0.17490E+05         0.61861E+03         0.00000E+00
    0.00000E+00         0.00000E+00         0.28867E+04
 
    0.13632E+05         0.18618E+05         0.00000E+00
    0.18618E+05         0.70599E+03         0.00000E+00
    0.00000E+00         0.00000E+00         0.28676E+04
 
    0.13438E+05         0.19731E+05         0.00000E+00
    0.19731E+05         0.79884E+03         0.00000E+00
    0.00000E+00         0.00000E+00         0.28475E+04
 
    0.13234E+05         0.20828E+05         0.00000E+00
    0.20828E+05         0.89708E+03         0.00000E+00
    0.00000E+00         0.00000E+00         0.28261E+04
 
    0.13018E+05         0.21907E+05         0.00000E+00
    0.21907E+05         0.10006E+04         0.00000E+00
    0.00000E+00         0.00000E+00         0.28037E+04
 
    0.12791E+05         0.22969E+05         0.00000E+00
    0.22969E+05         0.11094E+04         0.00000E+00
    0.00000E+00         0.00000E+00         0.27801E+04
 
    0.12554E+05         0.24011E+05         0.00000E+00
    0.24011E+05         0.12234E+04         0.00000E+00
    0.00000E+00         0.00000E+00         0.27555E+04
 
    0.12306E+05         0.25034E+05         0.00000E+00
    0.25034E+05         0.13424E+04         0.00000E+00
    0.00000E+00         0.00000E+00         0.27297E+04
 
    0.12048E+05         0.26036E+05         0.00000E+00
    0.26036E+05         0.14664E+04         0.00000E+00
    0.00000E+00         0.00000E+00         0.27028E+04
 
    0.11779E+05         0.27017E+05         0.00000E+00
    0.27017E+05         0.15953E+04         0.00000E+00
    0.00000E+00         0.00000E+00         0.26749E+04
 
    0.11500E+05         0.27975E+05         0.00000E+00
    0.27975E+05         0.17289E+04         0.00000E+00
    0.00000E+00         0.00000E+00         0.26458E+04
 
    0.11211E+05         0.28910E+05         0.00000E+00
    0.28910E+05         0.18672E+04         0.00000E+00
    0.00000E+00         0.00000E+00         0.26157E+04
 
    0.10913E+05         0.29821E+05         0.00000E+00
    0.29821E+05         0.20100E+04         0.00000E+00
    0.00000E+00         0.00000E+00         0.25846E+04
 
    0.10605E+05         0.30707E+05         0.00000E+00
    0.30707E+05         0.21572E+04         0.00000E+00
    0.00000E+00         0.00000E+00         0.25524E+04
 
    0.10287E+05         0.31568E+05         0.00000E+00
    0.31568E+05         0.23088E+04         0.00000E+00
    0.00000E+00         0.00000E+00         0.25191E+04
 
    0.99599E+04         0.32402E+05         0.00000E+00
    0.32402E+05         0.24645E+04         0.00000E+00
    0.00000E+00         0.00000E+00         0.24849E+04
 
    0.96239E+04         0.33209E+05         0.00000E+00
    0.33209E+05         0.26243E+04         0.00000E+00
    0.00000E+00         0.00000E+00         0.24496E+04
 
    0.92789E+04         0.33988E+05         0.00000E+00
    0.33988E+05         0.27881E+04         0.00000E+00
    0.00000E+00         0.00000E+00         0.24134E+04
 
    0.89253E+04         0.34738E+05         0.00000E+00
    0.34738E+05         0.29556E+04         0.00000E+00
    0.00000E+00         0.00000E+00         0.23762E+04
 
    0.85633E+04         0.35459E+05         0.00000E+00
    0.35459E+05         0.31267E+04         0.00000E+00
    0.00000E+00         0.00000E+00         0.23380E+04
 
    0.81930E+04         0.36150E+05         0.00000E+00
    0.36150E+05         0.33014E+04         0.00000E+00
    0.00000E+00         0.00000E+00         0.22989E+04
 
    0.78147E+04         0.36810E+05         0.00000E+00
    0.36810E+05         0.34794E+04         0.00000E+00
    0.00000E+00         0.00000E+00         0.22588E+04
 
    0.74287E+04         0.37439E+05         0.00000E+00
    0.37439E+05         0.36606E+04         0.00000E+00
    0.00000E+00         0.00000E+00         0.22179E+04
 
    0.70351E+04         0.38035E+05         0.00000E+00
    0.38035E+05         0.38449E+04         0.00000E+00
    0.00000E+00         0.00000E+00         0.21760E+04
 
    0.66342E+04         0.38599E+05         0.00000E+00
    0.38599E+05         0.40320E+04         0.00000E+00
    0.00000E+00         0.00000E+00         0.21332E+04
 
    0.62262E+04         0.39129E+05         0.00000E+00
    0.39129E+05         0.42218E+04         0.00000E+00
    0.00000E+00         0.00000E+00         0.20896E+04
 
    0.58114E+04         0.39626E+05         0.00000E+00
    0.39626E+05         0.44143E+04         0.00000E+00
    0.00000E+00         0.00000E+00         0.20451E+04
 
    0.53901E+04         0.40088E+05         0.00000E+00
    0.40088E+05         0.46091E+04         0.00000E+00
    0.00000E+00         0.00000E+00         0.19998E+04
 
    0.49626E+04         0.40515E+05         0.00000E+00
    0.40515E+05         0.48061E+04         0.00000E+00
    0.00000E+00         0.00000E+00         0.19537E+04
 
    0.45290E+04         0.40907E+05         0.00000E+00
    0.40907E+05         0.50051E+04         0.00000E+00
    0.00000E+00         0.00000E+00         0.19068E+04
 
    0.40897E+04         0.41262E+05         0.00000E+00
    0.41262E+05         0.52060E+04         0.00000E+00
    0.00000E+00         0.00000E+00         0.18591E+04
 
    0.36449E+04         0.41582E+05         0.00000E+00
    0.41582E+05         0.54086E+04         0.00000E+00
    0.00000E+00         0.00000E+00         0.18107E+04
 
    0.31949E+04         0.41864E+05         0.00000E+00
    0.41864E+05         0.56127E+04         0.00000E+00
    0.00000E+00         0.00000E+00         0.17615E+04
 
    0.27401E+04         0.42108E+05         0.00000E+00
    0.42108E+05         0.58181E+04         0.00000E+00
    0.00000E+00         0.00000E+00         0.17117E+04
 
    0.22807E+04         0.42315E+05         0.00000E+00
    0.42315E+05         0.60247E+04         0.00000E+00
    0.00000E+00         0.00000E+00         0.16611E+04
 
    0.18169E+04         0.42484E+05         0.00000E+00
    0.42484E+05         0.62321E+04         0.00000E+00
    0.00000E+00         0.00000E+00         0.16098E+04
 
    0.21453E+05         0.63999E+03         0.00000E+00
    0.63999E+03        -0.26419E+01         0.00000E+00
    0.00000E+00         0.00000E+00         0.42900E+04
 
    0.21427E+05         0.19184E+04         0.00000E+00
    0.19184E+04         0.57671E+01         0.00000E+00
    0.00000E+00         0.00000E+00         0.42865E+04
 
    0.21384E+05         0.31949E+04         0.00000E+00
    0.31949E+04         0.22596E+02         0.00000E+00
    0.00000E+00         0.00000E+00         0.42814E+04
 
    0.21325E+05         0.44684E+04         0.00000E+00
    0.44684E+04         0.47842E+02         0.00000E+00
    0.00000E+00         0.00000E+00         0.42745E+04
 
    0.21248E+05         0.57380E+04         0.00000E+00
    0.57380E+04         0.81491E+02         0.00000E+00
    0.00000E+00         0.00000E+00         0.42660E+04
 
    0.21155E+05         0.70027E+04         0.00000E+00
    0.70027E+04         0.12353E+03         0.00000E+00
    0.00000E+00         0.00000E+00         0.42557E+04
 
    0.21045E+05         0.82614E+04         0.00000E+00
    0.82614E+04         0.17393E+03         0.00000E+00
    0.00000E+00         0.00000E+00         0.42439E+04
 
    0.20919E+05         0.95133E+04         0.00000E+00
    0.95133E+04         0.23266E+03         0.00000E+00
    0.00000E+00         0.00000E+00         0.42303E+04
 
    0.20775E+05         0.10757E+05         0.00000E+00
    0.10757E+05         0.29969E+03         0.00000E+00
    0.00000E+00         0.00000E+00         0.42150E+04
 
    0.20616E+05         0.11992E+05         0.00000E+00
    0.11992E+05         0.37496E+03         0.00000E+00
    0.00000E+00         0.00000E+00         0.41981E+04
 
    0.20439E+05         0.13218E+05         0.00000E+00
    0.13218E+05         0.45844E+03         0.00000E+00
    0.00000E+00         0.00000E+00         0.41795E+04
 
    0.20246E+05         0.14432E+05         0.00000E+00
    0.14432E+05         0.55006E+03         0.00000E+00
    0.00000E+00         0.00000E+00         0.41593E+04
 
    0.20037E+05         0.15634E+05         0.00000E+00
    0.15634E+05         0.64976E+03         0.00000E+00
    0.00000E+00         0.00000E+00         0.41374E+04
 
    0.19812E+05         0.16824E+05         0.00000E+00
    0.16824E+05         0.75746E+03         0.00000E+00
    0.00000E+00         0.00000E+00         0.41139E+04
 
    0.19570E+05         0.18000E+05         0.00000E+00
    0.18000E+05         0.87309E+03         0.00000E+00
    0.00000E+00         0.00000E+00         0.40887E+04
 
    0.19313E+05         0.19161E+05         0.00000E+00
    0.19161E+05         0.99657E+03         0.00000E+00
    0.00000E+00         0.00000E+00         0.40619E+04
 
    0.19040E+05         0.20307E+05         0.00000E+00
    0.20307E+05         0.11278E+04         0.00000E+00
    0.00000E+00         0.00000E+00         0.40335E+04
 
    0.18750E+05         0.21436E+05         0.00000E+00
    0.21436E+05         0.12667E+04         0.00000E+00
    0.00000E+00         0.00000E+00         0.40034E+04
 
    0.18446E+05         0.22547E+05         0.00000E+00
    0.22547E+05         0.14131E+04         0.00000E+00
    0.00000E+00         0.00000E+00         0.39718E+04
 
    0.18126E+05         0.23640E+05         0.00000E+00
    0.23640E+05         0.15670E+04         0.00000E+00
    0.00000E+00         0.00000E+00         0.39385E+04
 
    0.17790E+05         0.24713E+05         0.00000E+00
    0.24713E+05         0.17282E+04         0.00000E+00
    0.00000E+00         0.00000E+00         0.39037E+04
 
    0.17440E+05         0.25767E+05         0.00000E+00
    0.25767E+05         0.18965E+04         0.00000E+00
    0.00000E+00         0.00000E+00         0.38673E+04
 
    0.17075E+05         0.26798E+05         0.00000E+00
    0.26798E+05         0.20720E+04         0.00000E+00
    0.00000E+00         0.00000E+00         0.38294E+04
 
    0.16695E+05         0.27808E+05         0.00000E+00
    0.27808E+05         0.22543E+04         0.00000E+00
    0.00000E+00         0.00000E+00         0.37899E+04
 
    0.16301E+05         0.28795E+05         0.00000E+00
    0.28795E+05         0.24435E+04         0.00000E+00
    0.00000E+00         0.00000E+00         0.37488E+04
 
    0.15892E+05         0.29758E+05         0.00000E+00
    0.29758E+05         0.26392E+04         0.00000E+00
    0.00000E+00         0.00000E+00         0.37063E+04
 
    0.15470E+05         0.30696E+05         0.00000E+00
    0.30696E+05         0.28415E+04         0.00000E+00
    0.00000E+00         0.00000E+00         0.36622E+04
 
    0.15033E+05         0.31609E+05         0.00000E+00
    0.31609E+05         0.30500E+04         0.00000E+00
    0.00000E+00         0.00000E+00         0.36167E+04
 
    0.14584E+05         0.32495E+05         0.00000E+00
    0.32495E+05         0.32647E+04         0.00000E+00
    0.00000E+00         0.00000E+00         0.35697E+04
 
    0.14121E+05         0.33354E+05         0.00000E+00
    0.33354E+05         0.34853E+04         0.00000E+00
    0.00000E+00         0.00000E+00         0.35213E+04
 
    0.13645E+05         0.34185E+05         0.00000E+00
    0.34185E+05         0.37118E+04         0.00000E+00
    0.00000E+00         0.00000E+00         0.34714E+04
 
    0.13157E+05         0.34987E+05         0.00000E+00
    0.34987E+05         0.39438E+04         0.00000E+00
    0.00000E+00         0.00000E+00         0.34201E+04
 
    0.12656E+05         0.35760E+05         0.00000E+00
    0.35760E+05         0.41812E+04         0.00000E+00
    0.00000E+00         0.00000E+00         0.33674E+04
 
    0.12143E+05         0.36503E+05         0.00000E+00
    0.36503E+05         0.44238E+04         0.00000E+00
    0.00000E+00         0.00000E+00         0.33134E+04
 
    0.11618E+05         0.37214E+05         0.00000E+00
    0.37214E+05         0.46714E+04         0.00000E+00
    0.00000E+00         0.00000E+00         0.32580E+04
 
    0.11082E+05         0.37894E+05         0.00000E+00
    0.37894E+05         0.49237E+04         0.00000E+00
    0.00000E+00         0.00000E+00         0.32012E+04
 
    0.10535E+05         0.38542E+05         0.00000E+00
    0.38542E+05         0.51807E+04         0.00000E+00
    0.00000E+00         0.00000E+00         0.31432E+04
 
    0.99772E+04         0.39156E+05         0.00000E+00
    0.39156E+05         0.54420E+04         0.00000E+00
    0.00000E+00         0.00000E+00         0.30838E+04
 
    0.94089E+04         0.39737E+05         0.00000E+00
    0.39737E+05         0.57074E+04         0.00000E+00
    0.00000E+00         0.00000E+00         0.30233E+04
 
    0.88305E+04         0.40284E+05         0.00000E+00
    0.40284E+05         0.59767E+04         0.00000E+00
    0.00000E+00         0.00000E+00         0.29614E+04
 
    0.82423E+04         0.40795E+05         0.00000E+00
    0.40795E+05         0.62496E+04         0.00000E+00
    0.00000E+00         0.00000E+00         0.28984E+04
 
    0.76448E+04         0.41271E+05         0.00000E+00
    0.41271E+05         0.65260E+04         0.00000E+00
    0.00000E+00         0.00000E+00         0.28342E+04
 
    0.70384E+04         0.41711E+05         0.00000E+00
    0.41711E+05         0.68055E+04         0.00000E+00
    0.00000E+00         0.00000E+00         0.27688E+04
 
    0.64233E+04         0.42115E+05         0.00000E+00
    0.42115E+05         0.70879E+04         0.00000E+00
    0.00000E+00         0.00000E+00         0.27022E+04
 
    0.58000E+04         0.42481E+05         0.00000E+00
    0.42481E+05         0.73730E+04         0.00000E+00
    0.00000E+00         0.00000E+00         0.26346E+04
 
    0.51690E+04         0.42810E+05         0.00000E+00
    0.42810E+05         0.76605E+04         0.00000E+00
    0.00000E+00         0.00000E+00         0.25659E+04
 
    0.45305E+04         0.43101E+05         0.00000E+00
    0.43101E+05         0.79502E+04         0.00000E+00
    0.00000E+00         0.00000E+00         0.24961E+04
 
    0.38851E+04         0.43353E+05         0.00000E+00
    0.43353E+05         0.82417E+04         0.00000E+00
    0.00000E+00         0.00000E+00         0.24254E+04
 
    0.32330E+04         0.43566E+05         0.00000E+00
    0.43566E+05         0.85349E+04         0.00000E+00
    0.00000E+00         0.00000E+00         0.23536E+04
 
    0.25748E+04         0.43740E+05         0.00000E+00
    0.43740E+05         0.88294E+04         0.00000E+00
    0.00000E+00         0.00000E+00         0.22808E+04
 
    0.27964E+05         0.66411E+03         0.00000E+00
    0.66411E+03        -0.34347E+01         0.00000E+00
    0.00000E+00         0.00000E+00         0.55922E+04
 
    0.27931E+05         0.19909E+04         0.00000E+00
    0.19909E+04         0.74872E+01         0.00000E+00
    0.00000E+00         0.00000E+00         0.55877E+04
 
    0.27876E+05         0.33157E+04         0.00000E+00
    0.33157E+04         0.29355E+02         0.00000E+00
    0.00000E+00         0.00000E+00         0.55811E+04
 
    0.27799E+05         0.46375E+04         0.00000E+00
    0.46375E+04         0.62166E+02         0.00000E+00
    0.00000E+00         0.00000E+00         0.55723E+04
 
    0.27701E+05         0.59554E+04         0.00000E+00
    0.59554E+04         0.10591E+03         0.00000E+00
    0.00000E+00         0.00000E+00         0.55613E+04
 
    0.27580E+05         0.72682E+04         0.00000E+00
    0.72682E+04         0.16057E+03         0.00000E+00
    0.00000E+00         0.00000E+00         0.55481E+04
 
    0.27438E+05         0.85749E+04         0.00000E+00
    0.85749E+04         0.22611E+03         0.00000E+00
    0.00000E+00         0.00000E+00         0.55327E+04
 
    0.27274E+05         0.98746E+04         0.00000E+00
    0.98746E+04         0.30250E+03         0.00000E+00
    0.00000E+00         0.00000E+00         0.55152E+04
 
    0.27088E+05         0.11166E+05         0.00000E+00
    0.11166E+05         0.38970E+03         0.00000E+00
    0.00000E+00         0.00000E+00         0.54955E+04
 
    0.26880E+05         0.12448E+05         0.00000E+00
    0.12448E+05         0.48764E+03         0.00000E+00
    0.00000E+00         0.00000E+00         0.54736E+04
 
    0.26651E+05         0.13721E+05         0.00000E+00
    0.13721E+05         0.59628E+03         0.00000E+00
    0.00000E+00         0.00000E+00         0.54495E+04
 
    0.26401E+05         0.14982E+05         0.00000E+00
    0.14982E+05         0.71552E+03         0.00000E+00
    0.00000E+00         0.00000E+00         0.54233E+04
 
    0.26129E+05         0.16230E+05         0.00000E+00
    0.16230E+05         0.84530E+03         0.00000E+00
    0.00000E+00         0.00000E+00         0.53949E+04
 
    0.25836E+05         0.17466E+05         0.00000E+00
    0.17466E+05         0.98552E+03         0.00000E+00
    0.00000E+00         0.00000E+00         0.53644E+04
 
    0.25522E+05         0.18687E+05         0.00000E+00
    0.18687E+05         0.11361E+04         0.00000E+00
    0.00000E+00         0.00000E+00         0.53317E+04
 
    0.25188E+05         0.19894E+05         0.00000E+00
    0.19894E+05         0.12969E+04         0.00000E+00
    0.00000E+00         0.00000E+00         0.52969E+04
 
    0.24832E+05         0.21083E+05         0.00000E+00
    0.21083E+05         0.14678E+04         0.00000E+00
    0.00000E+00         0.00000E+00         0.52600E+04
 
    0.24456E+05         0.22256E+05         0.00000E+00
    0.22256E+05         0.16487E+04         0.00000E+00
    0.00000E+00         0.00000E+00         0.52210E+04
 
    0.24060E+05         0.23411E+05         0.00000E+00
    0.23411E+05         0.18395E+04         0.00000E+00
    0.00000E+00         0.00000E+00         0.51798E+04
 
    0.23643E+05         0.24546E+05         0.00000E+00
    0.24546E+05         0.20400E+04         0.00000E+00
    0.00000E+00         0.00000E+00         0.51366E+04
 
    0.23207E+05         0.25661E+05         0.00000E+00
    0.25661E+05         0.22500E+04         0.00000E+00
    0.00000E+00         0.00000E+00         0.50913E+04
 
    0.22751E+05         0.26755E+05         0.00000E+00
    0.26755E+05         0.24695E+04         0.00000E+00
    0.00000E+00         0.00000E+00         0.50440E+04
 
    0.22275E+05         0.27828E+05         0.00000E+00
    0.27828E+05         0.26982E+04         0.00000E+00
    0.00000E+00         0.00000E+00         0.49946E+04
 
    0.21780E+05         0.28877E+05         0.00000E+00
    0.28877E+05         0.29359E+04         0.00000E+00
    0.00000E+00         0.00000E+00         0.49432E+04
 
    0.21267E+05         0.29902E+05         0.00000E+00
    0.29902E+05         0.31825E+04         0.00000E+00
    0.00000E+00         0.00000E+00         0.48899E+04
 
    0.20735E+05         0.30903E+05         0.00000E+00
    0.30903E+05         0.34377E+04         0.00000E+00
    0.00000E+00         0.00000E+00         0.48345E+04
 
    0.20184E+05         0.31878E+05         0.00000E+00
    0.31878E+05         0.37014E+04         0.00000E+00
    0.00000E+00         0.00000E+00         0.47771E+04
 
    0.19616E+05         0.32826E+05         0.00000E+00
    0.32826E+05         0.39734E+04         0.00000E+00
    0.00000E+00         0.00000E+00         0.47179E+04
 
    0.19030E+05         0.33747E+05         0.00000E+00
    0.33747E+05         0.42534E+04         0.00000E+00
    0.00000E+00         0.00000E+00         0.46566E+04
 
    0.18427E+05         0.34640E+05         0.00000E+00
    0.34640E+05         0.45412E+04         0.00000E+00
    0.00000E+00         0.00000E+00         0.45935E+04
 
    0.17806E+05         0.35504E+05         0.00000E+00
    0.35504E+05         0.48366E+04         0.00000E+00
    0.00000E+00         0.00000E+00         0.45286E+04
 
    0.17169E+05         0.36338E+05         0.00000E+00
    0.36338E+05         0.51392E+04         0.00000E+00
    0.00000E+00         0.00000E+00         0.44617E+04
 
    0.16516E+05         0.37141E+05         0.00000E+00
    0.37141E+05         0.54490E+04         0.00000E+00
    0.00000E+00         0.00000E+00         0.43931E+04
 
    0.15848E+05         0.37913E+05         0.00000E+00
    0.37913E+05         0.57655E+04         0.00000E+00
    0.00000E+00         0.00000E+00         0.43226E+04
 
    0.15163E+05         0.38653E+05         0.00000E+00
    0.38653E+05         0.60886E+04         0.00000E+00
    0.00000E+00         0.00000E+00         0.42504E+04
 
    0.14464E+05         0.39360E+05         0.00000E+00
    0.39360E+05         0.64180E+04         0.00000E+00
    0.00000E+00         0.00000E+00         0.41764E+04
 
    0.13750E+05         0.40033E+05         0.00000E+00
    0.40033E+05         0.67533E+04         0.00000E+00
    0.00000E+00         0.00000E+00         0.41007E+04
 
    0.13022E+05         0.40672E+05         0.00000E+00
    0.40672E+05         0.70943E+04         0.00000E+00
    0.00000E+00         0.00000E+00         0.40234E+04
 
    0.12281E+05         0.41276E+05         0.00000E+00
    0.41276E+05         0.74408E+04         0.00000E+00
    0.00000E+00         0.00000E+00         0.39443E+04
 
    0.11526E+05         0.41844E+05         0.00000E+00
    0.41844E+05         0.77923E+04         0.00000E+00
    0.00000E+00         0.00000E+00         0.38637E+04
 
    0.10759E+05         0.42376E+05         0.00000E+00
    0.42376E+05         0.81486E+04         0.00000E+00
    0.00000E+00         0.00000E+00         0.37814E+04
 
    0.99787E+04         0.42871E+05         0.00000E+00
    0.42871E+05         0.85094E+04         0.00000E+00
    0.00000E+00         0.00000E+00         0.36976E+04
 
    0.91871E+04         0.43329E+05         0.00000E+00
    0.43329E+05         0.88743E+04         0.00000E+00
    0.00000E+00         0.00000E+00         0.36123E+04
 
    0.83842E+04         0.43749E+05         0.00000E+00
    0.43749E+05         0.92431E+04         0.00000E+00
    0.00000E+00         0.00000E+00         0.35255E+04
 
    0.75706E+04         0.44130E+05         0.00000E+00
    0.44130E+05         0.96154E+04         0.00000E+00
    0.00000E+00         0.00000E+00         0.34372E+04
 
    0.67467E+04         0.44471E+05         0.00000E+00
    0.44471E+05         0.99908E+04         0.00000E+00
    0.00000E+00         0.00000E+00         0.33475E+04
 
    0.59130E+04         0.44774E+05         0.00000E+00
    0.44774E+05         0.10369E+05         0.00000E+00
    0.00000E+00         0.00000E+00         0.32564E+04
 
    0.50702E+04         0.45036E+05         0.00000E+00
    0.45036E+05         0.10750E+05         0.00000E+00
    0.00000E+00         0.00000E+00         0.31640E+04
 
    0.42187E+04         0.45258E+05         0.00000E+00
    0.45258E+05         0.11133E+05         0.00000E+00
    0.00000E+00         0.00000E+00         0.30703E+04
 
    0.33592E+04         0.45438E+05         0.00000E+00
    0.45438E+05         0.11517E+05         0.00000E+00
    0.00000E+00         0.00000E+00         0.29753E+04
 
    0.34749E+05         0.69463E+03         0.00000E+00
    0.69463E+03        -0.42606E+01         0.00000E+00
    0.00000E+00         0.00000E+00         0.69490E+04
 
    0.34709E+05         0.20826E+04         0.00000E+00
    0.20826E+04         0.92752E+01         0.00000E+00
    0.00000E+00         0.00000E+00         0.69436E+04
 
    0.34642E+05         0.34686E+04         0.00000E+00
    0.34686E+04         0.36386E+02         0.00000E+00
    0.00000E+00         0.00000E+00         0.69356E+04
 
    0.34547E+05         0.48517E+04         0.00000E+00
    0.48517E+04         0.77075E+02         0.00000E+00
    0.00000E+00         0.00000E+00         0.69249E+04
 
    0.34426E+05         0.62307E+04         0.00000E+00
    0.62307E+04         0.13133E+03         0.00000E+00
    0.00000E+00         0.00000E+00         0.69114E+04
 
    0.34277E+05         0.76045E+04         0.00000E+00
    0.76045E+04         0.19914E+03         0.00000E+00
    0.00000E+00         0.00000E+00         0.68952E+04
 
    0.34101E+05         0.89721E+04         0.00000E+00
    0.89721E+04         0.28046E+03         0.00000E+00
    0.00000E+00         0.00000E+00         0.68763E+04
 
    0.33899E+05         0.10332E+05         0.00000E+00
    0.10332E+05         0.37526E+03         0.00000E+00
    0.00000E+00         0.00000E+00         0.68548E+04
 
    0.33669E+05         0.11684E+05         0.00000E+00
    0.11684E+05         0.48348E+03         0.00000E+00
    0.00000E+00         0.00000E+00         0.68305E+04
 
    0.33412E+05         0.13027E+05         0.00000E+00
    0.13027E+05         0.60506E+03         0.00000E+00
    0.00000E+00         0.00000E+00         0.68035E+04
 
    0.33129E+05         0.14358E+05         0.00000E+00
    0.14358E+05         0.73992E+03         0.00000E+00
    0.00000E+00         0.00000E+00         0.67738E+04
 
    0.32819E+05         0.15679E+05         0.00000E+00
    0.15679E+05         0.88798E+03         0.00000E+00
    0.00000E+00         0.00000E+00         0.67414E+04
 
    0.32482E+05         0.16986E+05         0.00000E+00
    0.16986E+05         0.10491E+04         0.00000E+00
    0.00000E+00         0.00000E+00         0.67063E+04
 
    0.32120E+05         0.18280E+05         0.00000E+00
    0.18280E+05         0.12233E+04         0.00000E+00
    0.00000E+00         0.00000E+00         0.66686E+04
 
    0.31730E+05         0.19559E+05         0.00000E+00
    0.19559E+05         0.14103E+04         0.00000E+00
    0.00000E+00         0.00000E+00         0.66282E+04
 
    0.31315E+05         0.20822E+05         0.00000E+00
    0.20822E+05         0.16101E+04         0.00000E+00
    0.00000E+00         0.00000E+00         0.65851E+04
 
    0.30875E+05         0.22069E+05         0.00000E+00
    0.22069E+05         0.18224E+04         0.00000E+00
    0.00000E+00         0.00000E+00         0.65394E+04
 
    0.30408E+05         0.23297E+05         0.00000E+00
    0.23297E+05         0.20472E+04         0.00000E+00
    0.00000E+00         0.00000E+00         0.64911E+04
 
    0.29916E+05         0.24506E+05         0.00000E+00
    0.24506E+05         0.22842E+04         0.00000E+00
    0.00000E+00         0.00000E+00         0.64401E+04
 
    0.29400E+05         0.25696E+05         0.00000E+00
    0.25696E+05         0.25334E+04         0.00000E+00
    0.00000E+00         0.00000E+00         0.63866E+04
 
    0.28858E+05         0.26864E+05         0.00000E+00
    0.26864E+05         0.27944E+04         0.00000E+00
    0.00000E+00         0.00000E+00         0.63305E+04
 
    0.28292E+05         0.28010E+05         0.00000E+00
    0.28010E+05         0.30672E+04         0.00000E+00
    0.00000E+00         0.00000E+00         0.62718E+04
 
    0.27702E+05         0.29134E+05         0.00000E+00
    0.29134E+05         0.33515E+04         0.00000E+00
    0.00000E+00         0.00000E+00         0.62106E+04
 
    0.27087E+05         0.30233E+05         0.00000E+00
    0.30233E+05         0.36470E+04         0.00000E+00
    0.00000E+00         0.00000E+00         0.61469E+04
 
    0.26450E+05         0.31308E+05         0.00000E+00
    0.31308E+05         0.39536E+04         0.00000E+00
    0.00000E+00         0.00000E+00         0.60807E+04
 
    0.25789E+05         0.32356E+05         0.00000E+00
    0.32356E+05         0.42709E+04         0.00000E+00
    0.00000E+00         0.00000E+00         0.60119E+04
 
    0.25105E+05         0.33378E+05         0.00000E+00
    0.33378E+05         0.45988E+04         0.00000E+00
    0.00000E+00         0.00000E+00         0.59408E+04
 
    0.24399E+05         0.34372E+05         0.00000E+00
    0.34372E+05         0.49370E+04         0.00000E+00
    0.00000E+00         0.00000E+00         0.58672E+04
 
    0.23671E+05         0.35338E+05         0.00000E+00
    0.35338E+05         0.52853E+04         0.00000E+00
    0.00000E+00         0.00000E+00         0.57912E+04
 
    0.22921E+05         0.36274E+05         0.00000E+00
    0.36274E+05         0.56432E+04         0.00000E+00
    0.00000E+00         0.00000E+00         0.57129E+04
 
    0.22150E+05         0.37179E+05         0.00000E+00
    0.37179E+05         0.60105E+04         0.00000E+00
    0.00000E+00         0.00000E+00         0.56322E+04
 
    0.21359E+05         0.38054E+05         0.00000E+00
    0.38054E+05         0.63870E+04         0.00000E+00
    0.00000E+00         0.00000E+00         0.55492E+04
 
    0.20547E+05         0.38896E+05         0.00000E+00
    0.38896E+05         0.67723E+04         0.00000E+00
    0.00000E+00         0.00000E+00         0.54639E+04
 
    0.19716E+05         0.39705E+05         0.00000E+00
    0.39705E+05         0.71661E+04         0.00000E+00
    0.00000E+00         0.00000E+00         0.53764E+04
 
    0.18865E+05         0.40481E+05         0.00000E+00
    0.40481E+05         0.75681E+04         0.00000E+00
    0.00000E+00         0.00000E+00         0.52866E+04
 
    0.17996E+05         0.41222E+05         0.00000E+00
    0.41222E+05         0.79778E+04         0.00000E+00
    0.00000E+00         0.00000E+00         0.51947E+04
 
    0.17108E+05         0.41928E+05         0.00000E+00
    0.41928E+05         0.83951E+04         0.00000E+00
    0.00000E+00         0.00000E+00         0.51006E+04
 
    0.16203E+05         0.42598E+05         0.00000E+00
    0.42598E+05         0.88194E+04         0.00000E+00
    0.00000E+00         0.00000E+00         0.50044E+04
 
    0.15280E+05         0.43232E+05         0.00000E+00
    0.43232E+05         0.92505E+04         0.00000E+00
    0.00000E+00         0.00000E+00         0.49061E+04
 
    0.14341E+05         0.43828E+05         0.00000E+00
    0.43828E+05         0.96879E+04         0.00000E+00
    0.00000E+00         0.00000E+00         0.48059E+04
 
    0.13387E+05         0.44386E+05         0.00000E+00
    0.44386E+05         0.10131E+05         0.00000E+00
    0.00000E+00         0.00000E+00         0.47036E+04
 
    0.12416E+05         0.44905E+05         0.00000E+00
    0.44905E+05         0.10580E+05         0.00000E+00
    0.00000E+00         0.00000E+00         0.45993E+04
 
    0.11431E+05         0.45385E+05         0.00000E+00
    0.45385E+05         0.11035E+05         0.00000E+00
    0.00000E+00         0.00000E+00         0.44932E+04
 
    0.10432E+05         0.45825E+05         0.00000E+00
    0.45825E+05         0.11493E+05         0.00000E+00
    0.00000E+00         0.00000E+00         0.43852E+04
 
    0.94200E+04         0.46225E+05         0.00000E+00
    0.46225E+05         0.11957E+05         0.00000E+00
    0.00000E+00         0.00000E+00         0.42754E+04
 
    0.83947E+04         0.46583E+05         0.00000E+00
    0.46583E+05         0.12424E+05         0.00000E+00
    0.00000E+00         0.00000E+00         0.41638E+04
 
    0.73572E+04         0.46901E+05         0.00000E+00
    0.46901E+05         0.12895E+05         0.00000E+00
    0.00000E+00         0.00000E+00         0.40504E+04
 
    0.63082E+04         0.47176E+05         0.00000E+00
    0.47176E+05         0.13369E+05         0.00000E+00
    0.00000E+00         0.00000E+00         0.39354E+04
 
    0.52484E+04         0.47408E+05         0.00000E+00
    0.47408E+05         0.13845E+05         0.00000E+00
    0.00000E+00         0.00000E+00         0.38187E+04
 
    0.41784E+04         0.47598E+05         0.00000E+00
    0.47598E+05         0.14324E+05         0.00000E+00
    0.00000E+00         0.00000E+00         0.37005E+04
 
    0.41873E+05         0.73181E+03         0.00000E+00
    0.73181E+03        -0.51281E+01         0.00000E+00
    0.00000E+00         0.00000E+00         0.83736E+04
 
    0.41826E+05         0.21944E+04         0.00000E+00
    0.21944E+04         0.11148E+02         0.00000E+00
    0.00000E+00         0.00000E+00         0.83675E+04
 
    0.41747E+05         0.36552E+04         0.00000E+00
    0.36552E+04         0.43762E+02         0.00000E+00
    0.00000E+00         0.00000E+00         0.83581E+04
 
    0.41635E+05         0.51129E+04         0.00000E+00
    0.51129E+04         0.92720E+02         0.00000E+00
    0.00000E+00         0.00000E+00         0.83455E+04
 
    0.41490E+05         0.65666E+04         0.00000E+00
    0.65666E+04         0.15802E+03         0.00000E+00
    0.00000E+00         0.00000E+00         0.83295E+04
 
    0.41312E+05         0.80149E+04         0.00000E+00
    0.80149E+04         0.23963E+03         0.00000E+00
    0.00000E+00         0.00000E+00         0.83104E+04
 
    0.41102E+05         0.94568E+04         0.00000E+00
    0.94568E+04         0.33754E+03         0.00000E+00
    0.00000E+00         0.00000E+00         0.82879E+04
 
    0.40859E+05         0.10891E+05         0.00000E+00
    0.10891E+05         0.45168E+03         0.00000E+00
    0.00000E+00         0.00000E+00         0.82622E+04
 
    0.40584E+05         0.12317E+05         0.00000E+00
    0.12317E+05         0.58201E+03         0.00000E+00
    0.00000E+00         0.00000E+00         0.82332E+04
 
    0.40276E+05         0.13732E+05         0.00000E+00
    0.13732E+05         0.72844E+03         0.00000E+00
    0.00000E+00         0.00000E+00         0.82010E+04
 
    0.39937E+05         0.15137E+05         0.00000E+00
    0.15137E+05         0.89089E+03         0.00000E+00
    0.00000E+00         0.00000E+00         0.81655E+04
 
    0.39564E+05         0.16530E+05         0.00000E+00
    0.16530E+05         0.10693E+04         0.00000E+00
    0.00000E+00         0.00000E+00         0.81267E+04
 
    0.39160E+05         0.17909E+05         0.00000E+00
    0.17909E+05         0.12634E+04         0.00000E+00
    0.00000E+00         0.00000E+00         0.80848E+04
 
    0.38725E+05         0.19274E+05         0.00000E+00
    0.19274E+05         0.14733E+04         0.00000E+00
    0.00000E+00         0.00000E+00         0.80396E+04
 
    0.38257E+05         0.20624E+05         0.00000E+00
    0.20624E+05         0.16987E+04         0.00000E+00
    0.00000E+00         0.00000E+00         0.79911E+04
 
    0.37758E+05         0.21957E+05         0.00000E+00
    0.21957E+05         0.19394E+04         0.00000E+00
    0.00000E+00         0.00000E+00         0.79395E+04
 
    0.37228E+05         0.23272E+05         0.00000E+00
    0.23272E+05         0.21954E+04         0.00000E+00
    0.00000E+00         0.00000E+00         0.78847E+04
 
    0.36667E+05         0.24569E+05         0.00000E+00
    0.24569E+05         0.24663E+04         0.00000E+00
    0.00000E+00         0.00000E+00         0.78267E+04
 
    0.36076E+05         0.25845E+05         0.00000E+00
    0.25845E+05         0.27521E+04         0.00000E+00
    0.00000E+00         0.00000E+00         0.77656E+04
 
    0.35454E+05         0.27101E+05         0.00000E+00
    0.27101E+05         0.30525E+04         0.00000E+00
    0.00000E+00         0.00000E+00         0.77013E+04
 
    0.34802E+05         0.28334E+05         0.00000E+00
    0.28334E+05         0.33672E+04         0.00000E+00
    0.00000E+00         0.00000E+00         0.76339E+04
 
    0.34121E+05         0.29544E+05         0.00000E+00
    0.29544E+05         0.36962E+04         0.00000E+00
    0.00000E+00         0.00000E+00         0.75634E+04
 
    0.33410E+05         0.30731E+05         0.00000E+00
    0.30731E+05         0.40389E+04         0.00000E+00
    0.00000E+00         0.00000E+00         0.74898E+04
 
    0.32671E+05         0.31891E+05         0.00000E+00
    0.31891E+05         0.43953E+04         0.00000E+00
    0.00000E+00         0.00000E+00         0.74132E+04
 
    0.31903E+05         0.33026E+05         0.00000E+00
    0.33026E+05         0.47651E+04         0.00000E+00
    0.00000E+00         0.00000E+00         0.73336E+04
 
    0.31107E+05         0.34134E+05         0.00000E+00
    0.34134E+05         0.51479E+04         0.00000E+00
    0.00000E+00         0.00000E+00         0.72509E+04
 
    0.30283E+05         0.35213E+05         0.00000E+00
    0.35213E+05         0.55434E+04         0.00000E+00
    0.00000E+00         0.00000E+00         0.71653E+04
 
    0.29432E+05         0.36263E+05         0.00000E+00
    0.36263E+05         0.59514E+04         0.00000E+00
    0.00000E+00         0.00000E+00         0.70768E+04
 
    0.28555E+05         0.37283E+05         0.00000E+00
    0.37283E+05         0.63714E+04         0.00000E+00
    0.00000E+00         0.00000E+00         0.69853E+04
 
    0.27652E+05         0.38272E+05         0.00000E+00
    0.38272E+05         0.68032E+04         0.00000E+00
    0.00000E+00         0.00000E+00         0.68910E+04
 
    0.26723E+05         0.39229E+05         0.00000E+00
    0.39229E+05         0.72464E+04         0.00000E+00
    0.00000E+00         0.00000E+00         0.67938E+04
 
    0.25769E+05         0.40152E+05         0.00000E+00
    0.40152E+05         0.77007E+04         0.00000E+00
    0.00000E+00         0.00000E+00         0.66939E+04
 
    0.24790E+05         0.41042E+05         0.00000E+00
    0.41042E+05         0.81656E+04         0.00000E+00
    0.00000E+00         0.00000E+00         0.65911E+04
 
    0.23788E+05         0.41898E+05         0.00000E+00
    0.41898E+05         0.86407E+04         0.00000E+00
    0.00000E+00         0.00000E+00         0.64857E+04
 
    0.22762E+05         0.42717E+05         0.00000E+00
    0.42717E+05         0.91257E+04         0.00000E+00
    0.00000E+00         0.00000E+00         0.63775E+04
 
    0.21714E+05         0.43501E+05         0.00000E+00
    0.43501E+05         0.96202E+04         0.00000E+00
    0.00000E+00         0.00000E+00         0.62668E+04
 
    0.20643E+05         0.44247E+05         0.00000E+00
    0.44247E+05         0.10124E+05         0.00000E+00
    0.00000E+00         0.00000E+00         0.61534E+04
 
    0.19551E+05         0.44955E+05         0.00000E+00
    0.44955E+05         0.10636E+05         0.00000E+00
    0.00000E+00         0.00000E+00         0.60374E+04
 
    0.18439E+05         0.45625E+05         0.00000E+00
    0.45625E+05         0.11156E+05         0.00000E+00
    0.00000E+00         0.00000E+00         0.59190E+04
 
    0.17306E+05         0.46255E+05         0.00000E+00
    0.46255E+05         0.11684E+05         0.00000E+00
    0.00000E+00         0.00000E+00         0.57980E+04
 
    0.16154E+05         0.46845E+05         0.00000E+00
    0.46845E+05         0.12219E+05         0.00000E+00
    0.00000E+00         0.00000E+00         0.56747E+04
 
    0.14984E+05         0.47394E+05         0.00000E+00
    0.47394E+05         0.12761E+05         0.00000E+00
    0.00000E+00         0.00000E+00         0.55490E+04
 
    0.13795E+05         0.47901E+05         0.00000E+00
    0.47901E+05         0.13309E+05         0.00000E+00
    0.00000E+00         0.00000E+00         0.54209E+04
 
    0.12590E+05         0.48367E+05         0.00000E+00
    0.48367E+05         0.13863E+05         0.00000E+00
    0.00000E+00         0.00000E+00         0.52906E+04
 
    0.11368E+05         0.48789E+05         0.00000E+00
    0.48789E+05         0.14423E+05         0.00000E+00
    0.00000E+00         0.00000E+00         0.51581E+04
 
    0.10131E+05         0.49168E+05         0.00000E+00
    0.49168E+05         0.14987E+05         0.00000E+00
    0.00000E+00         0.00000E+00         0.50235E+04
 
    0.88785E+04         0.49504E+05         0.00000E+00
    0.49504E+05         0.15555E+05         0.00000E+00
    0.00000E+00         0.00000E+00         0.48867E+04
 
    0.76123E+04         0.49795E+05         0.00000E+00
    0.49795E+05         0.16127E+05         0.00000E+00
    0.00000E+00         0.00000E+00         0.47479E+04
 
    0.63329E+04         0.50041E+05         0.00000E+00
    0.50041E+05         0.16702E+05         0.00000E+00
    0.00000E+00         0.00000E+00         0.46071E+04
 
    0.50413E+04         0.50241E+05         0.00000E+00
    0.50241E+05         0.17280E+05         0.00000E+00
    0.00000E+00         0.00000E+00         0.44643E+04
 
    0.49406E+05         0.77601E+03         0.00000E+00
    0.77601E+03        -0.60470E+01         0.00000E+00
    0.00000E+00         0.00000E+00         0.98799E+04
 
    0.49352E+05         0.23275E+04         0.00000E+00
    0.23275E+04         0.13127E+02         0.00000E+00
    0.00000E+00         0.00000E+00         0.98731E+04
 
    0.49261E+05         0.38772E+04         0.00000E+00
    0.38772E+04         0.51562E+02         0.00000E+00
    0.00000E+00         0.00000E+00         0.98625E+04
 
    0.49131E+05         0.54238E+04         0.00000E+00
    0.54238E+04         0.10927E+03         0.00000E+00
    0.00000E+00         0.00000E+00         0.98480E+04
 
    0.48962E+05         0.69663E+04         0.00000E+00
    0.69663E+04         0.18626E+03         0.00000E+00
    0.00000E+00         0.00000E+00         0.98296E+04
 
    0.48755E+05         0.85034E+04         0.00000E+00
    0.85034E+04         0.28251E+03         0.00000E+00
    0.00000E+00         0.00000E+00         0.98074E+04
 
    0.48509E+05         0.10034E+05         0.00000E+00
    0.10034E+05         0.39798E+03         0.00000E+00
    0.00000E+00         0.00000E+00         0.97814E+04
 
    0.48225E+05         0.11556E+05         0.00000E+00
    0.11556E+05         0.53263E+03         0.00000E+00
    0.00000E+00         0.00000E+00         0.97515E+04
 
    0.47902E+05         0.13070E+05         0.00000E+00
    0.13070E+05         0.68639E+03         0.00000E+00
    0.00000E+00         0.00000E+00         0.97177E+04
 
    0.47541E+05         0.14573E+05         0.00000E+00
    0.14573E+05         0.85918E+03         0.00000E+00
    0.00000E+00         0.00000E+00         0.96801E+04
 
    0.47142E+05         0.16065E+05         0.00000E+00
    0.16065E+05         0.10509E+04         0.00000E+00
    0.00000E+00         0.00000E+00         0.96386E+04
 
    0.46705E+05         0.17544E+05         0.00000E+00
    0.17544E+05         0.12614E+04         0.00000E+00
    0.00000E+00         0.00000E+00         0.95933E+04
 
    0.46230E+05         0.19009E+05         0.00000E+00
    0.19009E+05         0.14906E+04         0.00000E+00
    0.00000E+00         0.00000E+00         0.95442E+04
 
    0.45718E+05         0.20459E+05         0.00000E+00
    0.20459E+05         0.17383E+04         0.00000E+00
    0.00000E+00         0.00000E+00         0.94913E+04
 
    0.45168E+05         0.21893E+05         0.00000E+00
    0.21893E+05         0.20044E+04         0.00000E+00
    0.00000E+00         0.00000E+00         0.94345E+04
 
    0.44581E+05         0.23309E+05         0.00000E+00
    0.23309E+05         0.22887E+04         0.00000E+00
    0.00000E+00         0.00000E+00         0.93740E+04
 
    0.43957E+05         0.24707E+05         0.00000E+00
    0.24707E+05         0.25909E+04         0.00000E+00
    0.00000E+00         0.00000E+00         0.93097E+04
 
    0.43297E+05         0.26085E+05         0.00000E+00
    0.26085E+05         0.29109E+04         0.00000E+00
    0.00000E+00         0.00000E+00         0.92416E+04
 
    0.42600E+05         0.27441E+05         0.00000E+00
    0.27441E+05         0.32484E+04         0.00000E+00
    0.00000E+00         0.00000E+00         0.91698E+04
 
    0.41868E+05         0.28776E+05         0.00000E+00
    0.28776E+05         0.36032E+04         0.00000E+00
    0.00000E+00         0.00000E+00         0.90942E+04
 
    0.41100E+05         0.30087E+05         0.00000E+00
    0.30087E+05         0.39750E+04         0.00000E+00
    0.00000E+00         0.00000E+00         0.90150E+04
 
    0.40297E+05         0.31374E+05         0.00000E+00
    0.31374E+05         0.43635E+04         0.00000E+00
    0.00000E+00         0.00000E+00         0.89321E+04
 
    0.39459E+05         0.32635E+05         0.00000E+00
    0.32635E+05         0.47684E+04         0.00000E+00
    0.00000E+00         0.00000E+00         0.88456E+04
 
    0.38588E+05         0.33869E+05         0.00000E+00
    0.33869E+05         0.51894E+04         0.00000E+00
    0.00000E+00         0.00000E+00         0.87554E+04
 
    0.37682E+05         0.35076E+05         0.00000E+00
    0.35076E+05         0.56263E+04         0.00000E+00
    0.00000E+00         0.00000E+00         0.86617E+04
 
    0.36743E+05         0.36254E+05         0.00000E+00
    0.36254E+05         0.60785E+04         0.00000E+00
    0.00000E+00         0.00000E+00         0.85644E+04
 
    0.35772E+05         0.37401E+05         0.00000E+00
    0.37401E+05         0.65458E+04         0.00000E+00
    0.00000E+00         0.00000E+00         0.84635E+04
 
    0.34768E+05         0.38518E+05         0.00000E+00
    0.38518E+05         0.70279E+04         0.00000E+00
    0.00000E+00         0.00000E+00         0.83592E+04
 
    0.33733E+05         0.39603E+05         0.00000E+00
    0.39603E+05         0.75242E+04         0.00000E+00
    0.00000E+00         0.00000E+00         0.82515E+04
 
    0.32667E+05         0.40655E+05         0.00000E+00
    0.40655E+05         0.80344E+04         0.00000E+00
    0.00000E+00         0.00000E+00         0.81403E+04
 
    0.31571E+05         0.41673E+05         0.00000E+00
    0.41673E+05         0.85581E+04         0.00000E+00
    0.00000E+00         0.00000E+00         0.80258E+04
 
    0.30445E+05         0.42656E+05         0.00000E+00
    0.42656E+05         0.90949E+04         0.00000E+00
    0.00000E+00         0.00000E+00         0.79079E+04
 
    0.29290E+05         0.43603E+05         0.00000E+00
    0.43603E+05         0.96443E+04         0.00000E+00
    0.00000E+00         0.00000E+00         0.77868E+04
 
    0.28106E+05         0.44513E+05         0.00000E+00
    0.44513E+05         0.10206E+05         0.00000E+00
    0.00000E+00         0.00000E+00         0.76624E+04
 
    0.26895E+05         0.45385E+05         0.00000E+00
    0.45385E+05         0.10779E+05         0.00000E+00
    0.00000E+00         0.00000E+00         0.75349E+04
 
    0.25657E+05         0.46219E+05         0.00000E+00
    0.46219E+05         0.11363E+05         0.00000E+00
    0.00000E+00         0.00000E+00         0.74041E+04
 
    0.24393E+05         0.47013E+05         0.00000E+00
    0.47013E+05         0.11958E+05         0.00000E+00
    0.00000E+00         0.00000E+00         0.72703E+04
 
    0.23104E+05         0.47767E+05         0.00000E+00
    0.47767E+05         0.12564E+05         0.00000E+00
    0.00000E+00         0.00000E+00         0.71335E+04
 
    0.21790E+05         0.48480E+05         0.00000E+00
    0.48480E+05         0.13178E+05         0.00000E+00
    0.00000E+00         0.00000E+00         0.69936E+04
 
    0.20452E+05         0.49151E+05         0.00000E+00
    0.49151E+05         0.13802E+05         0.00000E+00
    0.00000E+00         0.00000E+00         0.68509E+04
 
    0.19091E+05         0.49779E+05         0.00000E+00
    0.49779E+05         0.14435E+05         0.00000E+00
    0.00000E+00         0.00000E+00         0.67052E+04
 
    0.17708E+05         0.50363E+05         0.00000E+00
    0.50363E+05         0.15076E+05         0.00000E+00
    0.00000E+00         0.00000E+00         0.65568E+04
 
    0.16304E+05         0.50904E+05         0.00000E+00
    0.50904E+05         0.15724E+05         0.00000E+00
    0.00000E+00         0.00000E+00         0.64055E+04
 
    0.14880E+05         0.51399E+05         0.00000E+00
    0.51399E+05         0.16378E+05         0.00000E+00
    0.00000E+00         0.00000E+00         0.62516E+04
 
    0.13436E+05         0.51850E+05         0.00000E+00
    0.51850E+05         0.17040E+05         0.00000E+00
    0.00000E+00         0.00000E+00         0.60951E+04
 
    0.11973E+05         0.52253E+05         0.00000E+00
    0.52253E+05         0.17706E+05         0.00000E+00
    0.00000E+00         0.00000E+00         0.59359E+04
 
    0.10493E+05         0.52611E+05         0.00000E+00
    0.52611E+05         0.18378E+05         0.00000E+00
    0.00000E+00         0.00000E+00         0.57743E+04
 
    0.89965E+04         0.52921E+05         0.00000E+00
    0.52921E+05         0.19055E+05         0.00000E+00
    0.00000E+00         0.00000E+00         0.56102E+04
 
    0.74842E+04         0.53183E+05         0.00000E+00
    0.53183E+05         0.19735E+05         0.00000E+00
    0.00000E+00         0.00000E+00         0.54438E+04
 
    0.59572E+04         0.53396E+05         0.00000E+00
    0.53396E+05         0.20418E+05         0.00000E+00
    0.00000E+00         0.00000E+00         0.52750E+04
 
    0.57419E+05         0.82766E+03         0.00000E+00
    0.82766E+03        -0.70285E+01         0.00000E+00
    0.00000E+00         0.00000E+00         0.11482E+05
 
    0.57360E+05         0.24830E+04         0.00000E+00
    0.24830E+04         0.15233E+02         0.00000E+00
    0.00000E+00         0.00000E+00         0.11475E+05
 
    0.57257E+05         0.41367E+04         0.00000E+00
    0.41367E+04         0.59878E+02         0.00000E+00
    0.00000E+00         0.00000E+00         0.11463E+05
 
    0.57109E+05         0.57875E+04         0.00000E+00
    0.57875E+04         0.12693E+03         0.00000E+00
    0.00000E+00         0.00000E+00         0.11447E+05
 
    0.56916E+05         0.74341E+04         0.00000E+00
    0.74341E+04         0.21640E+03         0.00000E+00
    0.00000E+00         0.00000E+00         0.11426E+05
 
    0.56678E+05         0.90751E+04         0.00000E+00
    0.90751E+04         0.32828E+03         0.00000E+00
    0.00000E+00         0.00000E+00         0.11401E+05
 
    0.56396E+05         0.10709E+05         0.00000E+00
    0.10709E+05         0.46253E+03         0.00000E+00
    0.00000E+00         0.00000E+00         0.11372E+05
 
    0.56068E+05         0.12335E+05         0.00000E+00
    0.12335E+05         0.61909E+03         0.00000E+00
    0.00000E+00         0.00000E+00         0.11337E+05
 
    0.55696E+05         0.13952E+05         0.00000E+00
    0.13952E+05         0.79790E+03         0.00000E+00
    0.00000E+00         0.00000E+00         0.11299E+05
 
    0.55280E+05         0.15558E+05         0.00000E+00
    0.15558E+05         0.99886E+03         0.00000E+00
    0.00000E+00         0.00000E+00         0.11256E+05
 
    0.54819E+05         0.17151E+05         0.00000E+00
    0.17151E+05         0.12219E+04         0.00000E+00
    0.00000E+00         0.00000E+00         0.11208E+05
 
    0.54313E+05         0.18732E+05         0.00000E+00
    0.18732E+05         0.14668E+04         0.00000E+00
    0.00000E+00         0.00000E+00         0.11156E+05
 
    0.53764E+05         0.20298E+05         0.00000E+00
    0.20298E+05         0.17334E+04         0.00000E+00
    0.00000E+00         0.00000E+00         0.11099E+05
 
    0.53171E+05         0.21847E+05         0.00000E+00
    0.21847E+05         0.20217E+04         0.00000E+00
    0.00000E+00         0.00000E+00         0.11038E+05
 
    0.52534E+05         0.23380E+05         0.00000E+00
    0.23380E+05         0.23313E+04         0.00000E+00
    0.00000E+00         0.00000E+00         0.10973E+05
 
    0.51854E+05         0.24894E+05         0.00000E+00
    0.24894E+05         0.26621E+04         0.00000E+00
    0.00000E+00         0.00000E+00         0.10903E+05
 
    0.51131E+05         0.26388E+05         0.00000E+00
    0.26388E+05         0.30139E+04         0.00000E+00
    0.00000E+00         0.00000E+00         0.10829E+05
 
    0.50365E+05         0.27861E+05         0.00000E+00
    0.27861E+05         0.33863E+04         0.00000E+00
    0.00000E+00         0.00000E+00         0.10750E+05
 
    0.49557E+05         0.29312E+05         0.00000E+00
    0.29312E+05         0.37791E+04         0.00000E+00
    0.00000E+00         0.00000E+00         0.10667E+05
 
    0.48707E+05         0.30739E+05         0.00000E+00
    0.30739E+05         0.41921E+04         0.00000E+00
    0.00000E+00         0.00000E+00         0.10580E+05
 
    0.47816E+05         0.32141E+05         0.00000E+00
    0.32141E+05         0.46249E+04         0.00000E+00
    0.00000E+00         0.00000E+00         0.10488E+05
 
    0.46884E+05         0.33517E+05         0.00000E+00
    0.33517E+05         0.50772E+04         0.00000E+00
    0.00000E+00         0.00000E+00         0.10392E+05
 
    0.45911E+05         0.34866E+05         0.00000E+00
    0.34866E+05         0.55486E+04         0.00000E+00
    0.00000E+00         0.00000E+00         0.10292E+05
 
    0.44899E+05         0.36187E+05         0.00000E+00
    0.36187E+05         0.60388E+04         0.00000E+00
    0.00000E+00         0.00000E+00         0.10188E+05
 
    0.43847E+05         0.37478E+05         0.00000E+00
    0.37478E+05         0.65473E+04         0.00000E+00
    0.00000E+00         0.00000E+00         0.10079E+05
 
    0.42757E+05         0.38738E+05         0.00000E+00
    0.38738E+05         0.70739E+04         0.00000E+00
    0.00000E+00         0.00000E+00         0.99661E+04
 
    0.41628E+05         0.39967E+05         0.00000E+00
    0.39967E+05         0.76180E+04         0.00000E+00
    0.00000E+00         0.00000E+00         0.98492E+04
 
    0.40462E+05         0.41162E+05         0.00000E+00
    0.41162E+05         0.81792E+04         0.00000E+00
    0.00000E+00         0.00000E+00         0.97282E+04
 
    0.39259E+05         0.42323E+05         0.00000E+00
    0.42323E+05         0.87571E+04         0.00000E+00
    0.00000E+00         0.00000E+00         0.96032E+04
 
    0.38020E+05         0.43449E+05         0.00000E+00
    0.43449E+05         0.93512E+04         0.00000E+00
    0.00000E+00         0.00000E+00         0.94742E+04
 
    0.36745E+05         0.44539E+05         0.00000E+00
    0.44539E+05         0.99610E+04         0.00000E+00
    0.00000E+00         0.00000E+00         0.93413E+04
 
    0.35436E+05         0.45591E+05         0.00000E+00
    0.45591E+05         0.10586E+05         0.00000E+00
    0.00000E+00         0.00000E+00         0.92044E+04
 
    0.34093E+05         0.46605E+05         0.00000E+00
    0.46605E+05         0.11226E+05         0.00000E+00
    0.00000E+00         0.00000E+00         0.90637E+04
 
    0.32717E+05         0.47579E+05         0.00000E+00
    0.47579E+05         0.11879E+05         0.00000E+00
    0.00000E+00         0.00000E+00         0.89193E+04
 
    0.31308E+05         0.48513E+05         0.00000E+00
    0.48513E+05         0.12547E+05         0.00000E+00
    0.00000E+00         0.00000E+00         0.87710E+04
 
    0.29868E+05         0.49406E+05         0.00000E+00
    0.49406E+05         0.13227E+05         0.00000E+00
    0.00000E+00         0.00000E+00         0.86191E+04
 
    0.28398E+05         0.50257E+05         0.00000E+00
    0.50257E+05         0.13920E+05         0.00000E+00
    0.00000E+00         0.00000E+00         0.84636E+04
 
    0.26898E+05         0.51064E+05         0.00000E+00
    0.51064E+05         0.14625E+05         0.00000E+00
    0.00000E+00         0.00000E+00         0.83045E+04
 
    0.25369E+05         0.51828E+05         0.00000E+00
    0.51828E+05         0.15341E+05         0.00000E+00
    0.00000E+00         0.00000E+00         0.81419E+04
 
    0.23812E+05         0.52546E+05         0.00000E+00
    0.52546E+05         0.16068E+05         0.00000E+00
    0.00000E+00         0.00000E+00         0.79759E+04
 
    0.22228E+05         0.53219E+05         0.00000E+00
    0.53219E+05         0.16804E+05         0.00000E+00
    0.00000E+00         0.00000E+00         0.78065E+04
 
    0.20619E+05         0.53846E+05         0.00000E+00
    0.53846E+05         0.17550E+05         0.00000E+00
    0.00000E+00         0.00000E+00         0.76338E+04
 
    0.18984E+05         0.54425E+05         0.00000E+00
    0.54425E+05         0.18305E+05         0.00000E+00
    0.00000E+00         0.00000E+00         0.74578E+04
 
    0.17326E+05         0.54956E+05         0.00000E+00
    0.54956E+05         0.19068E+05         0.00000E+00
    0.00000E+00         0.00000E+00         0.72787E+04
 
    0.15645E+05         0.55438E+05         0.00000E+00
    0.55438E+05         0.19838E+05         0.00000E+00
    0.00000E+00         0.00000E+00         0.70965E+04
 
    0.13942E+05         0.55871E+05         0.00000E+00
    0.55871E+05         0.20614E+05         0.00000E+00
    0.00000E+00         0.00000E+00         0.69113E+04
 
    0.12219E+05         0.56254E+05         0.00000E+00
    0.56254E+05         0.21397E+05         0.00000E+00
    0.00000E+00         0.00000E+00         0.67231E+04
 
    0.10476E+05         0.56586E+05         0.00000E+00
    0.56586E+05         0.22184E+05         0.00000E+00
    0.00000E+00         0.00000E+00         0.65321E+04
 
    0.87148E+04         0.56867E+05         0.00000E+00
    0.56867E+05         0.22977E+05         0.00000E+00
    0.00000E+00         0.00000E+00         0.63383E+04
 
    0.69362E+04         0.57097E+05         0.00000E+00
    0.57097E+05         0.23772E+05         0.00000E+00
    0.00000E+00         0.00000E+00         0.61417E+04
 
    0.65991E+05         0.88728E+03         0.00000E+00
    0.88728E+03        -0.80855E+01         0.00000E+00
    0.00000E+00         0.00000E+00         0.13197E+05
 
    0.65928E+05         0.26627E+04         0.00000E+00
    0.26627E+04         0.17494E+02         0.00000E+00
    0.00000E+00         0.00000E+00         0.13189E+05
 
    0.65814E+05         0.44367E+04         0.00000E+00
    0.44367E+04         0.68820E+02         0.00000E+00
    0.00000E+00         0.00000E+00         0.13177E+05
 
    0.65648E+05         0.62078E+04         0.00000E+00
    0.62078E+04         0.14593E+03         0.00000E+00
    0.00000E+00         0.00000E+00         0.13159E+05
 
    0.65430E+05         0.79747E+04         0.00000E+00
    0.79747E+04         0.24884E+03         0.00000E+00
    0.00000E+00         0.00000E+00         0.13136E+05
 
    0.65161E+05         0.97360E+04         0.00000E+00
    0.97360E+04         0.37755E+03         0.00000E+00
    0.00000E+00         0.00000E+00         0.13108E+05
 
    0.64840E+05         0.11490E+05         0.00000E+00
    0.11490E+05         0.53202E+03         0.00000E+00
    0.00000E+00         0.00000E+00         0.13075E+05
 
    0.64468E+05         0.13236E+05         0.00000E+00
    0.13236E+05         0.71220E+03         0.00000E+00
    0.00000E+00         0.00000E+00         0.13036E+05
 
    0.64044E+05         0.14972E+05         0.00000E+00
    0.14972E+05         0.91801E+03         0.00000E+00
    0.00000E+00         0.00000E+00         0.12992E+05
 
    0.63569E+05         0.16696E+05         0.00000E+00
    0.16696E+05         0.11493E+04         0.00000E+00
    0.00000E+00         0.00000E+00         0.12944E+05
 
    0.63043E+05         0.18408E+05         0.00000E+00
    0.18408E+05         0.14061E+04         0.00000E+00
    0.00000E+00         0.00000E+00         0.12890E+05
 
    0.62465E+05         0.20106E+05         0.00000E+00
    0.20106E+05         0.16881E+04         0.00000E+00
    0.00000E+00         0.00000E+00         0.12831E+05
 
    0.61837E+05         0.21788E+05         0.00000E+00
    0.21788E+05         0.19951E+04         0.00000E+00
    0.00000E+00         0.00000E+00         0.12766E+05
 
    0.61158E+05         0.23453E+05         0.00000E+00
    0.23453E+05         0.23270E+04         0.00000E+00
    0.00000E+00         0.00000E+00         0.12697E+05
 
    0.60429E+05         0.25100E+05         0.00000E+00
    0.25100E+05         0.26836E+04         0.00000E+00
    0.00000E+00         0.00000E+00         0.12623E+05
 
    0.59650E+05         0.26727E+05         0.00000E+00
    0.26727E+05         0.30646E+04         0.00000E+00
    0.00000E+00         0.00000E+00         0.12543E+05
 
    0.58821E+05         0.28333E+05         0.00000E+00
    0.28333E+05         0.34698E+04         0.00000E+00
    0.00000E+00         0.00000E+00         0.12458E+05
 
    0.57944E+05         0.29917E+05         0.00000E+00
    0.29917E+05         0.38987E+04         0.00000E+00
    0.00000E+00         0.00000E+00         0.12368E+05
 
    0.57017E+05         0.31476E+05         0.00000E+00
    0.31476E+05         0.43512E+04         0.00000E+00
    0.00000E+00         0.00000E+00         0.12274E+05
 
    0.56042E+05         0.33011E+05         0.00000E+00
    0.33011E+05         0.48269E+04         0.00000E+00
    0.00000E+00         0.00000E+00         0.12174E+05
 
    0.55019E+05         0.34519E+05         0.00000E+00
    0.34519E+05         0.53255E+04         0.00000E+00
    0.00000E+00         0.00000E+00         0.12069E+05
 
    0.53949E+05         0.35999E+05         0.00000E+00
    0.35999E+05         0.58465E+04         0.00000E+00
    0.00000E+00         0.00000E+00         0.11959E+05
 
    0.52833E+05         0.37450E+05         0.00000E+00
    0.37450E+05         0.63895E+04         0.00000E+00
    0.00000E+00         0.00000E+00         0.11844E+05
 
    0.51670E+05         0.38870E+05         0.00000E+00
    0.38870E+05         0.69542E+04         0.00000E+00
    0.00000E+00         0.00000E+00         0.11725E+05
 
    0.50462E+05         0.40259E+05         0.00000E+00
    0.40259E+05         0.75400E+04         0.00000E+00
    0.00000E+00         0.00000E+00         0.11600E+05
 
    0.49209E+05         0.41615E+05         0.00000E+00
    0.41615E+05         0.81466E+04         0.00000E+00
    0.00000E+00         0.00000E+00         0.11471E+05
 
    0.47913E+05         0.42936E+05         0.00000E+00
    0.42936E+05         0.87734E+04         0.00000E+00
    0.00000E+00         0.00000E+00         0.11337E+05
 
    0.46573E+05         0.44222E+05         0.00000E+00
    0.44222E+05         0.94199E+04         0.00000E+00
    0.00000E+00         0.00000E+00         0.11198E+05
 
    0.45190E+05         0.45472E+05         0.00000E+00
    0.45472E+05         0.10086E+05         0.00000E+00
    0.00000E+00         0.00000E+00         0.11055E+05
 
    0.43765E+05         0.46683E+05         0.00000E+00
    0.46683E+05         0.10770E+05         0.00000E+00
    0.00000E+00         0.00000E+00         0.10907E+05
 
    0.42300E+05         0.47856E+05         0.00000E+00
    0.47856E+05         0.11472E+05         0.00000E+00
    0.00000E+00         0.00000E+00         0.10754E+05
 
    0.40795E+05         0.48989E+05         0.00000E+00
    0.48989E+05         0.12192E+05         0.00000E+00
    0.00000E+00         0.00000E+00         0.10597E+05
 
    0.39250E+05         0.50080E+05         0.00000E+00
    0.50080E+05         0.12929E+05         0.00000E+00
    0.00000E+00         0.00000E+00         0.10436E+05
 
    0.37667E+05         0.51129E+05         0.00000E+00
    0.51129E+05         0.13682E+05         0.00000E+00
    0.00000E+00         0.00000E+00         0.10270E+05
 
    0.36047E+05         0.52135E+05         0.00000E+00
    0.52135E+05         0.14451E+05         0.00000E+00
    0.00000E+00         0.00000E+00         0.10100E+05
 
    0.34391E+05         0.53096E+05         0.00000E+00
    0.53096E+05         0.15235E+05         0.00000E+00
    0.00000E+00         0.00000E+00         0.99251E+04
 
    0.32699E+05         0.54012E+05         0.00000E+00
    0.54012E+05         0.16033E+05         0.00000E+00
    0.00000E+00         0.00000E+00         0.97463E+04
 
    0.30972E+05         0.54881E+05         0.00000E+00
    0.54881E+05         0.16845E+05         0.00000E+00
    0.00000E+00         0.00000E+00         0.95634E+04
 
    0.29213E+05         0.55704E+05         0.00000E+00
    0.55704E+05         0.17670E+05         0.00000E+00
    0.00000E+00         0.00000E+00         0.93765E+04
 
    0.27421E+05         0.56477E+05         0.00000E+00
    0.56477E+05         0.18506E+05         0.00000E+00
    0.00000E+00         0.00000E+00         0.91856E+04
 
    0.25599E+05         0.57202E+05         0.00000E+00
    0.57202E+05         0.19355E+05         0.00000E+00
    0.00000E+00         0.00000E+00         0.89907E+04
 
    0.23746E+05         0.57877E+05         0.00000E+00
    0.57877E+05         0.20214E+05         0.00000E+00
    0.00000E+00         0.00000E+00         0.87920E+04
 
    0.21864E+05         0.58501E+05         0.00000E+00
    0.58501E+05         0.21083E+05         0.00000E+00
    0.00000E+00         0.00000E+00         0.85896E+04
 
    0.19955E+05         0.59073E+05         0.00000E+00
    0.59073E+05         0.21962E+05         0.00000E+00
    0.00000E+00         0.00000E+00         0.83835E+04
 
    0.18020E+05         0.59593E+05         0.00000E+00
    0.59593E+05         0.22849E+05         0.00000E+00
    0.00000E+00         0.00000E+00         0.81737E+04
 
    0.16059E+05         0.60060E+05         0.00000E+00
    0.60060E+05         0.23743E+05         0.00000E+00
    0.00000E+00         0.00000E+00         0.79605E+04
 
    0.14074E+05         0.60473E+05         0.00000E+00
    0.60473E+05         0.24645E+05         0.00000E+00
    0.00000E+00         0.00000E+00         0.77438E+04
 
    0.12067E+05         0.60831E+05         0.00000E+00
    0.60831E+05         0.25552E+05         0.00000E+00
    0.00000E+00         0.00000E+00         0.75239E+04
 
    0.10038E+05         0.61134E+05         0.00000E+00
    0.61134E+05         0.26465E+05         0.00000E+00
    0.00000E+00         0.00000E+00         0.73006E+04
 
    0.79895E+04         0.61381E+05         0.00000E+00
    0.61381E+05         0.27382E+05         0.00000E+00
    0.00000E+00         0.00000E+00         0.70742E+04
 
    0.75206E+05         0.95549E+03         0.00000E+00
    0.95549E+03        -0.92338E+01         0.00000E+00
    0.00000E+00         0.00000E+00         0.15039E+05
 
    0.75140E+05         0.28684E+04         0.00000E+00
    0.28684E+04         0.19944E+02         0.00000E+00
    0.00000E+00         0.00000E+00         0.15032E+05
 
    0.75015E+05         0.47802E+04         0.00000E+00
    0.47802E+04         0.78519E+02         0.00000E+00
    0.00000E+00         0.00000E+00         0.15019E+05
 
    0.74832E+05         0.66893E+04         0.00000E+00
    0.66893E+04         0.16655E+03         0.00000E+00
    0.00000E+00         0.00000E+00         0.15000E+05
 
    0.74590E+05         0.85942E+04         0.00000E+00
    0.85942E+04         0.28406E+03         0.00000E+00
    0.00000E+00         0.00000E+00         0.14975E+05
 
    0.74289E+05         0.10493E+05         0.00000E+00
    0.10493E+05         0.43105E+03         0.00000E+00
    0.00000E+00         0.00000E+00         0.14944E+05
 
    0.73928E+05         0.12385E+05         0.00000E+00
    0.12385E+05         0.60750E+03         0.00000E+00
    0.00000E+00         0.00000E+00         0.14907E+05
 
    0.73509E+05         0.14268E+05         0.00000E+00
    0.14268E+05         0.81334E+03         0.00000E+00
    0.00000E+00         0.00000E+00         0.14865E+05
 
    0.73031E+05         0.16141E+05         0.00000E+00
    0.16141E+05         0.10485E+04         0.00000E+00
    0.00000E+00         0.00000E+00         0.14816E+05
 
    0.72494E+05         0.18002E+05         0.00000E+00
    0.18002E+05         0.13128E+04         0.00000E+00
    0.00000E+00         0.00000E+00         0.14761E+05
 
    0.71899E+05         0.19849E+05         0.00000E+00
    0.19849E+05         0.16062E+04         0.00000E+00
    0.00000E+00         0.00000E+00         0.14701E+05
 
    0.71245E+05         0.21682E+05         0.00000E+00
    0.21682E+05         0.19285E+04         0.00000E+00
    0.00000E+00         0.00000E+00         0.14635E+05
 
    0.70533E+05         0.23498E+05         0.00000E+00
    0.23498E+05         0.22795E+04         0.00000E+00
    0.00000E+00         0.00000E+00         0.14562E+05
 
    0.69763E+05         0.25295E+05         0.00000E+00
    0.25295E+05         0.26589E+04         0.00000E+00
    0.00000E+00         0.00000E+00         0.14484E+05
 
    0.68935E+05         0.27074E+05         0.00000E+00
    0.27074E+05         0.30665E+04         0.00000E+00
    0.00000E+00         0.00000E+00         0.14400E+05
 
    0.68050E+05         0.28831E+05         0.00000E+00
    0.28831E+05         0.35020E+04         0.00000E+00
    0.00000E+00         0.00000E+00         0.14310E+05
 
    0.67109E+05         0.30565E+05         0.00000E+00
    0.30565E+05         0.39651E+04         0.00000E+00
    0.00000E+00         0.00000E+00         0.14215E+05
 
    0.66111E+05         0.32275E+05         0.00000E+00
    0.32275E+05         0.44555E+04         0.00000E+00
    0.00000E+00         0.00000E+00         0.14113E+05
 
    0.65057E+05         0.33960E+05         0.00000E+00
    0.33960E+05         0.49728E+04         0.00000E+00
    0.00000E+00         0.00000E+00         0.14006E+05
 
    0.63948E+05         0.35618E+05         0.00000E+00
    0.35618E+05         0.55166E+04         0.00000E+00
    0.00000E+00         0.00000E+00         0.13893E+05
 
    0.62784E+05         0.37247E+05         0.00000E+00
    0.37247E+05         0.60865E+04         0.00000E+00
    0.00000E+00         0.00000E+00         0.13774E+05
 
    0.61566E+05         0.38846E+05         0.00000E+00
    0.38846E+05         0.66820E+04         0.00000E+00
    0.00000E+00         0.00000E+00         0.13650E+05
 
    0.60295E+05         0.40413E+05         0.00000E+00
    0.40413E+05         0.73028E+04         0.00000E+00
    0.00000E+00         0.00000E+00         0.13520E+05
 
    0.58971E+05         0.41948E+05         0.00000E+00
    0.41948E+05         0.79482E+04         0.00000E+00
    0.00000E+00         0.00000E+00         0.13384E+05
 
    0.57595E+05         0.43449E+05         0.00000E+00
    0.43449E+05         0.86178E+04         0.00000E+00
    0.00000E+00         0.00000E+00         0.13243E+05
 
    0.56168E+05         0.44914E+05         0.00000E+00
    0.44914E+05         0.93111E+04         0.00000E+00
    0.00000E+00         0.00000E+00         0.13096E+05
 
    0.54690E+05         0.46343E+05         0.00000E+00
    0.46343E+05         0.10028E+05         0.00000E+00
    0.00000E+00         0.00000E+00         0.12944E+05
 
    0.53163E+05         0.47733E+05         0.00000E+00
    0.47733E+05         0.10766E+05         0.00000E+00
    0.00000E+00         0.00000E+00         0.12786E+05
 
    0.51587E+05         0.49083E+05         0.00000E+00
    0.49083E+05         0.11527E+05         0.00000E+00
    0.00000E+00         0.00000E+00         0.12623E+05
 
    0.49963E+05         0.50393E+05         0.00000E+00
    0.50393E+05         0.12309E+05         0.00000E+00
    0.00000E+00         0.00000E+00         0.12454E+05
 
    0.48292E+05         0.51661E+05         0.00000E+00
    0.51661E+05         0.13112E+05         0.00000E+00
    0.00000E+00         0.00000E+00         0.12281E+05
 
    0.46576E+05         0.52885E+05         0.00000E+00
    0.52885E+05         0.13935E+05         0.00000E+00
    0.00000E+00         0.00000E+00         0.12102E+05
 
    0.44814E+05         0.54066E+05         0.00000E+00
    0.54066E+05         0.14777E+05         0.00000E+00
    0.00000E+00         0.00000E+00         0.11918E+05
 
    0.43009E+05         0.55200E+05         0.00000E+00
    0.55200E+05         0.15637E+05         0.00000E+00
    0.00000E+00         0.00000E+00         0.11729E+05
 
    0.41161E+05         0.56288E+05         0.00000E+00
    0.56288E+05         0.16516E+05         0.00000E+00
    0.00000E+00         0.00000E+00         0.11535E+05
 
    0.39271E+05         0.57327E+05         0.00000E+00
    0.57327E+05         0.17411E+05         0.00000E+00
    0.00000E+00         0.00000E+00         0.11336E+05
 
    0.37341E+05         0.58318E+05         0.00000E+00
    0.58318E+05         0.18323E+05         0.00000E+00
    0.00000E+00         0.00000E+00         0.11133E+05
 
    0.35371E+05         0.59259E+05         0.00000E+00
    0.59259E+05         0.19250E+05         0.00000E+00
    0.00000E+00         0.00000E+00         0.10924E+05
 
    0.33363E+05         0.60148E+05         0.00000E+00
    0.60148E+05         0.20193E+05         0.00000E+00
    0.00000E+00         0.00000E+00         0.10711E+05
 
    0.31319E+05         0.60986E+05         0.00000E+00
    0.60986E+05         0.21149E+05         0.00000E+00
    0.00000E+00         0.00000E+00         0.10493E+05
 
    0.29238E+05         0.61770E+05         0.00000E+00
    0.61770E+05         0.22118E+05         0.00000E+00
    0.00000E+00         0.00000E+00         0.10271E+05
 
    0.27123E+05         0.62500E+05         0.00000E+00
    0.62500E+05         0.23100E+05         0.00000E+00
    0.00000E+00         0.00000E+00         0.10045E+05
 
    0.24975E+05         0.63176E+05         0.00000E+00
    0.63176E+05         0.24093E+05         0.00000E+00
    0.00000E+00         0.00000E+00         0.98136E+04
 
    0.22796E+05         0.63795E+05         0.00000E+00
    0.63795E+05         0.25096E+05         0.00000E+00
    0.00000E+00         0.00000E+00         0.95784E+04
 
    0.20586E+05         0.64358E+05         0.00000E+00
    0.64358E+05         0.26110E+05         0.00000E+00
    0.00000E+00         0.00000E+00         0.93390E+04
 
    0.18347E+05         0.64864E+05         0.00000E+00
    0.64864E+05         0.27131E+05         0.00000E+00
    0.00000E+00         0.00000E+00         0.90956E+04
 
    0.16080E+05         0.65311E+05         0.00000E+00
    0.65311E+05         0.28161E+05         0.00000E+00
    0.00000E+00         0.00000E+00         0.88482E+04
 
    0.13787E+05         0.65699E+05         0.00000E+00
    0.65699E+05         0.29198E+05         0.00000E+00
    0.00000E+00         0.00000E+00         0.85970E+04
 
    0.11470E+05         0.66027E+05         0.00000E+00
    0.66027E+05         0.30240E+05         0.00000E+00
    0.00000E+00         0.00000E+00         0.83421E+04
 
    0.91292E+04         0.66296E+05         0.00000E+00
    0.66296E+05         0.31288E+05         0.00000E+00
    0.00000E+00         0.00000E+00         0.80834E+04
 
    0.85153E+05         0.10331E+04         0.00000E+00
    0.10331E+04        -0.10493E+02         0.00000E+00
    0.00000E+00         0.00000E+00         0.17029E+05
 
    0.85087E+05         0.31025E+04         0.00000E+00
    0.31025E+04         0.22623E+02         0.00000E+00
    0.00000E+00         0.00000E+00         0.17022E+05
 
    0.84954E+05         0.51712E+04         0.00000E+00
    0.51712E+04         0.89139E+02         0.00000E+00
    0.00000E+00         0.00000E+00         0.17009E+05
 
    0.84754E+05         0.72375E+04         0.00000E+00
    0.72375E+04         0.18913E+03         0.00000E+00
    0.00000E+00         0.00000E+00         0.16989E+05
 
    0.84487E+05         0.92997E+04         0.00000E+00
    0.92997E+04         0.32264E+03         0.00000E+00
    0.00000E+00         0.00000E+00         0.16962E+05
 
    0.84153E+05         0.11356E+05         0.00000E+00
    0.11356E+05         0.48967E+03         0.00000E+00
    0.00000E+00         0.00000E+00         0.16929E+05
 
    0.83752E+05         0.13405E+05         0.00000E+00
    0.13405E+05         0.69020E+03         0.00000E+00
    0.00000E+00         0.00000E+00         0.16888E+05
 
    0.83283E+05         0.15445E+05         0.00000E+00
    0.15445E+05         0.92417E+03         0.00000E+00
    0.00000E+00         0.00000E+00         0.16842E+05
 
    0.82748E+05         0.17474E+05         0.00000E+00
    0.17474E+05         0.11915E+04         0.00000E+00
    0.00000E+00         0.00000E+00         0.16788E+05
 
    0.82146E+05         0.19490E+05         0.00000E+00
    0.19490E+05         0.14920E+04         0.00000E+00
    0.00000E+00         0.00000E+00         0.16728E+05
 
    0.81477E+05         0.21492E+05         0.00000E+00
    0.21492E+05         0.18256E+04         0.00000E+00
    0.00000E+00         0.00000E+00         0.16660E+05
 
    0.80741E+05         0.23478E+05         0.00000E+00
    0.23478E+05         0.21920E+04         0.00000E+00
    0.00000E+00         0.00000E+00         0.16587E+05
 
    0.79940E+05         0.25446E+05         0.00000E+00
    0.25446E+05         0.25910E+04         0.00000E+00
    0.00000E+00         0.00000E+00         0.16506E+05
 
    0.79072E+05         0.27395E+05         0.00000E+00
    0.27395E+05         0.30224E+04         0.00000E+00
    0.00000E+00         0.00000E+00         0.16419E+05
 
    0.78139E+05         0.29323E+05         0.00000E+00
    0.29323E+05         0.34859E+04         0.00000E+00
    0.00000E+00         0.00000E+00         0.16325E+05
 
    0.77141E+05         0.31228E+05         0.00000E+00
    0.31228E+05         0.39811E+04         0.00000E+00
    0.00000E+00         0.00000E+00         0.16224E+05
 
    0.76078E+05         0.33109E+05         0.00000E+00
    0.33109E+05         0.45076E+04         0.00000E+00
    0.00000E+00         0.00000E+00         0.16117E+05
 
    0.74951E+05         0.34963E+05         0.00000E+00
    0.34963E+05         0.50652E+04         0.00000E+00
    0.00000E+00         0.00000E+00         0.16003E+05
 
    0.73760E+05         0.36791E+05         0.00000E+00
    0.36791E+05         0.56533E+04         0.00000E+00
    0.00000E+00         0.00000E+00         0.15883E+05
 
    0.72507E+05         0.38588E+05         0.00000E+00
    0.38588E+05         0.62715E+04         0.00000E+00
    0.00000E+00         0.00000E+00         0.15756E+05
 
    0.71191E+05         0.40355E+05         0.00000E+00
    0.40355E+05         0.69194E+04         0.00000E+00
    0.00000E+00         0.00000E+00         0.15622E+05
 
    0.69813E+05         0.42090E+05         0.00000E+00
    0.42090E+05         0.75964E+04         0.00000E+00
    0.00000E+00         0.00000E+00         0.15482E+05
 
    0.68375E+05         0.43791E+05         0.00000E+00
    0.43791E+05         0.83020E+04         0.00000E+00
    0.00000E+00         0.00000E+00         0.15335E+05
 
    0.66877E+05         0.45456E+05         0.00000E+00
    0.45456E+05         0.90356E+04         0.00000E+00
    0.00000E+00         0.00000E+00         0.15183E+05
 
    0.65320E+05         0.47084E+05         0.00000E+00
    0.47084E+05         0.97967E+04         0.00000E+00
    0.00000E+00         0.00000E+00         0.15023E+05
 
    0.63704E+05         0.48674E+05         0.00000E+00
    0.48674E+05         0.10585E+05         0.00000E+00
    0.00000E+00         0.00000E+00         0.14858E+05
 
    0.62031E+05         0.50224E+05         0.00000E+00
    0.50224E+05         0.11399E+05         0.00000E+00
    0.00000E+00         0.00000E+00         0.14686E+05
 
    0.60301E+05         0.51732E+05         0.00000E+00
    0.51732E+05         0.12238E+05         0.00000E+00
    0.00000E+00         0.00000E+00         0.14508E+05
 
    0.58516E+05         0.53198E+05         0.00000E+00
    0.53198E+05         0.13102E+05         0.00000E+00
    0.00000E+00         0.00000E+00         0.14324E+05
 
    0.56677E+05         0.54619E+05         0.00000E+00
    0.54619E+05         0.13991E+05         0.00000E+00
    0.00000E+00         0.00000E+00         0.14134E+05
 
    0.54784E+05         0.55995E+05         0.00000E+00
    0.55995E+05         0.14903E+05         0.00000E+00
    0.00000E+00         0.00000E+00         0.13937E+05
 
    0.52839E+05         0.57324E+05         0.00000E+00
    0.57324E+05         0.15837E+05         0.00000E+00
    0.00000E+00         0.00000E+00         0.13735E+05
 
    0.50843E+05         0.58605E+05         0.00000E+00
    0.58605E+05         0.16794E+05         0.00000E+00
    0.00000E+00         0.00000E+00         0.13527E+05
 
    0.48797E+05         0.59836E+05         0.00000E+00
    0.59836E+05         0.17771E+05         0.00000E+00
    0.00000E+00         0.00000E+00         0.13314E+05
 
    0.46702E+05         0.61017E+05         0.00000E+00
    0.61017E+05         0.18768E+05         0.00000E+00
    0.00000E+00         0.00000E+00         0.13094E+05
 
    0.44560E+05         0.62146E+05         0.00000E+00
    0.62146E+05         0.19785E+05         0.00000E+00
    0.00000E+00         0.00000E+00         0.12869E+05
 
    0.42372E+05         0.63222E+05         0.00000E+00
    0.63222E+05         0.20821E+05         0.00000E+00
    0.00000E+00         0.00000E+00         0.12639E+05
 
    0.40139E+05         0.64243E+05         0.00000E+00
    0.64243E+05         0.21874E+05         0.00000E+00
    0.00000E+00         0.00000E+00         0.12403E+05
 
    0.37863E+05         0.65209E+05         0.00000E+00
    0.65209E+05         0.22943E+05         0.00000E+00
    0.00000E+00         0.00000E+00         0.12161E+05
 
    0.35544E+05         0.66118E+05         0.00000E+00
    0.66118E+05         0.24029E+05         0.00000E+00
    0.00000E+00         0.00000E+00         0.11915E+05
 
    0.33185E+05         0.66970E+05         0.00000E+00
    0.66970E+05         0.25129E+05         0.00000E+00
    0.00000E+00         0.00000E+00         0.11663E+05
 
    0.30786E+05         0.67764E+05         0.00000E+00
    0.67764E+05         0.26244E+05         0.00000E+00
    0.00000E+00         0.00000E+00         0.11406E+05
 
    0.28350E+05         0.68498E+05         0.00000E+00
    0.68498E+05         0.27371E+05         0.00000E+00
    0.00000E+00         0.00000E+00         0.11144E+05
 
    0.25877E+05         0.69171E+05         0.00000E+00
    0.69171E+05         0.28510E+05         0.00000E+00
    0.00000E+00         0.00000E+00         0.10877E+05
 
    0.23370E+05         0.69783E+05         0.00000E+00
    0.69783E+05         0.29660E+05         0.00000E+00
    0.00000E+00         0.00000E+00         0.10606E+05
 
    0.20830E+05         0.70333E+05         0.00000E+00
    0.70333E+05         0.30820E+05         0.00000E+00
    0.00000E+00         0.00000E+00         0.10330E+05
 
    0.18258E+05         0.70819E+05         0.00000E+00
    0.70819E+05         0.31989E+05         0.00000E+00
    0.00000E+00         0.00000E+00         0.10049E+05
 
    0.15656E+05         0.71242E+05         0.00000E+00
    0.71242E+05         0.33166E+05         0.00000E+00
    0.00000E+00         0.00000E+00         0.97642E+04
 
    0.13025E+05         0.71599E+05         0.00000E+00
    0.71599E+05         0.34349E+05         0.00000E+00
    0.00000E+00         0.00000E+00         0.94749E+04
 
    0.10368E+05         0.71891E+05         0.00000E+00
    0.71891E+05         0.35538E+05         0.00000E+00
    0.00000E+00         0.00000E+00         0.91814E+04
 
    0.95934E+05         0.11209E+04         0.00000E+00
    0.11209E+04        -0.11885E+02         0.00000E+00
    0.00000E+00         0.00000E+00         0.19184E+05
 
    0.95870E+05         0.33678E+04         0.00000E+00
    0.33678E+04         0.25585E+02         0.00000E+00
    0.00000E+00         0.00000E+00         0.19179E+05
 
    0.95730E+05         0.56146E+04         0.00000E+00
    0.56146E+04         0.10088E+03         0.00000E+00
    0.00000E+00         0.00000E+00         0.19166E+05
 
    0.95514E+05         0.78592E+04         0.00000E+00
    0.78592E+04         0.21411E+03         0.00000E+00
    0.00000E+00         0.00000E+00         0.19146E+05
 
    0.95223E+05         0.10100E+05         0.00000E+00
    0.10100E+05         0.36531E+03         0.00000E+00
    0.00000E+00         0.00000E+00         0.19118E+05
 
    0.94855E+05         0.12335E+05         0.00000E+00
    0.12335E+05         0.55451E+03         0.00000E+00
    0.00000E+00         0.00000E+00         0.19082E+05
 
    0.94412E+05         0.14562E+05         0.00000E+00
    0.14562E+05         0.78168E+03         0.00000E+00
    0.00000E+00         0.00000E+00         0.19039E+05
 
    0.93892E+05         0.16780E+05         0.00000E+00
    0.16780E+05         0.10467E+04         0.00000E+00
    0.00000E+00         0.00000E+00         0.18988E+05
 
    0.93296E+05         0.18986E+05         0.00000E+00
    0.18986E+05         0.13496E+04         0.00000E+00
    0.00000E+00         0.00000E+00         0.18929E+05
 
    0.92624E+05         0.21178E+05         0.00000E+00
    0.21178E+05         0.16901E+04         0.00000E+00
    0.00000E+00         0.00000E+00         0.18863E+05
 
    0.91877E+05         0.23356E+05         0.00000E+00
    0.23356E+05         0.20681E+04         0.00000E+00
    0.00000E+00         0.00000E+00         0.18789E+05
 
    0.91054E+05         0.25516E+05         0.00000E+00
    0.25516E+05         0.24832E+04         0.00000E+00
    0.00000E+00         0.00000E+00         0.18707E+05
 
    0.90156E+05         0.27657E+05         0.00000E+00
    0.27657E+05         0.29354E+04         0.00000E+00
    0.00000E+00         0.00000E+00         0.18618E+05
 
    0.89184E+05         0.29778E+05         0.00000E+00
    0.29778E+05         0.34241E+04         0.00000E+00
    0.00000E+00         0.00000E+00         0.18522E+05
 
    0.88137E+05         0.31875E+05         0.00000E+00
    0.31875E+05         0.39492E+04         0.00000E+00
    0.00000E+00         0.00000E+00         0.18417E+05
 
    0.87016E+05         0.33948E+05         0.00000E+00
    0.33948E+05         0.45102E+04         0.00000E+00
    0.00000E+00         0.00000E+00         0.18305E+05
 
    0.85822E+05         0.35995E+05         0.00000E+00
    0.35995E+05         0.51067E+04         0.00000E+00
    0.00000E+00         0.00000E+00         0.18186E+05
 
    0.84555E+05         0.38013E+05         0.00000E+00
    0.38013E+05         0.57383E+04         0.00000E+00
    0.00000E+00         0.00000E+00         0.18059E+05
 
    0.83216E+05         0.40002E+05         0.00000E+00
    0.40002E+05         0.64044E+04         0.00000E+00
    0.00000E+00         0.00000E+00         0.17924E+05
 
    0.81806E+05         0.41959E+05         0.00000E+00
    0.41959E+05         0.71045E+04         0.00000E+00
    0.00000E+00         0.00000E+00         0.17782E+05
 
    0.80326E+05         0.43882E+05         0.00000E+00
    0.43882E+05         0.78381E+04         0.00000E+00
    0.00000E+00         0.00000E+00         0.17633E+05
 
    0.78775E+05         0.45770E+05         0.00000E+00
    0.45770E+05         0.86046E+04         0.00000E+00
    0.00000E+00         0.00000E+00         0.17476E+05
 
    0.77156E+05         0.47621E+05         0.00000E+00
    0.47621E+05         0.94034E+04         0.00000E+00
    0.00000E+00         0.00000E+00         0.17312E+05
 
    0.75469E+05         0.49434E+05         0.00000E+00
    0.49434E+05         0.10234E+05         0.00000E+00
    0.00000E+00         0.00000E+00         0.17141E+05
 
    0.73715E+05         0.51206E+05         0.00000E+00
    0.51206E+05         0.11095E+05         0.00000E+00
    0.00000E+00         0.00000E+00         0.16962E+05
 
    0.71894E+05         0.52937E+05         0.00000E+00
    0.52937E+05         0.11987E+05         0.00000E+00
    0.00000E+00         0.00000E+00         0.16776E+05
 
    0.70009E+05         0.54624E+05         0.00000E+00
    0.54624E+05         0.12908E+05         0.00000E+00
    0.00000E+00         0.00000E+00         0.16583E+05
 
    0.68060E+05         0.56266E+05         0.00000E+00
    0.56266E+05         0.13858E+05         0.00000E+00
    0.00000E+00         0.00000E+00         0.16384E+05
 
    0.66048E+05         0.57861E+05         0.00000E+00
    0.57861E+05         0.14835E+05         0.00000E+00
    0.00000E+00         0.00000E+00         0.16177E+05
 
    0.63975E+05         0.59409E+05         0.00000E+00
    0.59409E+05         0.15840E+05         0.00000E+00
    0.00000E+00         0.00000E+00         0.15963E+05
 
    0.61841E+05         0.60907E+05         0.00000E+00
    0.60907E+05         0.16871E+05         0.00000E+00
    0.00000E+00         0.00000E+00         0.15742E+05
 
    0.59648E+05         0.62353E+05         0.00000E+00
    0.62353E+05         0.17928E+05         0.00000E+00
    0.00000E+00         0.00000E+00         0.15515E+05
 
    0.57397E+05         0.63748E+05         0.00000E+00
    0.63748E+05         0.19009E+05         0.00000E+00
    0.00000E+00         0.00000E+00         0.15281E+05
 
    0.55090E+05         0.65089E+05         0.00000E+00
    0.65089E+05         0.20114E+05         0.00000E+00
    0.00000E+00         0.00000E+00         0.15041E+05
 
    0.52728E+05         0.66374E+05         0.00000E+00
    0.66374E+05         0.21241E+05         0.00000E+00
    0.00000E+00         0.00000E+00         0.14794E+05
 
    0.50312E+05         0.67603E+05         0.00000E+00
    0.67603E+05         0.22391E+05         0.00000E+00
    0.00000E+00         0.00000E+00         0.14541E+05
 
    0.47844E+05         0.68775E+05         0.00000E+00
    0.68775E+05         0.23561E+05         0.00000E+00
    0.00000E+00         0.00000E+00         0.14281E+05
 
    0.45325E+05         0.69887E+05         0.00000E+00
    0.69887E+05         0.24750E+05         0.00000E+00
    0.00000E+00         0.00000E+00         0.14015E+05
 
    0.42757E+05         0.70940E+05         0.00000E+00
    0.70940E+05         0.25959E+05         0.00000E+00
    0.00000E+00         0.00000E+00         0.13743E+05
 
    0.40141E+05         0.71930E+05         0.00000E+00
    0.71930E+05         0.27185E+05         0.00000E+00
    0.00000E+00         0.00000E+00         0.13465E+05
 
    0.37479E+05         0.72859E+05         0.00000E+00
    0.72859E+05         0.28428E+05         0.00000E+00
    0.00000E+00         0.00000E+00         0.13181E+05
 
    0.34772E+05         0.73723E+05         0.00000E+00
    0.73723E+05         0.29687E+05         0.00000E+00
    0.00000E+00         0.00000E+00         0.12892E+05
 
    0.32023E+05         0.74523E+05         0.00000E+00
    0.74523E+05         0.30960E+05         0.00000E+00
    0.00000E+00         0.00000E+00         0.12597E+05
 
    0.29232E+05         0.75257E+05         0.00000E+00
    0.75257E+05         0.32247E+05         0.00000E+00
    0.00000E+00         0.00000E+00         0.12296E+05
 
    0.26402E+05         0.75925E+05         0.00000E+00
    0.75925E+05         0.33546E+05         0.00000E+00
    0.00000E+00         0.00000E+00         0.11990E+05
 
    0.23534E+05         0.76524E+05         0.00000E+00
    0.76524E+05         0.34856E+05         0.00000E+00
    0.00000E+00         0.00000E+00         0.11678E+05
 
    0.20631E+05         0.77055E+05         0.00000E+00
    0.77055E+05         0.36176E+05         0.00000E+00
    0.00000E+00         0.00000E+00         0.11361E+05
 
    0.17693E+05         0.77516E+05         0.00000E+00
    0.77516E+05         0.37505E+05         0.00000E+00
    0.00000E+00         0.00000E+00         0.11040E+05
 
    0.14723E+05         0.77907E+05         0.00000E+00
    0.77907E+05         0.38842E+05         0.00000E+00
    0.00000E+00         0.00000E+00         0.10713E+05
 
    0.11722E+05         0.78227E+05         0.00000E+00
    0.78227E+05         0.40185E+05         0.00000E+00
    0.00000E+00         0.00000E+00         0.10381E+05
 
    0.10766E+06         0.12202E+04         0.00000E+00
    0.12202E+04        -0.13441E+02         0.00000E+00
    0.00000E+00         0.00000E+00         0.21529E+05
 
    0.10760E+06         0.36679E+04         0.00000E+00
    0.36679E+04         0.28895E+02         0.00000E+00
    0.00000E+00         0.00000E+00         0.21526E+05
 
    0.10745E+06         0.61161E+04         0.00000E+00
    0.61161E+04         0.11401E+03         0.00000E+00
    0.00000E+00         0.00000E+00         0.21514E+05
 
    0.10722E+06         0.85626E+04         0.00000E+00
    0.85626E+04         0.24201E+03         0.00000E+00
    0.00000E+00         0.00000E+00         0.21493E+05
 
    0.10691E+06         0.11005E+05         0.00000E+00
    0.11005E+05         0.41298E+03         0.00000E+00
    0.00000E+00         0.00000E+00         0.21464E+05
 
    0.10651E+06         0.13442E+05         0.00000E+00
    0.13442E+05         0.62693E+03         0.00000E+00
    0.00000E+00         0.00000E+00         0.21427E+05
 
    0.10602E+06         0.15871E+05         0.00000E+00
    0.15871E+05         0.88383E+03         0.00000E+00
    0.00000E+00         0.00000E+00         0.21381E+05
 
    0.10545E+06         0.18290E+05         0.00000E+00
    0.18290E+05         0.11836E+04         0.00000E+00
    0.00000E+00         0.00000E+00         0.21326E+05
 
    0.10479E+06         0.20697E+05         0.00000E+00
    0.20697E+05         0.15261E+04         0.00000E+00
    0.00000E+00         0.00000E+00         0.21262E+05
 
    0.10404E+06         0.23089E+05         0.00000E+00
    0.23089E+05         0.19112E+04         0.00000E+00
    0.00000E+00         0.00000E+00         0.21190E+05
 
    0.10321E+06         0.25465E+05         0.00000E+00
    0.25465E+05         0.23386E+04         0.00000E+00
    0.00000E+00         0.00000E+00         0.21109E+05
 
    0.10229E+06         0.27823E+05         0.00000E+00
    0.27823E+05         0.28081E+04         0.00000E+00
    0.00000E+00         0.00000E+00         0.21020E+05
 
    0.10129E+06         0.30160E+05         0.00000E+00
    0.30160E+05         0.33193E+04         0.00000E+00
    0.00000E+00         0.00000E+00         0.20922E+05
 
    0.10020E+06         0.32474E+05         0.00000E+00
    0.32474E+05         0.38719E+04         0.00000E+00
    0.00000E+00         0.00000E+00         0.20815E+05
 
    0.99033E+05         0.34763E+05         0.00000E+00
    0.34763E+05         0.44654E+04         0.00000E+00
    0.00000E+00         0.00000E+00         0.20700E+05
 
    0.97779E+05         0.37026E+05         0.00000E+00
    0.37026E+05         0.50995E+04         0.00000E+00
    0.00000E+00         0.00000E+00         0.20576E+05
 
    0.96442E+05         0.39260E+05         0.00000E+00
    0.39260E+05         0.57736E+04         0.00000E+00
    0.00000E+00         0.00000E+00         0.20443E+05
 
    0.95024E+05         0.41463E+05         0.00000E+00
    0.41463E+05         0.64872E+04         0.00000E+00
    0.00000E+00         0.00000E+00         0.20302E+05
 
    0.93524E+05         0.43634E+05         0.00000E+00
    0.43634E+05         0.72398E+04         0.00000E+00
    0.00000E+00         0.00000E+00         0.20153E+05
 
    0.91943E+05         0.45770E+05         0.00000E+00
    0.45770E+05         0.80306E+04         0.00000E+00
    0.00000E+00         0.00000E+00         0.19995E+05
 
    0.90283E+05         0.47869E+05         0.00000E+00
    0.47869E+05         0.88591E+04         0.00000E+00
    0.00000E+00         0.00000E+00         0.19828E+05
 
    0.88544E+05         0.49930E+05         0.00000E+00
    0.49930E+05         0.97246E+04         0.00000E+00
    0.00000E+00         0.00000E+00         0.19654E+05
 
    0.86728E+05         0.51950E+05         0.00000E+00
    0.51950E+05         0.10626E+05         0.00000E+00
    0.00000E+00         0.00000E+00         0.19471E+05
 
    0.84835E+05         0.53929E+05         0.00000E+00
    0.53929E+05         0.11564E+05         0.00000E+00
    0.00000E+00         0.00000E+00         0.19280E+05
 
    0.82866E+05         0.55863E+05         0.00000E+00
    0.55863E+05         0.12536E+05         0.00000E+00
    0.00000E+00         0.00000E+00         0.19080E+05
 
    0.80822E+05         0.57752E+05         0.00000E+00
    0.57752E+05         0.13541E+05         0.00000E+00
    0.00000E+00         0.00000E+00         0.18873E+05
 
    0.78706E+05         0.59593E+05         0.00000E+00
    0.59593E+05         0.14580E+05         0.00000E+00
    0.00000E+00         0.00000E+00         0.18657E+05
 
    0.76518E+05         0.61385E+05         0.00000E+00
    0.61385E+05         0.15652E+05         0.00000E+00
    0.00000E+00         0.00000E+00         0.18434E+05
 
    0.74258E+05         0.63127E+05         0.00000E+00
    0.63127E+05         0.16754E+05         0.00000E+00
    0.00000E+00         0.00000E+00         0.18202E+05
 
    0.71930E+05         0.64815E+05         0.00000E+00
    0.64815E+05         0.17887E+05         0.00000E+00
    0.00000E+00         0.00000E+00         0.17963E+05
 
    0.69534E+05         0.66450E+05         0.00000E+00
    0.66450E+05         0.19049E+05         0.00000E+00
    0.00000E+00         0.00000E+00         0.17716E+05
 
    0.67071E+05         0.68029E+05         0.00000E+00
    0.68029E+05         0.20240E+05         0.00000E+00
    0.00000E+00         0.00000E+00         0.17462E+05
 
    0.64542E+05         0.69551E+05         0.00000E+00
    0.69551E+05         0.21458E+05         0.00000E+00
    0.00000E+00         0.00000E+00         0.17200E+05
 
    0.61951E+05         0.71014E+05         0.00000E+00
    0.71014E+05         0.22702E+05         0.00000E+00
    0.00000E+00         0.00000E+00         0.16931E+05
 
    0.59297E+05         0.72417E+05         0.00000E+00
    0.72417E+05         0.23972E+05         0.00000E+00
    0.00000E+00         0.00000E+00         0.16654E+05
 
    0.56583E+05         0.73759E+05         0.00000E+00
    0.73759E+05         0.25266E+05         0.00000E+00
    0.00000E+00         0.00000E+00         0.16370E+05
 
    0.53810E+05         0.75038E+05         0.00000E+00
    0.75038E+05         0.26583E+05         0.00000E+00
    0.00000E+00         0.00000E+00         0.16079E+05
 
    0.50980E+05         0.76252E+05         0.00000E+00
    0.76252E+05         0.27922E+05         0.00000E+00
    0.00000E+00         0.00000E+00         0.15780E+05
 
    0.48094E+05         0.77401E+05         0.00000E+00
    0.77401E+05         0.29282E+05         0.00000E+00
    0.00000E+00         0.00000E+00         0.15475E+05
 
    0.45155E+05         0.78482E+05         0.00000E+00
    0.78482E+05         0.30663E+05         0.00000E+00
    0.00000E+00         0.00000E+00         0.15163E+05
 
    0.42163E+05         0.79496E+05         0.00000E+00
    0.79496E+05         0.32061E+05         0.00000E+00
    0.00000E+00         0.00000E+00         0.14845E+05
 
    0.39121E+05         0.80441E+05         0.00000E+00
    0.80441E+05         0.33477E+05         0.00000E+00
    0.00000E+00         0.00000E+00         0.14520E+05
 
    0.36031E+05         0.81314E+05         0.00000E+00
    0.81314E+05         0.34910E+05         0.00000E+00
    0.00000E+00         0.00000E+00         0.14188E+05
 
    0.32895E+05         0.82117E+05         0.00000E+00
    0.82117E+05         0.36357E+05         0.00000E+00
    0.00000E+00         0.00000E+00         0.13850E+05
 
    0.29714E+05         0.82846E+05         0.00000E+00
    0.82846E+05         0.37818E+05         0.00000E+00
    0.00000E+00         0.00000E+00         0.13506E+05
 
    0.26490E+05         0.83502E+05         0.00000E+00
    0.83502E+05         0.39292E+05         0.00000E+00
    0.00000E+00         0.00000E+00         0.13156E+05
 
    0.23225E+05         0.84083E+05         0.00000E+00
    0.84083E+05         0.40776E+05         0.00000E+00
    0.00000E+00         0.00000E+00         0.12800E+05
 
    0.19922E+05         0.84588E+05         0.00000E+00
    0.84588E+05         0.42271E+05         0.00000E+00
    0.00000E+00         0.00000E+00         0.12439E+05
 
    0.16581E+05         0.85016E+05         0.00000E+00
    0.85016E+05         0.43775E+05         0.00000E+00
    0.00000E+00         0.00000E+00         0.12071E+05
 
    0.13206E+05         0.85367E+05         0.00000E+00
    0.85367E+05         0.45285E+05         0.00000E+00
    0.00000E+00         0.00000E+00         0.11698E+05
 
    0.12045E+06         0.13323E+04         0.00000E+00
    0.13323E+04        -0.15195E+02         0.00000E+00
    0.00000E+00         0.00000E+00         0.24086E+05
 
    0.12040E+06         0.40070E+04         0.00000E+00
    0.40070E+04         0.32638E+02         0.00000E+00
    0.00000E+00         0.00000E+00         0.24086E+05
 
    0.12025E+06         0.66830E+04         0.00000E+00
    0.66830E+04         0.12883E+03         0.00000E+00
    0.00000E+00         0.00000E+00         0.24076E+05
 
    0.12001E+06         0.93578E+04         0.00000E+00
    0.93578E+04         0.27352E+03         0.00000E+00
    0.00000E+00         0.00000E+00         0.24057E+05
 
    0.11967E+06         0.12029E+05         0.00000E+00
    0.12029E+05         0.46679E+03         0.00000E+00
    0.00000E+00         0.00000E+00         0.24028E+05
 
    0.11923E+06         0.14694E+05         0.00000E+00
    0.14694E+05         0.70865E+03         0.00000E+00
    0.00000E+00         0.00000E+00         0.23989E+05
 
    0.11870E+06         0.17352E+05         0.00000E+00
    0.17352E+05         0.99905E+03         0.00000E+00
    0.00000E+00         0.00000E+00         0.23940E+05
 
    0.11807E+06         0.19998E+05         0.00000E+00
    0.19998E+05         0.13379E+04         0.00000E+00
    0.00000E+00         0.00000E+00         0.23881E+05
 
    0.11734E+06         0.22631E+05         0.00000E+00
    0.22631E+05         0.17250E+04         0.00000E+00
    0.00000E+00         0.00000E+00         0.23813E+05
 
    0.11651E+06         0.25249E+05         0.00000E+00
    0.25249E+05         0.21602E+04         0.00000E+00
    0.00000E+00         0.00000E+00         0.23735E+05
 
    0.11559E+06         0.27849E+05         0.00000E+00
    0.27849E+05         0.26432E+04         0.00000E+00
    0.00000E+00         0.00000E+00         0.23647E+05
 
    0.11457E+06         0.30429E+05         0.00000E+00
    0.30429E+05         0.31736E+04         0.00000E+00
    0.00000E+00         0.00000E+00         0.23549E+05
 
    0.11346E+06         0.32987E+05         0.00000E+00
    0.32987E+05         0.37511E+04         0.00000E+00
    0.00000E+00         0.00000E+00         0.23442E+05
 
    0.11225E+06         0.35520E+05         0.00000E+00
    0.35520E+05         0.43752E+04         0.00000E+00
    0.00000E+00         0.00000E+00         0.23325E+05
 
    0.11094E+06         0.38025E+05         0.00000E+00
    0.38025E+05         0.50455E+04         0.00000E+00
    0.00000E+00         0.00000E+00         0.23198E+05
 
    0.10954E+06         0.40502E+05         0.00000E+00
    0.40502E+05         0.57613E+04         0.00000E+00
    0.00000E+00         0.00000E+00         0.23061E+05
 
    0.10805E+06         0.42947E+05         0.00000E+00
    0.42947E+05         0.65222E+04         0.00000E+00
    0.00000E+00         0.00000E+00         0.22915E+05
 
    0.10647E+06         0.45358E+05         0.00000E+00
    0.45358E+05         0.73274E+04         0.00000E+00
    0.00000E+00         0.00000E+00         0.22759E+05
 
    0.10479E+06         0.47733E+05         0.00000E+00
    0.47733E+05         0.81764E+04         0.00000E+00
    0.00000E+00         0.00000E+00         0.22593E+05
 
    0.10302E+06         0.50070E+05         0.00000E+00
    0.50070E+05         0.90683E+04         0.00000E+00
    0.00000E+00         0.00000E+00         0.22418E+05
 
    0.10117E+06         0.52367E+05         0.00000E+00
    0.52367E+05         0.10002E+05         0.00000E+00
    0.00000E+00         0.00000E+00         0.22234E+05
 
    0.99220E+05         0.54622E+05         0.00000E+00
    0.54622E+05         0.10978E+05         0.00000E+00
    0.00000E+00         0.00000E+00         0.22040E+05
 
    0.97187E+05         0.56832E+05         0.00000E+00
    0.56832E+05         0.11994E+05         0.00000E+00
    0.00000E+00         0.00000E+00         0.21836E+05
 
    0.95068E+05         0.58996E+05         0.00000E+00
    0.58996E+05         0.13050E+05         0.00000E+00
    0.00000E+00         0.00000E+00         0.21624E+05
 
    0.92864E+05         0.61112E+05         0.00000E+00
    0.61112E+05         0.14145E+05         0.00000E+00
    0.00000E+00         0.00000E+00         0.21402E+05
 
    0.90577E+05         0.63178E+05         0.00000E+00
    0.63178E+05         0.15277E+05         0.00000E+00
    0.00000E+00         0.00000E+00         0.21171E+05
 
    0.88208E+05         0.65192E+05         0.00000E+00
    0.65192E+05         0.16446E+05         0.00000E+00
    0.00000E+00         0.00000E+00         0.20931E+05
 
    0.85757E+05         0.67151E+05         0.00000E+00
    0.67151E+05         0.17652E+05         0.00000E+00
    0.00000E+00         0.00000E+00         0.20682E+05
 
    0.83228E+05         0.69055E+05         0.00000E+00
    0.69055E+05         0.18892E+05         0.00000E+00
    0.00000E+00         0.00000E+00         0.20424E+05
 
    0.80620E+05         0.70902E+05         0.00000E+00
    0.70902E+05         0.20166E+05         0.00000E+00
    0.00000E+00         0.00000E+00         0.20157E+05
 
    0.77936E+05         0.72689E+05         0.00000E+00
    0.72689E+05         0.21472E+05         0.00000E+00
    0.00000E+00         0.00000E+00         0.19882E+05
 
    0.75178E+05         0.74415E+05         0.00000E+00
    0.74415E+05         0.22810E+05         0.00000E+00
    0.00000E+00         0.00000E+00         0.19598E+05
 
    0.72347E+05         0.76079E+05         0.00000E+00
    0.76079E+05         0.24179E+05         0.00000E+00
    0.00000E+00         0.00000E+00         0.19305E+05
 
    0.69445E+05         0.77678E+05         0.00000E+00
    0.77678E+05         0.25577E+05         0.00000E+00
    0.00000E+00         0.00000E+00         0.19004E+05
 
    0.66473E+05         0.79212E+05         0.00000E+00
    0.79212E+05         0.27003E+05         0.00000E+00
    0.00000E+00         0.00000E+00         0.18695E+05
 
    0.63433E+05         0.80679E+05         0.00000E+00
    0.80679E+05         0.28455E+05         0.00000E+00
    0.00000E+00         0.00000E+00         0.18378E+05
 
    0.60328E+05         0.82077E+05         0.00000E+00
    0.82077E+05         0.29934E+05         0.00000E+00
    0.00000E+00         0.00000E+00         0.18052E+05
 
    0.57158E+05         0.83404E+05         0.00000E+00
    0.83404E+05         0.31437E+05         0.00000E+00
    0.00000E+00         0.00000E+00         0.17719E+05
 
    0.53926E+05         0.84660E+05         0.00000E+00
    0.84660E+05         0.32963E+05         0.00000E+00
    0.00000E+00         0.00000E+00         0.17378E+05
 
    0.50634E+05         0.85843E+05         0.00000E+00
    0.85843E+05         0.34511E+05         0.00000E+00
    0.00000E+00         0.00000E+00         0.17029E+05
 
    0.47283E+05         0.86952E+05         0.00000E+00
    0.86952E+05         0.36080E+05         0.00000E+00
    0.00000E+00         0.00000E+00         0.16673E+05
 
    0.43876E+05         0.87985E+05         0.00000E+00
    0.87985E+05         0.37668E+05         0.00000E+00
    0.00000E+00         0.00000E+00         0.16309E+05
 
    0.40415E+05         0.88941E+05         0.00000E+00
    0.88941E+05         0.39274E+05         0.00000E+00
    0.00000E+00         0.00000E+00         0.15938E+05
 
    0.36901E+05         0.89819E+05         0.00000E+00
    0.89819E+05         0.40897E+05         0.00000E+00
    0.00000E+00         0.00000E+00         0.15560E+05
 
    0.33338E+05         0.90618E+05         0.00000E+00
    0.90618E+05         0.42535E+05         0.00000E+00
    0.00000E+00         0.00000E+00         0.15175E+05
 
    0.29726E+05         0.91336E+05         0.00000E+00
    0.91336E+05         0.44187E+05         0.00000E+00
    0.00000E+00         0.00000E+00         0.14783E+05
 
    0.26068E+05         0.91973E+05         0.00000E+00
    0.91973E+05         0.45852E+05         0.00000E+00
    0.00000E+00         0.00000E+00         0.14384E+05
 
    0.22366E+05         0.92527E+05         0.00000E+00
    0.92527E+05         0.47527E+05         0.00000E+00
    0.00000E+00         0.00000E+00         0.13979E+05
 
    0.18622E+05         0.92998E+05         0.00000E+00
    0.92998E+05         0.49212E+05         0.00000E+00
    0.00000E+00         0.00000E+00         0.13567E+05
 
    0.14840E+05         0.93384E+05         0.00000E+00
    0.93384E+05         0.50906E+05         0.00000E+00
    0.00000E+00         0.00000E+00         0.13149E+05
 
    0.13444E+06         0.14591E+04         0.00000E+00
    0.14591E+04        -0.17195E+02         0.00000E+00
    0.00000E+00         0.00000E+00         0.26885E+05
 
    0.13441E+06         0.43905E+04         0.00000E+00
    0.43905E+04         0.36923E+02         0.00000E+00
    0.00000E+00         0.00000E+00         0.26889E+05
 
    0.13426E+06         0.73240E+04         0.00000E+00
    0.73240E+04         0.14577E+03         0.00000E+00
    0.00000E+00         0.00000E+00         0.26882E+05
 
    0.13401E+06         0.10257E+05         0.00000E+00
    0.10257E+05         0.30949E+03         0.00000E+00
    0.00000E+00         0.00000E+00         0.26864E+05
 
    0.13365E+06         0.13187E+05         0.00000E+00
    0.13187E+05         0.52816E+03         0.00000E+00
    0.00000E+00         0.00000E+00         0.26835E+05
 
    0.13318E+06         0.16110E+05         0.00000E+00
    0.16110E+05         0.80179E+03         0.00000E+00
    0.00000E+00         0.00000E+00         0.26795E+05
 
    0.13259E+06         0.19025E+05         0.00000E+00
    0.19025E+05         0.11303E+04         0.00000E+00
    0.00000E+00         0.00000E+00         0.26744E+05
 
    0.13190E+06         0.21929E+05         0.00000E+00
    0.21929E+05         0.15136E+04         0.00000E+00
    0.00000E+00         0.00000E+00         0.26683E+05
 
    0.13110E+06         0.24818E+05         0.00000E+00
    0.24818E+05         0.19514E+04         0.00000E+00
    0.00000E+00         0.00000E+00         0.26609E+05
 
    0.13018E+06         0.27690E+05         0.00000E+00
    0.27690E+05         0.24434E+04         0.00000E+00
    0.00000E+00         0.00000E+00         0.26525E+05
 
    0.12916E+06         0.30543E+05         0.00000E+00
    0.30543E+05         0.29893E+04         0.00000E+00
    0.00000E+00         0.00000E+00         0.26430E+05
 
    0.12803E+06         0.33374E+05         0.00000E+00
    0.33374E+05         0.35887E+04         0.00000E+00
    0.00000E+00         0.00000E+00         0.26324E+05
 
    0.12679E+06         0.36180E+05         0.00000E+00
    0.36180E+05         0.42412E+04         0.00000E+00
    0.00000E+00         0.00000E+00         0.26207E+05
 
    0.12545E+06         0.38959E+05         0.00000E+00
    0.38959E+05         0.49461E+04         0.00000E+00
    0.00000E+00         0.00000E+00         0.26078E+05
 
    0.12399E+06         0.41708E+05         0.00000E+00
    0.41708E+05         0.57028E+04         0.00000E+00
    0.00000E+00         0.00000E+00         0.25939E+05
 
    0.12243E+06         0.44425E+05         0.00000E+00
    0.44425E+05         0.65108E+04         0.00000E+00
    0.00000E+00         0.00000E+00         0.25789E+05
 
    0.12077E+06         0.47106E+05         0.00000E+00
    0.47106E+05         0.73693E+04         0.00000E+00
    0.00000E+00         0.00000E+00         0.25628E+05
 
    0.11900E+06         0.49750E+05         0.00000E+00
    0.49750E+05         0.82775E+04         0.00000E+00
    0.00000E+00         0.00000E+00         0.25456E+05
 
    0.11713E+06         0.52355E+05         0.00000E+00
    0.52355E+05         0.92346E+04         0.00000E+00
    0.00000E+00         0.00000E+00         0.25273E+05
 
    0.11516E+06         0.54917E+05         0.00000E+00
    0.54917E+05         0.10240E+05         0.00000E+00
    0.00000E+00         0.00000E+00         0.25079E+05
 
    0.11308E+06         0.57435E+05         0.00000E+00
    0.57435E+05         0.11292E+05         0.00000E+00
    0.00000E+00         0.00000E+00         0.24875E+05
 
    0.11091E+06         0.59907E+05         0.00000E+00
    0.59907E+05         0.12391E+05         0.00000E+00
    0.00000E+00         0.00000E+00         0.24660E+05
 
    0.10864E+06         0.62329E+05         0.00000E+00
    0.62329E+05         0.13535E+05         0.00000E+00
    0.00000E+00         0.00000E+00         0.24435E+05
 
    0.10627E+06         0.64700E+05         0.00000E+00
    0.64700E+05         0.14723E+05         0.00000E+00
    0.00000E+00         0.00000E+00         0.24199E+05
 
    0.10381E+06         0.67018E+05         0.00000E+00
    0.67018E+05         0.15954E+05         0.00000E+00
    0.00000E+00         0.00000E+00         0.23953E+05
 
    0.10125E+06         0.69281E+05         0.00000E+00
    0.69281E+05         0.17227E+05         0.00000E+00
    0.00000E+00         0.00000E+00         0.23696E+05
 
    0.98606E+05         0.71486E+05         0.00000E+00
    0.71486E+05         0.18542E+05         0.00000E+00
    0.00000E+00         0.00000E+00         0.23429E+05
 
    0.95868E+05         0.73632E+05         0.00000E+00
    0.73632E+05         0.19896E+05         0.00000E+00
    0.00000E+00         0.00000E+00         0.23153E+05
 
    0.93041E+05         0.75717E+05         0.00000E+00
    0.75717E+05         0.21288E+05         0.00000E+00
    0.00000E+00         0.00000E+00         0.22866E+05
 
    0.90127E+05         0.77738E+05         0.00000E+00
    0.77738E+05         0.22718E+05         0.00000E+00
    0.00000E+00         0.00000E+00         0.22569E+05
 
    0.87129E+05         0.79694E+05         0.00000E+00
    0.79694E+05         0.24184E+05         0.00000E+00
    0.00000E+00         0.00000E+00         0.22263E+05
 
    0.84047E+05         0.81584E+05         0.00000E+00
    0.81584E+05         0.25685E+05         0.00000E+00
    0.00000E+00         0.00000E+00         0.21946E+05
 
    0.80884E+05         0.83404E+05         0.00000E+00
    0.83404E+05         0.27220E+05         0.00000E+00
    0.00000E+00         0.00000E+00         0.21621E+05
 
    0.77641E+05         0.85155E+05         0.00000E+00
    0.85155E+05         0.28787E+05         0.00000E+00
    0.00000E+00         0.00000E+00         0.21286E+05
 
    0.74321E+05         0.86833E+05         0.00000E+00
    0.86833E+05         0.30385E+05         0.00000E+00
    0.00000E+00         0.00000E+00         0.20941E+05
 
    0.70925E+05         0.88438E+05         0.00000E+00
    0.88438E+05         0.32012E+05         0.00000E+00
    0.00000E+00         0.00000E+00         0.20587E+05
 
    0.67456E+05         0.89967E+05         0.00000E+00
    0.89967E+05         0.33668E+05         0.00000E+00
    0.00000E+00         0.00000E+00         0.20225E+05
 
    0.63916E+05         0.91420E+05         0.00000E+00
    0.91420E+05         0.35350E+05         0.00000E+00
    0.00000E+00         0.00000E+00         0.19853E+05
 
    0.60306E+05         0.92794E+05         0.00000E+00
    0.92794E+05         0.37058E+05         0.00000E+00
    0.00000E+00         0.00000E+00         0.19473E+05
 
    0.56628E+05         0.94088E+05         0.00000E+00
    0.94088E+05         0.38791E+05         0.00000E+00
    0.00000E+00         0.00000E+00         0.19084E+05
 
    0.52886E+05         0.95302E+05         0.00000E+00
    0.95302E+05         0.40546E+05         0.00000E+00
    0.00000E+00         0.00000E+00         0.18686E+05
 
    0.49081E+05         0.96433E+05         0.00000E+00
    0.96433E+05         0.42322E+05         0.00000E+00
    0.00000E+00         0.00000E+00         0.18280E+05
 
    0.45214E+05         0.97480E+05         0.00000E+00
    0.97480E+05         0.44118E+05         0.00000E+00
    0.00000E+00         0.00000E+00         0.17866E+05
 
    0.41290E+05         0.98442E+05         0.00000E+00
    0.98442E+05         0.45932E+05         0.00000E+00
    0.00000E+00         0.00000E+00         0.17444E+05
 
    0.37309E+05         0.99317E+05         0.00000E+00
    0.99317E+05         0.47763E+05         0.00000E+00
    0.00000E+00         0.00000E+00         0.17014E+05
 
    0.33274E+05         0.10011E+06         0.00000E+00
    0.10011E+06         0.49609E+05         0.00000E+00
    0.00000E+00         0.00000E+00         0.16577E+05
 
    0.29187E+05         0.10080E+06         0.00000E+00
    0.10080E+06         0.51470E+05         0.00000E+00
    0.00000E+00         0.00000E+00         0.16131E+05
 
    0.25051E+05         0.10141E+06         0.00000E+00
    0.10141E+06         0.53342E+05         0.00000E+00
    0.00000E+00         0.00000E+00         0.15679E+05
 
    0.20868E+05         0.10193E+06         0.00000E+00
    0.10193E+06         0.55226E+05         0.00000E+00
    0.00000E+00         0.00000E+00         0.15219E+05
 
    0.16641E+05         0.10236E+06         0.00000E+00
    0.10236E+06         0.57118E+05         0.00000E+00
    0.00000E+00         0.00000E+00         0.14752E+05
 
    0.14980E+06         0.16027E+04         0.00000E+00
    0.16027E+04        -0.19494E+02         0.00000E+00
    0.00000E+00         0.00000E+00         0.29956E+05
 
    0.14979E+06         0.48248E+04         0.00000E+00
    0.48248E+04         0.41888E+02         0.00000E+00
    0.00000E+00         0.00000E+00         0.29966E+05
 
    0.14965E+06         0.80500E+04         0.00000E+00
    0.80500E+04         0.16533E+03         0.00000E+00
    0.00000E+00         0.00000E+00         0.29963E+05
 
    0.14939E+06         0.11275E+05         0.00000E+00
    0.11275E+05         0.35097E+03         0.00000E+00
    0.00000E+00         0.00000E+00         0.29948E+05
 
    0.14900E+06         0.14497E+05         0.00000E+00
    0.14497E+05         0.59889E+03         0.00000E+00
    0.00000E+00         0.00000E+00         0.29920E+05
 
    0.14849E+06         0.17713E+05         0.00000E+00
    0.17713E+05         0.90905E+03         0.00000E+00
    0.00000E+00         0.00000E+00         0.29880E+05
 
    0.14785E+06         0.20920E+05         0.00000E+00
    0.20920E+05         0.12813E+04         0.00000E+00
    0.00000E+00         0.00000E+00         0.29827E+05
 
    0.14709E+06         0.24114E+05         0.00000E+00
    0.24114E+05         0.17155E+04         0.00000E+00
    0.00000E+00         0.00000E+00         0.29762E+05
 
    0.14621E+06         0.27292E+05         0.00000E+00
    0.27292E+05         0.22113E+04         0.00000E+00
    0.00000E+00         0.00000E+00         0.29684E+05
 
    0.14520E+06         0.30452E+05         0.00000E+00
    0.30452E+05         0.27684E+04         0.00000E+00
    0.00000E+00         0.00000E+00         0.29594E+05
 
    0.14407E+06         0.33590E+05         0.00000E+00
    0.33590E+05         0.33862E+04         0.00000E+00
    0.00000E+00         0.00000E+00         0.29491E+05
 
    0.14282E+06         0.36703E+05         0.00000E+00
    0.36703E+05         0.40643E+04         0.00000E+00
    0.00000E+00         0.00000E+00         0.29376E+05
 
    0.14144E+06         0.39789E+05         0.00000E+00
    0.39789E+05         0.48021E+04         0.00000E+00
    0.00000E+00         0.00000E+00         0.29248E+05
 
    0.13994E+06         0.42844E+05         0.00000E+00
    0.42844E+05         0.55988E+04         0.00000E+00
    0.00000E+00         0.00000E+00         0.29108E+05
 
    0.13832E+06         0.45866E+05         0.00000E+00
    0.45866E+05         0.64538E+04         0.00000E+00
    0.00000E+00         0.00000E+00         0.28956E+05
 
    0.13659E+06         0.48852E+05         0.00000E+00
    0.48852E+05         0.73663E+04         0.00000E+00
    0.00000E+00         0.00000E+00         0.28791E+05
 
    0.13473E+06         0.51799E+05         0.00000E+00
    0.51799E+05         0.83353E+04         0.00000E+00
    0.00000E+00         0.00000E+00         0.28613E+05
 
    0.13276E+06         0.54704E+05         0.00000E+00
    0.54704E+05         0.93599E+04         0.00000E+00
    0.00000E+00         0.00000E+00         0.28424E+05
 
    0.13067E+06         0.57565E+05         0.00000E+00
    0.57565E+05         0.10439E+05         0.00000E+00
    0.00000E+00         0.00000E+00         0.28222E+05
 
    0.12847E+06         0.60379E+05         0.00000E+00
    0.60379E+05         0.11572E+05         0.00000E+00
    0.00000E+00         0.00000E+00         0.28009E+05
 
    0.12616E+06         0.63143E+05         0.00000E+00
    0.63143E+05         0.12758E+05         0.00000E+00
    0.00000E+00         0.00000E+00         0.27783E+05
 
    0.12373E+06         0.65856E+05         0.00000E+00
    0.65856E+05         0.13995E+05         0.00000E+00
    0.00000E+00         0.00000E+00         0.27545E+05
 
    0.12120E+06         0.68514E+05         0.00000E+00
    0.68514E+05         0.15282E+05         0.00000E+00
    0.00000E+00         0.00000E+00         0.27296E+05
 
    0.11855E+06         0.71115E+05         0.00000E+00
    0.71115E+05         0.16618E+05         0.00000E+00
    0.00000E+00         0.00000E+00         0.27035E+05
 
    0.11581E+06         0.73658E+05         0.00000E+00
    0.73658E+05         0.18002E+05         0.00000E+00
    0.00000E+00         0.00000E+00         0.26762E+05
 
    0.11295E+06         0.76138E+05         0.00000E+00
    0.76138E+05         0.19433E+05         0.00000E+00
    0.00000E+00         0.00000E+00         0.26477E+05
 
    0.11000E+06         0.78556E+05         0.00000E+00
    0.78556E+05         0.20908E+05         0.00000E+00
    0.00000E+00         0.00000E+00         0.26181E+05
 
    0.10694E+06         0.80907E+05         0.00000E+00
    0.80907E+05         0.22428E+05         0.00000E+00
    0.00000E+00         0.00000E+00         0.25874E+05
 
    0.10379E+06         0.83191E+05         0.00000E+00
    0.83191E+05         0.23990E+05         0.00000E+00
    0.00000E+00         0.00000E+00         0.25556E+05
 
    0.10054E+06         0.85406E+05         0.00000E+00
    0.85406E+05         0.25593E+05         0.00000E+00
    0.00000E+00         0.00000E+00         0.25226E+05
 
    0.97193E+05         0.87548E+05         0.00000E+00
    0.87548E+05         0.27236E+05         0.00000E+00
    0.00000E+00         0.00000E+00         0.24886E+05
 
    0.93755E+05         0.89617E+05         0.00000E+00
    0.89617E+05         0.28918E+05         0.00000E+00
    0.00000E+00         0.00000E+00         0.24535E+05
 
    0.90227E+05         0.91610E+05         0.00000E+00
    0.91610E+05         0.30636E+05         0.00000E+00
    0.00000E+00         0.00000E+00         0.24173E+05
 
    0.86611E+05         0.93526E+05         0.00000E+00
    0.93526E+05         0.32389E+05         0.00000E+00
    0.00000E+00         0.00000E+00         0.23800E+05
 
    0.82910E+05         0.95362E+05         0.00000E+00
    0.95362E+05         0.34176E+05         0.00000E+00
    0.00000E+00         0.00000E+00         0.23417E+05
 
    0.79124E+05         0.97118E+05         0.00000E+00
    0.97118E+05         0.35996E+05         0.00000E+00
    0.00000E+00         0.00000E+00         0.23024E+05
 
    0.75257E+05         0.98792E+05         0.00000E+00
    0.98792E+05         0.37846E+05         0.00000E+00
    0.00000E+00         0.00000E+00         0.22621E+05
 
    0.71311E+05         0.10038E+06         0.00000E+00
    0.10038E+06         0.39726E+05         0.00000E+00
    0.00000E+00         0.00000E+00         0.22207E+05
 
    0.67287E+05         0.10189E+06         0.00000E+00
    0.10189E+06         0.41634E+05         0.00000E+00
    0.00000E+00         0.00000E+00         0.21784E+05
 
    0.63189E+05         0.10330E+06         0.00000E+00
    0.10330E+06         0.43567E+05         0.00000E+00
    0.00000E+00         0.00000E+00         0.21351E+05
 
    0.59019E+05         0.10463E+06         0.00000E+00
    0.10463E+06         0.45526E+05         0.00000E+00
    0.00000E+00         0.00000E+00         0.20909E+05
 
    0.54779E+05         0.10587E+06         0.00000E+00
    0.10587E+06         0.47508E+05         0.00000E+00
    0.00000E+00         0.00000E+00         0.20457E+05
 
    0.50471E+05         0.10702E+06         0.00000E+00
    0.10702E+06         0.49511E+05         0.00000E+00
    0.00000E+00         0.00000E+00         0.19996E+05
 
    0.46099E+05         0.10807E+06         0.00000E+00
    0.10807E+06         0.51534E+05         0.00000E+00
    0.00000E+00         0.00000E+00         0.19527E+05
 
    0.41663E+05         0.10903E+06         0.00000E+00
    0.10903E+06         0.53576E+05         0.00000E+00
    0.00000E+00         0.00000E+00         0.19048E+05
 
    0.37168E+05         0.10989E+06         0.00000E+00
    0.10989E+06         0.55634E+05         0.00000E+00
    0.00000E+00         0.00000E+00         0.18560E+05
 
    0.32614E+05         0.11066E+06         0.00000E+00
    0.11066E+06         0.57708E+05         0.00000E+00
    0.00000E+00         0.00000E+00         0.18064E+05
 
    0.28006E+05         0.11133E+06         0.00000E+00
    0.11133E+06         0.59795E+05         0.00000E+00
    0.00000E+00         0.00000E+00         0.17560E+05
 
    0.23344E+05         0.11190E+06         0.00000E+00
    0.11190E+06         0.61894E+05         0.00000E+00
    0.00000E+00         0.00000E+00         0.17048E+05
 
    0.18633E+05         0.11237E+06         0.00000E+00
    0.11237E+06         0.64003E+05         0.00000E+00
    0.00000E+00         0.00000E+00         0.16527E+05
 
    0.16671E+06         0.17658E+04         0.00000E+00
    0.17658E+04        -0.22165E+02         0.00000E+00
    0.00000E+00         0.00000E+00         0.33337E+05
 
    0.16672E+06         0.53181E+04         0.00000E+00
    0.53181E+04         0.47709E+02         0.00000E+00
    0.00000E+00         0.00000E+00         0.33353E+05
 
    0.16659E+06         0.88745E+04         0.00000E+00
    0.88745E+04         0.18816E+03         0.00000E+00
    0.00000E+00         0.00000E+00         0.33356E+05
 
    0.16632E+06         0.12431E+05         0.00000E+00
    0.12431E+05         0.39932E+03         0.00000E+00
    0.00000E+00         0.00000E+00         0.33344E+05
 
    0.16591E+06         0.15985E+05         0.00000E+00
    0.15985E+05         0.68121E+03         0.00000E+00
    0.00000E+00         0.00000E+00         0.33318E+05
 
    0.16536E+06         0.19532E+05         0.00000E+00
    0.19532E+05         0.10337E+04         0.00000E+00
    0.00000E+00         0.00000E+00         0.33278E+05
 
    0.16467E+06         0.23069E+05         0.00000E+00
    0.23069E+05         0.14567E+04         0.00000E+00
    0.00000E+00         0.00000E+00         0.33224E+05
 
    0.16383E+06         0.26591E+05         0.00000E+00
    0.26591E+05         0.19498E+04         0.00000E+00
    0.00000E+00         0.00000E+00         0.33156E+05
 
    0.16286E+06         0.30096E+05         0.00000E+00
    0.30096E+05         0.25126E+04         0.00000E+00
    0.00000E+00         0.00000E+00         0.33074E+05
 
    0.16174E+06         0.33580E+05         0.00000E+00
    0.33580E+05         0.31445E+04         0.00000E+00
    0.00000E+00         0.00000E+00         0.32977E+05
 
    0.16049E+06         0.37039E+05         0.00000E+00
    0.37039E+05         0.38452E+04         0.00000E+00
    0.00000E+00         0.00000E+00         0.32866E+05
 
    0.15909E+06         0.40471E+05         0.00000E+00
    0.40471E+05         0.46137E+04         0.00000E+00
    0.00000E+00         0.00000E+00         0.32741E+05
 
    0.15756E+06         0.43871E+05         0.00000E+00
    0.43871E+05         0.54494E+04         0.00000E+00
    0.00000E+00         0.00000E+00         0.32602E+05
 
    0.15589E+06         0.47237E+05         0.00000E+00
    0.47237E+05         0.63513E+04         0.00000E+00
    0.00000E+00         0.00000E+00         0.32449E+05
 
    0.15409E+06         0.50566E+05         0.00000E+00
    0.50566E+05         0.73186E+04         0.00000E+00
    0.00000E+00         0.00000E+00         0.32282E+05
 
    0.15215E+06         0.53853E+05         0.00000E+00
    0.53853E+05         0.83503E+04         0.00000E+00
    0.00000E+00         0.00000E+00         0.32101E+05
 
    0.15009E+06         0.57097E+05         0.00000E+00
    0.57097E+05         0.94452E+04         0.00000E+00
    0.00000E+00         0.00000E+00         0.31906E+05
 
    0.14789E+06         0.60293E+05         0.00000E+00
    0.60293E+05         0.10602E+05         0.00000E+00
    0.00000E+00         0.00000E+00         0.31698E+05
 
    0.14556E+06         0.63440E+05         0.00000E+00
    0.63440E+05         0.11820E+05         0.00000E+00
    0.00000E+00         0.00000E+00         0.31475E+05
 
    0.14310E+06         0.66534E+05         0.00000E+00
    0.66534E+05         0.13098E+05         0.00000E+00
    0.00000E+00         0.00000E+00         0.31239E+05
 
    0.14052E+06         0.69572E+05         0.00000E+00
    0.69572E+05         0.14434E+05         0.00000E+00
    0.00000E+00         0.00000E+00         0.30990E+05
 
    0.13781E+06         0.72552E+05         0.00000E+00
    0.72552E+05         0.15827E+05         0.00000E+00
    0.00000E+00         0.00000E+00         0.30727E+05
 
    0.13498E+06         0.75472E+05         0.00000E+00
    0.75472E+05         0.17276E+05         0.00000E+00
    0.00000E+00         0.00000E+00         0.30451E+05
 
    0.13203E+06         0.78327E+05         0.00000E+00
    0.78327E+05         0.18779E+05         0.00000E+00
    0.00000E+00         0.00000E+00         0.30162E+05
 
    0.12897E+06         0.81117E+05         0.00000E+00
    0.81117E+05         0.20334E+05         0.00000E+00
    0.00000E+00         0.00000E+00         0.29860E+05
 
    0.12578E+06         0.83839E+05         0.00000E+00
    0.83839E+05         0.21941E+05         0.00000E+00
    0.00000E+00         0.00000E+00         0.29545E+05
 
    0.12249E+06         0.86490E+05         0.00000E+00
    0.86490E+05         0.23597E+05         0.00000E+00
    0.00000E+00         0.00000E+00         0.29217E+05
 
    0.11908E+06         0.89068E+05         0.00000E+00
    0.89068E+05         0.25302E+05         0.00000E+00
    0.00000E+00         0.00000E+00         0.28876E+05
 
    0.11556E+06         0.91570E+05         0.00000E+00
    0.91570E+05         0.27053E+05         0.00000E+00
    0.00000E+00         0.00000E+00         0.28523E+05
 
    0.11194E+06         0.93996E+05         0.00000E+00
    0.93996E+05         0.28849E+05         0.00000E+00
    0.00000E+00         0.00000E+00         0.28158E+05
 
    0.10821E+06         0.96342E+05         0.00000E+00
    0.96342E+05         0.30688E+05         0.00000E+00
    0.00000E+00         0.00000E+00         0.27780E+05
 
    0.10438E+06         0.98606E+05         0.00000E+00
    0.98606E+05         0.32569E+05         0.00000E+00
    0.00000E+00         0.00000E+00         0.27390E+05
 
    0.10045E+06         0.10079E+06         0.00000E+00
    0.10079E+06         0.34490E+05         0.00000E+00
    0.00000E+00         0.00000E+00         0.26989E+05
 
    0.96428E+05         0.10288E+06         0.00000E+00
    0.10288E+06         0.36450E+05         0.00000E+00
    0.00000E+00         0.00000E+00         0.26575E+05
 
    0.92307E+05         0.10489E+06         0.00000E+00
    0.10489E+06         0.38446E+05         0.00000E+00
    0.00000E+00         0.00000E+00         0.26150E+05
 
    0.88093E+05         0.10681E+06         0.00000E+00
    0.10681E+06         0.40477E+05         0.00000E+00
    0.00000E+00         0.00000E+00         0.25714E+05
 
    0.83790E+05         0.10864E+06         0.00000E+00
    0.10864E+06         0.42541E+05         0.00000E+00
    0.00000E+00         0.00000E+00         0.25266E+05
 
    0.79400E+05         0.11038E+06         0.00000E+00
    0.11038E+06         0.44638E+05         0.00000E+00
    0.00000E+00         0.00000E+00         0.24807E+05
 
    0.74925E+05         0.11203E+06         0.00000E+00
    0.11203E+06         0.46764E+05         0.00000E+00
    0.00000E+00         0.00000E+00         0.24338E+05
 
    0.70367E+05         0.11358E+06         0.00000E+00
    0.11358E+06         0.48918E+05         0.00000E+00
    0.00000E+00         0.00000E+00         0.23857E+05
 
    0.65730E+05         0.11503E+06         0.00000E+00
    0.11503E+06         0.51100E+05         0.00000E+00
    0.00000E+00         0.00000E+00         0.23366E+05
 
    0.61016E+05         0.11638E+06         0.00000E+00
    0.11638E+06         0.53306E+05         0.00000E+00
    0.00000E+00         0.00000E+00         0.22864E+05
 
    0.56228E+05         0.11764E+06         0.00000E+00
    0.11764E+06         0.55535E+05         0.00000E+00
    0.00000E+00         0.00000E+00         0.22353E+05
 
    0.51367E+05         0.11879E+06         0.00000E+00
    0.11879E+06         0.57786E+05         0.00000E+00
    0.00000E+00         0.00000E+00         0.21831E+05
 
    0.46437E+05         0.11984E+06         0.00000E+00
    0.11984E+06         0.60057E+05         0.00000E+00
    0.00000E+00         0.00000E+00         0.21299E+05
 
    0.41440E+05         0.12079E+06         0.00000E+00
    0.12079E+06         0.62346E+05         0.00000E+00
    0.00000E+00         0.00000E+00         0.20757E+05
 
    0.36379E+05         0.12163E+06         0.00000E+00
    0.12163E+06         0.64652E+05         0.00000E+00
    0.00000E+00         0.00000E+00         0.20206E+05
 
    0.31257E+05         0.12237E+06         0.00000E+00
    0.12237E+06         0.66972E+05         0.00000E+00
    0.00000E+00         0.00000E+00         0.19646E+05
 
    0.26076E+05         0.12300E+06         0.00000E+00
    0.12300E+06         0.69306E+05         0.00000E+00
    0.00000E+00         0.00000E+00         0.19076E+05
 
    0.20839E+05         0.12352E+06         0.00000E+00
    0.12352E+06         0.71651E+05         0.00000E+00
    0.00000E+00         0.00000E+00         0.18498E+05
 
    0.18537E+06         0.19520E+04         0.00000E+00
    0.19520E+04        -0.25292E+02         0.00000E+00
    0.00000E+00         0.00000E+00         0.37069E+05
 
    0.18542E+06         0.58806E+04         0.00000E+00
    0.58806E+04         0.54608E+02         0.00000E+00
    0.00000E+00         0.00000E+00         0.37094E+05
 
    0.18530E+06         0.98143E+04         0.00000E+00
    0.98143E+04         0.21508E+03         0.00000E+00
    0.00000E+00         0.00000E+00         0.37103E+05
 
    0.18503E+06         0.13749E+05         0.00000E+00
    0.13749E+05         0.45620E+03         0.00000E+00
    0.00000E+00         0.00000E+00         0.37096E+05
 
    0.18459E+06         0.17679E+05         0.00000E+00
    0.17679E+05         0.77790E+03         0.00000E+00
    0.00000E+00         0.00000E+00         0.37073E+05
 
    0.18399E+06         0.21602E+05         0.00000E+00
    0.21602E+05         0.11800E+04         0.00000E+00
    0.00000E+00         0.00000E+00         0.37034E+05
 
    0.18323E+06         0.25513E+05         0.00000E+00
    0.25513E+05         0.16621E+04         0.00000E+00
    0.00000E+00         0.00000E+00         0.36979E+05
 
    0.18231E+06         0.29408E+05         0.00000E+00
    0.29408E+05         0.22238E+04         0.00000E+00
    0.00000E+00         0.00000E+00         0.36907E+05
 
    0.18123E+06         0.33282E+05         0.00000E+00
    0.33282E+05         0.28645E+04         0.00000E+00
    0.00000E+00         0.00000E+00         0.36820E+05
 
    0.18000E+06         0.37133E+05         0.00000E+00
    0.37133E+05         0.35835E+04         0.00000E+00
    0.00000E+00         0.00000E+00         0.36716E+05
 
    0.17860E+06         0.40955E+05         0.00000E+00
    0.40955E+05         0.43800E+04         0.00000E+00
    0.00000E+00         0.00000E+00         0.36596E+05
 
    0.17705E+06         0.44745E+05         0.00000E+00
    0.44745E+05         0.52531E+04         0.00000E+00
    0.00000E+00         0.00000E+00         0.36460E+05
 
    0.17534E+06         0.48499E+05         0.00000E+00
    0.48499E+05         0.62018E+04         0.00000E+00
    0.00000E+00         0.00000E+00         0.36309E+05
 
    0.17348E+06         0.52214E+05         0.00000E+00
    0.52214E+05         0.72250E+04         0.00000E+00
    0.00000E+00         0.00000E+00         0.36141E+05
 
    0.17147E+06         0.55885E+05         0.00000E+00
    0.55885E+05         0.83214E+04         0.00000E+00
    0.00000E+00         0.00000E+00         0.35958E+05
 
    0.16931E+06         0.59510E+05         0.00000E+00
    0.59510E+05         0.94899E+04         0.00000E+00
    0.00000E+00         0.00000E+00         0.35759E+05
 
    0.16699E+06         0.63085E+05         0.00000E+00
    0.63085E+05         0.10729E+05         0.00000E+00
    0.00000E+00         0.00000E+00         0.35545E+05
 
    0.16454E+06         0.66606E+05         0.00000E+00
    0.66606E+05         0.12037E+05         0.00000E+00
    0.00000E+00         0.00000E+00         0.35315E+05
 
    0.16193E+06         0.70071E+05         0.00000E+00
    0.70071E+05         0.13414E+05         0.00000E+00
    0.00000E+00         0.00000E+00         0.35069E+05
 
    0.15919E+06         0.73476E+05         0.00000E+00
    0.73476E+05         0.14856E+05         0.00000E+00
    0.00000E+00         0.00000E+00         0.34809E+05
 
    0.15630E+06         0.76817E+05         0.00000E+00
    0.76817E+05         0.16363E+05         0.00000E+00
    0.00000E+00         0.00000E+00         0.34533E+05
 
    0.15328E+06         0.80094E+05         0.00000E+00
    0.80094E+05         0.17933E+05         0.00000E+00
    0.00000E+00         0.00000E+00         0.34242E+05
 
    0.15012E+06         0.83301E+05         0.00000E+00
    0.83301E+05         0.19564E+05         0.00000E+00
    0.00000E+00         0.00000E+00         0.33937E+05
 
    0.14683E+06         0.86437E+05         0.00000E+00
    0.86437E+05         0.21255E+05         0.00000E+00
    0.00000E+00         0.00000E+00         0.33616E+05
 
    0.14340E+06         0.89499E+05         0.00000E+00
    0.89499E+05         0.23004E+05         0.00000E+00
    0.00000E+00         0.00000E+00         0.33282E+05
 
    0.13985E+06         0.92484E+05         0.00000E+00
    0.92484E+05         0.24809E+05         0.00000E+00
    0.00000E+00         0.00000E+00         0.32933E+05
 
    0.13618E+06         0.95391E+05         0.00000E+00
    0.95391E+05         0.26668E+05         0.00000E+00
    0.00000E+00         0.00000E+00         0.32569E+05
 
    0.13238E+06         0.98216E+05         0.00000E+00
    0.98216E+05         0.28579E+05         0.00000E+00
    0.00000E+00         0.00000E+00         0.32192E+05
 
    0.12846E+06         0.10096E+06         0.00000E+00
    0.10096E+06         0.30541E+05         0.00000E+00
    0.00000E+00         0.00000E+00         0.31800E+05
 
    0.12442E+06         0.10361E+06         0.00000E+00
    0.10361E+06         0.32552E+05         0.00000E+00
    0.00000E+00         0.00000E+00         0.31395E+05
 
    0.12027E+06         0.10618E+06         0.00000E+00
    0.10618E+06         0.34609E+05         0.00000E+00
    0.00000E+00         0.00000E+00         0.30977E+05
 
    0.11601E+06         0.10866E+06         0.00000E+00
    0.10866E+06         0.36712E+05         0.00000E+00
    0.00000E+00         0.00000E+00         0.30545E+05
 
    0.11164E+06         0.11104E+06         0.00000E+00
    0.11104E+06         0.38858E+05         0.00000E+00
    0.00000E+00         0.00000E+00         0.30099E+05
 
    0.10716E+06         0.11333E+06         0.00000E+00
    0.11333E+06         0.41045E+05         0.00000E+00
    0.00000E+00         0.00000E+00         0.29641E+05
 
    0.10258E+06         0.11553E+06         0.00000E+00
    0.11553E+06         0.43271E+05         0.00000E+00
    0.00000E+00         0.00000E+00         0.29170E+05
 
    0.97896E+05         0.11763E+06         0.00000E+00
    0.11763E+06         0.45535E+05         0.00000E+00
    0.00000E+00         0.00000E+00         0.28686E+05
 
    0.93115E+05         0.11962E+06         0.00000E+00
    0.11962E+06         0.47835E+05         0.00000E+00
    0.00000E+00         0.00000E+00         0.28190E+05
 
    0.88239E+05         0.12152E+06         0.00000E+00
    0.12152E+06         0.50169E+05         0.00000E+00
    0.00000E+00         0.00000E+00         0.27682E+05
 
    0.83270E+05         0.12332E+06         0.00000E+00
    0.12332E+06         0.52534E+05         0.00000E+00
    0.00000E+00         0.00000E+00         0.27161E+05
 
    0.78211E+05         0.12501E+06         0.00000E+00
    0.12501E+06         0.54930E+05         0.00000E+00
    0.00000E+00         0.00000E+00         0.26628E+05
 
    0.73065E+05         0.12659E+06         0.00000E+00
    0.12659E+06         0.57355E+05         0.00000E+00
    0.00000E+00         0.00000E+00         0.26084E+05
 
    0.67835E+05         0.12807E+06         0.00000E+00
    0.12807E+06         0.59805E+05         0.00000E+00
    0.00000E+00         0.00000E+00         0.25528E+05
 
    0.62523E+05         0.12944E+06         0.00000E+00
    0.12944E+06         0.62281E+05         0.00000E+00
    0.00000E+00         0.00000E+00         0.24961E+05
 
    0.57132E+05         0.13071E+06         0.00000E+00
    0.13071E+06         0.64780E+05         0.00000E+00
    0.00000E+00         0.00000E+00         0.24382E+05
 
    0.51665E+05         0.13186E+06         0.00000E+00
    0.13186E+06         0.67300E+05         0.00000E+00
    0.00000E+00         0.00000E+00         0.23793E+05
 
    0.46124E+05         0.13289E+06         0.00000E+00
    0.13289E+06         0.69839E+05         0.00000E+00
    0.00000E+00         0.00000E+00         0.23193E+05
 
    0.40513E+05         0.13382E+06         0.00000E+00
    0.13382E+06         0.72396E+05         0.00000E+00
    0.00000E+00         0.00000E+00         0.22582E+05
 
    0.34834E+05         0.13462E+06         0.00000E+00
    0.13462E+06         0.74969E+05         0.00000E+00
    0.00000E+00         0.00000E+00         0.21961E+05
 
    0.29090E+05         0.13532E+06         0.00000E+00
    0.13532E+06         0.77557E+05         0.00000E+00
    0.00000E+00         0.00000E+00         0.21329E+05
 
    0.23283E+05         0.13589E+06         0.00000E+00
    0.13589E+06         0.80156E+05         0.00000E+00
    0.00000E+00         0.00000E+00         0.20688E+05
 
    0.20605E+06         0.21655E+04         0.00000E+00
    0.21655E+04        -0.28980E+02         0.00000E+00
    0.00000E+00         0.00000E+00         0.41204E+05
 
    0.20613E+06         0.65249E+04         0.00000E+00
    0.65249E+04         0.62862E+02         0.00000E+00
    0.00000E+00         0.00000E+00         0.41239E+05
 
    0.20603E+06         0.10890E+05         0.00000E+00
    0.10890E+05         0.24709E+03         0.00000E+00
    0.00000E+00         0.00000E+00         0.41256E+05
 
    0.20575E+06         0.15255E+05         0.00000E+00
    0.15255E+05         0.52365E+03         0.00000E+00
    0.00000E+00         0.00000E+00         0.41254E+05
 
    0.20528E+06         0.19616E+05         0.00000E+00
    0.19616E+05         0.89235E+03         0.00000E+00
    0.00000E+00         0.00000E+00         0.41234E+05
 
    0.20462E+06         0.23967E+05         0.00000E+00
    0.23967E+05         0.13528E+04         0.00000E+00
    0.00000E+00         0.00000E+00         0.41195E+05
 
    0.20379E+06         0.28304E+05         0.00000E+00
    0.28304E+05         0.19045E+04         0.00000E+00
    0.00000E+00         0.00000E+00         0.41139E+05
 
    0.20277E+06         0.32621E+05         0.00000E+00
    0.32621E+05         0.25467E+04         0.00000E+00
    0.00000E+00         0.00000E+00         0.41063E+05
 
    0.20157E+06         0.36915E+05         0.00000E+00
    0.36915E+05         0.32786E+04         0.00000E+00
    0.00000E+00         0.00000E+00         0.40970E+05
 
    0.20019E+06         0.41179E+05         0.00000E+00
    0.41179E+05         0.40992E+04         0.00000E+00
    0.00000E+00         0.00000E+00         0.40858E+05
 
    0.19863E+06         0.45411E+05         0.00000E+00
    0.45411E+05         0.50075E+04         0.00000E+00
    0.00000E+00         0.00000E+00         0.40728E+05
 
    0.19690E+06         0.49605E+05         0.00000E+00
    0.49605E+05         0.60023E+04         0.00000E+00
    0.00000E+00         0.00000E+00         0.40580E+05
 
    0.19499E+06         0.53757E+05         0.00000E+00
    0.53757E+05         0.70821E+04         0.00000E+00
    0.00000E+00         0.00000E+00         0.40414E+05
 
    0.19290E+06         0.57863E+05         0.00000E+00
    0.57863E+05         0.82457E+04         0.00000E+00
    0.00000E+00         0.00000E+00         0.40230E+05
 
    0.19065E+06         0.61919E+05         0.00000E+00
    0.61919E+05         0.94913E+04         0.00000E+00
    0.00000E+00         0.00000E+00         0.40028E+05
 
    0.18822E+06         0.65921E+05         0.00000E+00
    0.65921E+05         0.10818E+05         0.00000E+00
    0.00000E+00         0.00000E+00         0.39808E+05
 
    0.18563E+06         0.69865E+05         0.00000E+00
    0.69865E+05         0.12223E+05         0.00000E+00
    0.00000E+00         0.00000E+00         0.39571E+05
 
    0.18288E+06         0.73747E+05         0.00000E+00
    0.73747E+05         0.13705E+05         0.00000E+00
    0.00000E+00         0.00000E+00         0.39317E+05
 
    0.17996E+06         0.77565E+05         0.00000E+00
    0.77565E+05         0.15262E+05         0.00000E+00
    0.00000E+00         0.00000E+00         0.39045E+05
 
    0.17689E+06         0.81313E+05         0.00000E+00
    0.81313E+05         0.16892E+05         0.00000E+00
    0.00000E+00         0.00000E+00         0.38757E+05
 
    0.17366E+06         0.84990E+05         0.00000E+00
    0.84990E+05         0.18594E+05         0.00000E+00
    0.00000E+00         0.00000E+00         0.38451E+05
 
    0.17028E+06         0.88592E+05         0.00000E+00
    0.88592E+05         0.20365E+05         0.00000E+00
    0.00000E+00         0.00000E+00         0.38129E+05
 
    0.16675E+06         0.92116E+05         0.00000E+00
    0.92116E+05         0.22204E+05         0.00000E+00
    0.00000E+00         0.00000E+00         0.37790E+05
 
    0.16307E+06         0.95560E+05         0.00000E+00
    0.95560E+05         0.24107E+05         0.00000E+00
    0.00000E+00         0.00000E+00         0.37435E+05
 
    0.15924E+06         0.98919E+05         0.00000E+00
    0.98919E+05         0.26074E+05         0.00000E+00
    0.00000E+00         0.00000E+00         0.37064E+05
 
    0.15528E+06         0.10219E+06         0.00000E+00
    0.10219E+06         0.28102E+05         0.00000E+00
    0.00000E+00         0.00000E+00         0.36677E+05
 
    0.15118E+06         0.10538E+06         0.00000E+00
    0.10538E+06         0.30188E+05         0.00000E+00
    0.00000E+00         0.00000E+00         0.36274E+05
 
    0.14694E+06         0.10847E+06         0.00000E+00
    0.10847E+06         0.32332E+05         0.00000E+00
    0.00000E+00         0.00000E+00         0.35855E+05
 
    0.14258E+06         0.11147E+06         0.00000E+00
    0.11147E+06         0.34530E+05         0.00000E+00
    0.00000E+00         0.00000E+00         0.35421E+05
 
    0.13808E+06         0.11437E+06         0.00000E+00
    0.11437E+06         0.36780E+05         0.00000E+00
    0.00000E+00         0.00000E+00         0.34972E+05
 
    0.13346E+06         0.11718E+06         0.00000E+00
    0.11718E+06         0.39080E+05         0.00000E+00
    0.00000E+00         0.00000E+00         0.34508E+05
 
    0.12872E+06         0.11988E+06         0.00000E+00
    0.11988E+06         0.41429E+05         0.00000E+00
    0.00000E+00         0.00000E+00         0.34029E+05
 
    0.12386E+06         0.12248E+06         0.00000E+00
    0.12248E+06         0.43824E+05         0.00000E+00
    0.00000E+00         0.00000E+00         0.33536E+05
 
    0.11888E+06         0.12498E+06         0.00000E+00
    0.12498E+06         0.46262E+05         0.00000E+00
    0.00000E+00         0.00000E+00         0.33028E+05
 
    0.11379E+06         0.12738E+06         0.00000E+00
    0.12738E+06         0.48743E+05         0.00000E+00
    0.00000E+00         0.00000E+00         0.32506E+05
 
    0.10859E+06         0.12966E+06         0.00000E+00
    0.12966E+06         0.51263E+05         0.00000E+00
    0.00000E+00         0.00000E+00         0.31971E+05
 
    0.10329E+06         0.13184E+06         0.00000E+00
    0.13184E+06         0.53821E+05         0.00000E+00
    0.00000E+00         0.00000E+00         0.31421E+05
 
    0.97878E+05         0.13391E+06         0.00000E+00
    0.13391E+06         0.56414E+05         0.00000E+00
    0.00000E+00         0.00000E+00         0.30858E+05
 
    0.92369E+05         0.13586E+06         0.00000E+00
    0.13586E+06         0.59041E+05         0.00000E+00
    0.00000E+00         0.00000E+00         0.30282E+05
 
    0.86764E+05         0.13771E+06         0.00000E+00
    0.13771E+06         0.61701E+05         0.00000E+00
    0.00000E+00         0.00000E+00         0.29693E+05
 
    0.81064E+05         0.13943E+06         0.00000E+00
    0.13943E+06         0.64389E+05         0.00000E+00
    0.00000E+00         0.00000E+00         0.29091E+05
 
    0.75272E+05         0.14104E+06         0.00000E+00
    0.14104E+06         0.67106E+05         0.00000E+00
    0.00000E+00         0.00000E+00         0.28476E+05
 
    0.69392E+05         0.14254E+06         0.00000E+00
    0.14254E+06         0.69849E+05         0.00000E+00
    0.00000E+00         0.00000E+00         0.27848E+05
 
    0.63427E+05         0.14391E+06         0.00000E+00
    0.14391E+06         0.72616E+05         0.00000E+00
    0.00000E+00         0.00000E+00         0.27209E+05
 
    0.57379E+05         0.14517E+06         0.00000E+00
    0.14517E+06         0.75405E+05         0.00000E+00
    0.00000E+00         0.00000E+00         0.26557E+05
 
    0.51250E+05         0.14630E+06         0.00000E+00
    0.14630E+06         0.78215E+05         0.00000E+00
    0.00000E+00         0.00000E+00         0.25893E+05
 
    0.45045E+05         0.14731E+06         0.00000E+00
    0.14731E+06         0.81044E+05         0.00000E+00
    0.00000E+00         0.00000E+00         0.25218E+05
 
    0.38765E+05         0.14820E+06         0.00000E+00
    0.14820E+06         0.83889E+05         0.00000E+00
    0.00000E+00         0.00000E+00         0.24531E+05
 
    0.32414E+05         0.14896E+06         0.00000E+00
    0.14896E+06         0.86750E+05         0.00000E+00
    0.00000E+00         0.00000E+00         0.23833E+05
 
    0.25993E+05         0.14959E+06         0.00000E+00
    0.14959E+06         0.89624E+05         0.00000E+00
    0.00000E+00         0.00000E+00         0.23124E+05
 
    0.22903E+06         0.24118E+04         0.00000E+00
    0.24118E+04        -0.33355E+02         0.00000E+00
    0.00000E+00         0.00000E+00         0.45800E+05
 
    0.22916E+06         0.72667E+04         0.00000E+00
    0.72667E+04         0.72816E+02         0.00000E+00
    0.00000E+00         0.00000E+00         0.45846E+05
 
    0.22907E+06         0.12127E+05         0.00000E+00
    0.12127E+05         0.28541E+03         0.00000E+00
    0.00000E+00         0.00000E+00         0.45871E+05
 
    0.22877E+06         0.16986E+05         0.00000E+00
    0.16986E+05         0.60418E+03         0.00000E+00
    0.00000E+00         0.00000E+00         0.45875E+05
 
    0.22826E+06         0.21839E+05         0.00000E+00
    0.21839E+05         0.10287E+04         0.00000E+00
    0.00000E+00         0.00000E+00         0.45858E+05
 
    0.22754E+06         0.26680E+05         0.00000E+00
    0.26680E+05         0.15583E+04         0.00000E+00
    0.00000E+00         0.00000E+00         0.45820E+05
 
    0.22661E+06         0.31502E+05         0.00000E+00
    0.31502E+05         0.21922E+04         0.00000E+00
    0.00000E+00         0.00000E+00         0.45761E+05
 
    0.22547E+06         0.36300E+05         0.00000E+00
    0.36300E+05         0.29293E+04         0.00000E+00
    0.00000E+00         0.00000E+00         0.45680E+05
 
    0.22413E+06         0.41069E+05         0.00000E+00
    0.41069E+05         0.37686E+04         0.00000E+00
    0.00000E+00         0.00000E+00         0.45579E+05
 
    0.22258E+06         0.45803E+05         0.00000E+00
    0.45803E+05         0.47085E+04         0.00000E+00
    0.00000E+00         0.00000E+00         0.45457E+05
 
    0.22083E+06         0.50498E+05         0.00000E+00
    0.50498E+05         0.57478E+04         0.00000E+00
    0.00000E+00         0.00000E+00         0.45315E+05
 
    0.21887E+06         0.55147E+05         0.00000E+00
    0.55147E+05         0.68846E+04         0.00000E+00
    0.00000E+00         0.00000E+00         0.45151E+05
 
    0.21672E+06         0.59747E+05         0.00000E+00
    0.59747E+05         0.81174E+04         0.00000E+00
    0.00000E+00         0.00000E+00         0.44968E+05
 
    0.21438E+06         0.64292E+05         0.00000E+00
    0.64292E+05         0.94441E+04         0.00000E+00
    0.00000E+00         0.00000E+00         0.44764E+05
 
    0.21184E+06         0.68778E+05         0.00000E+00
    0.68778E+05         0.10863E+05         0.00000E+00
    0.00000E+00         0.00000E+00         0.44540E+05
 
    0.20911E+06         0.73201E+05         0.00000E+00
    0.73201E+05         0.12372E+05         0.00000E+00
    0.00000E+00         0.00000E+00         0.44297E+05
 
    0.20620E+06         0.77556E+05         0.00000E+00
    0.77556E+05         0.13968E+05         0.00000E+00
    0.00000E+00         0.00000E+00         0.44034E+05
 
    0.20310E+06         0.81839E+05         0.00000E+00
    0.81839E+05         0.15650E+05         0.00000E+00
    0.00000E+00         0.00000E+00         0.43751E+05
 
    0.19983E+06         0.86047E+05         0.00000E+00
    0.86047E+05         0.17415E+05         0.00000E+00
    0.00000E+00         0.00000E+00         0.43449E+05
 
    0.19638E+06         0.90175E+05         0.00000E+00
    0.90175E+05         0.19261E+05         0.00000E+00
    0.00000E+00         0.00000E+00         0.43128E+05
 
    0.19275E+06         0.94221E+05         0.00000E+00
    0.94221E+05         0.21186E+05         0.00000E+00
    0.00000E+00         0.00000E+00         0.42788E+05
 
    0.18896E+06         0.98180E+05         0.00000E+00
    0.98180E+05         0.23186E+05         0.00000E+00
    0.00000E+00         0.00000E+00         0.42430E+05
 
    0.18500E+06         0.10205E+06         0.00000E+00
    0.10205E+06         0.25260E+05         0.00000E+00
    0.00000E+00         0.00000E+00         0.42053E+05
 
    0.18089E+06         0.10583E+06         0.00000E+00
    0.10583E+06         0.27405E+05         0.00000E+00
    0.00000E+00         0.00000E+00         0.41658E+05
 
    0.17661E+06         0.10951E+06         0.00000E+00
    0.10951E+06         0.29618E+05         0.00000E+00
    0.00000E+00         0.00000E+00         0.41245E+05
 
    0.17218E+06         0.11309E+06         0.00000E+00
    0.11309E+06         0.31897E+05         0.00000E+00
    0.00000E+00         0.00000E+00         0.40815E+05
 
    0.16760E+06         0.11658E+06         0.00000E+00
    0.11658E+06         0.34240E+05         0.00000E+00
    0.00000E+00         0.00000E+00         0.40367E+05
 
    0.16287E+06         0.11996E+06         0.00000E+00
    0.11996E+06         0.36643E+05         0.00000E+00
    0.00000E+00         0.00000E+00         0.39903E+05
 
    0.15800E+06         0.12323E+06         0.00000E+00
    0.12323E+06         0.39104E+05         0.00000E+00
    0.00000E+00         0.00000E+00         0.39421E+05
 
    0.15299E+06         0.12640E+06         0.00000E+00
    0.12640E+06         0.41622E+05         0.00000E+00
    0.00000E+00         0.00000E+00         0.38923E+05
 
    0.14785E+06         0.12946E+06         0.00000E+00
    0.12946E+06         0.44192E+05         0.00000E+00
    0.00000E+00         0.00000E+00         0.38408E+05
 
    0.14257E+06         0.13241E+06         0.00000E+00
    0.13241E+06         0.46814E+05         0.00000E+00
    0.00000E+00         0.00000E+00         0.37877E+05
 
    0.13717E+06         0.13524E+06         0.00000E+00
    0.13524E+06         0.49484E+05         0.00000E+00
    0.00000E+00         0.00000E+00         0.37331E+05
 
    0.13164E+06         0.13796E+06         0.00000E+00
    0.13796E+06         0.52200E+05         0.00000E+00
    0.00000E+00         0.00000E+00         0.36768E+05
 
    0.12599E+06         0.14056E+06         0.00000E+00
    0.14056E+06         0.54960E+05         0.00000E+00
    0.00000E+00         0.00000E+00         0.36191E+05
 
    0.12023E+06         0.14305E+06         0.00000E+00
    0.14305E+06         0.57761E+05         0.00000E+00
    0.00000E+00         0.00000E+00         0.35598E+05
 
    0.11435E+06         0.14541E+06         0.00000E+00
    0.14541E+06         0.60601E+05         0.00000E+00
    0.00000E+00         0.00000E+00         0.34990E+05
 
    0.10836E+06         0.14766E+06         0.00000E+00
    0.14766E+06         0.63479E+05         0.00000E+00
    0.00000E+00         0.00000E+00         0.34367E+05
 
    0.10226E+06         0.14978E+06         0.00000E+00
    0.14978E+06         0.66391E+05         0.00000E+00
    0.00000E+00         0.00000E+00         0.33731E+05
 
    0.96061E+05         0.15178E+06         0.00000E+00
    0.15178E+06         0.69336E+05         0.00000E+00
    0.00000E+00         0.00000E+00         0.33079E+05
 
    0.89759E+05         0.15365E+06         0.00000E+00
    0.15365E+06         0.72312E+05         0.00000E+00
    0.00000E+00         0.00000E+00         0.32414E+05
 
    0.83360E+05         0.15540E+06         0.00000E+00
    0.15540E+06         0.75316E+05         0.00000E+00
    0.00000E+00         0.00000E+00         0.31735E+05
 
    0.76866E+05         0.15702E+06         0.00000E+00
    0.15702E+06         0.78348E+05         0.00000E+00
    0.00000E+00         0.00000E+00         0.31043E+05
 
    0.70280E+05         0.15851E+06         0.00000E+00
    0.15851E+06         0.81404E+05         0.00000E+00
    0.00000E+00         0.00000E+00         0.30337E+05
 
    0.63605E+05         0.15988E+06         0.00000E+00
    0.15988E+06         0.84483E+05         0.00000E+00
    0.00000E+00         0.00000E+00         0.29618E+05
 
    0.56844E+05         0.16111E+06         0.00000E+00
    0.16111E+06         0.87584E+05         0.00000E+00
    0.00000E+00         0.00000E+00         0.28886E+05
 
    0.50000E+05         0.16221E+06         0.00000E+00
    0.16221E+06         0.90703E+05         0.00000E+00
    0.00000E+00         0.00000E+00         0.28141E+05
 
    0.43075E+05         0.16318E+06         0.00000E+00
    0.16318E+06         0.93841E+05         0.00000E+00
    0.00000E+00         0.00000E+00         0.27383E+05
 
    0.36073E+05         0.16402E+06         0.00000E+00
    0.16402E+06         0.96995E+05         0.00000E+00
    0.00000E+00         0.00000E+00         0.26614E+05
 
    0.28995E+05         0.16472E+06         0.00000E+00
    0.16472E+06         0.10016E+06         0.00000E+00
    0.00000E+00         0.00000E+00         0.25832E+05
 
    0.25468E+06         0.26978E+04         0.00000E+00
    0.26978E+04        -0.38567E+02         0.00000E+00
    0.00000E+00         0.00000E+00         0.50929E+05
 
    0.25485E+06         0.81252E+04         0.00000E+00
    0.81252E+04         0.84888E+02         0.00000E+00
    0.00000E+00         0.00000E+00         0.50987E+05
 
    0.25477E+06         0.13557E+05         0.00000E+00
    0.13557E+05         0.33152E+03         0.00000E+00
    0.00000E+00         0.00000E+00         0.51020E+05
 
    0.25445E+06         0.18985E+05         0.00000E+00
    0.18985E+05         0.70079E+03         0.00000E+00
    0.00000E+00         0.00000E+00         0.51029E+05
 
    0.25388E+06         0.24403E+05         0.00000E+00
    0.24403E+05         0.11919E+04         0.00000E+00
    0.00000E+00         0.00000E+00         0.51014E+05
 
    0.25307E+06         0.29805E+05         0.00000E+00
    0.29805E+05         0.18038E+04         0.00000E+00
    0.00000E+00         0.00000E+00         0.50974E+05
 
    0.25202E+06         0.35182E+05         0.00000E+00
    0.35182E+05         0.25353E+04         0.00000E+00
    0.00000E+00         0.00000E+00         0.50911E+05
 
    0.25073E+06         0.40529E+05         0.00000E+00
    0.40529E+05         0.33848E+04         0.00000E+00
    0.00000E+00         0.00000E+00         0.50823E+05
 
    0.24921E+06         0.45839E+05         0.00000E+00
    0.45839E+05         0.43507E+04         0.00000E+00
    0.00000E+00         0.00000E+00         0.50711E+05
 
    0.24745E+06         0.51106E+05         0.00000E+00
    0.51106E+05         0.54312E+04         0.00000E+00
    0.00000E+00         0.00000E+00         0.50576E+05
 
    0.24546E+06         0.56324E+05         0.00000E+00
    0.56324E+05         0.66243E+04         0.00000E+00
    0.00000E+00         0.00000E+00         0.50417E+05
 
    0.24325E+06         0.61487E+05         0.00000E+00
    0.61487E+05         0.79277E+04         0.00000E+00
    0.00000E+00         0.00000E+00         0.50235E+05
 
    0.24081E+06         0.66590E+05         0.00000E+00
    0.66590E+05         0.93391E+04         0.00000E+00
    0.00000E+00         0.00000E+00         0.50030E+05
 
    0.23815E+06         0.71628E+05         0.00000E+00
    0.71628E+05         0.10856E+05         0.00000E+00
    0.00000E+00         0.00000E+00         0.49802E+05
 
    0.23528E+06         0.76595E+05         0.00000E+00
    0.76595E+05         0.12476E+05         0.00000E+00
    0.00000E+00         0.00000E+00         0.49551E+05
 
    0.23220E+06         0.81487E+05         0.00000E+00
    0.81487E+05         0.14196E+05         0.00000E+00
    0.00000E+00         0.00000E+00         0.49279E+05
 
    0.22890E+06         0.86298E+05         0.00000E+00
    0.86298E+05         0.16014E+05         0.00000E+00
    0.00000E+00         0.00000E+00         0.48984E+05
 
    0.22541E+06         0.91025E+05         0.00000E+00
    0.91025E+05         0.17927E+05         0.00000E+00
    0.00000E+00         0.00000E+00         0.48667E+05
 
    0.22171E+06         0.95664E+05         0.00000E+00
    0.95664E+05         0.19931E+05         0.00000E+00
    0.00000E+00         0.00000E+00         0.48329E+05
 
    0.21783E+06         0.10021E+06         0.00000E+00
    0.10021E+06         0.22025E+05         0.00000E+00
    0.00000E+00         0.00000E+00         0.47970E+05
 
    0.21375E+06         0.10466E+06         0.00000E+00
    0.10466E+06         0.24204E+05         0.00000E+00
    0.00000E+00         0.00000E+00         0.47590E+05
 
    0.20948E+06         0.10901E+06         0.00000E+00
    0.10901E+06         0.26466E+05         0.00000E+00
    0.00000E+00         0.00000E+00         0.47189E+05
 
    0.20504E+06         0.11325E+06         0.00000E+00
    0.11325E+06         0.28807E+05         0.00000E+00
    0.00000E+00         0.00000E+00         0.46768E+05
 
    0.20041E+06         0.11739E+06         0.00000E+00
    0.11739E+06         0.31226E+05         0.00000E+00
    0.00000E+00         0.00000E+00         0.46328E+05
 
    0.19562E+06         0.12142E+06         0.00000E+00
    0.12142E+06         0.33718E+05         0.00000E+00
    0.00000E+00         0.00000E+00         0.45867E+05
 
    0.19066E+06         0.12534E+06         0.00000E+00
    0.12534E+06         0.36280E+05         0.00000E+00
    0.00000E+00         0.00000E+00         0.45388E+05
 
    0.18553E+06         0.12915E+06         0.00000E+00
    0.12915E+06         0.38911E+05         0.00000E+00
    0.00000E+00         0.00000E+00         0.44889E+05
 
    0.18025E+06         0.13283E+06         0.00000E+00
    0.13283E+06         0.41605E+05         0.00000E+00
    0.00000E+00         0.00000E+00         0.44372E+05
 
    0.17482E+06         0.13640E+06         0.00000E+00
    0.13640E+06         0.44362E+05         0.00000E+00
    0.00000E+00         0.00000E+00         0.43836E+05
 
    0.16923E+06         0.13985E+06         0.00000E+00
    0.13985E+06         0.47177E+05         0.00000E+00
    0.00000E+00         0.00000E+00         0.43282E+05
 
    0.16351E+06         0.14318E+06         0.00000E+00
    0.14318E+06         0.50047E+05         0.00000E+00
    0.00000E+00         0.00000E+00         0.42711E+05
 
    0.15764E+06         0.14638E+06         0.00000E+00
    0.14638E+06         0.52971E+05         0.00000E+00
    0.00000E+00         0.00000E+00         0.42122E+05
 
    0.15163E+06         0.14945E+06         0.00000E+00
    0.14945E+06         0.55945E+05         0.00000E+00
    0.00000E+00         0.00000E+00         0.41515E+05
 
    0.14550E+06         0.15240E+06         0.00000E+00
    0.15240E+06         0.58966E+05         0.00000E+00
    0.00000E+00         0.00000E+00         0.40892E+05
 
    0.13923E+06         0.15522E+06         0.00000E+00
    0.15522E+06         0.62033E+05         0.00000E+00
    0.00000E+00         0.00000E+00         0.40253E+05
 
    0.13284E+06         0.15791E+06         0.00000E+00
    0.15791E+06         0.65141E+05         0.00000E+00
    0.00000E+00         0.00000E+00         0.39597E+05
 
    0.12633E+06         0.16046E+06         0.00000E+00
    0.16046E+06         0.68290E+05         0.00000E+00
    0.00000E+00         0.00000E+00         0.38925E+05
 
    0.11971E+06         0.16289E+06         0.00000E+00
    0.16289E+06         0.71476E+05         0.00000E+00
    0.00000E+00         0.00000E+00         0.38237E+05
 
    0.11297E+06         0.16518E+06         0.00000E+00
    0.16518E+06         0.74698E+05         0.00000E+00
    0.00000E+00         0.00000E+00         0.37534E+05
 
    0.10612E+06         0.16734E+06         0.00000E+00
    0.16734E+06         0.77952E+05         0.00000E+00
    0.00000E+00         0.00000E+00         0.36815E+05
 
    0.99172E+05         0.16936E+06         0.00000E+00
    0.16936E+06         0.81237E+05         0.00000E+00
    0.00000E+00         0.00000E+00         0.36082E+05
 
    0.92116E+05         0.17125E+06         0.00000E+00
    0.17125E+06         0.84551E+05         0.00000E+00
    0.00000E+00         0.00000E+00         0.35333E+05
 
    0.84960E+05         0.17300E+06         0.00000E+00
    0.17300E+06         0.87892E+05         0.00000E+00
    0.00000E+00         0.00000E+00         0.34570E+05
 
    0.77708E+05         0.17462E+06         0.00000E+00
    0.17462E+06         0.91258E+05         0.00000E+00
    0.00000E+00         0.00000E+00         0.33793E+05
 
    0.70361E+05         0.17609E+06         0.00000E+00
    0.17609E+06         0.94647E+05         0.00000E+00
    0.00000E+00         0.00000E+00         0.33002E+05
 
    0.62924E+05         0.17743E+06         0.00000E+00
    0.17743E+06         0.98058E+05         0.00000E+00
    0.00000E+00         0.00000E+00         0.32196E+05
 
    0.55398E+05         0.17862E+06         0.00000E+00
    0.17862E+06         0.10149E+06         0.00000E+00
    0.00000E+00         0.00000E+00         0.31377E+05
 
    0.47786E+05         0.17968E+06         0.00000E+00
    0.17968E+06         0.10494E+06         0.00000E+00
    0.00000E+00         0.00000E+00         0.30544E+05
 
    0.40091E+05         0.18059E+06         0.00000E+00
    0.18059E+06         0.10840E+06         0.00000E+00
    0.00000E+00         0.00000E+00         0.29698E+05
 
    0.32314E+05         0.18136E+06         0.00000E+00
    0.18136E+06         0.11188E+06         0.00000E+00
    0.00000E+00         0.00000E+00         0.28839E+05
 
    0.28343E+06         0.30317E+04         0.00000E+00
    0.30317E+04        -0.44791E+02         0.00000E+00
    0.00000E+00         0.00000E+00         0.56676E+05
 
    0.28363E+06         0.91243E+04         0.00000E+00
    0.91243E+04         0.99583E+02         0.00000E+00
    0.00000E+00         0.00000E+00         0.56745E+05
 
    0.28354E+06         0.15218E+05         0.00000E+00
    0.15218E+05         0.38720E+03         0.00000E+00
    0.00000E+00         0.00000E+00         0.56785E+05
 
    0.28317E+06         0.21304E+05         0.00000E+00
    0.21304E+05         0.81703E+03         0.00000E+00
    0.00000E+00         0.00000E+00         0.56797E+05
 
    0.28252E+06         0.27374E+05         0.00000E+00
    0.27374E+05         0.13878E+04         0.00000E+00
    0.00000E+00         0.00000E+00         0.56781E+05
 
    0.28159E+06         0.33420E+05         0.00000E+00
    0.33420E+05         0.20978E+04         0.00000E+00
    0.00000E+00         0.00000E+00         0.56737E+05
 
    0.28038E+06         0.39433E+05         0.00000E+00
    0.39433E+05         0.29453E+04         0.00000E+00
    0.00000E+00         0.00000E+00         0.56665E+05
 
    0.27890E+06         0.45407E+05         0.00000E+00
    0.45407E+05         0.39281E+04         0.00000E+00
    0.00000E+00         0.00000E+00         0.56566E+05
 
    0.27715E+06         0.51334E+05         0.00000E+00
    0.51334E+05         0.50440E+04         0.00000E+00
    0.00000E+00         0.00000E+00         0.56439E+05
 
    0.27513E+06         0.57206E+05         0.00000E+00
    0.57206E+05         0.62903E+04         0.00000E+00
    0.00000E+00         0.00000E+00         0.56285E+05
 
    0.27286E+06         0.63018E+05         0.00000E+00
    0.63018E+05         0.76643E+04         0.00000E+00
    0.00000E+00         0.00000E+00         0.56104E+05
 
    0.27032E+06         0.68761E+05         0.00000E+00
    0.68761E+05         0.91631E+04         0.00000E+00
    0.00000E+00         0.00000E+00         0.55898E+05
 
    0.26754E+06         0.74431E+05         0.00000E+00
    0.74431E+05         0.10784E+05         0.00000E+00
    0.00000E+00         0.00000E+00         0.55665E+05
 
    0.26451E+06         0.80021E+05         0.00000E+00
    0.80021E+05         0.12523E+05         0.00000E+00
    0.00000E+00         0.00000E+00         0.55406E+05
 
    0.26123E+06         0.85525E+05         0.00000E+00
    0.85525E+05         0.14377E+05         0.00000E+00
    0.00000E+00         0.00000E+00         0.55122E+05
 
    0.25772E+06         0.90938E+05         0.00000E+00
    0.90938E+05         0.16343E+05         0.00000E+00
    0.00000E+00         0.00000E+00         0.54813E+05
 
    0.25398E+06         0.96256E+05         0.00000E+00
    0.96256E+05         0.18417E+05         0.00000E+00
    0.00000E+00         0.00000E+00         0.54479E+05
 
    0.25001E+06         0.10147E+06         0.00000E+00
    0.10147E+06         0.20596E+05         0.00000E+00
    0.00000E+00         0.00000E+00         0.54121E+05
 
    0.24582E+06         0.10658E+06         0.00000E+00
    0.10658E+06         0.22876E+05         0.00000E+00
    0.00000E+00         0.00000E+00         0.53739E+05
 
    0.24142E+06         0.11159E+06         0.00000E+00
    0.11159E+06         0.25253E+05         0.00000E+00
    0.00000E+00         0.00000E+00         0.53334E+05
 
    0.23681E+06         0.11648E+06         0.00000E+00
    0.11648E+06         0.27723E+05         0.00000E+00
    0.00000E+00         0.00000E+00         0.52906E+05
 
    0.23199E+06         0.12125E+06         0.00000E+00
    0.12125E+06         0.30283E+05         0.00000E+00
    0.00000E+00         0.00000E+00         0.52455E+05
 
    0.22698E+06         0.12590E+06         0.00000E+00
    0.12590E+06         0.32930E+05         0.00000E+00
    0.00000E+00         0.00000E+00         0.51982E+05
 
    0.22178E+06         0.13043E+06         0.00000E+00
    0.13043E+06         0.35658E+05         0.00000E+00
    0.00000E+00         0.00000E+00         0.51488E+05
 
    0.21639E+06         0.13483E+06         0.00000E+00
    0.13483E+06         0.38465E+05         0.00000E+00
    0.00000E+00         0.00000E+00         0.50972E+05
 
    0.21083E+06         0.13911E+06         0.00000E+00
    0.13911E+06         0.41347E+05         0.00000E+00
    0.00000E+00         0.00000E+00         0.50435E+05
 
    0.20508E+06         0.14325E+06         0.00000E+00
    0.14325E+06         0.44301E+05         0.00000E+00
    0.00000E+00         0.00000E+00         0.49877E+05
 
    0.19917E+06         0.14726E+06         0.00000E+00
    0.14726E+06         0.47321E+05         0.00000E+00
    0.00000E+00         0.00000E+00         0.49299E+05
 
    0.19310E+06         0.15114E+06         0.00000E+00
    0.15114E+06         0.50406E+05         0.00000E+00
    0.00000E+00         0.00000E+00         0.48701E+05
 
    0.18687E+06         0.15487E+06         0.00000E+00
    0.15487E+06         0.53552E+05         0.00000E+00
    0.00000E+00         0.00000E+00         0.48084E+05
 
    0.18049E+06         0.15848E+06         0.00000E+00
    0.15848E+06         0.56756E+05         0.00000E+00
    0.00000E+00         0.00000E+00         0.47448E+05
 
    0.17396E+06         0.16194E+06         0.00000E+00
    0.16194E+06         0.60013E+05         0.00000E+00
    0.00000E+00         0.00000E+00         0.46794E+05
 
    0.16728E+06         0.16526E+06         0.00000E+00
    0.16526E+06         0.63321E+05         0.00000E+00
    0.00000E+00         0.00000E+00         0.46121E+05
 
    0.16047E+06         0.16844E+06         0.00000E+00
    0.16844E+06         0.66678E+05         0.00000E+00
    0.00000E+00         0.00000E+00         0.45430E+05
 
    0.15353E+06         0.17148E+06         0.00000E+00
    0.17148E+06         0.70079E+05         0.00000E+00
    0.00000E+00         0.00000E+00         0.44721E+05
 
    0.14645E+06         0.17437E+06         0.00000E+00
    0.17437E+06         0.73523E+05         0.00000E+00
    0.00000E+00         0.00000E+00         0.43995E+05
 
    0.13926E+06         0.17712E+06         0.00000E+00
    0.17712E+06         0.77006E+05         0.00000E+00
    0.00000E+00         0.00000E+00         0.43253E+05
 
    0.13194E+06         0.17973E+06         0.00000E+00
    0.17973E+06         0.80526E+05         0.00000E+00
    0.00000E+00         0.00000E+00         0.42493E+05
 
    0.12451E+06         0.18219E+06         0.00000E+00
    0.18219E+06         0.84081E+05         0.00000E+00
    0.00000E+00         0.00000E+00         0.41717E+05
 
    0.11696E+06         0.18451E+06         0.00000E+00
    0.18451E+06         0.87668E+05         0.00000E+00
    0.00000E+00         0.00000E+00         0.40925E+05
 
    0.10930E+06         0.18668E+06         0.00000E+00
    0.18668E+06         0.91285E+05         0.00000E+00
    0.00000E+00         0.00000E+00         0.40118E+05
 
    0.10154E+06         0.18870E+06         0.00000E+00
    0.18870E+06         0.94930E+05         0.00000E+00
    0.00000E+00         0.00000E+00         0.39294E+05
 
    0.93678E+05         0.19058E+06         0.00000E+00
    0.19058E+06         0.98600E+05         0.00000E+00
    0.00000E+00         0.00000E+00         0.38456E+05
 
    0.85713E+05         0.19231E+06         0.00000E+00
    0.19231E+06         0.10230E+06         0.00000E+00
    0.00000E+00         0.00000E+00         0.37602E+05
 
    0.77652E+05         0.19390E+06         0.00000E+00
    0.19390E+06         0.10601E+06         0.00000E+00
    0.00000E+00         0.00000E+00         0.36733E+05
 
    0.69496E+05         0.19534E+06         0.00000E+00
    0.19534E+06         0.10975E+06         0.00000E+00
    0.00000E+00         0.00000E+00         0.35849E+05
 
    0.61249E+05         0.19663E+06         0.00000E+00
    0.19663E+06         0.11351E+06         0.00000E+00
    0.00000E+00         0.00000E+00         0.34951E+05
 
    0.52911E+05         0.19777E+06         0.00000E+00
    0.19777E+06         0.11728E+06         0.00000E+00
    0.00000E+00         0.00000E+00         0.34039E+05
 
    0.44486E+05         0.19876E+06         0.00000E+00
    0.19876E+06         0.12108E+06         0.00000E+00
    0.00000E+00         0.00000E+00         0.33112E+05
 
    0.35974E+05         0.19960E+06         0.00000E+00
    0.19960E+06         0.12488E+06         0.00000E+00
    0.00000E+00         0.00000E+00         0.32172E+05
 
    0.31577E+06         0.34239E+04         0.00000E+00
    0.34239E+04        -0.52226E+02         0.00000E+00
    0.00000E+00         0.00000E+00         0.63144E+05
 
    0.31599E+06         0.10293E+05         0.00000E+00
    0.10293E+05         0.11749E+03         0.00000E+00
    0.00000E+00         0.00000E+00         0.63221E+05
 
    0.31587E+06         0.17157E+05         0.00000E+00
    0.17157E+05         0.45447E+03         0.00000E+00
    0.00000E+00         0.00000E+00         0.63265E+05
 
    0.31542E+06         0.24006E+05         0.00000E+00
    0.24006E+05         0.95700E+03         0.00000E+00
    0.00000E+00         0.00000E+00         0.63275E+05
 
    0.31464E+06         0.30830E+05         0.00000E+00
    0.30830E+05         0.16230E+04         0.00000E+00
    0.00000E+00         0.00000E+00         0.63254E+05
 
    0.31355E+06         0.37619E+05         0.00000E+00
    0.37619E+05         0.24501E+04         0.00000E+00
    0.00000E+00         0.00000E+00         0.63199E+05
 
    0.31213E+06         0.44364E+05         0.00000E+00
    0.44364E+05         0.34357E+04         0.00000E+00
    0.00000E+00         0.00000E+00         0.63113E+05
 
    0.31040E+06         0.51056E+05         0.00000E+00
    0.51056E+05         0.45766E+04         0.00000E+00
    0.00000E+00         0.00000E+00         0.62995E+05
 
    0.30836E+06         0.57687E+05         0.00000E+00
    0.57687E+05         0.58697E+04         0.00000E+00
    0.00000E+00         0.00000E+00         0.62846E+05
 
    0.30602E+06         0.64247E+05         0.00000E+00
    0.64247E+05         0.73116E+04         0.00000E+00
    0.00000E+00         0.00000E+00         0.62666E+05
 
    0.30338E+06         0.70731E+05         0.00000E+00
    0.70731E+05         0.88984E+04         0.00000E+00
    0.00000E+00         0.00000E+00         0.62455E+05
 
    0.30045E+06         0.77129E+05         0.00000E+00
    0.77129E+05         0.10626E+05         0.00000E+00
    0.00000E+00         0.00000E+00         0.62215E+05
 
    0.29723E+06         0.83436E+05         0.00000E+00
    0.83436E+05         0.12492E+05         0.00000E+00
    0.00000E+00         0.00000E+00         0.61945E+05
 
    0.29374E+06         0.89644E+05         0.00000E+00
    0.89644E+05         0.14490E+05         0.00000E+00
    0.00000E+00         0.00000E+00         0.61646E+05
 
    0.28998E+06         0.95747E+05         0.00000E+00
    0.95747E+05         0.16616E+05         0.00000E+00
    0.00000E+00         0.00000E+00         0.61319E+05
 
    0.28595E+06         0.10174E+06         0.00000E+00
    0.10174E+06         0.18867E+05         0.00000E+00
    0.00000E+00         0.00000E+00         0.60964E+05
 
    0.28167E+06         0.10762E+06         0.00000E+00
    0.10762E+06         0.21238E+05         0.00000E+00
    0.00000E+00         0.00000E+00         0.60581E+05
 
    0.27713E+06         0.11337E+06         0.00000E+00
    0.11337E+06         0.23723E+05         0.00000E+00
    0.00000E+00         0.00000E+00         0.60172E+05
 
    0.27236E+06         0.11900E+06         0.00000E+00
    0.11900E+06         0.26320E+05         0.00000E+00
    0.00000E+00         0.00000E+00         0.59736E+05
 
    0.26735E+06         0.12450E+06         0.00000E+00
    0.12450E+06         0.29022E+05         0.00000E+00
    0.00000E+00         0.00000E+00         0.59274E+05
 
    0.26211E+06         0.12987E+06         0.00000E+00
    0.12987E+06         0.31825E+05         0.00000E+00
    0.00000E+00         0.00000E+00         0.58788E+05
 
    0.25666E+06         0.13509E+06         0.00000E+00
    0.13509E+06         0.34725E+05         0.00000E+00
    0.00000E+00         0.00000E+00         0.58276E+05
 
    0.25099E+06         0.14018E+06         0.00000E+00
    0.14018E+06         0.37717E+05         0.00000E+00
    0.00000E+00         0.00000E+00         0.57741E+05
 
    0.24511E+06         0.14512E+06         0.00000E+00
    0.14512E+06         0.40796E+05         0.00000E+00
    0.00000E+00         0.00000E+00         0.57181E+05
 
    0.23904E+06         0.14992E+06         0.00000E+00
    0.14992E+06         0.43959E+05         0.00000E+00
    0.00000E+00         0.00000E+00         0.56599E+05
 
    0.23277E+06         0.15457E+06         0.00000E+00
    0.15457E+06         0.47200E+05         0.00000E+00
    0.00000E+00         0.00000E+00         0.55994E+05
 
    0.22632E+06         0.15907E+06         0.00000E+00
    0.15907E+06         0.50514E+05         0.00000E+00
    0.00000E+00         0.00000E+00         0.55368E+05
 
    0.21970E+06         0.16341E+06         0.00000E+00
    0.16341E+06         0.53899E+05         0.00000E+00
    0.00000E+00         0.00000E+00         0.54719E+05
 
    0.21290E+06         0.16761E+06         0.00000E+00
    0.16761E+06         0.57350E+05         0.00000E+00
    0.00000E+00         0.00000E+00         0.54050E+05
 
    0.20594E+06         0.17164E+06         0.00000E+00
    0.17164E+06         0.60862E+05         0.00000E+00
    0.00000E+00         0.00000E+00         0.53360E+05
 
    0.19882E+06         0.17552E+06         0.00000E+00
    0.17552E+06         0.64433E+05         0.00000E+00
    0.00000E+00         0.00000E+00         0.52651E+05
 
    0.19155E+06         0.17925E+06         0.00000E+00
    0.17925E+06         0.68057E+05         0.00000E+00
    0.00000E+00         0.00000E+00         0.51921E+05
 
    0.18413E+06         0.18282E+06         0.00000E+00
    0.18282E+06         0.71732E+05         0.00000E+00
    0.00000E+00         0.00000E+00         0.51172E+05
 
    0.17657E+06         0.18623E+06         0.00000E+00
    0.18623E+06         0.75454E+05         0.00000E+00
    0.00000E+00         0.00000E+00         0.50405E+05
 
    0.16888E+06         0.18948E+06         0.00000E+00
    0.18948E+06         0.79220E+05         0.00000E+00
    0.00000E+00         0.00000E+00         0.49619E+05
 
    0.16105E+06         0.19258E+06         0.00000E+00
    0.19258E+06         0.83026E+05         0.00000E+00
    0.00000E+00         0.00000E+00         0.48816E+05
 
    0.15310E+06         0.19551E+06         0.00000E+00
    0.19551E+06         0.86870E+05         0.00000E+00
    0.00000E+00         0.00000E+00         0.47995E+05
 
    0.14503E+06         0.19830E+06         0.00000E+00
    0.19830E+06         0.90749E+05         0.00000E+00
    0.00000E+00         0.00000E+00         0.47156E+05
 
    0.13684E+06         0.20092E+06         0.00000E+00
    0.20092E+06         0.94661E+05         0.00000E+00
    0.00000E+00         0.00000E+00         0.46301E+05
 
    0.12854E+06         0.20339E+06         0.00000E+00
    0.20339E+06         0.98602E+05         0.00000E+00
    0.00000E+00         0.00000E+00         0.45429E+05
 
    0.12013E+06         0.20570E+06         0.00000E+00
    0.20570E+06         0.10257E+06         0.00000E+00
    0.00000E+00         0.00000E+00         0.44541E+05
 
    0.11162E+06         0.20785E+06         0.00000E+00
    0.20785E+06         0.10657E+06         0.00000E+00
    0.00000E+00         0.00000E+00         0.43637E+05
 
    0.10300E+06         0.20985E+06         0.00000E+00
    0.20985E+06         0.11058E+06         0.00000E+00
    0.00000E+00         0.00000E+00         0.42716E+05
 
    0.94279E+05         0.21170E+06         0.00000E+00
    0.21170E+06         0.11463E+06         0.00000E+00
    0.00000E+00         0.00000E+00         0.41781E+05
 
    0.85463E+05         0.21339E+06         0.00000E+00
    0.21339E+06         0.11869E+06         0.00000E+00
    0.00000E+00         0.00000E+00         0.40830E+05
 
    0.76552E+05         0.21492E+06         0.00000E+00
    0.21492E+06         0.12277E+06         0.00000E+00
    0.00000E+00         0.00000E+00         0.39864E+05
 
    0.67548E+05         0.21630E+06         0.00000E+00
    0.21630E+06         0.12687E+06         0.00000E+00
    0.00000E+00         0.00000E+00         0.38883E+05
 
    0.58452E+05         0.21753E+06         0.00000E+00
    0.21753E+06         0.13098E+06         0.00000E+00
    0.00000E+00         0.00000E+00         0.37887E+05
 
    0.49267E+05         0.21860E+06         0.00000E+00
    0.21860E+06         0.13511E+06         0.00000E+00
    0.00000E+00         0.00000E+00         0.36876E+05
 
    0.39993E+05         0.21952E+06         0.00000E+00
    0.21952E+06         0.13926E+06         0.00000E+00
    0.00000E+00         0.00000E+00         0.35851E+05
 
    0.35234E+06         0.38869E+04         0.00000E+00
    0.38869E+04        -0.61090E+02         0.00000E+00
    0.00000E+00         0.00000E+00         0.70455E+05
 
    0.35254E+06         0.11665E+05         0.00000E+00
    0.11665E+05         0.13931E+03         0.00000E+00
    0.00000E+00         0.00000E+00         0.70535E+05
 
    0.35234E+06         0.19429E+05         0.00000E+00
    0.19429E+05         0.53568E+03         0.00000E+00
    0.00000E+00         0.00000E+00         0.70575E+05
 
    0.35176E+06         0.27166E+05         0.00000E+00
    0.27166E+05         0.11253E+04         0.00000E+00
    0.00000E+00         0.00000E+00         0.70578E+05
 
    0.35080E+06         0.34864E+05         0.00000E+00
    0.34864E+05         0.19051E+04         0.00000E+00
    0.00000E+00         0.00000E+00         0.70542E+05
 
    0.34947E+06         0.42512E+05         0.00000E+00
    0.42512E+05         0.28717E+04         0.00000E+00
    0.00000E+00         0.00000E+00         0.70468E+05
 
    0.34777E+06         0.50100E+05         0.00000E+00
    0.50100E+05         0.40210E+04         0.00000E+00
    0.00000E+00         0.00000E+00         0.70358E+05
 
    0.34571E+06         0.57616E+05         0.00000E+00
    0.57616E+05         0.53491E+04         0.00000E+00
    0.00000E+00         0.00000E+00         0.70211E+05
 
    0.34329E+06         0.65051E+05         0.00000E+00
    0.65051E+05         0.68515E+04         0.00000E+00
    0.00000E+00         0.00000E+00         0.70028E+05
 
    0.34053E+06         0.72395E+05         0.00000E+00
    0.72395E+05         0.85235E+04         0.00000E+00
    0.00000E+00         0.00000E+00         0.69810E+05
 
    0.33743E+06         0.79640E+05         0.00000E+00
    0.79640E+05         0.10360E+05         0.00000E+00
    0.00000E+00         0.00000E+00         0.69558E+05
 
    0.33400E+06         0.86778E+05         0.00000E+00
    0.86778E+05         0.12356E+05         0.00000E+00
    0.00000E+00         0.00000E+00         0.69271E+05
 
    0.33025E+06         0.93800E+05         0.00000E+00
    0.93800E+05         0.14507E+05         0.00000E+00
    0.00000E+00         0.00000E+00         0.68952E+05
 
    0.32619E+06         0.10070E+06         0.00000E+00
    0.10070E+06         0.16806E+05         0.00000E+00
    0.00000E+00         0.00000E+00         0.68600E+05
 
    0.32183E+06         0.10747E+06         0.00000E+00
    0.10747E+06         0.19249E+05         0.00000E+00
    0.00000E+00         0.00000E+00         0.68216E+05
 
    0.31717E+06         0.11410E+06         0.00000E+00
    0.11410E+06         0.21829E+05         0.00000E+00
    0.00000E+00         0.00000E+00         0.67801E+05
 
    0.31224E+06         0.12060E+06         0.00000E+00
    0.12060E+06         0.24541E+05         0.00000E+00
    0.00000E+00         0.00000E+00         0.67355E+05
 
    0.30702E+06         0.12694E+06         0.00000E+00
    0.12694E+06         0.27380E+05         0.00000E+00
    0.00000E+00         0.00000E+00         0.66880E+05
 
    0.30154E+06         0.13313E+06         0.00000E+00
    0.13313E+06         0.30338E+05         0.00000E+00
    0.00000E+00         0.00000E+00         0.66377E+05
 
    0.29581E+06         0.13917E+06         0.00000E+00
    0.13917E+06         0.33412E+05         0.00000E+00
    0.00000E+00         0.00000E+00         0.65845E+05
 
    0.28983E+06         0.14505E+06         0.00000E+00
    0.14505E+06         0.36594E+05         0.00000E+00
    0.00000E+00         0.00000E+00         0.65285E+05
 
    0.28362E+06         0.15077E+06         0.00000E+00
    0.15077E+06         0.39879E+05         0.00000E+00
    0.00000E+00         0.00000E+00         0.64699E+05
 
    0.27717E+06         0.15631E+06         0.00000E+00
    0.15631E+06         0.43262E+05         0.00000E+00
    0.00000E+00         0.00000E+00         0.64087E+05
 
    0.27051E+06         0.16169E+06         0.00000E+00
    0.16169E+06         0.46737E+05         0.00000E+00
    0.00000E+00         0.00000E+00         0.63450E+05
 
    0.26364E+06         0.16690E+06         0.00000E+00
    0.16690E+06         0.50298E+05         0.00000E+00
    0.00000E+00         0.00000E+00         0.62788E+05
 
    0.25657E+06         0.17194E+06         0.00000E+00
    0.17194E+06         0.53940E+05         0.00000E+00
    0.00000E+00         0.00000E+00         0.62103E+05
 
    0.24931E+06         0.17680E+06         0.00000E+00
    0.17680E+06         0.57659E+05         0.00000E+00
    0.00000E+00         0.00000E+00         0.61394E+05
 
    0.24186E+06         0.18149E+06         0.00000E+00
    0.18149E+06         0.61448E+05         0.00000E+00
    0.00000E+00         0.00000E+00         0.60663E+05
 
    0.23424E+06         0.18600E+06         0.00000E+00
    0.18600E+06         0.65303E+05         0.00000E+00
    0.00000E+00         0.00000E+00         0.59909E+05
 
    0.22645E+06         0.19033E+06         0.00000E+00
    0.19033E+06         0.69219E+05         0.00000E+00
    0.00000E+00         0.00000E+00         0.59135E+05
 
    0.21850E+06         0.19449E+06         0.00000E+00
    0.19449E+06         0.73193E+05         0.00000E+00
    0.00000E+00         0.00000E+00         0.58339E+05
 
    0.21040E+06         0.19848E+06         0.00000E+00
    0.19848E+06         0.77218E+05         0.00000E+00
    0.00000E+00         0.00000E+00         0.57524E+05
 
    0.20215E+06         0.20228E+06         0.00000E+00
    0.20228E+06         0.81292E+05         0.00000E+00
    0.00000E+00         0.00000E+00         0.56689E+05
 
    0.19376E+06         0.20591E+06         0.00000E+00
    0.20591E+06         0.85410E+05         0.00000E+00
    0.00000E+00         0.00000E+00         0.55835E+05
 
    0.18524E+06         0.20937E+06         0.00000E+00
    0.20937E+06         0.89569E+05         0.00000E+00
    0.00000E+00         0.00000E+00         0.54962E+05
 
    0.17659E+06         0.21266E+06         0.00000E+00
    0.21266E+06         0.93765E+05         0.00000E+00
    0.00000E+00         0.00000E+00         0.54072E+05
 
    0.16782E+06         0.21577E+06         0.00000E+00
    0.21577E+06         0.97995E+05         0.00000E+00
    0.00000E+00         0.00000E+00         0.53163E+05
 
    0.15893E+06         0.21871E+06         0.00000E+00
    0.21871E+06         0.10226E+06         0.00000E+00
    0.00000E+00         0.00000E+00         0.52238E+05
 
    0.14993E+06         0.22148E+06         0.00000E+00
    0.22148E+06         0.10655E+06         0.00000E+00
    0.00000E+00         0.00000E+00         0.51295E+05
 
    0.14082E+06         0.22408E+06         0.00000E+00
    0.22408E+06         0.11086E+06         0.00000E+00
    0.00000E+00         0.00000E+00         0.50336E+05
 
    0.13160E+06         0.22652E+06         0.00000E+00
    0.22652E+06         0.11520E+06         0.00000E+00
    0.00000E+00         0.00000E+00         0.49361E+05
 
    0.12228E+06         0.22879E+06         0.00000E+00
    0.22879E+06         0.11956E+06         0.00000E+00
    0.00000E+00         0.00000E+00         0.48369E+05
 
    0.11287E+06         0.23090E+06         0.00000E+00
    0.23090E+06         0.12394E+06         0.00000E+00
    0.00000E+00         0.00000E+00         0.47362E+05
 
    0.10336E+06         0.23284E+06         0.00000E+00
    0.23284E+06         0.12834E+06         0.00000E+00
    0.00000E+00         0.00000E+00         0.46340E+05
 
    0.93754E+05         0.23462E+06         0.00000E+00
    0.23462E+06         0.13276E+06         0.00000E+00
    0.00000E+00         0.00000E+00         0.45303E+05
 
    0.84057E+05         0.23624E+06         0.00000E+00
    0.23624E+06         0.13719E+06         0.00000E+00
    0.00000E+00         0.00000E+00         0.44250E+05
 
    0.74271E+05         0.23771E+06         0.00000E+00
    0.23771E+06         0.14164E+06         0.00000E+00
    0.00000E+00         0.00000E+00         0.43182E+05
 
    0.64395E+05         0.23901E+06         0.00000E+00
    0.23901E+06         0.14610E+06         0.00000E+00
    0.00000E+00         0.00000E+00         0.42100E+05
 
    0.54431E+05         0.24016E+06         0.00000E+00
    0.24016E+06         0.15058E+06         0.00000E+00
    0.00000E+00         0.00000E+00         0.41002E+05
 
    0.44379E+05         0.24115E+06         0.00000E+00
    0.24115E+06         0.15507E+06         0.00000E+00
    0.00000E+00         0.00000E+00         0.39890E+05
 
    0.39387E+06         0.44358E+04         0.00000E+00
    0.44358E+04        -0.71615E+02         0.00000E+00
    0.00000E+00         0.00000E+00         0.78759E+05
 
    0.39399E+06         0.13283E+05         0.00000E+00
    0.13283E+05         0.16579E+03         0.00000E+00
    0.00000E+00         0.00000E+00         0.78831E+05
 
    0.39365E+06         0.22101E+05         0.00000E+00
    0.22101E+05         0.63335E+03         0.00000E+00
    0.00000E+00         0.00000E+00         0.78857E+05
 
    0.39287E+06         0.30873E+05         0.00000E+00
    0.30873E+05         0.13270E+04         0.00000E+00
    0.00000E+00         0.00000E+00         0.78839E+05
 
    0.39164E+06         0.39588E+05         0.00000E+00
    0.39588E+05         0.22422E+04         0.00000E+00
    0.00000E+00         0.00000E+00         0.78775E+05
 
    0.38997E+06         0.48230E+05         0.00000E+00
    0.48230E+05         0.33740E+04         0.00000E+00
    0.00000E+00         0.00000E+00         0.78669E+05
 
    0.38788E+06         0.56788E+05         0.00000E+00
    0.56788E+05         0.47171E+04         0.00000E+00
    0.00000E+00         0.00000E+00         0.78519E+05
 
    0.38537E+06         0.65250E+05         0.00000E+00
    0.65250E+05         0.62658E+04         0.00000E+00
    0.00000E+00         0.00000E+00         0.78328E+05
 
    0.38246E+06         0.73604E+05         0.00000E+00
    0.73604E+05         0.80140E+04         0.00000E+00
    0.00000E+00         0.00000E+00         0.78095E+05
 
    0.37916E+06         0.81840E+05         0.00000E+00
    0.81840E+05         0.99556E+04         0.00000E+00
    0.00000E+00         0.00000E+00         0.77823E+05
 
    0.37547E+06         0.89948E+05         0.00000E+00
    0.89948E+05         0.12084E+05         0.00000E+00
    0.00000E+00         0.00000E+00         0.77511E+05
 
    0.37141E+06         0.97918E+05         0.00000E+00
    0.97918E+05         0.14393E+05         0.00000E+00
    0.00000E+00         0.00000E+00         0.77161E+05
 
    0.36699E+06         0.10574E+06         0.00000E+00
    0.10574E+06         0.16874E+05         0.00000E+00
    0.00000E+00         0.00000E+00         0.76774E+05
 
    0.36223E+06         0.11341E+06         0.00000E+00
    0.11341E+06         0.19522E+05         0.00000E+00
    0.00000E+00         0.00000E+00         0.76350E+05
 
    0.35712E+06         0.12092E+06         0.00000E+00
    0.12092E+06         0.22330E+05         0.00000E+00
    0.00000E+00         0.00000E+00         0.75891E+05
 
    0.35170E+06         0.12826E+06         0.00000E+00
    0.12826E+06         0.25289E+05         0.00000E+00
    0.00000E+00         0.00000E+00         0.75397E+05
 
    0.34596E+06         0.13543E+06         0.00000E+00
    0.13543E+06         0.28393E+05         0.00000E+00
    0.00000E+00         0.00000E+00         0.74870E+05
 
    0.33992E+06         0.14242E+06         0.00000E+00
    0.14242E+06         0.31634E+05         0.00000E+00
    0.00000E+00         0.00000E+00         0.74311E+05
 
    0.33360E+06         0.14922E+06         0.00000E+00
    0.14922E+06         0.35006E+05         0.00000E+00
    0.00000E+00         0.00000E+00         0.73720E+05
 
    0.32699E+06         0.15584E+06         0.00000E+00
    0.15584E+06         0.38501E+05         0.00000E+00
    0.00000E+00         0.00000E+00         0.73099E+05
 
    0.32013E+06         0.16227E+06         0.00000E+00
    0.16227E+06         0.42112E+05         0.00000E+00
    0.00000E+00         0.00000E+00         0.72449E+05
 
    0.31302E+06         0.16850E+06         0.00000E+00
    0.16850E+06         0.45832E+05         0.00000E+00
    0.00000E+00         0.00000E+00         0.71770E+05
 
    0.30566E+06         0.17453E+06         0.00000E+00
    0.17453E+06         0.49654E+05         0.00000E+00
    0.00000E+00         0.00000E+00         0.71063E+05
 
    0.29808E+06         0.18036E+06         0.00000E+00
    0.18036E+06         0.53572E+05         0.00000E+00
    0.00000E+00         0.00000E+00         0.70330E+05
 
    0.29028E+06         0.18600E+06         0.00000E+00
    0.18600E+06         0.57578E+05         0.00000E+00
    0.00000E+00         0.00000E+00         0.69571E+05
 
    0.28227E+06         0.19143E+06         0.00000E+00
    0.19143E+06         0.61667E+05         0.00000E+00
    0.00000E+00         0.00000E+00         0.68788E+05
 
    0.27407E+06         0.19666E+06         0.00000E+00
    0.19666E+06         0.65832E+05         0.00000E+00
    0.00000E+00         0.00000E+00         0.67980E+05
 
    0.26568E+06         0.20169E+06         0.00000E+00
    0.20169E+06         0.70067E+05         0.00000E+00
    0.00000E+00         0.00000E+00         0.67149E+05
 
    0.25712E+06         0.20651E+06         0.00000E+00
    0.20651E+06         0.74367E+05         0.00000E+00
    0.00000E+00         0.00000E+00         0.66296E+05
 
    0.24839E+06         0.21114E+06         0.00000E+00
    0.21114E+06         0.78725E+05         0.00000E+00
    0.00000E+00         0.00000E+00         0.65422E+05
 
    0.23950E+06         0.21556E+06         0.00000E+00
    0.21556E+06         0.83137E+05         0.00000E+00
    0.00000E+00         0.00000E+00         0.64527E+05
 
    0.23046E+06         0.21979E+06         0.00000E+00
    0.21979E+06         0.87597E+05         0.00000E+00
    0.00000E+00         0.00000E+00         0.63612E+05
 
    0.22128E+06         0.22381E+06         0.00000E+00
    0.22381E+06         0.92101E+05         0.00000E+00
    0.00000E+00         0.00000E+00         0.62677E+05
 
    0.21197E+06         0.22765E+06         0.00000E+00
    0.22765E+06         0.96645E+05         0.00000E+00
    0.00000E+00         0.00000E+00         0.61724E+05
 
    0.20254E+06         0.23129E+06         0.00000E+00
    0.23129E+06         0.10122E+06         0.00000E+00
    0.00000E+00         0.00000E+00         0.60752E+05
 
    0.19298E+06         0.23474E+06         0.00000E+00
    0.23474E+06         0.10584E+06         0.00000E+00
    0.00000E+00         0.00000E+00         0.59764E+05
 
    0.18331E+06         0.23800E+06         0.00000E+00
    0.23800E+06         0.11047E+06         0.00000E+00
    0.00000E+00         0.00000E+00         0.58758E+05
 
    0.17354E+06         0.24107E+06         0.00000E+00
    0.24107E+06         0.11514E+06         0.00000E+00
    0.00000E+00         0.00000E+00         0.57735E+05
 
    0.16366E+06         0.24396E+06         0.00000E+00
    0.24396E+06         0.11982E+06         0.00000E+00
    0.00000E+00         0.00000E+00         0.56697E+05
 
    0.15368E+06         0.24668E+06         0.00000E+00
    0.24668E+06         0.12453E+06         0.00000E+00
    0.00000E+00         0.00000E+00         0.55642E+05
 
    0.14361E+06         0.24921E+06         0.00000E+00
    0.24921E+06         0.12925E+06         0.00000E+00
    0.00000E+00         0.00000E+00         0.54573E+05
 
    0.13345E+06         0.25157E+06         0.00000E+00
    0.25157E+06         0.13399E+06         0.00000E+00
    0.00000E+00         0.00000E+00         0.53488E+05
 
    0.12320E+06         0.25376E+06         0.00000E+00
    0.25376E+06         0.13874E+06         0.00000E+00
    0.00000E+00         0.00000E+00         0.52389E+05
 
    0.11287E+06         0.25578E+06         0.00000E+00
    0.25578E+06         0.14351E+06         0.00000E+00
    0.00000E+00         0.00000E+00         0.51275E+05
 
    0.10245E+06         0.25764E+06         0.00000E+00
    0.25764E+06         0.14828E+06         0.00000E+00
    0.00000E+00         0.00000E+00         0.50147E+05
 
    0.91950E+05         0.25933E+06         0.00000E+00
    0.25933E+06         0.15307E+06         0.00000E+00
    0.00000E+00         0.00000E+00         0.49004E+05
 
    0.81367E+05         0.26086E+06         0.00000E+00
    0.26086E+06         0.15787E+06         0.00000E+00
    0.00000E+00         0.00000E+00         0.47848E+05
 
    0.70703E+05         0.26223E+06         0.00000E+00
    0.26223E+06         0.16268E+06         0.00000E+00
    0.00000E+00         0.00000E+00         0.46677E+05
 
    0.59956E+05         0.26345E+06         0.00000E+00
    0.26345E+06         0.16751E+06         0.00000E+00
    0.00000E+00         0.00000E+00         0.45492E+05
 
    0.49126E+05         0.26451E+06         0.00000E+00
    0.26451E+06         0.17234E+06         0.00000E+00
    0.00000E+00         0.00000E+00         0.44294E+05
 
    0.44125E+06         0.50884E+04         0.00000E+00
    0.50884E+04        -0.84031E+02         0.00000E+00
    0.00000E+00         0.00000E+00         0.88233E+05
 
    0.44121E+06         0.15195E+05         0.00000E+00
    0.15195E+05         0.19776E+03         0.00000E+00
    0.00000E+00         0.00000E+00         0.88281E+05
 
    0.44063E+06         0.25248E+05         0.00000E+00
    0.25248E+05         0.75014E+03         0.00000E+00
    0.00000E+00         0.00000E+00         0.88275E+05
 
    0.43951E+06         0.35231E+05         0.00000E+00
    0.35231E+05         0.15672E+04         0.00000E+00
    0.00000E+00         0.00000E+00         0.88216E+05
 
    0.43789E+06         0.45126E+05         0.00000E+00
    0.45126E+05         0.26424E+04         0.00000E+00
    0.00000E+00         0.00000E+00         0.88106E+05
 
    0.43576E+06         0.54920E+05         0.00000E+00
    0.54920E+05         0.39690E+04         0.00000E+00
    0.00000E+00         0.00000E+00         0.87945E+05
 
    0.43314E+06         0.64597E+05         0.00000E+00
    0.64597E+05         0.55396E+04         0.00000E+00
    0.00000E+00         0.00000E+00         0.87735E+05
 
    0.43004E+06         0.74144E+05         0.00000E+00
    0.74144E+05         0.73464E+04         0.00000E+00
    0.00000E+00         0.00000E+00         0.87476E+05
 
    0.42647E+06         0.83548E+05         0.00000E+00
    0.83548E+05         0.93816E+04         0.00000E+00
    0.00000E+00         0.00000E+00         0.87171E+05
 
    0.42246E+06         0.92797E+05         0.00000E+00
    0.92797E+05         0.11637E+05         0.00000E+00
    0.00000E+00         0.00000E+00         0.86820E+05
 
    0.41802E+06         0.10188E+06         0.00000E+00
    0.10188E+06         0.14103E+05         0.00000E+00
    0.00000E+00         0.00000E+00         0.86425E+05
 
    0.41316E+06         0.11079E+06         0.00000E+00
    0.11079E+06         0.16773E+05         0.00000E+00
    0.00000E+00         0.00000E+00         0.85986E+05
 
    0.40789E+06         0.11951E+06         0.00000E+00
    0.11951E+06         0.19637E+05         0.00000E+00
    0.00000E+00         0.00000E+00         0.85506E+05
 
    0.40224E+06         0.12804E+06         0.00000E+00
    0.12804E+06         0.22685E+05         0.00000E+00
    0.00000E+00         0.00000E+00         0.84985E+05
 
    0.39622E+06         0.13636E+06         0.00000E+00
    0.13636E+06         0.25910E+05         0.00000E+00
    0.00000E+00         0.00000E+00         0.84426E+05
 
    0.38984E+06         0.14448E+06         0.00000E+00
    0.14448E+06         0.29302E+05         0.00000E+00
    0.00000E+00         0.00000E+00         0.83828E+05
 
    0.38312E+06         0.15239E+06         0.00000E+00
    0.15239E+06         0.32851E+05         0.00000E+00
    0.00000E+00         0.00000E+00         0.83194E+05
 
    0.37608E+06         0.16007E+06         0.00000E+00
    0.16007E+06         0.36550E+05         0.00000E+00
    0.00000E+00         0.00000E+00         0.82525E+05
 
    0.36872E+06         0.16753E+06         0.00000E+00
    0.16753E+06         0.40389E+05         0.00000E+00
    0.00000E+00         0.00000E+00         0.81823E+05
 
    0.36108E+06         0.17476E+06         0.00000E+00
    0.17476E+06         0.44358E+05         0.00000E+00
    0.00000E+00         0.00000E+00         0.81088E+05
 
    0.35316E+06         0.18177E+06         0.00000E+00
    0.18177E+06         0.48451E+05         0.00000E+00
    0.00000E+00         0.00000E+00         0.80321E+05
 
    0.34497E+06         0.18854E+06         0.00000E+00
    0.18854E+06         0.52657E+05         0.00000E+00
    0.00000E+00         0.00000E+00         0.79525E+05
 
    0.33653E+06         0.19507E+06         0.00000E+00
    0.19507E+06         0.56969E+05         0.00000E+00
    0.00000E+00         0.00000E+00         0.78700E+05
 
    0.32786E+06         0.20137E+06         0.00000E+00
    0.20137E+06         0.61378E+05         0.00000E+00
    0.00000E+00         0.00000E+00         0.77848E+05
 
    0.31897E+06         0.20743E+06         0.00000E+00
    0.20743E+06         0.65877E+05         0.00000E+00
    0.00000E+00         0.00000E+00         0.76969E+05
 
    0.30987E+06         0.21326E+06         0.00000E+00
    0.21326E+06         0.70457E+05         0.00000E+00
    0.00000E+00         0.00000E+00         0.76066E+05
 
    0.30058E+06         0.21885E+06         0.00000E+00
    0.21885E+06         0.75112E+05         0.00000E+00
    0.00000E+00         0.00000E+00         0.75138E+05
 
    0.29110E+06         0.22421E+06         0.00000E+00
    0.22421E+06         0.79834E+05         0.00000E+00
    0.00000E+00         0.00000E+00         0.74187E+05
 
    0.28146E+06         0.22933E+06         0.00000E+00
    0.22933E+06         0.84617E+05         0.00000E+00
    0.00000E+00         0.00000E+00         0.73215E+05
 
    0.27166E+06         0.23423E+06         0.00000E+00
    0.23423E+06         0.89454E+05         0.00000E+00
    0.00000E+00         0.00000E+00         0.72222E+05
 
    0.26170E+06         0.23889E+06         0.00000E+00
    0.23889E+06         0.94338E+05         0.00000E+00
    0.00000E+00         0.00000E+00         0.71209E+05
 
    0.25162E+06         0.24333E+06         0.00000E+00
    0.24333E+06         0.99265E+05         0.00000E+00
    0.00000E+00         0.00000E+00         0.70176E+05
 
    0.24140E+06         0.24755E+06         0.00000E+00
    0.24755E+06         0.10423E+06         0.00000E+00
    0.00000E+00         0.00000E+00         0.69126E+05
 
    0.23107E+06         0.25156E+06         0.00000E+00
    0.25156E+06         0.10922E+06         0.00000E+00
    0.00000E+00         0.00000E+00         0.68058E+05
 
    0.22062E+06         0.25534E+06         0.00000E+00
    0.25534E+06         0.11425E+06         0.00000E+00
    0.00000E+00         0.00000E+00         0.66974E+05
 
    0.21007E+06         0.25892E+06         0.00000E+00
    0.25892E+06         0.11929E+06         0.00000E+00
    0.00000E+00         0.00000E+00         0.65873E+05
 
    0.19943E+06         0.26230E+06         0.00000E+00
    0.26230E+06         0.12436E+06         0.00000E+00
    0.00000E+00         0.00000E+00         0.64758E+05
 
    0.18870E+06         0.26547E+06         0.00000E+00
    0.26547E+06         0.12944E+06         0.00000E+00
    0.00000E+00         0.00000E+00         0.63627E+05
 
    0.17788E+06         0.26844E+06         0.00000E+00
    0.26844E+06         0.13453E+06         0.00000E+00
    0.00000E+00         0.00000E+00         0.62483E+05
 
    0.16699E+06         0.27123E+06         0.00000E+00
    0.27123E+06         0.13964E+06         0.00000E+00
    0.00000E+00         0.00000E+00         0.61325E+05
 
    0.15601E+06         0.27383E+06         0.00000E+00
    0.27383E+06         0.14475E+06         0.00000E+00
    0.00000E+00         0.00000E+00         0.60153E+05
 
    0.14497E+06         0.27624E+06         0.00000E+00
    0.27624E+06         0.14987E+06         0.00000E+00
    0.00000E+00         0.00000E+00         0.58968E+05
 
    0.13386E+06         0.27848E+06         0.00000E+00
    0.27848E+06         0.15499E+06         0.00000E+00
    0.00000E+00         0.00000E+00         0.57771E+05
 
    0.12268E+06         0.28054E+06         0.00000E+00
    0.28054E+06         0.16012E+06         0.00000E+00
    0.00000E+00         0.00000E+00         0.56561E+05
 
    0.11144E+06         0.28244E+06         0.00000E+00
    0.28244E+06         0.16526E+06         0.00000E+00
    0.00000E+00         0.00000E+00         0.55339E+05
 
    0.10013E+06         0.28418E+06         0.00000E+00
    0.28418E+06         0.17040E+06         0.00000E+00
    0.00000E+00         0.00000E+00         0.54105E+05
 
    0.88750E+05         0.28575E+06         0.00000E+00
    0.28575E+06         0.17554E+06         0.00000E+00
    0.00000E+00         0.00000E+00         0.52858E+05
 
    0.77306E+05         0.28717E+06         0.00000E+00
    0.28717E+06         0.18069E+06         0.00000E+00
    0.00000E+00         0.00000E+00         0.51599E+05
 
    0.65793E+05         0.28844E+06         0.00000E+00
    0.28844E+06         0.18585E+06         0.00000E+00
    0.00000E+00         0.00000E+00         0.50328E+05
 
    0.54210E+05         0.28956E+06         0.00000E+00
    0.28956E+06         0.19101E+06         0.00000E+00
    0.00000E+00         0.00000E+00         0.49045E+05
 
    0.49554E+06         0.58653E+04         0.00000E+00
    0.58653E+04        -0.98541E+02         0.00000E+00
    0.00000E+00         0.00000E+00         0.99088E+05
 
    0.49520E+06         0.17455E+05         0.00000E+00
    0.17455E+05         0.23604E+03         0.00000E+00
    0.00000E+00         0.00000E+00         0.99087E+05
 
    0.49422E+06         0.28958E+05         0.00000E+00
    0.28958E+05         0.88863E+03         0.00000E+00
    0.00000E+00         0.00000E+00         0.99022E+05
 
    0.49263E+06         0.40353E+05         0.00000E+00
    0.40353E+05         0.18508E+04         0.00000E+00
    0.00000E+00         0.00000E+00         0.98895E+05
 
    0.49043E+06         0.51622E+05         0.00000E+00
    0.51622E+05         0.31135E+04         0.00000E+00
    0.00000E+00         0.00000E+00         0.98709E+05
 
    0.48765E+06         0.62748E+05         0.00000E+00
    0.62748E+05         0.46674E+04         0.00000E+00
    0.00000E+00         0.00000E+00         0.98463E+05
 
    0.48430E+06         0.73713E+05         0.00000E+00
    0.73713E+05         0.65025E+04         0.00000E+00
    0.00000E+00         0.00000E+00         0.98161E+05
 
    0.48041E+06         0.84503E+05         0.00000E+00
    0.84503E+05         0.86086E+04         0.00000E+00
    0.00000E+00         0.00000E+00         0.97804E+05
 
    0.47599E+06         0.95103E+05         0.00000E+00
    0.95103E+05         0.10975E+05         0.00000E+00
    0.00000E+00         0.00000E+00         0.97393E+05
 
    0.47106E+06         0.10550E+06         0.00000E+00
    0.10550E+06         0.13591E+05         0.00000E+00
    0.00000E+00         0.00000E+00         0.96930E+05
 
    0.46564E+06         0.11568E+06         0.00000E+00
    0.11568E+06         0.16446E+05         0.00000E+00
    0.00000E+00         0.00000E+00         0.96418E+05
 
    0.45976E+06         0.12564E+06         0.00000E+00
    0.12564E+06         0.19529E+05         0.00000E+00
    0.00000E+00         0.00000E+00         0.95857E+05
 
    0.45342E+06         0.13536E+06         0.00000E+00
    0.13536E+06         0.22828E+05         0.00000E+00
    0.00000E+00         0.00000E+00         0.95250E+05
 
    0.44666E+06         0.14484E+06         0.00000E+00
    0.14484E+06         0.26332E+05         0.00000E+00
    0.00000E+00         0.00000E+00         0.94598E+05
 
    0.43949E+06         0.15406E+06         0.00000E+00
    0.15406E+06         0.30029E+05         0.00000E+00
    0.00000E+00         0.00000E+00         0.93904E+05
 
    0.43193E+06         0.16303E+06         0.00000E+00
    0.16303E+06         0.33909E+05         0.00000E+00
    0.00000E+00         0.00000E+00         0.93168E+05
 
    0.42401E+06         0.17173E+06         0.00000E+00
    0.17173E+06         0.37960E+05         0.00000E+00
    0.00000E+00         0.00000E+00         0.92393E+05
 
    0.41573E+06         0.18017E+06         0.00000E+00
    0.18017E+06         0.42171E+05         0.00000E+00
    0.00000E+00         0.00000E+00         0.91581E+05
 
    0.40713E+06         0.18833E+06         0.00000E+00
    0.18833E+06         0.46531E+05         0.00000E+00
    0.00000E+00         0.00000E+00         0.90733E+05
 
    0.39823E+06         0.19621E+06         0.00000E+00
    0.19621E+06         0.51030E+05         0.00000E+00
    0.00000E+00         0.00000E+00         0.89851E+05
 
    0.38903E+06         0.20381E+06         0.00000E+00
    0.20381E+06         0.55656E+05         0.00000E+00
    0.00000E+00         0.00000E+00         0.88937E+05
 
    0.37956E+06         0.21114E+06         0.00000E+00
    0.21114E+06         0.60399E+05         0.00000E+00
    0.00000E+00         0.00000E+00         0.87992E+05
 
    0.36984E+06         0.21819E+06         0.00000E+00
    0.21819E+06         0.65250E+05         0.00000E+00
    0.00000E+00         0.00000E+00         0.87018E+05
 
    0.35988E+06         0.22495E+06         0.00000E+00
    0.22495E+06         0.70198E+05         0.00000E+00
    0.00000E+00         0.00000E+00         0.86016E+05
 
    0.34971E+06         0.23144E+06         0.00000E+00
    0.23144E+06         0.75235E+05         0.00000E+00
    0.00000E+00         0.00000E+00         0.84988E+05
 
    0.33933E+06         0.23765E+06         0.00000E+00
    0.23765E+06         0.80350E+05         0.00000E+00
    0.00000E+00         0.00000E+00         0.83936E+05
 
    0.32877E+06         0.24358E+06         0.00000E+00
    0.24358E+06         0.85535E+05         0.00000E+00
    0.00000E+00         0.00000E+00         0.82861E+05
 
    0.31804E+06         0.24925E+06         0.00000E+00
    0.24925E+06         0.90783E+05         0.00000E+00
    0.00000E+00         0.00000E+00         0.81764E+05
 
    0.30715E+06         0.25464E+06         0.00000E+00
    0.25464E+06         0.96084E+05         0.00000E+00
    0.00000E+00         0.00000E+00         0.80647E+05
 
    0.29612E+06         0.25977E+06         0.00000E+00
    0.25977E+06         0.10143E+06         0.00000E+00
    0.00000E+00         0.00000E+00         0.79511E+05
 
    0.28497E+06         0.26464E+06         0.00000E+00
    0.26464E+06         0.10682E+06         0.00000E+00
    0.00000E+00         0.00000E+00         0.78357E+05
 
    0.27369E+06         0.26926E+06         0.00000E+00
    0.26926E+06         0.11224E+06         0.00000E+00
    0.00000E+00         0.00000E+00         0.77186E+05
 
    0.26231E+06         0.27363E+06         0.00000E+00
    0.27363E+06         0.11769E+06         0.00000E+00
    0.00000E+00         0.00000E+00         0.76000E+05
 
    0.25084E+06         0.27775E+06         0.00000E+00
    0.27775E+06         0.12315E+06         0.00000E+00
    0.00000E+00         0.00000E+00         0.74798E+05
 
    0.23928E+06         0.28164E+06         0.00000E+00
    0.28164E+06         0.12864E+06         0.00000E+00
    0.00000E+00         0.00000E+00         0.73583E+05
 
    0.22765E+06         0.28530E+06         0.00000E+00
    0.28530E+06         0.13413E+06         0.00000E+00
    0.00000E+00         0.00000E+00         0.72355E+05
 
    0.21594E+06         0.28873E+06         0.00000E+00
    0.28873E+06         0.13963E+06         0.00000E+00
    0.00000E+00         0.00000E+00         0.71115E+05
 
    0.20418E+06         0.29195E+06         0.00000E+00
    0.29195E+06         0.14514E+06         0.00000E+00
    0.00000E+00         0.00000E+00         0.69864E+05
 
    0.19237E+06         0.29495E+06         0.00000E+00
    0.29495E+06         0.15064E+06         0.00000E+00
    0.00000E+00         0.00000E+00         0.68602E+05
 
    0.18050E+06         0.29776E+06         0.00000E+00
    0.29776E+06         0.15615E+06         0.00000E+00
    0.00000E+00         0.00000E+00         0.67329E+05
 
    0.16859E+06         0.30036E+06         0.00000E+00
    0.30036E+06         0.16165E+06         0.00000E+00
    0.00000E+00         0.00000E+00         0.66047E+05
 
    0.15663E+06         0.30278E+06         0.00000E+00
    0.30278E+06         0.16714E+06         0.00000E+00
    0.00000E+00         0.00000E+00         0.64755E+05
 
    0.14464E+06         0.30502E+06         0.00000E+00
    0.30502E+06         0.17263E+06         0.00000E+00
    0.00000E+00         0.00000E+00         0.63454E+05
 
    0.13261E+06         0.30708E+06         0.00000E+00
    0.30708E+06         0.17812E+06         0.00000E+00
    0.00000E+00         0.00000E+00         0.62145E+05
 
    0.12054E+06         0.30898E+06         0.00000E+00
    0.30898E+06         0.18359E+06         0.00000E+00
    0.00000E+00         0.00000E+00         0.60826E+05
 
    0.10843E+06         0.31072E+06         0.00000E+00
    0.31072E+06         0.18906E+06         0.00000E+00
    0.00000E+00         0.00000E+00         0.59499E+05
 
    0.96285E+05         0.31230E+06         0.00000E+00
    0.31230E+06         0.19453E+06         0.00000E+00
    0.00000E+00         0.00000E+00         0.58163E+05
 
    0.84095E+05         0.31374E+06         0.00000E+00
    0.31374E+06         0.20000E+06         0.00000E+00
    0.00000E+00         0.00000E+00         0.56819E+05
 
    0.71860E+05         0.31503E+06         0.00000E+00
    0.31503E+06         0.20547E+06         0.00000E+00
    0.00000E+00         0.00000E+00         0.55465E+05
 
    0.59574E+05         0.31619E+06         0.00000E+00
    0.31619E+06         0.21094E+06         0.00000E+00
    0.00000E+00         0.00000E+00         0.54102E+05
 
    0.55799E+06         0.67898E+04         0.00000E+00
    0.67898E+04        -0.11528E+03         0.00000E+00
    0.00000E+00         0.00000E+00         0.11157E+06
 
    0.55715E+06         0.20126E+05         0.00000E+00
    0.20126E+05         0.28141E+03         0.00000E+00
    0.00000E+00         0.00000E+00         0.11149E+06
 
    0.55557E+06         0.33327E+05         0.00000E+00
    0.33327E+05         0.10510E+04         0.00000E+00
    0.00000E+00         0.00000E+00         0.11132E+06
 
    0.55326E+06         0.46368E+05         0.00000E+00
    0.46368E+05         0.21817E+04         0.00000E+00
    0.00000E+00         0.00000E+00         0.11109E+06
 
    0.55026E+06         0.59230E+05         0.00000E+00
    0.59230E+05         0.36613E+04         0.00000E+00
    0.00000E+00         0.00000E+00         0.11078E+06
 
    0.54658E+06         0.71892E+05         0.00000E+00
    0.71892E+05         0.54771E+04         0.00000E+00
    0.00000E+00         0.00000E+00         0.11041E+06
 
    0.54225E+06         0.84337E+05         0.00000E+00
    0.84337E+05         0.76159E+04         0.00000E+00
    0.00000E+00         0.00000E+00         0.10997E+06
 
    0.53730E+06         0.96546E+05         0.00000E+00
    0.96546E+05         0.10064E+05         0.00000E+00
    0.00000E+00         0.00000E+00         0.10947E+06
 
    0.53175E+06         0.10850E+06         0.00000E+00
    0.10850E+06         0.12809E+05         0.00000E+00
    0.00000E+00         0.00000E+00         0.10891E+06
 
    0.52563E+06         0.12020E+06         0.00000E+00
    0.12020E+06         0.15835E+05         0.00000E+00
    0.00000E+00         0.00000E+00         0.10829E+06
 
    0.51896E+06         0.13162E+06         0.00000E+00
    0.13162E+06         0.19129E+05         0.00000E+00
    0.00000E+00         0.00000E+00         0.10762E+06
 
    0.51177E+06         0.14274E+06         0.00000E+00
    0.14274E+06         0.22678E+05         0.00000E+00
    0.00000E+00         0.00000E+00         0.10689E+06
 
    0.50408E+06         0.15357E+06         0.00000E+00
    0.15357E+06         0.26465E+05         0.00000E+00
    0.00000E+00         0.00000E+00         0.10611E+06
 
    0.49592E+06         0.16409E+06         0.00000E+00
    0.16409E+06         0.30479E+05         0.00000E+00
    0.00000E+00         0.00000E+00         0.10528E+06
 
    0.48732E+06         0.17430E+06         0.00000E+00
    0.17430E+06         0.34704E+05         0.00000E+00
    0.00000E+00         0.00000E+00         0.10441E+06
 
    0.47831E+06         0.18419E+06         0.00000E+00
    0.18419E+06         0.39126E+05         0.00000E+00
    0.00000E+00         0.00000E+00         0.10349E+06
 
    0.46890E+06         0.19375E+06         0.00000E+00
    0.19375E+06         0.43732E+05         0.00000E+00
    0.00000E+00         0.00000E+00         0.10253E+06
 
    0.45912E+06         0.20298E+06         0.00000E+00
    0.20298E+06         0.48509E+05         0.00000E+00
    0.00000E+00         0.00000E+00         0.10153E+06
 
    0.44900E+06         0.21187E+06         0.00000E+00
    0.21187E+06         0.53443E+05         0.00000E+00
    0.00000E+00         0.00000E+00         0.10049E+06
 
    0.43857E+06         0.22043E+06         0.00000E+00
    0.22043E+06         0.58520E+05         0.00000E+00
    0.00000E+00         0.00000E+00         0.99417E+05
 
    0.42784E+06         0.22866E+06         0.00000E+00
    0.22866E+06         0.63729E+05         0.00000E+00
    0.00000E+00         0.00000E+00         0.98313E+05
 
    0.41683E+06         0.23655E+06         0.00000E+00
    0.23655E+06         0.69056E+05         0.00000E+00
    0.00000E+00         0.00000E+00         0.97178E+05
 
    0.40558E+06         0.24411E+06         0.00000E+00
    0.24411E+06         0.74490E+05         0.00000E+00
    0.00000E+00         0.00000E+00         0.96014E+05
 
    0.39410E+06         0.25133E+06         0.00000E+00
    0.25133E+06         0.80020E+05         0.00000E+00
    0.00000E+00         0.00000E+00         0.94825E+05
 
    0.38242E+06         0.25822E+06         0.00000E+00
    0.25822E+06         0.85633E+05         0.00000E+00
    0.00000E+00         0.00000E+00         0.93610E+05
 
    0.37055E+06         0.26479E+06         0.00000E+00
    0.26479E+06         0.91320E+05         0.00000E+00
    0.00000E+00         0.00000E+00         0.92374E+05
 
    0.35851E+06         0.27104E+06         0.00000E+00
    0.27104E+06         0.97070E+05         0.00000E+00
    0.00000E+00         0.00000E+00         0.91116E+05
 
    0.34632E+06         0.27697E+06         0.00000E+00
    0.27697E+06         0.10287E+06         0.00000E+00
    0.00000E+00         0.00000E+00         0.89840E+05
 
    0.33401E+06         0.28260E+06         0.00000E+00
    0.28260E+06         0.10872E+06         0.00000E+00
    0.00000E+00         0.00000E+00         0.88546E+05
 
    0.32158E+06         0.28791E+06         0.00000E+00
    0.28791E+06         0.11460E+06         0.00000E+00
    0.00000E+00         0.00000E+00         0.87236E+05
 
    0.30905E+06         0.29294E+06         0.00000E+00
    0.29294E+06         0.12051E+06         0.00000E+00
    0.00000E+00         0.00000E+00         0.85912E+05
 
    0.29643E+06         0.29767E+06         0.00000E+00
    0.29767E+06         0.12644E+06         0.00000E+00
    0.00000E+00         0.00000E+00         0.84576E+05
 
    0.28375E+06         0.30213E+06         0.00000E+00
    0.30213E+06         0.13239E+06         0.00000E+00
    0.00000E+00         0.00000E+00         0.83228E+05
 
    0.27101E+06         0.30631E+06         0.00000E+00
    0.30631E+06         0.13834E+06         0.00000E+00
    0.00000E+00         0.00000E+00         0.81870E+05
 
    0.25822E+06         0.31023E+06         0.00000E+00
    0.31023E+06         0.14429E+06         0.00000E+00
    0.00000E+00         0.00000E+00         0.80503E+05
 
    0.24540E+06         0.31390E+06         0.00000E+00
    0.31390E+06         0.15024E+06         0.00000E+00
    0.00000E+00         0.00000E+00         0.79127E+05
 
    0.23255E+06         0.31732E+06         0.00000E+00
    0.31732E+06         0.15617E+06         0.00000E+00
    0.00000E+00         0.00000E+00         0.77745E+05
 
    0.21969E+06         0.32051E+06         0.00000E+00
    0.32051E+06         0.16210E+06         0.00000E+00
    0.00000E+00         0.00000E+00         0.76357E+05
 
    0.20681E+06         0.32347E+06         0.00000E+00
    0.32347E+06         0.16801E+06         0.00000E+00
    0.00000E+00         0.00000E+00         0.74963E+05
 
    0.19392E+06         0.32622E+06         0.00000E+00
    0.32622E+06         0.17390E+06         0.00000E+00
    0.00000E+00         0.00000E+00         0.73565E+05
 
    0.18103E+06         0.32877E+06         0.00000E+00
    0.32877E+06         0.17978E+06         0.00000E+00
    0.00000E+00         0.00000E+00         0.72162E+05
 
    0.16815E+06         0.33113E+06         0.00000E+00
    0.33113E+06         0.18563E+06         0.00000E+00
    0.00000E+00         0.00000E+00         0.70756E+05
 
    0.15527E+06         0.33330E+06         0.00000E+00
    0.33330E+06         0.19146E+06         0.00000E+00
    0.00000E+00         0.00000E+00         0.69346E+05
 
    0.14239E+06         0.33530E+06         0.00000E+00
    0.33530E+06         0.19727E+06         0.00000E+00
    0.00000E+00         0.00000E+00         0.67933E+05
 
    0.12952E+06         0.33714E+06         0.00000E+00
    0.33714E+06         0.20306E+06         0.00000E+00
    0.00000E+00         0.00000E+00         0.66517E+05
 
    0.11665E+06         0.33883E+06         0.00000E+00
    0.33883E+06         0.20884E+06         0.00000E+00
    0.00000E+00         0.00000E+00         0.65098E+05
 
    0.10378E+06         0.34037E+06         0.00000E+00
    0.34037E+06         0.21459E+06         0.00000E+00
    0.00000E+00         0.00000E+00         0.63675E+05
 
    0.90908E+05         0.34179E+06         0.00000E+00
    0.34179E+06         0.22034E+06         0.00000E+00
    0.00000E+00         0.00000E+00         0.62250E+05
 
    0.78024E+05         0.34307E+06         0.00000E+00
    0.34307E+06         0.22608E+06         0.00000E+00
    0.00000E+00         0.00000E+00         0.60820E+05
 
    0.65124E+05         0.34424E+06         0.00000E+00
    0.34424E+06         0.23181E+06         0.00000E+00
    0.00000E+00         0.00000E+00         0.59387E+05
 
    0.63005E+06         0.78876E+04         0.00000E+00
    0.78876E+04        -0.13428E+03         0.00000E+00
    0.00000E+00         0.00000E+00         0.12598E+06
 
    0.62843E+06         0.23273E+05         0.00000E+00
    0.23273E+05         0.33441E+03         0.00000E+00
    0.00000E+00         0.00000E+00         0.12575E+06
 
    0.62595E+06         0.38455E+05         0.00000E+00
    0.38455E+05         0.12385E+04         0.00000E+00
    0.00000E+00         0.00000E+00         0.12544E+06
 
    0.62262E+06         0.53409E+05         0.00000E+00
    0.53409E+05         0.25619E+04         0.00000E+00
    0.00000E+00         0.00000E+00         0.12504E+06
 
    0.61850E+06         0.68111E+05         0.00000E+00
    0.68111E+05         0.42884E+04         0.00000E+00
    0.00000E+00         0.00000E+00         0.12456E+06
 
    0.61359E+06         0.82538E+05         0.00000E+00
    0.82538E+05         0.64009E+04         0.00000E+00
    0.00000E+00         0.00000E+00         0.12400E+06
 
    0.60795E+06         0.96672E+05         0.00000E+00
    0.96672E+05         0.88825E+04         0.00000E+00
    0.00000E+00         0.00000E+00         0.12337E+06
 
    0.60159E+06         0.11049E+06         0.00000E+00
    0.11049E+06         0.11716E+05         0.00000E+00
    0.00000E+00         0.00000E+00         0.12266E+06
 
    0.59457E+06         0.12399E+06         0.00000E+00
    0.12399E+06         0.14883E+05         0.00000E+00
    0.00000E+00         0.00000E+00         0.12189E+06
 
    0.58690E+06         0.13714E+06         0.00000E+00
    0.13714E+06         0.18366E+05         0.00000E+00
    0.00000E+00         0.00000E+00         0.12105E+06
 
    0.57862E+06         0.14993E+06         0.00000E+00
    0.14993E+06         0.22148E+05         0.00000E+00
    0.00000E+00         0.00000E+00         0.12015E+06
 
    0.56977E+06         0.16235E+06         0.00000E+00
    0.16235E+06         0.26211E+05         0.00000E+00
    0.00000E+00         0.00000E+00         0.11920E+06
 
    0.56037E+06         0.17440E+06         0.00000E+00
    0.17440E+06         0.30538E+05         0.00000E+00
    0.00000E+00         0.00000E+00         0.11818E+06
 
    0.55047E+06         0.18607E+06         0.00000E+00
    0.18607E+06         0.35111E+05         0.00000E+00
    0.00000E+00         0.00000E+00         0.11712E+06
 
    0.54010E+06         0.19734E+06         0.00000E+00
    0.19734E+06         0.39912E+05         0.00000E+00
    0.00000E+00         0.00000E+00         0.11600E+06
 
    0.52928E+06         0.20821E+06         0.00000E+00
    0.20821E+06         0.44925E+05         0.00000E+00
    0.00000E+00         0.00000E+00         0.11484E+06
 
    0.51804E+06         0.21868E+06         0.00000E+00
    0.21868E+06         0.50133E+05         0.00000E+00
    0.00000E+00         0.00000E+00         0.11364E+06
 
    0.50643E+06         0.22875E+06         0.00000E+00
    0.22875E+06         0.55521E+05         0.00000E+00
    0.00000E+00         0.00000E+00         0.11239E+06
 
    0.49447E+06         0.23841E+06         0.00000E+00
    0.23841E+06         0.61071E+05         0.00000E+00
    0.00000E+00         0.00000E+00         0.11111E+06
 
    0.48219E+06         0.24766E+06         0.00000E+00
    0.24766E+06         0.66768E+05         0.00000E+00
    0.00000E+00         0.00000E+00         0.10979E+06
 
    0.46961E+06         0.25652E+06         0.00000E+00
    0.25652E+06         0.72598E+05         0.00000E+00
    0.00000E+00         0.00000E+00         0.10844E+06
 
    0.45678E+06         0.26497E+06         0.00000E+00
    0.26497E+06         0.78545E+05         0.00000E+00
    0.00000E+00         0.00000E+00         0.10707E+06
 
    0.44371E+06         0.27302E+06         0.00000E+00
    0.27302E+06         0.84596E+05         0.00000E+00
    0.00000E+00         0.00000E+00         0.10566E+06
 
    0.43043E+06         0.28068E+06         0.00000E+00
    0.28068E+06         0.90737E+05         0.00000E+00
    0.00000E+00         0.00000E+00         0.10423E+06
 
    0.41697E+06         0.28795E+06         0.00000E+00
    0.28795E+06         0.96955E+05         0.00000E+00
    0.00000E+00         0.00000E+00         0.10278E+06
 
    0.40335E+06         0.29484E+06         0.00000E+00
    0.29484E+06         0.10324E+06         0.00000E+00
    0.00000E+00         0.00000E+00         0.10132E+06
 
    0.38959E+06         0.30135E+06         0.00000E+00
    0.30135E+06         0.10957E+06         0.00000E+00
    0.00000E+00         0.00000E+00         0.99832E+05
 
    0.37572E+06         0.30750E+06         0.00000E+00
    0.30750E+06         0.11595E+06         0.00000E+00
    0.00000E+00         0.00000E+00         0.98334E+05
 
    0.36176E+06         0.31329E+06         0.00000E+00
    0.31329E+06         0.12236E+06         0.00000E+00
    0.00000E+00         0.00000E+00         0.96823E+05
 
    0.34772E+06         0.31873E+06         0.00000E+00
    0.31873E+06         0.12879E+06         0.00000E+00
    0.00000E+00         0.00000E+00         0.95302E+05
 
    0.33363E+06         0.32383E+06         0.00000E+00
    0.32383E+06         0.13523E+06         0.00000E+00
    0.00000E+00         0.00000E+00         0.93772E+05
 
    0.31951E+06         0.32861E+06         0.00000E+00
    0.32861E+06         0.14167E+06         0.00000E+00
    0.00000E+00         0.00000E+00         0.92236E+05
 
    0.30536E+06         0.33307E+06         0.00000E+00
    0.33307E+06         0.14811E+06         0.00000E+00
    0.00000E+00         0.00000E+00         0.90695E+05
 
    0.29121E+06         0.33723E+06         0.00000E+00
    0.33723E+06         0.15454E+06         0.00000E+00
    0.00000E+00         0.00000E+00         0.89151E+05
 
    0.27707E+06         0.34110E+06         0.00000E+00
    0.34110E+06         0.16095E+06         0.00000E+00
    0.00000E+00         0.00000E+00         0.87605E+05
 
    0.26295E+06         0.34469E+06         0.00000E+00
    0.34469E+06         0.16734E+06         0.00000E+00
    0.00000E+00         0.00000E+00         0.86058E+05
 
    0.24886E+06         0.34801E+06         0.00000E+00
    0.34801E+06         0.17370E+06         0.00000E+00
    0.00000E+00         0.00000E+00         0.84512E+05
 
    0.23481E+06         0.35109E+06         0.00000E+00
    0.35109E+06         0.18003E+06         0.00000E+00
    0.00000E+00         0.00000E+00         0.82967E+05
 
    0.22081E+06         0.35392E+06         0.00000E+00
    0.35392E+06         0.18632E+06         0.00000E+00
    0.00000E+00         0.00000E+00         0.81426E+05
 
    0.20686E+06         0.35654E+06         0.00000E+00
    0.35654E+06         0.19258E+06         0.00000E+00
    0.00000E+00         0.00000E+00         0.79887E+05
 
    0.19297E+06         0.35894E+06         0.00000E+00
    0.35894E+06         0.19879E+06         0.00000E+00
    0.00000E+00         0.00000E+00         0.78353E+05
 
    0.17915E+06         0.36115E+06         0.00000E+00
    0.36115E+06         0.20497E+06         0.00000E+00
    0.00000E+00         0.00000E+00         0.76823E+05
 
    0.16539E+06         0.36317E+06         0.00000E+00
    0.36317E+06         0.21110E+06         0.00000E+00
    0.00000E+00         0.00000E+00         0.75299E+05
 
    0.15169E+06         0.36503E+06         0.00000E+00
    0.36503E+06         0.21720E+06         0.00000E+00
    0.00000E+00         0.00000E+00         0.73779E+05
 
    0.13806E+06         0.36674E+06         0.00000E+00
    0.36674E+06         0.22326E+06         0.00000E+00
    0.00000E+00         0.00000E+00         0.72265E+05
 
    0.12449E+06         0.36831E+06         0.00000E+00
    0.36831E+06         0.22929E+06         0.00000E+00
    0.00000E+00         0.00000E+00         0.70756E+05
 
    0.11098E+06         0.36975E+06         0.00000E+00
    0.36975E+06         0.23528E+06         0.00000E+00
    0.00000E+00         0.00000E+00         0.69253E+05
 
    0.97516E+05         0.37108E+06         0.00000E+00
    0.37108E+06         0.24125E+06         0.00000E+00
    0.00000E+00         0.00000E+00         0.67754E+05
 
    0.84096E+05         0.37230E+06         0.00000E+00
    0.37230E+06         0.24720E+06         0.00000E+00
    0.00000E+00         0.00000E+00         0.66260E+05
 
    0.70710E+05         0.37345E+06         0.00000E+00
    0.37345E+06         0.25314E+06         0.00000E+00
    0.00000E+00         0.00000E+00         0.64769E+05
 
    0.71338E+06         0.91853E+04         0.00000E+00
    0.91853E+04        -0.15536E+03         0.00000E+00
    0.00000E+00         0.00000E+00         0.14265E+06
 
    0.71061E+06         0.26962E+05         0.00000E+00
    0.26962E+05         0.39524E+03         0.00000E+00
    0.00000E+00         0.00000E+00         0.14220E+06
 
    0.70682E+06         0.44445E+05         0.00000E+00
    0.44445E+05         0.14508E+04         0.00000E+00
    0.00000E+00         0.00000E+00         0.14165E+06
 
    0.70207E+06         0.61607E+05         0.00000E+00
    0.61607E+05         0.29901E+04         0.00000E+00
    0.00000E+00         0.00000E+00         0.14101E+06
 
    0.69639E+06         0.78420E+05         0.00000E+00
    0.78420E+05         0.49915E+04         0.00000E+00
    0.00000E+00         0.00000E+00         0.14028E+06
 
    0.68983E+06         0.94863E+05         0.00000E+00
    0.94863E+05         0.74329E+04         0.00000E+00
    0.00000E+00         0.00000E+00         0.13945E+06
 
    0.68244E+06         0.11091E+06         0.00000E+00
    0.11091E+06         0.10292E+05         0.00000E+00
    0.00000E+00         0.00000E+00         0.13855E+06
 
    0.67424E+06         0.12655E+06         0.00000E+00
    0.12655E+06         0.13548E+05         0.00000E+00
    0.00000E+00         0.00000E+00         0.13756E+06
 
    0.66529E+06         0.14176E+06         0.00000E+00
    0.14176E+06         0.17176E+05         0.00000E+00
    0.00000E+00         0.00000E+00         0.13649E+06
 
    0.65563E+06         0.15653E+06         0.00000E+00
    0.15653E+06         0.21157E+05         0.00000E+00
    0.00000E+00         0.00000E+00         0.13536E+06
 
    0.64531E+06         0.17085E+06         0.00000E+00
    0.17085E+06         0.25467E+05         0.00000E+00
    0.00000E+00         0.00000E+00         0.13416E+06
 
    0.63436E+06         0.18470E+06         0.00000E+00
    0.18470E+06         0.30084E+05         0.00000E+00
    0.00000E+00         0.00000E+00         0.13289E+06
 
    0.62282E+06         0.19807E+06         0.00000E+00
    0.19807E+06         0.34988E+05         0.00000E+00
    0.00000E+00         0.00000E+00         0.13156E+06
 
    0.61075E+06         0.21097E+06         0.00000E+00
    0.21097E+06         0.40157E+05         0.00000E+00
    0.00000E+00         0.00000E+00         0.13018E+06
 
    0.59817E+06         0.22338E+06         0.00000E+00
    0.22338E+06         0.45571E+05         0.00000E+00
    0.00000E+00         0.00000E+00         0.12875E+06
 
    0.58513E+06         0.23530E+06         0.00000E+00
    0.23530E+06         0.51208E+05         0.00000E+00
    0.00000E+00         0.00000E+00         0.12727E+06
 
    0.57166E+06         0.24672E+06         0.00000E+00
    0.24672E+06         0.57050E+05         0.00000E+00
    0.00000E+00         0.00000E+00         0.12574E+06
 
    0.55782E+06         0.25766E+06         0.00000E+00
    0.25766E+06         0.63077E+05         0.00000E+00
    0.00000E+00         0.00000E+00         0.12418E+06
 
    0.54362E+06         0.26810E+06         0.00000E+00
    0.26810E+06         0.69269E+05         0.00000E+00
    0.00000E+00         0.00000E+00         0.12258E+06
 
    0.52912E+06         0.27806E+06         0.00000E+00
    0.27806E+06         0.75610E+05         0.00000E+00
    0.00000E+00         0.00000E+00         0.12095E+06
 
    0.51434E+06         0.28753E+06         0.00000E+00
    0.28753E+06         0.82081E+05         0.00000E+00
    0.00000E+00         0.00000E+00         0.11928E+06
 
    0.49932E+06         0.29652E+06         0.00000E+00
    0.29652E+06         0.88665E+05         0.00000E+00
    0.00000E+00         0.00000E+00         0.11760E+06
 
    0.48409E+06         0.30504E+06         0.00000E+00
    0.30504E+06         0.95346E+05         0.00000E+00
    0.00000E+00         0.00000E+00         0.11589E+06
 
    0.46869E+06         0.31310E+06         0.00000E+00
    0.31310E+06         0.10211E+06         0.00000E+00
    0.00000E+00         0.00000E+00         0.11416E+06
 
    0.45314E+06         0.32070E+06         0.00000E+00
    0.32070E+06         0.10894E+06         0.00000E+00
    0.00000E+00         0.00000E+00         0.11241E+06
 
    0.43747E+06         0.32785E+06         0.00000E+00
    0.32785E+06         0.11582E+06         0.00000E+00
    0.00000E+00         0.00000E+00         0.11066E+06
 
    0.42171E+06         0.33456E+06         0.00000E+00
    0.33456E+06         0.12274E+06         0.00000E+00
    0.00000E+00         0.00000E+00         0.10889E+06
 
    0.40590E+06         0.34086E+06         0.00000E+00
    0.34086E+06         0.12969E+06         0.00000E+00
    0.00000E+00         0.00000E+00         0.10712E+06
 
    0.39004E+06         0.34674E+06         0.00000E+00
    0.34674E+06         0.13665E+06         0.00000E+00
    0.00000E+00         0.00000E+00         0.10534E+06
 
    0.37417E+06         0.35222E+06         0.00000E+00
    0.35222E+06         0.14361E+06         0.00000E+00
    0.00000E+00         0.00000E+00         0.10356E+06
 
    0.35831E+06         0.35731E+06         0.00000E+00
    0.35731E+06         0.15057E+06         0.00000E+00
    0.00000E+00         0.00000E+00         0.10178E+06
 
    0.34248E+06         0.36204E+06         0.00000E+00
    0.36204E+06         0.15751E+06         0.00000E+00
    0.00000E+00         0.00000E+00         0.99999E+05
 
    0.32670E+06         0.36641E+06         0.00000E+00
    0.36641E+06         0.16443E+06         0.00000E+00
    0.00000E+00         0.00000E+00         0.98225E+05
 
    0.31098E+06         0.37045E+06         0.00000E+00
    0.37045E+06         0.17131E+06         0.00000E+00
    0.00000E+00         0.00000E+00         0.96459E+05
 
    0.29535E+06         0.37416E+06         0.00000E+00
    0.37416E+06         0.17815E+06         0.00000E+00
    0.00000E+00         0.00000E+00         0.94700E+05
 
    0.27981E+06         0.37757E+06         0.00000E+00
    0.37757E+06         0.18495E+06         0.00000E+00
    0.00000E+00         0.00000E+00         0.92952E+05
 
    0.26438E+06         0.38069E+06         0.00000E+00
    0.38069E+06         0.19170E+06         0.00000E+00
    0.00000E+00         0.00000E+00         0.91215E+05
 
    0.24907E+06         0.38354E+06         0.00000E+00
    0.38354E+06         0.19839E+06         0.00000E+00
    0.00000E+00         0.00000E+00         0.89491E+05
 
    0.23388E+06         0.38614E+06         0.00000E+00
    0.38614E+06         0.20502E+06         0.00000E+00
    0.00000E+00         0.00000E+00         0.87781E+05
 
    0.21884E+06         0.38850E+06         0.00000E+00
    0.38850E+06         0.21159E+06         0.00000E+00
    0.00000E+00         0.00000E+00         0.86086E+05
 
    0.20393E+06         0.39065E+06         0.00000E+00
    0.39065E+06         0.21810E+06         0.00000E+00
    0.00000E+00         0.00000E+00         0.84406E+05
 
    0.18917E+06         0.39261E+06         0.00000E+00
    0.39261E+06         0.22455E+06         0.00000E+00
    0.00000E+00         0.00000E+00         0.82743E+05
 
    0.17455E+06         0.39438E+06         0.00000E+00
    0.39438E+06         0.23093E+06         0.00000E+00
    0.00000E+00         0.00000E+00         0.81097E+05
 
    0.16008E+06         0.39600E+06         0.00000E+00
    0.39600E+06         0.23726E+06         0.00000E+00
    0.00000E+00         0.00000E+00         0.79468E+05
 
    0.14576E+06         0.39748E+06         0.00000E+00
    0.39748E+06         0.24352E+06         0.00000E+00
    0.00000E+00         0.00000E+00         0.77857E+05
 
    0.13158E+06         0.39884E+06         0.00000E+00
    0.39884E+06         0.24973E+06         0.00000E+00
    0.00000E+00         0.00000E+00         0.76262E+05
 
    0.11753E+06         0.40010E+06         0.00000E+00
    0.40010E+06         0.25589E+06         0.00000E+00
    0.00000E+00         0.00000E+00         0.74685E+05
 
    0.10361E+06         0.40127E+06         0.00000E+00
    0.40127E+06         0.26201E+06         0.00000E+00
    0.00000E+00         0.00000E+00         0.73124E+05
 
    0.89809E+05         0.40237E+06         0.00000E+00
    0.40237E+06         0.26809E+06         0.00000E+00
    0.00000E+00         0.00000E+00         0.71580E+05
 
    0.76113E+05         0.40343E+06         0.00000E+00
    0.40343E+06         0.27414E+06         0.00000E+00
    0.00000E+00         0.00000E+00         0.70050E+05
 
    0.80987E+06         0.10709E+05         0.00000E+00
    0.10709E+05        -0.17806E+03         0.00000E+00
    0.00000E+00         0.00000E+00         0.16194E+06
 
    0.80541E+06         0.31257E+05         0.00000E+00
    0.31257E+05         0.46346E+03         0.00000E+00
    0.00000E+00         0.00000E+00         0.16118E+06
 
    0.79979E+06         0.51389E+05         0.00000E+00
    0.51389E+05         0.16853E+04         0.00000E+00
    0.00000E+00         0.00000E+00         0.16030E+06
 
    0.79307E+06         0.71077E+05         0.00000E+00
    0.71077E+05         0.34596E+04         0.00000E+00
    0.00000E+00         0.00000E+00         0.15931E+06
 
    0.78529E+06         0.90293E+05         0.00000E+00
    0.90293E+05         0.57583E+04         0.00000E+00
    0.00000E+00         0.00000E+00         0.15821E+06
 
    0.77653E+06         0.10901E+06         0.00000E+00
    0.10901E+06         0.85532E+04         0.00000E+00
    0.00000E+00         0.00000E+00         0.15702E+06
 
    0.76682E+06         0.12722E+06         0.00000E+00
    0.12722E+06         0.11816E+05         0.00000E+00
    0.00000E+00         0.00000E+00         0.15573E+06
 
    0.75623E+06         0.14489E+06         0.00000E+00
    0.14489E+06         0.15520E+05         0.00000E+00
    0.00000E+00         0.00000E+00         0.15435E+06
 
    0.74481E+06         0.16200E+06         0.00000E+00
    0.16200E+06         0.19636E+05         0.00000E+00
    0.00000E+00         0.00000E+00         0.15289E+06
 
    0.73261E+06         0.17856E+06         0.00000E+00
    0.17856E+06         0.24138E+05         0.00000E+00
    0.00000E+00         0.00000E+00         0.15135E+06
 
    0.71969E+06         0.19453E+06         0.00000E+00
    0.19453E+06         0.28998E+05         0.00000E+00
    0.00000E+00         0.00000E+00         0.14974E+06
 
    0.70611E+06         0.20993E+06         0.00000E+00
    0.20993E+06         0.34191E+05         0.00000E+00
    0.00000E+00         0.00000E+00         0.14806E+06
 
    0.69190E+06         0.22473E+06         0.00000E+00
    0.22473E+06         0.39690E+05         0.00000E+00
    0.00000E+00         0.00000E+00         0.14632E+06
 
    0.67713E+06         0.23893E+06         0.00000E+00
    0.23893E+06         0.45470E+05         0.00000E+00
    0.00000E+00         0.00000E+00         0.14452E+06
 
    0.66184E+06         0.25254E+06         0.00000E+00
    0.25254E+06         0.51507E+05         0.00000E+00
    0.00000E+00         0.00000E+00         0.14267E+06
 
    0.64609E+06         0.26555E+06         0.00000E+00
    0.26555E+06         0.57777E+05         0.00000E+00
    0.00000E+00         0.00000E+00         0.14077E+06
 
    0.62991E+06         0.27796E+06         0.00000E+00
    0.27796E+06         0.64256E+05         0.00000E+00
    0.00000E+00         0.00000E+00         0.13883E+06
 
    0.61336E+06         0.28978E+06         0.00000E+00
    0.28978E+06         0.70922E+05         0.00000E+00
    0.00000E+00         0.00000E+00         0.13686E+06
 
    0.59648E+06         0.30101E+06         0.00000E+00
    0.30101E+06         0.77754E+05         0.00000E+00
    0.00000E+00         0.00000E+00         0.13485E+06
 
    0.57931E+06         0.31165E+06         0.00000E+00
    0.31165E+06         0.84730E+05         0.00000E+00
    0.00000E+00         0.00000E+00         0.13281E+06
 
    0.56190E+06         0.32172E+06         0.00000E+00
    0.32172E+06         0.91831E+05         0.00000E+00
    0.00000E+00         0.00000E+00         0.13075E+06
 
    0.54429E+06         0.33122E+06         0.00000E+00
    0.33122E+06         0.99036E+05         0.00000E+00
    0.00000E+00         0.00000E+00         0.12867E+06
 
    0.52652E+06         0.34016E+06         0.00000E+00
    0.34016E+06         0.10633E+06         0.00000E+00
    0.00000E+00         0.00000E+00         0.12657E+06
 
    0.50862E+06         0.34855E+06         0.00000E+00
    0.34855E+06         0.11369E+06         0.00000E+00
    0.00000E+00         0.00000E+00         0.12446E+06
 
    0.49062E+06         0.35642E+06         0.00000E+00
    0.35642E+06         0.12111E+06         0.00000E+00
    0.00000E+00         0.00000E+00         0.12235E+06
 
    0.47258E+06         0.36376E+06         0.00000E+00
    0.36376E+06         0.12856E+06         0.00000E+00
    0.00000E+00         0.00000E+00         0.12023E+06
 
    0.45451E+06         0.37060E+06         0.00000E+00
    0.37060E+06         0.13603E+06         0.00000E+00
    0.00000E+00         0.00000E+00         0.11811E+06
 
    0.43645E+06         0.37694E+06         0.00000E+00
    0.37694E+06         0.14351E+06         0.00000E+00
    0.00000E+00         0.00000E+00         0.11599E+06
 
    0.41842E+06         0.38282E+06         0.00000E+00
    0.38282E+06         0.15099E+06         0.00000E+00
    0.00000E+00         0.00000E+00         0.11388E+06
 
    0.40046E+06         0.38824E+06         0.00000E+00
    0.38824E+06         0.15844E+06         0.00000E+00
    0.00000E+00         0.00000E+00         0.11178E+06
 
    0.38260E+06         0.39323E+06         0.00000E+00
    0.39323E+06         0.16587E+06         0.00000E+00
    0.00000E+00         0.00000E+00         0.10969E+06
 
    0.36484E+06         0.39779E+06         0.00000E+00
    0.39779E+06         0.17326E+06         0.00000E+00
    0.00000E+00         0.00000E+00         0.10762E+06
 
    0.34723E+06         0.40196E+06         0.00000E+00
    0.40196E+06         0.18061E+06         0.00000E+00
    0.00000E+00         0.00000E+00         0.10557E+06
 
    0.32977E+06         0.40576E+06         0.00000E+00
    0.40576E+06         0.18789E+06         0.00000E+00
    0.00000E+00         0.00000E+00         0.10353E+06
 
    0.31250E+06         0.40920E+06         0.00000E+00
    0.40920E+06         0.19511E+06         0.00000E+00
    0.00000E+00         0.00000E+00         0.10152E+06
 
    0.29541E+06         0.41230E+06         0.00000E+00
    0.41230E+06         0.20226E+06         0.00000E+00
    0.00000E+00         0.00000E+00         0.99534E+05
 
    0.27853E+06         0.41509E+06         0.00000E+00
    0.41509E+06         0.20933E+06         0.00000E+00
    0.00000E+00         0.00000E+00         0.97573E+05
 
    0.26188E+06         0.41759E+06         0.00000E+00
    0.41759E+06         0.21632E+06         0.00000E+00
    0.00000E+00         0.00000E+00         0.95640E+05
 
    0.24545E+06         0.41983E+06         0.00000E+00
    0.41983E+06         0.22323E+06         0.00000E+00
    0.00000E+00         0.00000E+00         0.93737E+05
 
    0.22927E+06         0.42182E+06         0.00000E+00
    0.42182E+06         0.23005E+06         0.00000E+00
    0.00000E+00         0.00000E+00         0.91864E+05
 
    0.21333E+06         0.42360E+06         0.00000E+00
    0.42360E+06         0.23678E+06         0.00000E+00
    0.00000E+00         0.00000E+00         0.90022E+05
 
    0.19765E+06         0.42518E+06         0.00000E+00
    0.42518E+06         0.24342E+06         0.00000E+00
    0.00000E+00         0.00000E+00         0.88214E+05
 
    0.18222E+06         0.42659E+06         0.00000E+00
    0.42659E+06         0.24997E+06         0.00000E+00
    0.00000E+00         0.00000E+00         0.86438E+05
 
    0.16704E+06         0.42785E+06         0.00000E+00
    0.42785E+06         0.25644E+06         0.00000E+00
    0.00000E+00         0.00000E+00         0.84696E+05
 
    0.15211E+06         0.42899E+06         0.00000E+00
    0.42899E+06         0.26282E+06         0.00000E+00
    0.00000E+00         0.00000E+00         0.82988E+05
 
    0.13743E+06         0.43003E+06         0.00000E+00
    0.43003E+06         0.26913E+06         0.00000E+00
    0.00000E+00         0.00000E+00         0.81313E+05
 
    0.12300E+06         0.43100E+06         0.00000E+00
    0.43100E+06         0.27536E+06         0.00000E+00
    0.00000E+00         0.00000E+00         0.79672E+05
 
    0.10879E+06         0.43192E+06         0.00000E+00
    0.43192E+06         0.28153E+06         0.00000E+00
    0.00000E+00         0.00000E+00         0.78063E+05
 
    0.94802E+05         0.43281E+06         0.00000E+00
    0.43281E+06         0.28763E+06         0.00000E+00
    0.00000E+00         0.00000E+00         0.76487E+05
 
    0.81020E+05         0.43370E+06         0.00000E+00
    0.43370E+06         0.29369E+06         0.00000E+00
    0.00000E+00         0.00000E+00         0.74943E+05
 
    0.92157E+06         0.12481E+05         0.00000E+00
    0.12481E+05        -0.20148E+03         0.00000E+00
    0.00000E+00         0.00000E+00         0.18427E+06
 
    0.91473E+06         0.36205E+05         0.00000E+00
    0.36205E+05         0.53764E+03         0.00000E+00
    0.00000E+00         0.00000E+00         0.18305E+06
 
    0.90658E+06         0.59355E+05         0.00000E+00
    0.59355E+05         0.19354E+04         0.00000E+00
    0.00000E+00         0.00000E+00         0.18170E+06
 
    0.89718E+06         0.81901E+05         0.00000E+00
    0.81901E+05         0.39558E+04         0.00000E+00
    0.00000E+00         0.00000E+00         0.18023E+06
 
    0.88660E+06         0.10382E+06         0.00000E+00
    0.10382E+06         0.65631E+04         0.00000E+00
    0.00000E+00         0.00000E+00         0.17863E+06
 
    0.87492E+06         0.12508E+06         0.00000E+00
    0.12508E+06         0.97218E+04         0.00000E+00
    0.00000E+00         0.00000E+00         0.17693E+06
 
    0.86221E+06         0.14567E+06         0.00000E+00
    0.14567E+06         0.13397E+05         0.00000E+00
    0.00000E+00         0.00000E+00         0.17512E+06
 
    0.84853E+06         0.16557E+06         0.00000E+00
    0.16557E+06         0.17554E+05         0.00000E+00
    0.00000E+00         0.00000E+00         0.17322E+06
 
    0.83396E+06         0.18477E+06         0.00000E+00
    0.18477E+06         0.22160E+05         0.00000E+00
    0.00000E+00         0.00000E+00         0.17122E+06
 
    0.81855E+06         0.20325E+06         0.00000E+00
    0.20325E+06         0.27181E+05         0.00000E+00
    0.00000E+00         0.00000E+00         0.16915E+06
 
    0.80238E+06         0.22102E+06         0.00000E+00
    0.22102E+06         0.32585E+05         0.00000E+00
    0.00000E+00         0.00000E+00         0.16699E+06
 
    0.78551E+06         0.23806E+06         0.00000E+00
    0.23806E+06         0.38341E+05         0.00000E+00
    0.00000E+00         0.00000E+00         0.16477E+06
 
    0.76801E+06         0.25436E+06         0.00000E+00
    0.25436E+06         0.44418E+05         0.00000E+00
    0.00000E+00         0.00000E+00         0.16249E+06
 
    0.74993E+06         0.26994E+06         0.00000E+00
    0.26994E+06         0.50787E+05         0.00000E+00
    0.00000E+00         0.00000E+00         0.16014E+06
 
    0.73133E+06         0.28479E+06         0.00000E+00
    0.28479E+06         0.57419E+05         0.00000E+00
    0.00000E+00         0.00000E+00         0.15775E+06
 
    0.71228E+06         0.29891E+06         0.00000E+00
    0.29891E+06         0.64287E+05         0.00000E+00
    0.00000E+00         0.00000E+00         0.15531E+06
 
    0.69283E+06         0.31231E+06         0.00000E+00
    0.31231E+06         0.71365E+05         0.00000E+00
    0.00000E+00         0.00000E+00         0.15284E+06
 
    0.67304E+06         0.32500E+06         0.00000E+00
    0.32500E+06         0.78626E+05         0.00000E+00
    0.00000E+00         0.00000E+00         0.15033E+06
 
    0.65295E+06         0.33699E+06         0.00000E+00
    0.33699E+06         0.86046E+05         0.00000E+00
    0.00000E+00         0.00000E+00         0.14780E+06
 
    0.63263E+06         0.34829E+06         0.00000E+00
    0.34829E+06         0.93603E+05         0.00000E+00
    0.00000E+00         0.00000E+00         0.14525E+06
 
    0.61211E+06         0.35890E+06         0.00000E+00
    0.35890E+06         0.10127E+06         0.00000E+00
    0.00000E+00         0.00000E+00         0.14268E+06
 
    0.59145E+06         0.36885E+06         0.00000E+00
    0.36885E+06         0.10904E+06         0.00000E+00
    0.00000E+00         0.00000E+00         0.14010E+06
 
    0.57069E+06         0.37815E+06         0.00000E+00
    0.37815E+06         0.11687E+06         0.00000E+00
    0.00000E+00         0.00000E+00         0.13751E+06
 
    0.54987E+06         0.38681E+06         0.00000E+00
    0.38681E+06         0.12476E+06         0.00000E+00
    0.00000E+00         0.00000E+00         0.13493E+06
 
    0.52905E+06         0.39485E+06         0.00000E+00
    0.39485E+06         0.13268E+06         0.00000E+00
    0.00000E+00         0.00000E+00         0.13235E+06
 
    0.50825E+06         0.40230E+06         0.00000E+00
    0.40230E+06         0.14063E+06         0.00000E+00
    0.00000E+00         0.00000E+00         0.12978E+06
 
    0.48752E+06         0.40916E+06         0.00000E+00
    0.40916E+06         0.14857E+06         0.00000E+00
    0.00000E+00         0.00000E+00         0.12722E+06
 
    0.46689E+06         0.41547E+06         0.00000E+00
    0.41547E+06         0.15650E+06         0.00000E+00
    0.00000E+00         0.00000E+00         0.12468E+06
 
    0.44639E+06         0.42123E+06         0.00000E+00
    0.42123E+06         0.16441E+06         0.00000E+00
    0.00000E+00         0.00000E+00         0.12216E+06
 
    0.42606E+06         0.42648E+06         0.00000E+00
    0.42648E+06         0.17227E+06         0.00000E+00
    0.00000E+00         0.00000E+00         0.11967E+06
 
    0.40593E+06         0.43124E+06         0.00000E+00
    0.43124E+06         0.18009E+06         0.00000E+00
    0.00000E+00         0.00000E+00         0.11720E+06
 
    0.38602E+06         0.43553E+06         0.00000E+00
    0.43553E+06         0.18784E+06         0.00000E+00
    0.00000E+00         0.00000E+00         0.11477E+06
 
    0.36636E+06         0.43938E+06         0.00000E+00
    0.43938E+06         0.19551E+06         0.00000E+00
    0.00000E+00         0.00000E+00         0.11238E+06
 
    0.34698E+06         0.44280E+06         0.00000E+00
    0.44280E+06         0.20311E+06         0.00000E+00
    0.00000E+00         0.00000E+00         0.11002E+06
 
    0.32789E+06         0.44584E+06         0.00000E+00
    0.44584E+06         0.21061E+06         0.00000E+00
    0.00000E+00         0.00000E+00         0.10770E+06
 
    0.30912E+06         0.44851E+06         0.00000E+00
    0.44851E+06         0.21802E+06         0.00000E+00
    0.00000E+00         0.00000E+00         0.10543E+06
 
    0.29068E+06         0.45084E+06         0.00000E+00
    0.45084E+06         0.22533E+06         0.00000E+00
    0.00000E+00         0.00000E+00         0.10320E+06
 
    0.27260E+06         0.45286E+06         0.00000E+00
    0.45286E+06         0.23252E+06         0.00000E+00
    0.00000E+00         0.00000E+00         0.10102E+06
 
    0.25487E+06         0.45460E+06         0.00000E+00
    0.45460E+06         0.23961E+06         0.00000E+00
    0.00000E+00         0.00000E+00         0.98895E+05
 
    0.23751E+06         0.45609E+06         0.00000E+00
    0.45609E+06         0.24658E+06         0.00000E+00
    0.00000E+00         0.00000E+00         0.96818E+05
 
    0.22054E+06         0.45735E+06         0.00000E+00
    0.45735E+06         0.25343E+06         0.00000E+00
    0.00000E+00         0.00000E+00         0.94794E+05
 
    0.20395E+06         0.45842E+06         0.00000E+00
    0.45842E+06         0.26017E+06         0.00000E+00
    0.00000E+00         0.00000E+00         0.92823E+05
 
    0.18775E+06         0.45933E+06         0.00000E+00
    0.45933E+06         0.26679E+06         0.00000E+00
    0.00000E+00         0.00000E+00         0.90907E+05
 
    0.17194E+06         0.46010E+06         0.00000E+00
    0.46010E+06         0.27329E+06         0.00000E+00
    0.00000E+00         0.00000E+00         0.89046E+05
 
    0.15652E+06         0.46077E+06         0.00000E+00
    0.46077E+06         0.27969E+06         0.00000E+00
    0.00000E+00         0.00000E+00         0.87241E+05
 
    0.14149E+06         0.46136E+06         0.00000E+00
    0.46136E+06         0.28597E+06         0.00000E+00
    0.00000E+00         0.00000E+00         0.85492E+05
 
    0.12683E+06         0.46192E+06         0.00000E+00
    0.46192E+06         0.29216E+06         0.00000E+00
    0.00000E+00         0.00000E+00         0.83798E+05
 
    0.11254E+06         0.46247E+06         0.00000E+00
    0.46247E+06         0.29826E+06         0.00000E+00
    0.00000E+00         0.00000E+00         0.82159E+05
 
    0.98602E+05         0.46303E+06         0.00000E+00
    0.46303E+06         0.30427E+06         0.00000E+00
    0.00000E+00         0.00000E+00         0.80574E+05
 
    0.85005E+05         0.46365E+06         0.00000E+00
    0.46365E+06         0.31020E+06         0.00000E+00
    0.00000E+00         0.00000E+00         0.79042E+05
 
    0.10506E+07         0.14517E+05         0.00000E+00
    0.14517E+05        -0.22412E+03         0.00000E+00
    0.00000E+00         0.00000E+00         0.21008E+06
 
    0.10405E+07         0.41831E+05         0.00000E+00
    0.41831E+05         0.61496E+03         0.00000E+00
    0.00000E+00         0.00000E+00         0.20823E+06
 
    0.10289E+07         0.68366E+05         0.00000E+00
    0.68366E+05         0.21892E+04         0.00000E+00
    0.00000E+00         0.00000E+00         0.20622E+06
 
    0.10160E+07         0.94096E+05         0.00000E+00
    0.94096E+05         0.44530E+04         0.00000E+00
    0.00000E+00         0.00000E+00         0.20408E+06
 
    0.10017E+07         0.11900E+06         0.00000E+00
    0.11900E+06         0.73616E+04         0.00000E+00
    0.00000E+00         0.00000E+00         0.20181E+06
 
    0.98622E+06         0.14305E+06         0.00000E+00
    0.14305E+06         0.10871E+05         0.00000E+00
    0.00000E+00         0.00000E+00         0.19942E+06
 
    0.96964E+06         0.16624E+06         0.00000E+00
    0.16624E+06         0.14938E+05         0.00000E+00
    0.00000E+00         0.00000E+00         0.19692E+06
 
    0.95204E+06         0.18855E+06         0.00000E+00
    0.18855E+06         0.19522E+05         0.00000E+00
    0.00000E+00         0.00000E+00         0.19431E+06
 
    0.93348E+06         0.20997E+06         0.00000E+00
    0.20997E+06         0.24581E+05         0.00000E+00
    0.00000E+00         0.00000E+00         0.19161E+06
 
    0.91406E+06         0.23050E+06         0.00000E+00
    0.23050E+06         0.30077E+05         0.00000E+00
    0.00000E+00         0.00000E+00         0.18883E+06
 
    0.89386E+06         0.25014E+06         0.00000E+00
    0.25014E+06         0.35972E+05         0.00000E+00
    0.00000E+00         0.00000E+00         0.18597E+06
 
    0.87295E+06         0.26889E+06         0.00000E+00
    0.26889E+06         0.42229E+05         0.00000E+00
    0.00000E+00         0.00000E+00         0.18304E+06
 
    0.85141E+06         0.28675E+06         0.00000E+00
    0.28675E+06         0.48813E+05         0.00000E+00
    0.00000E+00         0.00000E+00         0.18004E+06
 
    0.82931E+06         0.30372E+06         0.00000E+00
    0.30372E+06         0.55690E+05         0.00000E+00
    0.00000E+00         0.00000E+00         0.17700E+06
 
    0.80672E+06         0.31981E+06         0.00000E+00
    0.31981E+06         0.62828E+05         0.00000E+00
    0.00000E+00         0.00000E+00         0.17391E+06
 
    0.78372E+06         0.33503E+06         0.00000E+00
    0.33503E+06         0.70197E+05         0.00000E+00
    0.00000E+00         0.00000E+00         0.17078E+06
 
    0.76036E+06         0.34940E+06         0.00000E+00
    0.34940E+06         0.77766E+05         0.00000E+00
    0.00000E+00         0.00000E+00         0.16762E+06
 
    0.73671E+06         0.36293E+06         0.00000E+00
    0.36293E+06         0.85509E+05         0.00000E+00
    0.00000E+00         0.00000E+00         0.16444E+06
 
    0.71284E+06         0.37563E+06         0.00000E+00
    0.37563E+06         0.93398E+05         0.00000E+00
    0.00000E+00         0.00000E+00         0.16125E+06
 
    0.68880E+06         0.38751E+06         0.00000E+00
    0.38751E+06         0.10141E+06         0.00000E+00
    0.00000E+00         0.00000E+00         0.15804E+06
 
    0.66464E+06         0.39861E+06         0.00000E+00
    0.39861E+06         0.10952E+06         0.00000E+00
    0.00000E+00         0.00000E+00         0.15483E+06
 
    0.64043E+06         0.40893E+06         0.00000E+00
    0.40893E+06         0.11770E+06         0.00000E+00
    0.00000E+00         0.00000E+00         0.15163E+06
 
    0.61621E+06         0.41849E+06         0.00000E+00
    0.41849E+06         0.12594E+06         0.00000E+00
    0.00000E+00         0.00000E+00         0.14843E+06
 
    0.59204E+06         0.42733E+06         0.00000E+00
    0.42733E+06         0.13421E+06         0.00000E+00
    0.00000E+00         0.00000E+00         0.14525E+06
 
    0.56795E+06         0.43546E+06         0.00000E+00
    0.43546E+06         0.14249E+06         0.00000E+00
    0.00000E+00         0.00000E+00         0.14209E+06
 
    0.54401E+06         0.44290E+06         0.00000E+00
    0.44290E+06         0.15078E+06         0.00000E+00
    0.00000E+00         0.00000E+00         0.13896E+06
 
    0.52024E+06         0.44969E+06         0.00000E+00
    0.44969E+06         0.15905E+06         0.00000E+00
    0.00000E+00         0.00000E+00         0.13586E+06
 
    0.49669E+06         0.45584E+06         0.00000E+00
    0.45584E+06         0.16728E+06         0.00000E+00
    0.00000E+00         0.00000E+00         0.13279E+06
 
    0.47339E+06         0.46139E+06         0.00000E+00
    0.46139E+06         0.17546E+06         0.00000E+00
    0.00000E+00         0.00000E+00         0.12977E+06
 
    0.45039E+06         0.46636E+06         0.00000E+00
    0.46636E+06         0.18358E+06         0.00000E+00
    0.00000E+00         0.00000E+00         0.12680E+06
 
    0.42772E+06         0.47078E+06         0.00000E+00
    0.47078E+06         0.19163E+06         0.00000E+00
    0.00000E+00         0.00000E+00         0.12387E+06
 
    0.40541E+06         0.47467E+06         0.00000E+00
    0.47467E+06         0.19959E+06         0.00000E+00
    0.00000E+00         0.00000E+00         0.12100E+06
 
    0.38348E+06         0.47807E+06         0.00000E+00
    0.47807E+06         0.20746E+06         0.00000E+00
    0.00000E+00         0.00000E+00         0.11819E+06
 
    0.36197E+06         0.48101E+06         0.00000E+00
    0.48101E+06         0.21523E+06         0.00000E+00
    0.00000E+00         0.00000E+00         0.11544E+06
 
    0.34090E+06         0.48352E+06         0.00000E+00
    0.48352E+06         0.22288E+06         0.00000E+00
    0.00000E+00         0.00000E+00         0.11276E+06
 
    0.32030E+06         0.48563E+06         0.00000E+00
    0.48563E+06         0.23041E+06         0.00000E+00
    0.00000E+00         0.00000E+00         0.11014E+06
 
    0.30017E+06         0.48737E+06         0.00000E+00
    0.48737E+06         0.23781E+06         0.00000E+00
    0.00000E+00         0.00000E+00         0.10760E+06
 
    0.28055E+06         0.48878E+06         0.00000E+00
    0.48878E+06         0.24508E+06         0.00000E+00
    0.00000E+00         0.00000E+00         0.10513E+06
 
    0.26145E+06         0.48989E+06         0.00000E+00
    0.48989E+06         0.25221E+06         0.00000E+00
    0.00000E+00         0.00000E+00         0.10273E+06
 
    0.24288E+06         0.49073E+06         0.00000E+00
    0.49073E+06         0.25920E+06         0.00000E+00
    0.00000E+00         0.00000E+00         0.10042E+06
 
    0.22486E+06         0.49134E+06         0.00000E+00
    0.49134E+06         0.26605E+06         0.00000E+00
    0.00000E+00         0.00000E+00         0.98181E+05
 
    0.20738E+06         0.49176E+06         0.00000E+00
    0.49176E+06         0.27276E+06         0.00000E+00
    0.00000E+00         0.00000E+00         0.96027E+05
 
    0.19046E+06         0.49202E+06         0.00000E+00
    0.49202E+06         0.27932E+06         0.00000E+00
    0.00000E+00         0.00000E+00         0.93956E+05
 
    0.17410E+06         0.49216E+06         0.00000E+00
    0.49216E+06         0.28573E+06         0.00000E+00
    0.00000E+00         0.00000E+00         0.91967E+05
 
    0.15831E+06         0.49221E+06         0.00000E+00
    0.49221E+06         0.29201E+06         0.00000E+00
    0.00000E+00         0.00000E+00         0.90063E+05
 
    0.14306E+06         0.49222E+06         0.00000E+00
    0.49222E+06         0.29815E+06         0.00000E+00
    0.00000E+00         0.00000E+00         0.88243E+05
 
    0.12837E+06         0.49222E+06         0.00000E+00
    0.49222E+06         0.30416E+06         0.00000E+00
    0.00000E+00         0.00000E+00         0.86507E+05
 
    0.11423E+06         0.49226E+06         0.00000E+00
    0.49226E+06         0.31005E+06         0.00000E+00
    0.00000E+00         0.00000E+00         0.84855E+05
 
    0.10061E+06         0.49236E+06         0.00000E+00
    0.49236E+06         0.31582E+06         0.00000E+00
    0.00000E+00         0.00000E+00         0.83287E+05
 
    0.87503E+05         0.49258E+06         0.00000E+00
    0.49258E+06         0.32150E+06         0.00000E+00
    0.00000E+00         0.00000E+00         0.81800E+05
 
    0.11992E+07         0.16817E+05         0.00000E+00
    0.16817E+05        -0.24372E+03         0.00000E+00
    0.00000E+00         0.00000E+00         0.23980E+06
 
    0.11847E+07         0.48113E+05         0.00000E+00
    0.48113E+05         0.69066E+03         0.00000E+00
    0.00000E+00         0.00000E+00         0.23707E+06
 
    0.11685E+07         0.78373E+05         0.00000E+00
    0.78373E+05         0.24277E+04         0.00000E+00
    0.00000E+00         0.00000E+00         0.23418E+06
 
    0.11508E+07         0.10758E+06         0.00000E+00
    0.10758E+06         0.49106E+04         0.00000E+00
    0.00000E+00         0.00000E+00         0.23115E+06
 
    0.11318E+07         0.13570E+06         0.00000E+00
    0.13570E+06         0.80842E+04         0.00000E+00
    0.00000E+00         0.00000E+00         0.22797E+06
 
    0.11115E+07         0.16274E+06         0.00000E+00
    0.16274E+06         0.11895E+05         0.00000E+00
    0.00000E+00         0.00000E+00         0.22467E+06
 
    0.10900E+07         0.18868E+06         0.00000E+00
    0.18868E+06         0.16292E+05         0.00000E+00
    0.00000E+00         0.00000E+00         0.22125E+06
 
    0.10674E+07         0.21353E+06         0.00000E+00
    0.21353E+06         0.21224E+05         0.00000E+00
    0.00000E+00         0.00000E+00         0.21773E+06
 
    0.10439E+07         0.23727E+06         0.00000E+00
    0.23727E+06         0.26646E+05         0.00000E+00
    0.00000E+00         0.00000E+00         0.21411E+06
 
    0.10195E+07         0.25991E+06         0.00000E+00
    0.25991E+06         0.32510E+05         0.00000E+00
    0.00000E+00         0.00000E+00         0.21041E+06
 
    0.99438E+06         0.28146E+06         0.00000E+00
    0.28146E+06         0.38773E+05         0.00000E+00
    0.00000E+00         0.00000E+00         0.20663E+06
 
    0.96855E+06         0.30192E+06         0.00000E+00
    0.30192E+06         0.45394E+05         0.00000E+00
    0.00000E+00         0.00000E+00         0.20279E+06
 
    0.94213E+06         0.32131E+06         0.00000E+00
    0.32131E+06         0.52333E+05         0.00000E+00
    0.00000E+00         0.00000E+00         0.19889E+06
 
    0.91521E+06         0.33964E+06         0.00000E+00
    0.33964E+06         0.59554E+05         0.00000E+00
    0.00000E+00         0.00000E+00         0.19495E+06
 
    0.88786E+06         0.35693E+06         0.00000E+00
    0.35693E+06         0.67020E+05         0.00000E+00
    0.00000E+00         0.00000E+00         0.19098E+06
 
    0.86017E+06         0.37320E+06         0.00000E+00
    0.37320E+06         0.74699E+05         0.00000E+00
    0.00000E+00         0.00000E+00         0.18697E+06
 
    0.83221E+06         0.38846E+06         0.00000E+00
    0.38846E+06         0.82559E+05         0.00000E+00
    0.00000E+00         0.00000E+00         0.18295E+06
 
    0.80406E+06         0.40274E+06         0.00000E+00
    0.40274E+06         0.90571E+05         0.00000E+00
    0.00000E+00         0.00000E+00         0.17893E+06
 
    0.77577E+06         0.41605E+06         0.00000E+00
    0.41605E+06         0.98707E+05         0.00000E+00
    0.00000E+00         0.00000E+00         0.17490E+06
 
    0.74742E+06         0.42844E+06         0.00000E+00
    0.42844E+06         0.10694E+06         0.00000E+00
    0.00000E+00         0.00000E+00         0.17087E+06
 
    0.71907E+06         0.43991E+06         0.00000E+00
    0.43991E+06         0.11525E+06         0.00000E+00
    0.00000E+00         0.00000E+00         0.16687E+06
 
    0.69078E+06         0.45050E+06         0.00000E+00
    0.45050E+06         0.12362E+06         0.00000E+00
    0.00000E+00         0.00000E+00         0.16288E+06
 
    0.66261E+06         0.46024E+06         0.00000E+00
    0.46024E+06         0.13201E+06         0.00000E+00
    0.00000E+00         0.00000E+00         0.15892E+06
 
    0.63461E+06         0.46915E+06         0.00000E+00
    0.46915E+06         0.14041E+06         0.00000E+00
    0.00000E+00         0.00000E+00         0.15501E+06
 
    0.60684E+06         0.47726E+06         0.00000E+00
    0.47726E+06         0.14882E+06         0.00000E+00
    0.00000E+00         0.00000E+00         0.15113E+06
 
    0.57933E+06         0.48460E+06         0.00000E+00
    0.48460E+06         0.15719E+06         0.00000E+00
    0.00000E+00         0.00000E+00         0.14731E+06
 
    0.55215E+06         0.49121E+06         0.00000E+00
    0.49121E+06         0.16553E+06         0.00000E+00
    0.00000E+00         0.00000E+00         0.14354E+06
 
    0.52533E+06         0.49711E+06         0.00000E+00
    0.49711E+06         0.17382E+06         0.00000E+00
    0.00000E+00         0.00000E+00         0.13983E+06
 
    0.49891E+06         0.50234E+06         0.00000E+00
    0.50234E+06         0.18204E+06         0.00000E+00
    0.00000E+00         0.00000E+00         0.13619E+06
 
    0.47294E+06         0.50692E+06         0.00000E+00
    0.50692E+06         0.19018E+06         0.00000E+00
    0.00000E+00         0.00000E+00         0.13262E+06
 
    0.44744E+06         0.51090E+06         0.00000E+00
    0.51090E+06         0.19824E+06         0.00000E+00
    0.00000E+00         0.00000E+00         0.12914E+06
 
    0.42247E+06         0.51430E+06         0.00000E+00
    0.51430E+06         0.20619E+06         0.00000E+00
    0.00000E+00         0.00000E+00         0.12573E+06
 
    0.39804E+06         0.51716E+06         0.00000E+00
    0.51716E+06         0.21403E+06         0.00000E+00
    0.00000E+00         0.00000E+00         0.12241E+06
 
    0.37419E+06         0.51952E+06         0.00000E+00
    0.51952E+06         0.22175E+06         0.00000E+00
    0.00000E+00         0.00000E+00         0.11919E+06
 
    0.35096E+06         0.52140E+06         0.00000E+00
    0.52140E+06         0.22935E+06         0.00000E+00
    0.00000E+00         0.00000E+00         0.11606E+06
 
    0.32835E+06         0.52285E+06         0.00000E+00
    0.52285E+06         0.23680E+06         0.00000E+00
    0.00000E+00         0.00000E+00         0.11303E+06
 
    0.30641E+06         0.52390E+06         0.00000E+00
    0.52390E+06         0.24412E+06         0.00000E+00
    0.00000E+00         0.00000E+00         0.11010E+06
 
    0.28514E+06         0.52459E+06         0.00000E+00
    0.52459E+06         0.25128E+06         0.00000E+00
    0.00000E+00         0.00000E+00         0.10729E+06
 
    0.26458E+06         0.52495E+06         0.00000E+00
    0.52495E+06         0.25830E+06         0.00000E+00
    0.00000E+00         0.00000E+00         0.10458E+06
 
    0.24474E+06         0.52503E+06         0.00000E+00
    0.52503E+06         0.26515E+06         0.00000E+00
    0.00000E+00         0.00000E+00         0.10198E+06
 
    0.22563E+06         0.52487E+06         0.00000E+00
    0.52487E+06         0.27184E+06         0.00000E+00
    0.00000E+00         0.00000E+00         0.99493E+05
 
    0.20726E+06         0.52451E+06         0.00000E+00
    0.52451E+06         0.27836E+06         0.00000E+00
    0.00000E+00         0.00000E+00         0.97125E+05
 
    0.18966E+06         0.52399E+06         0.00000E+00
    0.52399E+06         0.28472E+06         0.00000E+00
    0.00000E+00         0.00000E+00         0.94875E+05
 
    0.17281E+06         0.52336E+06         0.00000E+00
    0.52336E+06         0.29090E+06         0.00000E+00
    0.00000E+00         0.00000E+00         0.92744E+05
 
    0.15674E+06         0.52265E+06         0.00000E+00
    0.52265E+06         0.29693E+06         0.00000E+00
    0.00000E+00         0.00000E+00         0.90732E+05
 
    0.14143E+06         0.52192E+06         0.00000E+00
    0.52192E+06         0.30278E+06         0.00000E+00
    0.00000E+00         0.00000E+00         0.88842E+05
 
    0.12689E+06         0.52121E+06         0.00000E+00
    0.52121E+06         0.30847E+06         0.00000E+00
    0.00000E+00         0.00000E+00         0.87072E+05
 
    0.11310E+06         0.52057E+06         0.00000E+00
    0.52057E+06         0.31401E+06         0.00000E+00
    0.00000E+00         0.00000E+00         0.85423E+05
 
    0.10007E+06         0.52005E+06         0.00000E+00
    0.52005E+06         0.31940E+06         0.00000E+00
    0.00000E+00         0.00000E+00         0.83895E+05
 
    0.87776E+05         0.51970E+06         0.00000E+00
    0.51970E+06         0.32465E+06         0.00000E+00
    0.00000E+00         0.00000E+00         0.82486E+05
 
    0.13693E+07         0.19361E+05         0.00000E+00
    0.19361E+05        -0.25699E+03         0.00000E+00
    0.00000E+00         0.00000E+00         0.27381E+06
 
    0.13488E+07         0.54967E+05         0.00000E+00
    0.54967E+05         0.75754E+03         0.00000E+00
    0.00000E+00         0.00000E+00         0.26992E+06
 
    0.13267E+07         0.89218E+05         0.00000E+00
    0.89218E+05         0.26227E+04         0.00000E+00
    0.00000E+00         0.00000E+00         0.26586E+06
 
    0.13029E+07         0.12210E+06         0.00000E+00
    0.12210E+06         0.52690E+04         0.00000E+00
    0.00000E+00         0.00000E+00         0.26164E+06
 
    0.12778E+07         0.15361E+06         0.00000E+00
    0.15361E+06         0.86298E+04         0.00000E+00
    0.00000E+00         0.00000E+00         0.25728E+06
 
    0.12513E+07         0.18375E+06         0.00000E+00
    0.18375E+06         0.12641E+05         0.00000E+00
    0.00000E+00         0.00000E+00         0.25279E+06
 
    0.12237E+07         0.21251E+06         0.00000E+00
    0.21251E+06         0.17243E+05         0.00000E+00
    0.00000E+00         0.00000E+00         0.24818E+06
 
    0.11950E+07         0.23991E+06         0.00000E+00
    0.23991E+06         0.22376E+05         0.00000E+00
    0.00000E+00         0.00000E+00         0.24347E+06
 
    0.11654E+07         0.26596E+06         0.00000E+00
    0.26596E+06         0.27987E+05         0.00000E+00
    0.00000E+00         0.00000E+00         0.23867E+06
 
    0.11349E+07         0.29068E+06         0.00000E+00
    0.29068E+06         0.34022E+05         0.00000E+00
    0.00000E+00         0.00000E+00         0.23379E+06
 
    0.11038E+07         0.31407E+06         0.00000E+00
    0.31407E+06         0.40435E+05         0.00000E+00
    0.00000E+00         0.00000E+00         0.22885E+06
 
    0.10721E+07         0.33617E+06         0.00000E+00
    0.33617E+06         0.47178E+05         0.00000E+00
    0.00000E+00         0.00000E+00         0.22385E+06
 
    0.10399E+07         0.35700E+06         0.00000E+00
    0.35700E+06         0.54209E+05         0.00000E+00
    0.00000E+00         0.00000E+00         0.21882E+06
 
    0.10072E+07         0.37657E+06         0.00000E+00
    0.37657E+06         0.61488E+05         0.00000E+00
    0.00000E+00         0.00000E+00         0.21375E+06
 
    0.97432E+06         0.39494E+06         0.00000E+00
    0.39494E+06         0.68979E+05         0.00000E+00
    0.00000E+00         0.00000E+00         0.20866E+06
 
    0.94116E+06         0.41211E+06         0.00000E+00
    0.41211E+06         0.76647E+05         0.00000E+00
    0.00000E+00         0.00000E+00         0.20356E+06
 
    0.90787E+06         0.42812E+06         0.00000E+00
    0.42812E+06         0.84461E+05         0.00000E+00
    0.00000E+00         0.00000E+00         0.19847E+06
 
    0.87452E+06         0.44302E+06         0.00000E+00
    0.44302E+06         0.92391E+05         0.00000E+00
    0.00000E+00         0.00000E+00         0.19338E+06
 
    0.84119E+06         0.45682E+06         0.00000E+00
    0.45682E+06         0.10041E+06         0.00000E+00
    0.00000E+00         0.00000E+00         0.18832E+06
 
    0.80794E+06         0.46956E+06         0.00000E+00
    0.46956E+06         0.10850E+06         0.00000E+00
    0.00000E+00         0.00000E+00         0.18329E+06
 
    0.77484E+06         0.48129E+06         0.00000E+00
    0.48129E+06         0.11663E+06         0.00000E+00
    0.00000E+00         0.00000E+00         0.17829E+06
 
    0.74196E+06         0.49202E+06         0.00000E+00
    0.49202E+06         0.12478E+06         0.00000E+00
    0.00000E+00         0.00000E+00         0.17335E+06
 
    0.70936E+06         0.50181E+06         0.00000E+00
    0.50181E+06         0.13294E+06         0.00000E+00
    0.00000E+00         0.00000E+00         0.16846E+06
 
    0.67709E+06         0.51068E+06         0.00000E+00
    0.51068E+06         0.14109E+06         0.00000E+00
    0.00000E+00         0.00000E+00         0.16364E+06
 
    0.64521E+06         0.51868E+06         0.00000E+00
    0.51868E+06         0.14922E+06         0.00000E+00
    0.00000E+00         0.00000E+00         0.15888E+06
 
    0.61376E+06         0.52583E+06         0.00000E+00
    0.52583E+06         0.15730E+06         0.00000E+00
    0.00000E+00         0.00000E+00         0.15421E+06
 
    0.58281E+06         0.53218E+06         0.00000E+00
    0.53218E+06         0.16533E+06         0.00000E+00
    0.00000E+00         0.00000E+00         0.14963E+06
 
    0.55238E+06         0.53775E+06         0.00000E+00
    0.53775E+06         0.17330E+06         0.00000E+00
    0.00000E+00         0.00000E+00         0.14514E+06
 
    0.52253E+06         0.54260E+06         0.00000E+00
    0.54260E+06         0.18119E+06         0.00000E+00
    0.00000E+00         0.00000E+00         0.14075E+06
 
    0.49330E+06         0.54675E+06         0.00000E+00
    0.54675E+06         0.18900E+06         0.00000E+00
    0.00000E+00         0.00000E+00         0.13646E+06
 
    0.46473E+06         0.55023E+06         0.00000E+00
    0.55023E+06         0.19672E+06         0.00000E+00
    0.00000E+00         0.00000E+00         0.13229E+06
 
    0.43684E+06         0.55310E+06         0.00000E+00
    0.55310E+06         0.20433E+06         0.00000E+00
    0.00000E+00         0.00000E+00         0.12823E+06
 
    0.40969E+06         0.55538E+06         0.00000E+00
    0.55538E+06         0.21183E+06         0.00000E+00
    0.00000E+00         0.00000E+00         0.12430E+06
 
    0.38330E+06         0.55710E+06         0.00000E+00
    0.55710E+06         0.21922E+06         0.00000E+00
    0.00000E+00         0.00000E+00         0.12050E+06
 
    0.35770E+06         0.55832E+06         0.00000E+00
    0.55832E+06         0.22648E+06         0.00000E+00
    0.00000E+00         0.00000E+00         0.11683E+06
 
    0.33292E+06         0.55907E+06         0.00000E+00
    0.55907E+06         0.23360E+06         0.00000E+00
    0.00000E+00         0.00000E+00         0.11330E+06
 
    0.30900E+06         0.55938E+06         0.00000E+00
    0.55938E+06         0.24058E+06         0.00000E+00
    0.00000E+00         0.00000E+00         0.10992E+06
 
    0.28596E+06         0.55930E+06         0.00000E+00
    0.55930E+06         0.24742E+06         0.00000E+00
    0.00000E+00         0.00000E+00         0.10667E+06
 
    0.26382E+06         0.55887E+06         0.00000E+00
    0.55887E+06         0.25409E+06         0.00000E+00
    0.00000E+00         0.00000E+00         0.10358E+06
 
    0.24260E+06         0.55813E+06         0.00000E+00
    0.55813E+06         0.26061E+06         0.00000E+00
    0.00000E+00         0.00000E+00         0.10064E+06
 
    0.22234E+06         0.55712E+06         0.00000E+00
    0.55712E+06         0.26696E+06         0.00000E+00
    0.00000E+00         0.00000E+00         0.97860E+05
 
    0.20304E+06         0.55590E+06         0.00000E+00
    0.55590E+06         0.27313E+06         0.00000E+00
    0.00000E+00         0.00000E+00         0.95235E+05
 
    0.18473E+06         0.55450E+06         0.00000E+00
    0.55450E+06         0.27913E+06         0.00000E+00
    0.00000E+00         0.00000E+00         0.92771E+05
 
    0.16741E+06         0.55298E+06         0.00000E+00
    0.55298E+06         0.28494E+06         0.00000E+00
    0.00000E+00         0.00000E+00         0.90471E+05
 
    0.15111E+06         0.55139E+06         0.00000E+00
    0.55139E+06         0.29057E+06         0.00000E+00
    0.00000E+00         0.00000E+00         0.88335E+05
 
    0.13582E+06         0.54977E+06         0.00000E+00
    0.54977E+06         0.29600E+06         0.00000E+00
    0.00000E+00         0.00000E+00         0.86365E+05
 
    0.12155E+06         0.54819E+06         0.00000E+00
    0.54819E+06         0.30125E+06         0.00000E+00
    0.00000E+00         0.00000E+00         0.84561E+05
 
    0.10831E+06         0.54671E+06         0.00000E+00
    0.54671E+06         0.30631E+06         0.00000E+00
    0.00000E+00         0.00000E+00         0.82925E+05
 
    0.96095E+05         0.54537E+06         0.00000E+00
    0.54537E+06         0.31118E+06         0.00000E+00
    0.00000E+00         0.00000E+00         0.81455E+05
 
    0.84892E+05         0.54424E+06         0.00000E+00
    0.54424E+06         0.31587E+06         0.00000E+00
    0.00000E+00         0.00000E+00         0.80153E+05
 
    0.15624E+07         0.22098E+05         0.00000E+00
    0.22098E+05        -0.25950E+03         0.00000E+00
    0.00000E+00         0.00000E+00         0.31243E+06
 
    0.15343E+07         0.62215E+05         0.00000E+00
    0.62215E+05         0.80548E+03         0.00000E+00
    0.00000E+00         0.00000E+00         0.30701E+06
 
    0.15044E+07         0.10059E+06         0.00000E+00
    0.10059E+06         0.27352E+04         0.00000E+00
    0.00000E+00         0.00000E+00         0.30142E+06
 
    0.14729E+07         0.13722E+06         0.00000E+00
    0.13722E+06         0.54463E+04         0.00000E+00
    0.00000E+00         0.00000E+00         0.29566E+06
 
    0.14400E+07         0.17212E+06         0.00000E+00
    0.17212E+06         0.88597E+04         0.00000E+00
    0.00000E+00         0.00000E+00         0.28977E+06
 
    0.14059E+07         0.20532E+06         0.00000E+00
    0.20532E+06         0.12901E+05         0.00000E+00
    0.00000E+00         0.00000E+00         0.28375E+06
 
    0.13706E+07         0.23682E+06         0.00000E+00
    0.23682E+06         0.17498E+05         0.00000E+00
    0.00000E+00         0.00000E+00         0.27762E+06
 
    0.13344E+07         0.26666E+06         0.00000E+00
    0.26666E+06         0.22587E+05         0.00000E+00
    0.00000E+00         0.00000E+00         0.27141E+06
 
    0.12974E+07         0.29486E+06         0.00000E+00
    0.29486E+06         0.28105E+05         0.00000E+00
    0.00000E+00         0.00000E+00         0.26511E+06
 
    0.12597E+07         0.32147E+06         0.00000E+00
    0.32147E+06         0.33995E+05         0.00000E+00
    0.00000E+00         0.00000E+00         0.25875E+06
 
    0.12215E+07         0.34651E+06         0.00000E+00
    0.34651E+06         0.40203E+05         0.00000E+00
    0.00000E+00         0.00000E+00         0.25234E+06
 
    0.11828E+07         0.37002E+06         0.00000E+00
    0.37002E+06         0.46683E+05         0.00000E+00
    0.00000E+00         0.00000E+00         0.24590E+06
 
    0.11438E+07         0.39205E+06         0.00000E+00
    0.39205E+06         0.53387E+05         0.00000E+00
    0.00000E+00         0.00000E+00         0.23944E+06
 
    0.11046E+07         0.41265E+06         0.00000E+00
    0.41265E+06         0.60278E+05         0.00000E+00
    0.00000E+00         0.00000E+00         0.23297E+06
 
    0.10652E+07         0.43184E+06         0.00000E+00
    0.43184E+06         0.67317E+05         0.00000E+00
    0.00000E+00         0.00000E+00         0.22650E+06
 
    0.10258E+07         0.44969E+06         0.00000E+00
    0.44969E+06         0.74474E+05         0.00000E+00
    0.00000E+00         0.00000E+00         0.22005E+06
 
    0.98645E+06         0.46624E+06         0.00000E+00
    0.46624E+06         0.81717E+05         0.00000E+00
    0.00000E+00         0.00000E+00         0.21363E+06
 
    0.94725E+06         0.48153E+06         0.00000E+00
    0.48153E+06         0.89023E+05         0.00000E+00
    0.00000E+00         0.00000E+00         0.20725E+06
 
    0.90827E+06         0.49561E+06         0.00000E+00
    0.49561E+06         0.96368E+05         0.00000E+00
    0.00000E+00         0.00000E+00         0.20093E+06
 
    0.86958E+06         0.50853E+06         0.00000E+00
    0.50853E+06         0.10373E+06         0.00000E+00
    0.00000E+00         0.00000E+00         0.19466E+06
 
    0.83124E+06         0.52034E+06         0.00000E+00
    0.52034E+06         0.11110E+06         0.00000E+00
    0.00000E+00         0.00000E+00         0.18847E+06
 
    0.79332E+06         0.53108E+06         0.00000E+00
    0.53108E+06         0.11846E+06         0.00000E+00
    0.00000E+00         0.00000E+00         0.18236E+06
 
    0.75588E+06         0.54079E+06         0.00000E+00
    0.54079E+06         0.12580E+06         0.00000E+00
    0.00000E+00         0.00000E+00         0.17634E+06
 
    0.71897E+06         0.54953E+06         0.00000E+00
    0.54953E+06         0.13310E+06         0.00000E+00
    0.00000E+00         0.00000E+00         0.17042E+06
 
    0.68265E+06         0.55732E+06         0.00000E+00
    0.55732E+06         0.14036E+06         0.00000E+00
    0.00000E+00         0.00000E+00         0.16460E+06
 
    0.64696E+06         0.56423E+06         0.00000E+00
    0.56423E+06         0.14758E+06         0.00000E+00
    0.00000E+00         0.00000E+00         0.15891E+06
 
    0.61196E+06         0.57028E+06         0.00000E+00
    0.57028E+06         0.15473E+06         0.00000E+00
    0.00000E+00         0.00000E+00         0.15334E+06
 
    0.57767E+06         0.57552E+06         0.00000E+00
    0.57552E+06         0.16183E+06         0.00000E+00
    0.00000E+00         0.00000E+00         0.14790E+06
 
    0.54415E+06         0.57999E+06         0.00000E+00
    0.57999E+06         0.16887E+06         0.00000E+00
    0.00000E+00         0.00000E+00         0.14260E+06
 
    0.51143E+06         0.58372E+06         0.00000E+00
    0.58372E+06         0.17583E+06         0.00000E+00
    0.00000E+00         0.00000E+00         0.13745E+06
 
    0.47956E+06         0.58676E+06         0.00000E+00
    0.58676E+06         0.18272E+06         0.00000E+00
    0.00000E+00         0.00000E+00         0.13246E+06
 
    0.44857E+06         0.58914E+06         0.00000E+00
    0.58914E+06         0.18953E+06         0.00000E+00
    0.00000E+00         0.00000E+00         0.12762E+06
 
    0.41849E+06         0.59090E+06         0.00000E+00
    0.59090E+06         0.19626E+06         0.00000E+00
    0.00000E+00         0.00000E+00         0.12295E+06
 
    0.38936E+06         0.59208E+06         0.00000E+00
    0.59208E+06         0.20290E+06         0.00000E+00
    0.00000E+00         0.00000E+00         0.11845E+06
 
    0.36121E+06         0.59271E+06         0.00000E+00
    0.59271E+06         0.20944E+06         0.00000E+00
    0.00000E+00         0.00000E+00         0.11413E+06
 
    0.33408E+06         0.59283E+06         0.00000E+00
    0.59283E+06         0.21589E+06         0.00000E+00
    0.00000E+00         0.00000E+00         0.10999E+06
 
    0.30800E+06         0.59248E+06         0.00000E+00
    0.59248E+06         0.22222E+06         0.00000E+00
    0.00000E+00         0.00000E+00         0.10604E+06
 
    0.28301E+06         0.59169E+06         0.00000E+00
    0.59169E+06         0.22844E+06         0.00000E+00
    0.00000E+00         0.00000E+00         0.10229E+06
 
    0.25912E+06         0.59052E+06         0.00000E+00
    0.59052E+06         0.23453E+06         0.00000E+00
    0.00000E+00         0.00000E+00         0.98730E+05
 
    0.23638E+06         0.58900E+06         0.00000E+00
    0.58900E+06         0.24048E+06         0.00000E+00
    0.00000E+00         0.00000E+00         0.95373E+05
 
    0.21482E+06         0.58718E+06         0.00000E+00
    0.58718E+06         0.24629E+06         0.00000E+00
    0.00000E+00         0.00000E+00         0.92222E+05
 
    0.19446E+06         0.58509E+06         0.00000E+00
    0.58509E+06         0.25194E+06         0.00000E+00
    0.00000E+00         0.00000E+00         0.89280E+05
 
    0.17532E+06         0.58280E+06         0.00000E+00
    0.58280E+06         0.25743E+06         0.00000E+00
    0.00000E+00         0.00000E+00         0.86550E+05
 
    0.15744E+06         0.58035E+06         0.00000E+00
    0.58035E+06         0.26274E+06         0.00000E+00
    0.00000E+00         0.00000E+00         0.84036E+05
 
    0.14085E+06         0.57779E+06         0.00000E+00
    0.57779E+06         0.26786E+06         0.00000E+00
    0.00000E+00         0.00000E+00         0.81741E+05
 
    0.12555E+06         0.57519E+06         0.00000E+00
    0.57519E+06         0.27278E+06         0.00000E+00
    0.00000E+00         0.00000E+00         0.79665E+05
 
    0.11157E+06         0.57260E+06         0.00000E+00
    0.57260E+06         0.27749E+06         0.00000E+00
    0.00000E+00         0.00000E+00         0.77812E+05
 
    0.98931E+05         0.57010E+06         0.00000E+00
    0.57010E+06         0.28198E+06         0.00000E+00
    0.00000E+00         0.00000E+00         0.76182E+05
 
    0.87636E+05         0.56774E+06         0.00000E+00
    0.56774E+06         0.28625E+06         0.00000E+00
    0.00000E+00         0.00000E+00         0.74777E+05
 
    0.77695E+05         0.56560E+06         0.00000E+00
    0.56560E+06         0.29029E+06         0.00000E+00
    0.00000E+00         0.00000E+00         0.73598E+05
 
    0.17793E+07         0.24932E+05         0.00000E+00
    0.24932E+05        -0.24551E+03         0.00000E+00
    0.00000E+00         0.00000E+00         0.35580E+06
 
    0.17412E+07         0.69554E+05         0.00000E+00
    0.69554E+05         0.82139E+03         0.00000E+00
    0.00000E+00         0.00000E+00         0.34841E+06
 
    0.17015E+07         0.11196E+06         0.00000E+00
    0.11196E+06         0.27149E+04         0.00000E+00
    0.00000E+00         0.00000E+00         0.34084E+06
 
    0.16603E+07         0.15219E+06         0.00000E+00
    0.15219E+06         0.53367E+04         0.00000E+00
    0.00000E+00         0.00000E+00         0.33313E+06
 
    0.16178E+07         0.19028E+06         0.00000E+00
    0.19028E+06         0.85944E+04         0.00000E+00
    0.00000E+00         0.00000E+00         0.32528E+06
 
    0.15743E+07         0.22626E+06         0.00000E+00
    0.22626E+06         0.12402E+05         0.00000E+00
    0.00000E+00         0.00000E+00         0.31733E+06
 
    0.15298E+07         0.26019E+06         0.00000E+00
    0.26019E+06         0.16678E+05         0.00000E+00
    0.00000E+00         0.00000E+00         0.30929E+06
 
    0.14846E+07         0.29212E+06         0.00000E+00
    0.29212E+06         0.21350E+05         0.00000E+00
    0.00000E+00         0.00000E+00         0.30118E+06
 
    0.14387E+07         0.32211E+06         0.00000E+00
    0.32211E+06         0.26350E+05         0.00000E+00
    0.00000E+00         0.00000E+00         0.29302E+06
 
    0.13925E+07         0.35020E+06         0.00000E+00
    0.35020E+06         0.31616E+05         0.00000E+00
    0.00000E+00         0.00000E+00         0.28482E+06
 
    0.13459E+07         0.37648E+06         0.00000E+00
    0.37648E+06         0.37092E+05         0.00000E+00
    0.00000E+00         0.00000E+00         0.27660E+06
 
    0.12991E+07         0.40100E+06         0.00000E+00
    0.40100E+06         0.42730E+05         0.00000E+00
    0.00000E+00         0.00000E+00         0.26837E+06
 
    0.12523E+07         0.42382E+06         0.00000E+00
    0.42382E+06         0.48485E+05         0.00000E+00
    0.00000E+00         0.00000E+00         0.26016E+06
 
    0.12055E+07         0.44502E+06         0.00000E+00
    0.44502E+06         0.54319E+05         0.00000E+00
    0.00000E+00         0.00000E+00         0.25197E+06
 
    0.11589E+07         0.46466E+06         0.00000E+00
    0.46466E+06         0.60201E+05         0.00000E+00
    0.00000E+00         0.00000E+00         0.24383E+06
 
    0.11126E+07         0.48281E+06         0.00000E+00
    0.48281E+06         0.66103E+05         0.00000E+00
    0.00000E+00         0.00000E+00         0.23574E+06
 
    0.10666E+07         0.49954E+06         0.00000E+00
    0.49954E+06         0.72002E+05         0.00000E+00
    0.00000E+00         0.00000E+00         0.22772E+06
 
    0.10210E+07         0.51491E+06         0.00000E+00
    0.51491E+06         0.77882E+05         0.00000E+00
    0.00000E+00         0.00000E+00         0.21977E+06
 
    0.97588E+06         0.52899E+06         0.00000E+00
    0.52899E+06         0.83728E+05         0.00000E+00
    0.00000E+00         0.00000E+00         0.21192E+06
 
    0.93134E+06         0.54183E+06         0.00000E+00
    0.54183E+06         0.89531E+05         0.00000E+00
    0.00000E+00         0.00000E+00         0.20417E+06
 
    0.88741E+06         0.55351E+06         0.00000E+00
    0.55351E+06         0.95285E+05         0.00000E+00
    0.00000E+00         0.00000E+00         0.19654E+06
 
    0.84417E+06         0.56409E+06         0.00000E+00
    0.56409E+06         0.10099E+06         0.00000E+00
    0.00000E+00         0.00000E+00         0.18903E+06
 
    0.80165E+06         0.57360E+06         0.00000E+00
    0.57360E+06         0.10664E+06         0.00000E+00
    0.00000E+00         0.00000E+00         0.18166E+06
 
    0.75990E+06         0.58212E+06         0.00000E+00
    0.58212E+06         0.11224E+06         0.00000E+00
    0.00000E+00         0.00000E+00         0.17443E+06
 
    0.71897E+06         0.58969E+06         0.00000E+00
    0.58969E+06         0.11779E+06         0.00000E+00
    0.00000E+00         0.00000E+00         0.16735E+06
 
    0.67890E+06         0.59636E+06         0.00000E+00
    0.59636E+06         0.12330E+06         0.00000E+00
    0.00000E+00         0.00000E+00         0.16044E+06
 
    0.63971E+06         0.60217E+06         0.00000E+00
    0.60217E+06         0.12877E+06         0.00000E+00
    0.00000E+00         0.00000E+00         0.15370E+06
 
    0.60146E+06         0.60717E+06         0.00000E+00
    0.60717E+06         0.13421E+06         0.00000E+00
    0.00000E+00         0.00000E+00         0.14713E+06
 
    0.56416E+06         0.61139E+06         0.00000E+00
    0.61139E+06         0.13963E+06         0.00000E+00
    0.00000E+00         0.00000E+00         0.14076E+06
 
    0.52786E+06         0.61488E+06         0.00000E+00
    0.61488E+06         0.14503E+06         0.00000E+00
    0.00000E+00         0.00000E+00         0.13458E+06
 
    0.49258E+06         0.61767E+06         0.00000E+00
    0.61767E+06         0.15041E+06         0.00000E+00
    0.00000E+00         0.00000E+00         0.12860E+06
 
    0.45836E+06         0.61979E+06         0.00000E+00
    0.61979E+06         0.15578E+06         0.00000E+00
    0.00000E+00         0.00000E+00         0.12283E+06
 
    0.42522E+06         0.62128E+06         0.00000E+00
    0.62128E+06         0.16113E+06         0.00000E+00
    0.00000E+00         0.00000E+00         0.11727E+06
 
    0.39321E+06         0.62217E+06         0.00000E+00
    0.62217E+06         0.16648E+06         0.00000E+00
    0.00000E+00         0.00000E+00         0.11194E+06
 
    0.36235E+06         0.62248E+06         0.00000E+00
    0.62248E+06         0.17181E+06         0.00000E+00
    0.00000E+00         0.00000E+00         0.10683E+06
 
    0.33269E+06         0.62225E+06         0.00000E+00
    0.62225E+06         0.17712E+06         0.00000E+00
    0.00000E+00         0.00000E+00         0.10196E+06
 
    0.30425E+06         0.62151E+06         0.00000E+00
    0.62151E+06         0.18241E+06         0.00000E+00
    0.00000E+00         0.00000E+00         0.97332E+05
 
    0.27707E+06         0.62030E+06         0.00000E+00
    0.62030E+06         0.18767E+06         0.00000E+00
    0.00000E+00         0.00000E+00         0.92948E+05
 
    0.25121E+06         0.61863E+06         0.00000E+00
    0.61863E+06         0.19288E+06         0.00000E+00
    0.00000E+00         0.00000E+00         0.88816E+05
 
    0.22668E+06         0.61656E+06         0.00000E+00
    0.61656E+06         0.19802E+06         0.00000E+00
    0.00000E+00         0.00000E+00         0.84941E+05
 
    0.20354E+06         0.61412E+06         0.00000E+00
    0.61412E+06         0.20310E+06         0.00000E+00
    0.00000E+00         0.00000E+00         0.81328E+05
 
    0.18184E+06         0.61134E+06         0.00000E+00
    0.61134E+06         0.20807E+06         0.00000E+00
    0.00000E+00         0.00000E+00         0.77982E+05
 
    0.16160E+06         0.60828E+06         0.00000E+00
    0.60828E+06         0.21294E+06         0.00000E+00
    0.00000E+00         0.00000E+00         0.74908E+05
 
    0.14289E+06         0.60498E+06         0.00000E+00
    0.60498E+06         0.21766E+06         0.00000E+00
    0.00000E+00         0.00000E+00         0.72110E+05
 
    0.12573E+06         0.60149E+06         0.00000E+00
    0.60149E+06         0.22223E+06         0.00000E+00
    0.00000E+00         0.00000E+00         0.69592E+05
 
    0.11018E+06         0.59788E+06         0.00000E+00
    0.59788E+06         0.22661E+06         0.00000E+00
    0.00000E+00         0.00000E+00         0.67358E+05
 
    0.96273E+05         0.59421E+06         0.00000E+00
    0.59421E+06         0.23079E+06         0.00000E+00
    0.00000E+00         0.00000E+00         0.65412E+05
 
    0.84051E+05         0.59054E+06         0.00000E+00
    0.59054E+06         0.23473E+06         0.00000E+00
    0.00000E+00         0.00000E+00         0.63757E+05
 
    0.73549E+05         0.58696E+06         0.00000E+00
    0.58696E+06         0.23843E+06         0.00000E+00
    0.00000E+00         0.00000E+00         0.62395E+05
 
    0.64801E+05         0.58355E+06         0.00000E+00
    0.58355E+06         0.24184E+06         0.00000E+00
    0.00000E+00         0.00000E+00         0.61329E+05
 
    0.20193E+07         0.27720E+05         0.00000E+00
    0.27720E+05        -0.20818E+03         0.00000E+00
    0.00000E+00         0.00000E+00         0.40382E+06
 
    0.19687E+07         0.76526E+05         0.00000E+00
    0.76526E+05         0.78986E+03         0.00000E+00
    0.00000E+00         0.00000E+00         0.39391E+06
 
    0.19167E+07         0.12257E+06         0.00000E+00
    0.12257E+06         0.25019E+04         0.00000E+00
    0.00000E+00         0.00000E+00         0.38385E+06
 
    0.18635E+07         0.16592E+06         0.00000E+00
    0.16592E+06         0.48131E+04         0.00000E+00
    0.00000E+00         0.00000E+00         0.37366E+06
 
    0.18093E+07         0.20665E+06         0.00000E+00
    0.20665E+06         0.76167E+04         0.00000E+00
    0.00000E+00         0.00000E+00         0.36338E+06
 
    0.17543E+07         0.24483E+06         0.00000E+00
    0.24483E+06         0.10814E+05         0.00000E+00
    0.00000E+00         0.00000E+00         0.35302E+06
 
    0.16987E+07         0.28055E+06         0.00000E+00
    0.28055E+06         0.14316E+05         0.00000E+00
    0.00000E+00         0.00000E+00         0.34261E+06
 
    0.16428E+07         0.31390E+06         0.00000E+00
    0.31390E+06         0.18040E+05         0.00000E+00
    0.00000E+00         0.00000E+00         0.33216E+06
 
    0.15866E+07         0.34498E+06         0.00000E+00
    0.34498E+06         0.21914E+05         0.00000E+00
    0.00000E+00         0.00000E+00         0.32170E+06
 
    0.15304E+07         0.37386E+06         0.00000E+00
    0.37386E+06         0.25872E+05         0.00000E+00
    0.00000E+00         0.00000E+00         0.31125E+06
 
    0.14742E+07         0.40067E+06         0.00000E+00
    0.40067E+06         0.29861E+05         0.00000E+00
    0.00000E+00         0.00000E+00         0.30082E+06
 
    0.14183E+07         0.42548E+06         0.00000E+00
    0.42548E+06         0.33831E+05         0.00000E+00
    0.00000E+00         0.00000E+00         0.29043E+06
 
    0.13628E+07         0.44842E+06         0.00000E+00
    0.44842E+06         0.37744E+05         0.00000E+00
    0.00000E+00         0.00000E+00         0.28010E+06
 
    0.13077E+07         0.46956E+06         0.00000E+00
    0.46956E+06         0.41569E+05         0.00000E+00
    0.00000E+00         0.00000E+00         0.26985E+06
 
    0.12532E+07         0.48903E+06         0.00000E+00
    0.48903E+06         0.45281E+05         0.00000E+00
    0.00000E+00         0.00000E+00         0.25969E+06
 
    0.11993E+07         0.50690E+06         0.00000E+00
    0.50690E+06         0.48866E+05         0.00000E+00
    0.00000E+00         0.00000E+00         0.24963E+06
 
    0.11462E+07         0.52328E+06         0.00000E+00
    0.52328E+06         0.52312E+05         0.00000E+00
    0.00000E+00         0.00000E+00         0.23970E+06
 
    0.10939E+07         0.53826E+06         0.00000E+00
    0.53826E+06         0.55618E+05         0.00000E+00
    0.00000E+00         0.00000E+00         0.22990E+06
 
    0.10424E+07         0.55193E+06         0.00000E+00
    0.55193E+06         0.58787E+05         0.00000E+00
    0.00000E+00         0.00000E+00         0.22024E+06
 
    0.99191E+06         0.56437E+06         0.00000E+00
    0.56437E+06         0.61825E+05         0.00000E+00
    0.00000E+00         0.00000E+00         0.21075E+06
 
    0.94234E+06         0.57567E+06         0.00000E+00
    0.57567E+06         0.64745E+05         0.00000E+00
    0.00000E+00         0.00000E+00         0.20142E+06
 
    0.89378E+06         0.58588E+06         0.00000E+00
    0.58588E+06         0.67565E+05         0.00000E+00
    0.00000E+00         0.00000E+00         0.19227E+06
 
    0.84624E+06         0.59510E+06         0.00000E+00
    0.59510E+06         0.70303E+05         0.00000E+00
    0.00000E+00         0.00000E+00         0.18331E+06
 
    0.79976E+06         0.60337E+06         0.00000E+00
    0.60337E+06         0.72982E+05         0.00000E+00
    0.00000E+00         0.00000E+00         0.17455E+06
 
    0.75435E+06         0.61076E+06         0.00000E+00
    0.61076E+06         0.75624E+05         0.00000E+00
    0.00000E+00         0.00000E+00         0.16600E+06
 
    0.71004E+06         0.61731E+06         0.00000E+00
    0.61731E+06         0.78256E+05         0.00000E+00
    0.00000E+00         0.00000E+00         0.15766E+06
 
    0.66685E+06         0.62308E+06         0.00000E+00
    0.62308E+06         0.80902E+05         0.00000E+00
    0.00000E+00         0.00000E+00         0.14955E+06
 
    0.62477E+06         0.62811E+06         0.00000E+00
    0.62811E+06         0.83587E+05         0.00000E+00
    0.00000E+00         0.00000E+00         0.14167E+06
 
    0.58385E+06         0.63243E+06         0.00000E+00
    0.63243E+06         0.86334E+05         0.00000E+00
    0.00000E+00         0.00000E+00         0.13404E+06
 
    0.54407E+06         0.63608E+06         0.00000E+00
    0.63608E+06         0.89165E+05         0.00000E+00
    0.00000E+00         0.00000E+00         0.12665E+06
 
    0.50548E+06         0.63907E+06         0.00000E+00
    0.63907E+06         0.92099E+05         0.00000E+00
    0.00000E+00         0.00000E+00         0.11952E+06
 
    0.46807E+06         0.64144E+06         0.00000E+00
    0.64144E+06         0.95152E+05         0.00000E+00
    0.00000E+00         0.00000E+00         0.11265E+06
 
    0.43189E+06         0.64319E+06         0.00000E+00
    0.64319E+06         0.98338E+05         0.00000E+00
    0.00000E+00         0.00000E+00         0.10605E+06
 
    0.39694E+06         0.64436E+06         0.00000E+00
    0.64436E+06         0.10167E+06         0.00000E+00
    0.00000E+00         0.00000E+00         0.99721E+05
 
    0.36327E+06         0.64495E+06         0.00000E+00
    0.64495E+06         0.10514E+06         0.00000E+00
    0.00000E+00         0.00000E+00         0.93681E+05
 
    0.33089E+06         0.64497E+06         0.00000E+00
    0.64497E+06         0.10876E+06         0.00000E+00
    0.00000E+00         0.00000E+00         0.87930E+05
 
    0.29986E+06         0.64445E+06         0.00000E+00
    0.64445E+06         0.11251E+06         0.00000E+00
    0.00000E+00         0.00000E+00         0.82476E+05
 
    0.27022E+06         0.64339E+06         0.00000E+00
    0.64339E+06         0.11640E+06         0.00000E+00
    0.00000E+00         0.00000E+00         0.77325E+05
 
    0.24201E+06         0.64181E+06         0.00000E+00
    0.64181E+06         0.12041E+06         0.00000E+00
    0.00000E+00         0.00000E+00         0.72484E+05
 
    0.21529E+06         0.63972E+06         0.00000E+00
    0.63972E+06         0.12451E+06         0.00000E+00
    0.00000E+00         0.00000E+00         0.67960E+05
 
    0.19012E+06         0.63715E+06         0.00000E+00
    0.63715E+06         0.12868E+06         0.00000E+00
    0.00000E+00         0.00000E+00         0.63759E+05
 
    0.16655E+06         0.63413E+06         0.00000E+00
    0.63413E+06         0.13288E+06         0.00000E+00
    0.00000E+00         0.00000E+00         0.59887E+05
 
    0.14466E+06         0.63068E+06         0.00000E+00
    0.63068E+06         0.13710E+06         0.00000E+00
    0.00000E+00         0.00000E+00         0.56352E+05
 
    0.12452E+06         0.62683E+06         0.00000E+00
    0.62683E+06         0.14128E+06         0.00000E+00
    0.00000E+00         0.00000E+00         0.53160E+05
 
    0.10620E+06         0.62264E+06         0.00000E+00
    0.62264E+06         0.14538E+06         0.00000E+00
    0.00000E+00         0.00000E+00         0.50316E+05
 
    0.89777E+05         0.61816E+06         0.00000E+00
    0.61816E+06         0.14936E+06         0.00000E+00
    0.00000E+00         0.00000E+00         0.47828E+05
 
    0.75328E+05         0.61344E+06         0.00000E+00
    0.61344E+06         0.15318E+06         0.00000E+00
    0.00000E+00         0.00000E+00         0.45701E+05
 
    0.62931E+05         0.60855E+06         0.00000E+00
    0.60855E+06         0.15677E+06         0.00000E+00
    0.00000E+00         0.00000E+00         0.43940E+05
 
    0.52664E+05         0.60357E+06         0.00000E+00
    0.60357E+06         0.16010E+06         0.00000E+00
    0.00000E+00         0.00000E+00         0.42553E+05
 
    0.44603E+05         0.59859E+06         0.00000E+00
    0.59859E+06         0.16311E+06         0.00000E+00
    0.00000E+00         0.00000E+00         0.41542E+05
 
    0.22801E+07         0.30258E+05         0.00000E+00
    0.30258E+05        -0.14046E+03         0.00000E+00
    0.00000E+00         0.00000E+00         0.45600E+06
 
    0.22140E+07         0.82501E+05         0.00000E+00
    0.82501E+05         0.69482E+03         0.00000E+00
    0.00000E+00         0.00000E+00         0.44294E+06
 
    0.21468E+07         0.13134E+06         0.00000E+00
    0.13134E+06         0.20315E+04         0.00000E+00
    0.00000E+00         0.00000E+00         0.42977E+06
 
    0.20789E+07         0.17689E+06         0.00000E+00
    0.17689E+06         0.37356E+04         0.00000E+00
    0.00000E+00         0.00000E+00         0.41653E+06
 
    0.20105E+07         0.21926E+06         0.00000E+00
    0.21926E+06         0.56836E+04         0.00000E+00
    0.00000E+00         0.00000E+00         0.40323E+06
 
    0.19418E+07         0.25859E+06         0.00000E+00
    0.25859E+06         0.77629E+04         0.00000E+00
    0.00000E+00         0.00000E+00         0.38991E+06
 
    0.18731E+07         0.29501E+06         0.00000E+00
    0.29501E+06         0.98726E+04         0.00000E+00
    0.00000E+00         0.00000E+00         0.37659E+06
 
    0.18046E+07         0.32865E+06         0.00000E+00
    0.32865E+06         0.11923E+05         0.00000E+00
    0.00000E+00         0.00000E+00         0.36330E+06
 
    0.17364E+07         0.35966E+06         0.00000E+00
    0.35966E+06         0.13837E+05         0.00000E+00
    0.00000E+00         0.00000E+00         0.35006E+06
 
    0.16689E+07         0.38819E+06         0.00000E+00
    0.38819E+06         0.15548E+05         0.00000E+00
    0.00000E+00         0.00000E+00         0.33688E+06
 
    0.16020E+07         0.41439E+06         0.00000E+00
    0.41439E+06         0.17004E+05         0.00000E+00
    0.00000E+00         0.00000E+00         0.32380E+06
 
    0.15360E+07         0.43840E+06         0.00000E+00
    0.43840E+06         0.18162E+05         0.00000E+00
    0.00000E+00         0.00000E+00         0.31082E+06
 
    0.14709E+07         0.46037E+06         0.00000E+00
    0.46037E+06         0.18994E+05         0.00000E+00
    0.00000E+00         0.00000E+00         0.29798E+06
 
    0.14069E+07         0.48046E+06         0.00000E+00
    0.48046E+06         0.19479E+05         0.00000E+00
    0.00000E+00         0.00000E+00         0.28528E+06
 
    0.13441E+07         0.49879E+06         0.00000E+00
    0.49879E+06         0.19612E+05         0.00000E+00
    0.00000E+00         0.00000E+00         0.27274E+06
 
    0.12825E+07         0.51552E+06         0.00000E+00
    0.51552E+06         0.19395E+05         0.00000E+00
    0.00000E+00         0.00000E+00         0.26039E+06
 
    0.12223E+07         0.53078E+06         0.00000E+00
    0.53078E+06         0.18840E+05         0.00000E+00
    0.00000E+00         0.00000E+00         0.24822E+06
 
    0.11633E+07         0.54470E+06         0.00000E+00
    0.54470E+06         0.17969E+05         0.00000E+00
    0.00000E+00         0.00000E+00         0.23626E+06
 
    0.11058E+07         0.55739E+06         0.00000E+00
    0.55739E+06         0.16811E+05         0.00000E+00
    0.00000E+00         0.00000E+00         0.22451E+06
 
    0.10496E+07         0.56897E+06         0.00000E+00
    0.56897E+06         0.15404E+05         0.00000E+00
    0.00000E+00         0.00000E+00         0.21300E+06
 
    0.99481E+06         0.57955E+06         0.00000E+00
    0.57955E+06         0.13790E+05         0.00000E+00
    0.00000E+00         0.00000E+00         0.20172E+06
 
    0.94144E+06         0.58921E+06         0.00000E+00
    0.58921E+06         0.12017E+05         0.00000E+00
    0.00000E+00         0.00000E+00         0.19069E+06
 
    0.88945E+06         0.59804E+06         0.00000E+00
    0.59804E+06         0.10136E+05         0.00000E+00
    0.00000E+00         0.00000E+00         0.17992E+06
 
    0.83885E+06         0.60612E+06         0.00000E+00
    0.60612E+06         0.82020E+04         0.00000E+00
    0.00000E+00         0.00000E+00         0.16941E+06
 
    0.78962E+06         0.61352E+06         0.00000E+00
    0.61352E+06         0.62718E+04         0.00000E+00
    0.00000E+00         0.00000E+00         0.15918E+06
 
    0.74172E+06         0.62027E+06         0.00000E+00
    0.62027E+06         0.44019E+04         0.00000E+00
    0.00000E+00         0.00000E+00         0.14922E+06
 
    0.69514E+06         0.62644E+06         0.00000E+00
    0.62644E+06         0.26485E+04         0.00000E+00
    0.00000E+00         0.00000E+00         0.13956E+06
 
    0.64986E+06         0.63204E+06         0.00000E+00
    0.63204E+06         0.10664E+04         0.00000E+00
    0.00000E+00         0.00000E+00         0.13019E+06
 
    0.60586E+06         0.63712E+06         0.00000E+00
    0.63712E+06        -0.29282E+03         0.00000E+00
    0.00000E+00         0.00000E+00         0.12111E+06
 
    0.56312E+06         0.64167E+06         0.00000E+00
    0.64167E+06        -0.13809E+04         0.00000E+00
    0.00000E+00         0.00000E+00         0.11235E+06
 
    0.52163E+06         0.64572E+06         0.00000E+00
    0.64572E+06        -0.21545E+04         0.00000E+00
    0.00000E+00         0.00000E+00         0.10390E+06
 
    0.48138E+06         0.64925E+06         0.00000E+00
    0.64925E+06        -0.25759E+04         0.00000E+00
    0.00000E+00         0.00000E+00         0.95761E+05
 
    0.44237E+06         0.65227E+06         0.00000E+00
    0.65227E+06        -0.26139E+04         0.00000E+00
    0.00000E+00         0.00000E+00         0.87952E+05
 
    0.40461E+06         0.65476E+06         0.00000E+00
    0.65476E+06        -0.22444E+04         0.00000E+00
    0.00000E+00         0.00000E+00         0.80474E+05
 
    0.36812E+06         0.65671E+06         0.00000E+00
    0.65671E+06        -0.14512E+04         0.00000E+00
    0.00000E+00         0.00000E+00         0.73334E+05
 
    0.33292E+06         0.65810E+06         0.00000E+00
    0.65810E+06        -0.22638E+03         0.00000E+00
    0.00000E+00         0.00000E+00         0.66539E+05
 
    0.29905E+06         0.65889E+06         0.00000E+00
    0.65889E+06         0.14290E+04         0.00000E+00
    0.00000E+00         0.00000E+00         0.60096E+05
 
    0.26656E+06         0.65909E+06         0.00000E+00
    0.65909E+06         0.35048E+04         0.00000E+00
    0.00000E+00         0.00000E+00         0.54012E+05
 
    0.23549E+06         0.65866E+06         0.00000E+00
    0.65866E+06         0.59816E+04         0.00000E+00
    0.00000E+00         0.00000E+00         0.48295E+05
 
    0.20594E+06         0.65759E+06         0.00000E+00
    0.65759E+06         0.88306E+04         0.00000E+00
    0.00000E+00         0.00000E+00         0.42953E+05
 
    0.17796E+06         0.65586E+06         0.00000E+00
    0.65586E+06         0.12014E+05         0.00000E+00
    0.00000E+00         0.00000E+00         0.37995E+05
 
    0.15166E+06         0.65347E+06         0.00000E+00
    0.65347E+06         0.15483E+05         0.00000E+00
    0.00000E+00         0.00000E+00         0.33429E+05
 
    0.12713E+06         0.65041E+06         0.00000E+00
    0.65041E+06         0.19184E+05         0.00000E+00
    0.00000E+00         0.00000E+00         0.29263E+05
 
    0.10449E+06         0.64670E+06         0.00000E+00
    0.64670E+06         0.23052E+05         0.00000E+00
    0.00000E+00         0.00000E+00         0.25508E+05
 
    0.83850E+05         0.64235E+06         0.00000E+00
    0.64235E+06         0.27015E+05         0.00000E+00
    0.00000E+00         0.00000E+00         0.22173E+05
 
    0.65340E+05         0.63740E+06         0.00000E+00
    0.63740E+06         0.30994E+05         0.00000E+00
    0.00000E+00         0.00000E+00         0.19267E+05
 
    0.49094E+05         0.63188E+06         0.00000E+00
    0.63188E+06         0.34907E+05         0.00000E+00
    0.00000E+00         0.00000E+00         0.16800E+05
 
    0.35248E+05         0.62585E+06         0.00000E+00
    0.62585E+06         0.38663E+05         0.00000E+00
    0.00000E+00         0.00000E+00         0.14782E+05
 
    0.23944E+05         0.61938E+06         0.00000E+00
    0.61938E+06         0.42171E+05         0.00000E+00
    0.00000E+00         0.00000E+00         0.13223E+05
 
    0.15325E+05         0.61257E+06         0.00000E+00
    0.61257E+06         0.45336E+05         0.00000E+00
    0.00000E+00         0.00000E+00         0.12132E+05
 
    0.25569E+07         0.32293E+05         0.00000E+00
    0.32293E+05        -0.39256E+02         0.00000E+00
    0.00000E+00         0.00000E+00         0.51138E+06
 
    0.24716E+07         0.86668E+05         0.00000E+00
    0.86668E+05         0.52072E+03         0.00000E+00
    0.00000E+00         0.00000E+00         0.49442E+06
 
    0.23859E+07         0.13688E+06         0.00000E+00
    0.13688E+06         0.12427E+04         0.00000E+00
    0.00000E+00         0.00000E+00         0.47743E+06
 
    0.23002E+07         0.18310E+06         0.00000E+00
    0.18310E+06         0.19662E+04         0.00000E+00
    0.00000E+00         0.00000E+00         0.46043E+06
 
    0.22147E+07         0.22551E+06         0.00000E+00
    0.22551E+06         0.25449E+04         0.00000E+00
    0.00000E+00         0.00000E+00         0.44346E+06
 
    0.21298E+07         0.26430E+06         0.00000E+00
    0.26430E+06         0.28467E+04         0.00000E+00
    0.00000E+00         0.00000E+00         0.42654E+06
 
    0.20458E+07         0.29968E+06         0.00000E+00
    0.29968E+06         0.27551E+04         0.00000E+00
    0.00000E+00         0.00000E+00         0.40971E+06
 
    0.19628E+07         0.33184E+06         0.00000E+00
    0.33184E+06         0.21702E+04         0.00000E+00
    0.00000E+00         0.00000E+00         0.39299E+06
 
    0.18810E+07         0.36101E+06         0.00000E+00
    0.36101E+06         0.10092E+04         0.00000E+00
    0.00000E+00         0.00000E+00         0.37641E+06
 
    0.18008E+07         0.38741E+06         0.00000E+00
    0.38741E+06        -0.79352E+03         0.00000E+00
    0.00000E+00         0.00000E+00         0.35999E+06
 
    0.17221E+07         0.41125E+06         0.00000E+00
    0.41125E+06        -0.32858E+04         0.00000E+00
    0.00000E+00         0.00000E+00         0.34377E+06
 
    0.16453E+07         0.43276E+06         0.00000E+00
    0.43276E+06        -0.64979E+04         0.00000E+00
    0.00000E+00         0.00000E+00         0.32775E+06
 
    0.15703E+07         0.45215E+06         0.00000E+00
    0.45215E+06        -0.10443E+05         0.00000E+00
    0.00000E+00         0.00000E+00         0.31196E+06
 
    0.14972E+07         0.46965E+06         0.00000E+00
    0.46965E+06        -0.15118E+05         0.00000E+00
    0.00000E+00         0.00000E+00         0.29642E+06
 
    0.14262E+07         0.48545E+06         0.00000E+00
    0.48545E+06        -0.20502E+05         0.00000E+00
    0.00000E+00         0.00000E+00         0.28114E+06
 
    0.13573E+07         0.49976E+06         0.00000E+00
    0.49976E+06        -0.26561E+05         0.00000E+00
    0.00000E+00         0.00000E+00         0.26614E+06
 
    0.12904E+07         0.51277E+06         0.00000E+00
    0.51277E+06        -0.33248E+05         0.00000E+00
    0.00000E+00         0.00000E+00         0.25143E+06
 
    0.12256E+07         0.52466E+06         0.00000E+00
    0.52466E+06        -0.40499E+05         0.00000E+00
    0.00000E+00         0.00000E+00         0.23702E+06
 
    0.11629E+07         0.53559E+06         0.00000E+00
    0.53559E+06        -0.48244E+05         0.00000E+00
    0.00000E+00         0.00000E+00         0.22292E+06
 
    0.11021E+07         0.54571E+06         0.00000E+00
    0.54571E+06        -0.56401E+05         0.00000E+00
    0.00000E+00         0.00000E+00         0.20915E+06
 
    0.10434E+07         0.55516E+06         0.00000E+00
    0.55516E+06        -0.64878E+05         0.00000E+00
    0.00000E+00         0.00000E+00         0.19570E+06
 
    0.98653E+06         0.56406E+06         0.00000E+00
    0.56406E+06        -0.73579E+05         0.00000E+00
    0.00000E+00         0.00000E+00         0.18259E+06
 
    0.93150E+06         0.57251E+06         0.00000E+00
    0.57251E+06        -0.82403E+05         0.00000E+00
    0.00000E+00         0.00000E+00         0.16982E+06
 
    0.87821E+06         0.58059E+06         0.00000E+00
    0.58059E+06        -0.91246E+05         0.00000E+00
    0.00000E+00         0.00000E+00         0.15739E+06
 
    0.82659E+06         0.58838E+06         0.00000E+00
    0.58838E+06        -0.10000E+06         0.00000E+00
    0.00000E+00         0.00000E+00         0.14532E+06
 
    0.77654E+06         0.59593E+06         0.00000E+00
    0.59593E+06        -0.10856E+06         0.00000E+00
    0.00000E+00         0.00000E+00         0.13360E+06
 
    0.72798E+06         0.60327E+06         0.00000E+00
    0.60327E+06        -0.11683E+06         0.00000E+00
    0.00000E+00         0.00000E+00         0.12223E+06
 
    0.68081E+06         0.61042E+06         0.00000E+00
    0.61042E+06        -0.12469E+06         0.00000E+00
    0.00000E+00         0.00000E+00         0.11122E+06
 
    0.63496E+06         0.61739E+06         0.00000E+00
    0.61739E+06        -0.13207E+06         0.00000E+00
    0.00000E+00         0.00000E+00         0.10058E+06
 
    0.59035E+06         0.62415E+06         0.00000E+00
    0.62415E+06        -0.13886E+06         0.00000E+00
    0.00000E+00         0.00000E+00         0.90298E+05
 
    0.54693E+06         0.63068E+06         0.00000E+00
    0.63068E+06        -0.14500E+06         0.00000E+00
    0.00000E+00         0.00000E+00         0.80386E+05
 
    0.50463E+06         0.63694E+06         0.00000E+00
    0.63694E+06        -0.15040E+06         0.00000E+00
    0.00000E+00         0.00000E+00         0.70845E+05
 
    0.46341E+06         0.64289E+06         0.00000E+00
    0.64289E+06        -0.15502E+06         0.00000E+00
    0.00000E+00         0.00000E+00         0.61680E+05
 
    0.42326E+06         0.64846E+06         0.00000E+00
    0.64846E+06        -0.15879E+06         0.00000E+00
    0.00000E+00         0.00000E+00         0.52894E+05
 
    0.38416E+06         0.65357E+06         0.00000E+00
    0.65357E+06        -0.16169E+06         0.00000E+00
    0.00000E+00         0.00000E+00         0.44494E+05
 
    0.34611E+06         0.65817E+06         0.00000E+00
    0.65817E+06        -0.16369E+06         0.00000E+00
    0.00000E+00         0.00000E+00         0.36484E+05
 
    0.30914E+06         0.66217E+06         0.00000E+00
    0.66217E+06        -0.16479E+06         0.00000E+00
    0.00000E+00         0.00000E+00         0.28871E+05
 
    0.27331E+06         0.66548E+06         0.00000E+00
    0.66548E+06        -0.16499E+06         0.00000E+00
    0.00000E+00         0.00000E+00         0.21664E+05
 
    0.23867E+06         0.66803E+06         0.00000E+00
    0.66803E+06        -0.16432E+06         0.00000E+00
    0.00000E+00         0.00000E+00         0.14870E+05
 
    0.20531E+06         0.66973E+06         0.00000E+00
    0.66973E+06        -0.16282E+06         0.00000E+00
    0.00000E+00         0.00000E+00         0.84985E+04
 
    0.17334E+06         0.67052E+06         0.00000E+00
    0.67052E+06        -0.16054E+06         0.00000E+00
    0.00000E+00         0.00000E+00         0.25603E+04
 
    0.14289E+06         0.67033E+06         0.00000E+00
    0.67033E+06        -0.15755E+06         0.00000E+00
    0.00000E+00         0.00000E+00        -0.29336E+04
 
    0.11410E+06         0.66909E+06         0.00000E+00
    0.66909E+06        -0.15395E+06         0.00000E+00
    0.00000E+00         0.00000E+00        -0.79709E+04
 
    0.87134E+05         0.66677E+06         0.00000E+00
    0.66677E+06        -0.14983E+06         0.00000E+00
    0.00000E+00         0.00000E+00        -0.12539E+05
 
    0.62186E+05         0.66332E+06         0.00000E+00
    0.66332E+06        -0.14530E+06         0.00000E+00
    0.00000E+00         0.00000E+00        -0.16623E+05
 
    0.39452E+05         0.65875E+06         0.00000E+00
    0.65875E+06        -0.14050E+06         0.00000E+00
    0.00000E+00         0.00000E+00        -0.20209E+05
 
    0.19148E+05         0.65304E+06         0.00000E+00
    0.65304E+06        -0.13556E+06         0.00000E+00
    0.00000E+00         0.00000E+00        -0.23282E+05
 
    0.15020E+04         0.64624E+06         0.00000E+00
    0.64624E+06        -0.13063E+06         0.00000E+00
    0.00000E+00         0.00000E+00        -0.25825E+05
 
   -0.13246E+05         0.63837E+06         0.00000E+00
    0.63837E+06        -0.12587E+06         0.00000E+00
    0.00000E+00         0.00000E+00        -0.27823E+05
 
   -0.24849E+05         0.62952E+06         0.00000E+00
    0.62952E+06        -0.12144E+06         0.00000E+00
    0.00000E+00         0.00000E+00        -0.29258E+05
 
    0.28419E+07         0.33549E+05         0.00000E+00
    0.33549E+05         0.73950E+02         0.00000E+00
    0.00000E+00         0.00000E+00         0.56839E+06
 
    0.27330E+07         0.88075E+05         0.00000E+00
    0.88075E+05         0.24125E+03         0.00000E+00
    0.00000E+00         0.00000E+00         0.54665E+06
 
    0.26248E+07         0.13751E+06         0.00000E+00
    0.13751E+06         0.74127E+02         0.00000E+00
    0.00000E+00         0.00000E+00         0.52497E+06
 
    0.25176E+07         0.18209E+06         0.00000E+00
    0.18209E+06        -0.63017E+03         0.00000E+00
    0.00000E+00         0.00000E+00         0.50339E+06
 
    0.24118E+07         0.22209E+06         0.00000E+00
    0.22209E+06        -0.20579E+04         0.00000E+00
    0.00000E+00         0.00000E+00         0.48194E+06
 
    0.23077E+07         0.25779E+06         0.00000E+00
    0.25779E+06        -0.43733E+04         0.00000E+00
    0.00000E+00         0.00000E+00         0.46067E+06
 
    0.22058E+07         0.28948E+06         0.00000E+00
    0.28948E+06        -0.77178E+04         0.00000E+00
    0.00000E+00         0.00000E+00         0.43961E+06
 
    0.21062E+07         0.31748E+06         0.00000E+00
    0.31748E+06        -0.12208E+05         0.00000E+00
    0.00000E+00         0.00000E+00         0.41880E+06
 
    0.20093E+07         0.34211E+06         0.00000E+00
    0.34211E+06        -0.17934E+05         0.00000E+00
    0.00000E+00         0.00000E+00         0.39827E+06
 
    0.19151E+07         0.36370E+06         0.00000E+00
    0.36370E+06        -0.24960E+05         0.00000E+00
    0.00000E+00         0.00000E+00         0.37804E+06
 
    0.18240E+07         0.38257E+06         0.00000E+00
    0.38257E+06        -0.33322E+05         0.00000E+00
    0.00000E+00         0.00000E+00         0.35814E+06
 
    0.17360E+07         0.39905E+06         0.00000E+00
    0.39905E+06        -0.43030E+05         0.00000E+00
    0.00000E+00         0.00000E+00         0.33859E+06
 
    0.16512E+07         0.41347E+06         0.00000E+00
    0.41347E+06        -0.54067E+05         0.00000E+00
    0.00000E+00         0.00000E+00         0.31942E+06
 
    0.15696E+07         0.42615E+06         0.00000E+00
    0.42615E+06        -0.66391E+05         0.00000E+00
    0.00000E+00         0.00000E+00         0.30064E+06
 
    0.14913E+07         0.43737E+06         0.00000E+00
    0.43737E+06        -0.79937E+05         0.00000E+00
    0.00000E+00         0.00000E+00         0.28227E+06
 
    0.14162E+07         0.44744E+06         0.00000E+00
    0.44744E+06        -0.94619E+05         0.00000E+00
    0.00000E+00         0.00000E+00         0.26432E+06
 
    0.13443E+07         0.45661E+06         0.00000E+00
    0.45661E+06        -0.11033E+06         0.00000E+00
    0.00000E+00         0.00000E+00         0.24680E+06
 
    0.12756E+07         0.46514E+06         0.00000E+00
    0.46514E+06        -0.12694E+06         0.00000E+00
    0.00000E+00         0.00000E+00         0.22972E+06
 
    0.12097E+07         0.47325E+06         0.00000E+00
    0.47325E+06        -0.14432E+06         0.00000E+00
    0.00000E+00         0.00000E+00         0.21308E+06
 
    0.11468E+07         0.48115E+06         0.00000E+00
    0.48115E+06        -0.16232E+06         0.00000E+00
    0.00000E+00         0.00000E+00         0.19689E+06
 
    0.10865E+07         0.48901E+06         0.00000E+00
    0.48901E+06        -0.18076E+06         0.00000E+00
    0.00000E+00         0.00000E+00         0.18114E+06
 
    0.10287E+07         0.49698E+06         0.00000E+00
    0.49698E+06        -0.19949E+06         0.00000E+00
    0.00000E+00         0.00000E+00         0.16584E+06
 
    0.97328E+06         0.50518E+06         0.00000E+00
    0.50518E+06        -0.21833E+06         0.00000E+00
    0.00000E+00         0.00000E+00         0.15099E+06
 
    0.91999E+06         0.51371E+06         0.00000E+00
    0.51371E+06        -0.23710E+06         0.00000E+00
    0.00000E+00         0.00000E+00         0.13658E+06
 
    0.86866E+06         0.52264E+06         0.00000E+00
    0.52264E+06        -0.25562E+06         0.00000E+00
    0.00000E+00         0.00000E+00         0.12261E+06
 
    0.81907E+06         0.53201E+06         0.00000E+00
    0.53201E+06        -0.27372E+06         0.00000E+00
    0.00000E+00         0.00000E+00         0.10907E+06
 
    0.77104E+06         0.54183E+06         0.00000E+00
    0.54183E+06        -0.29122E+06         0.00000E+00
    0.00000E+00         0.00000E+00         0.95963E+05
 
    0.72438E+06         0.55209E+06         0.00000E+00
    0.55209E+06        -0.30797E+06         0.00000E+00
    0.00000E+00         0.00000E+00         0.83282E+05
 
    0.67891E+06         0.56276E+06         0.00000E+00
    0.56276E+06        -0.32381E+06         0.00000E+00
    0.00000E+00         0.00000E+00         0.71021E+05
 
    0.63446E+06         0.57378E+06         0.00000E+00
    0.57378E+06        -0.33858E+06         0.00000E+00
    0.00000E+00         0.00000E+00         0.59176E+05
 
    0.59089E+06         0.58506E+06         0.00000E+00
    0.58506E+06        -0.35216E+06         0.00000E+00
    0.00000E+00         0.00000E+00         0.47745E+05
 
    0.54806E+06         0.59650E+06         0.00000E+00
    0.59650E+06        -0.36444E+06         0.00000E+00
    0.00000E+00         0.00000E+00         0.36725E+05
 
    0.50586E+06         0.60799E+06         0.00000E+00
    0.60799E+06        -0.37529E+06         0.00000E+00
    0.00000E+00         0.00000E+00         0.26114E+05
 
    0.46421E+06         0.61939E+06         0.00000E+00
    0.61939E+06        -0.38465E+06         0.00000E+00
    0.00000E+00         0.00000E+00         0.15912E+05
 
    0.42304E+06         0.63053E+06         0.00000E+00
    0.63053E+06        -0.39244E+06         0.00000E+00
    0.00000E+00         0.00000E+00         0.61202E+04
 
    0.38233E+06         0.64127E+06         0.00000E+00
    0.64127E+06        -0.39862E+06         0.00000E+00
    0.00000E+00         0.00000E+00        -0.32583E+04
 
    0.34208E+06         0.65143E+06         0.00000E+00
    0.65143E+06        -0.40317E+06         0.00000E+00
    0.00000E+00         0.00000E+00        -0.12219E+05
 
    0.30231E+06         0.66083E+06         0.00000E+00
    0.66083E+06        -0.40609E+06         0.00000E+00
    0.00000E+00         0.00000E+00        -0.20755E+05
 
    0.26311E+06         0.66930E+06         0.00000E+00
    0.66930E+06        -0.40740E+06         0.00000E+00
    0.00000E+00         0.00000E+00        -0.28859E+05
 
    0.22456E+06         0.67664E+06         0.00000E+00
    0.67664E+06        -0.40716E+06         0.00000E+00
    0.00000E+00         0.00000E+00        -0.36520E+05
 
    0.18681E+06         0.68269E+06         0.00000E+00
    0.68269E+06        -0.40543E+06         0.00000E+00
    0.00000E+00         0.00000E+00        -0.43725E+05
 
    0.15003E+06         0.68728E+06         0.00000E+00
    0.68728E+06        -0.40233E+06         0.00000E+00
    0.00000E+00         0.00000E+00        -0.50460E+05
 
    0.11442E+06         0.69025E+06         0.00000E+00
    0.69025E+06        -0.39797E+06         0.00000E+00
    0.00000E+00         0.00000E+00        -0.56710E+05
 
    0.80235E+05         0.69147E+06         0.00000E+00
    0.69147E+06        -0.39251E+06         0.00000E+00
    0.00000E+00         0.00000E+00        -0.62455E+05
 
    0.47744E+05         0.69081E+06         0.00000E+00
    0.69081E+06        -0.38612E+06         0.00000E+00
    0.00000E+00         0.00000E+00        -0.67676E+05
 
    0.17257E+05         0.68817E+06         0.00000E+00
    0.68817E+06        -0.37901E+06         0.00000E+00
    0.00000E+00         0.00000E+00        -0.72350E+05
 
   -0.10891E+05         0.68349E+06         0.00000E+00
    0.68349E+06        -0.37139E+06         0.00000E+00
    0.00000E+00         0.00000E+00        -0.76456E+05
 
   -0.36335E+05         0.67672E+06         0.00000E+00
    0.67672E+06        -0.36350E+06         0.00000E+00
    0.00000E+00         0.00000E+00        -0.79967E+05
 
   -0.58691E+05         0.66786E+06         0.00000E+00
    0.66786E+06        -0.35560E+06         0.00000E+00
    0.00000E+00         0.00000E+00        -0.82857E+05
 
   -0.77551E+05         0.65694E+06         0.00000E+00
    0.65694E+06        -0.34795E+06         0.00000E+00
    0.00000E+00         0.00000E+00        -0.85100E+05
 
    0.31236E+07         0.33793E+05         0.00000E+00
    0.33793E+05         0.52931E+02         0.00000E+00
    0.00000E+00         0.00000E+00         0.62472E+06
 
    0.29856E+07         0.85686E+05         0.00000E+00
    0.85686E+05        -0.27406E+03         0.00000E+00
    0.00000E+00         0.00000E+00         0.59707E+06
 
    0.28497E+07         0.13124E+06         0.00000E+00
    0.13124E+06        -0.16284E+04         0.00000E+00
    0.00000E+00         0.00000E+00         0.56961E+06
 
    0.27163E+07         0.17081E+06         0.00000E+00
    0.17081E+06        -0.43016E+04         0.00000E+00
    0.00000E+00         0.00000E+00         0.54239E+06
 
    0.25860E+07         0.20478E+06         0.00000E+00
    0.20478E+06        -0.85492E+04         0.00000E+00
    0.00000E+00         0.00000E+00         0.51549E+06
 
    0.24593E+07         0.23357E+06         0.00000E+00
    0.23357E+06        -0.14594E+05         0.00000E+00
    0.00000E+00         0.00000E+00         0.48894E+06
 
    0.23366E+07         0.25764E+06         0.00000E+00
    0.25764E+06        -0.22622E+05         0.00000E+00
    0.00000E+00         0.00000E+00         0.46279E+06
 
    0.22182E+07         0.27746E+06         0.00000E+00
    0.27746E+06        -0.32773E+05         0.00000E+00
    0.00000E+00         0.00000E+00         0.43708E+06
 
    0.21045E+07         0.29352E+06         0.00000E+00
    0.29352E+06        -0.45145E+05         0.00000E+00
    0.00000E+00         0.00000E+00         0.41187E+06
 
    0.19956E+07         0.30633E+06         0.00000E+00
    0.30633E+06        -0.59790E+05         0.00000E+00
    0.00000E+00         0.00000E+00         0.38717E+06
 
    0.18918E+07         0.31639E+06         0.00000E+00
    0.31639E+06        -0.76718E+05         0.00000E+00
    0.00000E+00         0.00000E+00         0.36302E+06
 
    0.17931E+07         0.32418E+06         0.00000E+00
    0.32418E+06        -0.95894E+05         0.00000E+00
    0.00000E+00         0.00000E+00         0.33945E+06
 
    0.16996E+07         0.33020E+06         0.00000E+00
    0.33020E+06        -0.11724E+06         0.00000E+00
    0.00000E+00         0.00000E+00         0.31648E+06
 
    0.16112E+07         0.33490E+06         0.00000E+00
    0.33490E+06        -0.14066E+06         0.00000E+00
    0.00000E+00         0.00000E+00         0.29411E+06
 
    0.15279E+07         0.33871E+06         0.00000E+00
    0.33871E+06        -0.16599E+06         0.00000E+00
    0.00000E+00         0.00000E+00         0.27238E+06
 
    0.14494E+07         0.34206E+06         0.00000E+00
    0.34206E+06        -0.19306E+06         0.00000E+00
    0.00000E+00         0.00000E+00         0.25127E+06
 
    0.13757E+07         0.34531E+06         0.00000E+00
    0.34531E+06        -0.22167E+06         0.00000E+00
    0.00000E+00         0.00000E+00         0.23080E+06
 
    0.13064E+07         0.34879E+06         0.00000E+00
    0.34879E+06        -0.25160E+06         0.00000E+00
    0.00000E+00         0.00000E+00         0.21096E+06
 
    0.12413E+07         0.35282E+06         0.00000E+00
    0.35282E+06        -0.28261E+06         0.00000E+00
    0.00000E+00         0.00000E+00         0.19175E+06
 
    0.11802E+07         0.35766E+06         0.00000E+00
    0.35766E+06        -0.31444E+06         0.00000E+00
    0.00000E+00         0.00000E+00         0.17315E+06
 
    0.11227E+07         0.36352E+06         0.00000E+00
    0.36352E+06        -0.34683E+06         0.00000E+00
    0.00000E+00         0.00000E+00         0.15516E+06
 
    0.10684E+07         0.37058E+06         0.00000E+00
    0.37058E+06        -0.37950E+06         0.00000E+00
    0.00000E+00         0.00000E+00         0.13777E+06
 
    0.10170E+07         0.37899E+06         0.00000E+00
    0.37899E+06        -0.41219E+06         0.00000E+00
    0.00000E+00         0.00000E+00         0.12096E+06
 
    0.96814E+06         0.38883E+06         0.00000E+00
    0.38883E+06        -0.44462E+06         0.00000E+00
    0.00000E+00         0.00000E+00         0.10470E+06
 
    0.92148E+06         0.40018E+06         0.00000E+00
    0.40018E+06        -0.47651E+06         0.00000E+00
    0.00000E+00         0.00000E+00         0.88993E+05
 
    0.87664E+06         0.41303E+06         0.00000E+00
    0.41303E+06        -0.50761E+06         0.00000E+00
    0.00000E+00         0.00000E+00         0.73806E+05
 
    0.83327E+06         0.42738E+06         0.00000E+00
    0.42738E+06        -0.53765E+06         0.00000E+00
    0.00000E+00         0.00000E+00         0.59123E+05
 
    0.79102E+06         0.44317E+06         0.00000E+00
    0.44317E+06        -0.56639E+06         0.00000E+00
    0.00000E+00         0.00000E+00         0.44926E+05
 
    0.74958E+06         0.46030E+06         0.00000E+00
    0.46030E+06        -0.59359E+06         0.00000E+00
    0.00000E+00         0.00000E+00         0.31196E+05
 
    0.70862E+06         0.47864E+06         0.00000E+00
    0.47864E+06        -0.61904E+06         0.00000E+00
    0.00000E+00         0.00000E+00         0.17917E+05
 
    0.66788E+06         0.49803E+06         0.00000E+00
    0.49803E+06        -0.64253E+06         0.00000E+00
    0.00000E+00         0.00000E+00         0.50708E+04
 
    0.62710E+06         0.51829E+06         0.00000E+00
    0.51829E+06        -0.66388E+06         0.00000E+00
    0.00000E+00         0.00000E+00        -0.73549E+04
 
    0.58605E+06         0.53918E+06         0.00000E+00
    0.53918E+06        -0.68292E+06         0.00000E+00
    0.00000E+00         0.00000E+00        -0.19372E+05
 
    0.54456E+06         0.56047E+06         0.00000E+00
    0.56047E+06        -0.69951E+06         0.00000E+00
    0.00000E+00         0.00000E+00        -0.30991E+05
 
    0.50247E+06         0.58189E+06         0.00000E+00
    0.58189E+06        -0.71356E+06         0.00000E+00
    0.00000E+00         0.00000E+00        -0.42218E+05
 
    0.45968E+06         0.60314E+06         0.00000E+00
    0.60314E+06        -0.72496E+06         0.00000E+00
    0.00000E+00         0.00000E+00        -0.53056E+05
 
    0.41614E+06         0.62392E+06         0.00000E+00
    0.62392E+06        -0.73367E+06         0.00000E+00
    0.00000E+00         0.00000E+00        -0.63507E+05
 
    0.37184E+06         0.64391E+06         0.00000E+00
    0.64391E+06        -0.73967E+06         0.00000E+00
    0.00000E+00         0.00000E+00        -0.73566E+05
 
    0.32683E+06         0.66277E+06         0.00000E+00
    0.66277E+06        -0.74297E+06         0.00000E+00
    0.00000E+00         0.00000E+00        -0.83229E+05
 
    0.28122E+06         0.68017E+06         0.00000E+00
    0.68017E+06        -0.74363E+06         0.00000E+00
    0.00000E+00         0.00000E+00        -0.92483E+05
 
    0.23515E+06         0.69577E+06         0.00000E+00
    0.69577E+06        -0.74173E+06         0.00000E+00
    0.00000E+00         0.00000E+00        -0.10132E+06
 
    0.18887E+06         0.70925E+06         0.00000E+00
    0.70925E+06        -0.73741E+06         0.00000E+00
    0.00000E+00         0.00000E+00        -0.10971E+06
 
    0.14264E+06         0.72028E+06         0.00000E+00
    0.72028E+06        -0.73084E+06         0.00000E+00
    0.00000E+00         0.00000E+00        -0.11764E+06
 
    0.96802E+05         0.72857E+06         0.00000E+00
    0.72857E+06        -0.72224E+06         0.00000E+00
    0.00000E+00         0.00000E+00        -0.12509E+06
 
    0.51759E+05         0.73383E+06         0.00000E+00
    0.73383E+06        -0.71185E+06         0.00000E+00
    0.00000E+00         0.00000E+00        -0.13202E+06
 
    0.79635E+04         0.73583E+06         0.00000E+00
    0.73583E+06        -0.69998E+06         0.00000E+00
    0.00000E+00         0.00000E+00        -0.13840E+06
 
   -0.34074E+05         0.73436E+06         0.00000E+00
    0.73436E+06        -0.68696E+06         0.00000E+00
    0.00000E+00         0.00000E+00        -0.14421E+06
 
   -0.73794E+05         0.72924E+06         0.00000E+00
    0.72924E+06        -0.67315E+06         0.00000E+00
    0.00000E+00         0.00000E+00        -0.14939E+06
 
   -0.11059E+06         0.72038E+06         0.00000E+00
    0.72038E+06        -0.65896E+06         0.00000E+00
    0.00000E+00         0.00000E+00        -0.15391E+06
 
   -0.14381E+06         0.70771E+06         0.00000E+00
    0.70771E+06        -0.64482E+06         0.00000E+00
    0.00000E+00         0.00000E+00        -0.15773E+06
 
    0.33860E+07         0.32931E+05         0.00000E+00
    0.32931E+05        -0.86309E+03         0.00000E+00
    0.00000E+00         0.00000E+00         0.67703E+06
 
    0.32110E+07         0.78372E+05         0.00000E+00
    0.78372E+05        -0.17501E+04         0.00000E+00
    0.00000E+00         0.00000E+00         0.64186E+06
 
    0.30401E+07         0.11560E+06         0.00000E+00
    0.11560E+06        -0.46774E+04         0.00000E+00
    0.00000E+00         0.00000E+00         0.60708E+06
 
    0.28740E+07         0.14516E+06         0.00000E+00
    0.14516E+06        -0.10084E+05         0.00000E+00
    0.00000E+00         0.00000E+00         0.57279E+06
 
    0.27137E+07         0.16766E+06         0.00000E+00
    0.16766E+06        -0.18371E+05         0.00000E+00
    0.00000E+00         0.00000E+00         0.53906E+06
 
    0.25597E+07         0.18379E+06         0.00000E+00
    0.18379E+06        -0.29859E+05         0.00000E+00
    0.00000E+00         0.00000E+00         0.50597E+06
 
    0.24127E+07         0.19428E+06         0.00000E+00
    0.19428E+06        -0.44789E+05         0.00000E+00
    0.00000E+00         0.00000E+00         0.47359E+06
 
    0.22732E+07         0.19992E+06         0.00000E+00
    0.19992E+06        -0.63322E+05         0.00000E+00
    0.00000E+00         0.00000E+00         0.44198E+06
 
    0.21415E+07         0.20148E+06         0.00000E+00
    0.20148E+06        -0.85539E+05         0.00000E+00
    0.00000E+00         0.00000E+00         0.41120E+06
 
    0.20179E+07         0.19975E+06         0.00000E+00
    0.19975E+06        -0.11145E+06         0.00000E+00
    0.00000E+00         0.00000E+00         0.38129E+06
 
    0.19024E+07         0.19552E+06         0.00000E+00
    0.19552E+06        -0.14097E+06         0.00000E+00
    0.00000E+00         0.00000E+00         0.35228E+06
 
    0.17950E+07         0.18954E+06         0.00000E+00
    0.18954E+06        -0.17398E+06         0.00000E+00
    0.00000E+00         0.00000E+00         0.32421E+06
 
    0.16957E+07         0.18251E+06         0.00000E+00
    0.18251E+06        -0.21027E+06         0.00000E+00
    0.00000E+00         0.00000E+00         0.29709E+06
 
    0.16043E+07         0.17512E+06         0.00000E+00
    0.17512E+06        -0.24960E+06         0.00000E+00
    0.00000E+00         0.00000E+00         0.27094E+06
 
    0.15204E+07         0.16797E+06         0.00000E+00
    0.16797E+06        -0.29167E+06         0.00000E+00
    0.00000E+00         0.00000E+00         0.24574E+06
 
    0.14436E+07         0.16163E+06         0.00000E+00
    0.16163E+06        -0.33617E+06         0.00000E+00
    0.00000E+00         0.00000E+00         0.22149E+06
 
    0.13737E+07         0.15659E+06         0.00000E+00
    0.15659E+06        -0.38273E+06         0.00000E+00
    0.00000E+00         0.00000E+00         0.19819E+06
 
    0.13100E+07         0.15329E+06         0.00000E+00
    0.15329E+06        -0.43098E+06         0.00000E+00
    0.00000E+00         0.00000E+00         0.17580E+06
 
    0.12521E+07         0.15210E+06         0.00000E+00
    0.15210E+06        -0.48054E+06         0.00000E+00
    0.00000E+00         0.00000E+00         0.15431E+06
 
    0.11994E+07         0.15334E+06         0.00000E+00
    0.15334E+06        -0.53101E+06         0.00000E+00
    0.00000E+00         0.00000E+00         0.13368E+06
 
    0.11513E+07         0.15724E+06         0.00000E+00
    0.15724E+06        -0.58200E+06         0.00000E+00
    0.00000E+00         0.00000E+00         0.11387E+06
 
    0.11074E+07         0.16401E+06         0.00000E+00
    0.16401E+06        -0.63310E+06         0.00000E+00
    0.00000E+00         0.00000E+00         0.94851E+05
 
    0.10668E+07         0.17375E+06         0.00000E+00
    0.17375E+06        -0.68393E+06         0.00000E+00
    0.00000E+00         0.00000E+00         0.76579E+05
 
    0.10292E+07         0.18657E+06         0.00000E+00
    0.18657E+06        -0.73410E+06         0.00000E+00
    0.00000E+00         0.00000E+00         0.59011E+05
 
    0.99376E+06         0.20246E+06         0.00000E+00
    0.20246E+06        -0.78325E+06         0.00000E+00
    0.00000E+00         0.00000E+00         0.42102E+05
 
    0.96005E+06         0.22141E+06         0.00000E+00
    0.22141E+06        -0.83101E+06         0.00000E+00
    0.00000E+00         0.00000E+00         0.25809E+05
 
    0.92747E+06         0.24333E+06         0.00000E+00
    0.24333E+06        -0.87703E+06         0.00000E+00
    0.00000E+00         0.00000E+00         0.10087E+05
 
    0.89545E+06         0.26811E+06         0.00000E+00
    0.26811E+06        -0.92098E+06         0.00000E+00
    0.00000E+00         0.00000E+00        -0.51068E+04
 
    0.86348E+06         0.29556E+06         0.00000E+00
    0.29556E+06        -0.96255E+06         0.00000E+00
    0.00000E+00         0.00000E+00        -0.19815E+05
 
    0.83105E+06         0.32547E+06         0.00000E+00
    0.32547E+06        -0.10014E+07         0.00000E+00
    0.00000E+00         0.00000E+00        -0.34076E+05
 
    0.79771E+06         0.35759E+06         0.00000E+00
    0.35759E+06        -0.10374E+07         0.00000E+00
    0.00000E+00         0.00000E+00        -0.47929E+05
 
    0.76301E+06         0.39162E+06         0.00000E+00
    0.39162E+06        -0.10700E+07         0.00000E+00
    0.00000E+00         0.00000E+00        -0.61407E+05
 
    0.72657E+06         0.42721E+06         0.00000E+00
    0.42721E+06        -0.10993E+07         0.00000E+00
    0.00000E+00         0.00000E+00        -0.74540E+05
 
    0.68806E+06         0.46398E+06         0.00000E+00
    0.46398E+06        -0.11248E+07         0.00000E+00
    0.00000E+00         0.00000E+00        -0.87356E+05
 
    0.64717E+06         0.50153E+06         0.00000E+00
    0.50153E+06        -0.11465E+07         0.00000E+00
    0.00000E+00         0.00000E+00        -0.99875E+05
 
    0.60367E+06         0.53939E+06         0.00000E+00
    0.53939E+06        -0.11642E+07         0.00000E+00
    0.00000E+00         0.00000E+00        -0.11211E+06
 
    0.55739E+06         0.57707E+06         0.00000E+00
    0.57707E+06        -0.11778E+07         0.00000E+00
    0.00000E+00         0.00000E+00        -0.12409E+06
 
    0.50824E+06         0.61407E+06         0.00000E+00
    0.61407E+06        -0.11872E+07         0.00000E+00
    0.00000E+00         0.00000E+00        -0.13580E+06
 
    0.45619E+06         0.64984E+06         0.00000E+00
    0.64984E+06        -0.11924E+07         0.00000E+00
    0.00000E+00         0.00000E+00        -0.14724E+06
 
    0.40129E+06         0.68382E+06         0.00000E+00
    0.68382E+06        -0.11934E+07         0.00000E+00
    0.00000E+00         0.00000E+00        -0.15841E+06
 
    0.34369E+06         0.71543E+06         0.00000E+00
    0.71543E+06        -0.11902E+07         0.00000E+00
    0.00000E+00         0.00000E+00        -0.16930E+06
 
    0.28364E+06         0.74409E+06         0.00000E+00
    0.74409E+06        -0.11831E+07         0.00000E+00
    0.00000E+00         0.00000E+00        -0.17989E+06
 
    0.22147E+06         0.76923E+06         0.00000E+00
    0.76923E+06        -0.11722E+07         0.00000E+00
    0.00000E+00         0.00000E+00        -0.19014E+06
 
    0.15761E+06         0.79026E+06         0.00000E+00
    0.79026E+06        -0.11578E+07         0.00000E+00
    0.00000E+00         0.00000E+00        -0.20003E+06
 
    0.92622E+05         0.80665E+06         0.00000E+00
    0.80665E+06        -0.11402E+07         0.00000E+00
    0.00000E+00         0.00000E+00        -0.20951E+06
 
    0.27135E+05         0.81790E+06         0.00000E+00
    0.81790E+06        -0.11198E+07         0.00000E+00
    0.00000E+00         0.00000E+00        -0.21853E+06
 
   -0.38101E+05         0.82352E+06         0.00000E+00
    0.82352E+06        -0.10972E+07         0.00000E+00
    0.00000E+00         0.00000E+00        -0.22705E+06
 
   -0.10224E+06         0.82313E+06         0.00000E+00
    0.82313E+06        -0.10728E+07         0.00000E+00
    0.00000E+00         0.00000E+00        -0.23500E+06
 
   -0.16436E+06         0.81639E+06         0.00000E+00
    0.81639E+06        -0.10473E+07         0.00000E+00
    0.00000E+00         0.00000E+00        -0.24233E+06
 
   -0.22344E+06         0.80306E+06         0.00000E+00
    0.80306E+06        -0.10213E+07         0.00000E+00
    0.00000E+00         0.00000E+00        -0.24896E+06
 
    0.36049E+07         0.31032E+05         0.00000E+00
    0.31032E+05        -0.62266E+04         0.00000E+00
    0.00000E+00         0.00000E+00         0.71974E+06
 
    0.33801E+07         0.64385E+05         0.00000E+00
    0.64385E+05        -0.78365E+04         0.00000E+00
    0.00000E+00         0.00000E+00         0.67445E+06
 
    0.31627E+07         0.86398E+05         0.00000E+00
    0.86398E+05        -0.13094E+05         0.00000E+00
    0.00000E+00         0.00000E+00         0.62991E+06
 
    0.29541E+07         0.98039E+05         0.00000E+00
    0.98039E+05        -0.22819E+05         0.00000E+00
    0.00000E+00         0.00000E+00         0.58626E+06
 
    0.27558E+07         0.10048E+06         0.00000E+00
    0.10048E+06        -0.37579E+05         0.00000E+00
    0.00000E+00         0.00000E+00         0.54364E+06
 
    0.25687E+07         0.94956E+05         0.00000E+00
    0.94956E+05        -0.57800E+05         0.00000E+00
    0.00000E+00         0.00000E+00         0.50218E+06
 
    0.23937E+07         0.82784E+05         0.00000E+00
    0.82784E+05        -0.83752E+05         0.00000E+00
    0.00000E+00         0.00000E+00         0.46199E+06
 
    0.22313E+07         0.65289E+05         0.00000E+00
    0.65289E+05        -0.11554E+06         0.00000E+00
    0.00000E+00         0.00000E+00         0.42315E+06
 
    0.20819E+07         0.43792E+05         0.00000E+00
    0.43792E+05        -0.15313E+06         0.00000E+00
    0.00000E+00         0.00000E+00         0.38575E+06
 
    0.19455E+07         0.19569E+05         0.00000E+00
    0.19569E+05        -0.19634E+06         0.00000E+00
    0.00000E+00         0.00000E+00         0.34983E+06
 
    0.18220E+07        -0.61696E+04         0.00000E+00
   -0.61696E+04        -0.24488E+06         0.00000E+00
    0.00000E+00         0.00000E+00         0.31543E+06
 
    0.17112E+07        -0.32302E+05         0.00000E+00
   -0.32302E+05        -0.29836E+06         0.00000E+00
    0.00000E+00         0.00000E+00         0.28256E+06
 
    0.16125E+07        -0.57807E+05         0.00000E+00
   -0.57807E+05        -0.35634E+06         0.00000E+00
    0.00000E+00         0.00000E+00         0.25123E+06
 
    0.15254E+07        -0.81768E+05         0.00000E+00
   -0.81768E+05        -0.41830E+06         0.00000E+00
    0.00000E+00         0.00000E+00         0.22142E+06
 
    0.14492E+07        -0.10338E+06         0.00000E+00
   -0.10338E+06        -0.48369E+06         0.00000E+00
    0.00000E+00         0.00000E+00         0.19311E+06
 
    0.13831E+07        -0.12196E+06         0.00000E+00
   -0.12196E+06        -0.55193E+06         0.00000E+00
    0.00000E+00         0.00000E+00         0.16624E+06
 
    0.13263E+07        -0.13692E+06         0.00000E+00
   -0.13692E+06        -0.62246E+06         0.00000E+00
    0.00000E+00         0.00000E+00         0.14076E+06
 
    0.12778E+07        -0.14778E+06         0.00000E+00
   -0.14778E+06        -0.69469E+06         0.00000E+00
    0.00000E+00         0.00000E+00         0.11663E+06
 
    0.12369E+07        -0.15416E+06         0.00000E+00
   -0.15416E+06        -0.76805E+06         0.00000E+00
    0.00000E+00         0.00000E+00         0.93760E+05
 
    0.12024E+07        -0.15577E+06         0.00000E+00
   -0.15577E+06        -0.84200E+06         0.00000E+00
    0.00000E+00         0.00000E+00         0.72087E+05
 
    0.11736E+07        -0.15242E+06         0.00000E+00
   -0.15242E+06        -0.91598E+06         0.00000E+00
    0.00000E+00         0.00000E+00         0.51529E+05
 
    0.11495E+07        -0.14397E+06         0.00000E+00
   -0.14397E+06        -0.98951E+06         0.00000E+00
    0.00000E+00         0.00000E+00         0.32006E+05
 
    0.11293E+07        -0.13035E+06         0.00000E+00
   -0.13035E+06        -0.10621E+07         0.00000E+00
    0.00000E+00         0.00000E+00         0.13434E+05
 
    0.11119E+07        -0.11158E+06         0.00000E+00
   -0.11158E+06        -0.11333E+07         0.00000E+00
    0.00000E+00         0.00000E+00        -0.42727E+04
 
    0.10966E+07        -0.87716E+05         0.00000E+00
   -0.87716E+05        -0.12026E+07         0.00000E+00
    0.00000E+00         0.00000E+00        -0.21198E+05
 
    0.10825E+07        -0.58860E+05         0.00000E+00
   -0.58860E+05        -0.12697E+07         0.00000E+00
    0.00000E+00         0.00000E+00        -0.37427E+05
 
    0.10688E+07        -0.25178E+05         0.00000E+00
   -0.25178E+05        -0.13341E+07         0.00000E+00
    0.00000E+00         0.00000E+00        -0.53043E+05
 
    0.10548E+07         0.13124E+05         0.00000E+00
    0.13124E+05        -0.13954E+07         0.00000E+00
    0.00000E+00         0.00000E+00        -0.68125E+05
 
    0.10396E+07         0.55792E+05         0.00000E+00
    0.55792E+05        -0.14534E+07         0.00000E+00
    0.00000E+00         0.00000E+00        -0.82751E+05
 
    0.10226E+07         0.10253E+06         0.00000E+00
    0.10253E+06        -0.15076E+07         0.00000E+00
    0.00000E+00         0.00000E+00        -0.96998E+05
 
    0.10031E+07         0.15299E+06         0.00000E+00
    0.15299E+06        -0.15577E+07         0.00000E+00
    0.00000E+00         0.00000E+00        -0.11094E+06
 
    0.98031E+06         0.20678E+06         0.00000E+00
    0.20678E+06        -0.16035E+07         0.00000E+00
    0.00000E+00         0.00000E+00        -0.12463E+06
 
    0.95372E+06         0.26345E+06         0.00000E+00
    0.26345E+06        -0.16444E+07         0.00000E+00
    0.00000E+00         0.00000E+00        -0.13814E+06
 
    0.92274E+06         0.32252E+06         0.00000E+00
    0.32252E+06        -0.16804E+07         0.00000E+00
    0.00000E+00         0.00000E+00        -0.15153E+06
 
    0.88684E+06         0.38341E+06         0.00000E+00
    0.38341E+06        -0.17110E+07         0.00000E+00
    0.00000E+00         0.00000E+00        -0.16483E+06
 
    0.84556E+06         0.44553E+06         0.00000E+00
    0.44553E+06        -0.17361E+07         0.00000E+00
    0.00000E+00         0.00000E+00        -0.17810E+06
 
    0.79849E+06         0.50819E+06         0.00000E+00
    0.50819E+06        -0.17553E+07         0.00000E+00
    0.00000E+00         0.00000E+00        -0.19137E+06
 
    0.74532E+06         0.57067E+06         0.00000E+00
    0.57067E+06        -0.17686E+07         0.00000E+00
    0.00000E+00         0.00000E+00        -0.20465E+06
 
    0.68583E+06         0.63217E+06         0.00000E+00
    0.63217E+06        -0.17757E+07         0.00000E+00
    0.00000E+00         0.00000E+00        -0.21797E+06
 
    0.61990E+06         0.69184E+06         0.00000E+00
    0.69184E+06        -0.17766E+07         0.00000E+00
    0.00000E+00         0.00000E+00        -0.23133E+06
 
    0.54754E+06         0.74877E+06         0.00000E+00
    0.74877E+06        -0.17712E+07         0.00000E+00
    0.00000E+00         0.00000E+00        -0.24472E+06
 
    0.46889E+06         0.80201E+06         0.00000E+00
    0.80201E+06        -0.17595E+07         0.00000E+00
    0.00000E+00         0.00000E+00        -0.25813E+06
 
    0.38425E+06         0.85057E+06         0.00000E+00
    0.85057E+06        -0.17419E+07         0.00000E+00
    0.00000E+00         0.00000E+00        -0.27152E+06
 
    0.29407E+06         0.89345E+06         0.00000E+00
    0.89345E+06        -0.17183E+07         0.00000E+00
    0.00000E+00         0.00000E+00        -0.28485E+06
 
    0.19900E+06         0.92963E+06         0.00000E+00
    0.92963E+06        -0.16894E+07         0.00000E+00
    0.00000E+00         0.00000E+00        -0.29807E+06
 
    0.99866E+05         0.95813E+06         0.00000E+00
    0.95813E+06        -0.16554E+07         0.00000E+00
    0.00000E+00         0.00000E+00        -0.31111E+06
 
   -0.23197E+04         0.97800E+06         0.00000E+00
    0.97800E+06        -0.16171E+07         0.00000E+00
    0.00000E+00         0.00000E+00        -0.32389E+06
 
   -0.10635E+06         0.98834E+06         0.00000E+00
    0.98834E+06        -0.15752E+07         0.00000E+00
    0.00000E+00         0.00000E+00        -0.33632E+06
 
   -0.21080E+06         0.98834E+06         0.00000E+00
    0.98834E+06        -0.15307E+07         0.00000E+00
    0.00000E+00         0.00000E+00        -0.34829E+06
 
   -0.31411E+06         0.97738E+06         0.00000E+00
    0.97738E+06        -0.14845E+07         0.00000E+00
    0.00000E+00         0.00000E+00        -0.35972E+06
 
    0.37320E+07         0.27749E+05         0.00000E+00
    0.27749E+05        -0.31472E+05         0.00000E+00
    0.00000E+00         0.00000E+00         0.74011E+06
 
    0.34347E+07         0.38861E+05         0.00000E+00
    0.38861E+05        -0.34525E+05         0.00000E+00
    0.00000E+00         0.00000E+00         0.68004E+06
 
    0.31520E+07         0.33231E+05         0.00000E+00
    0.33231E+05        -0.44696E+05         0.00000E+00
    0.00000E+00         0.00000E+00         0.62147E+06
 
    0.28865E+07         0.13245E+05         0.00000E+00
    0.13245E+05        -0.62882E+05         0.00000E+00
    0.00000E+00         0.00000E+00         0.56472E+06
 
    0.26400E+07        -0.18753E+05         0.00000E+00
   -0.18753E+05        -0.89913E+05         0.00000E+00
    0.00000E+00         0.00000E+00         0.51001E+06
 
    0.24138E+07        -0.60285E+05         0.00000E+00
   -0.60285E+05        -0.12619E+06         0.00000E+00
    0.00000E+00         0.00000E+00         0.45753E+06
 
    0.22089E+07        -0.10887E+06         0.00000E+00
   -0.10887E+06        -0.17171E+06         0.00000E+00
    0.00000E+00         0.00000E+00         0.40743E+06
 
    0.20254E+07        -0.16215E+06         0.00000E+00
   -0.16215E+06        -0.22621E+06         0.00000E+00
    0.00000E+00         0.00000E+00         0.35985E+06
 
    0.18633E+07        -0.21791E+06         0.00000E+00
   -0.21791E+06        -0.28917E+06         0.00000E+00
    0.00000E+00         0.00000E+00         0.31483E+06
 
    0.17220E+07        -0.27417E+06         0.00000E+00
   -0.27417E+06        -0.35990E+06         0.00000E+00
    0.00000E+00         0.00000E+00         0.27241E+06
 
    0.16005E+07        -0.32918E+06         0.00000E+00
   -0.32918E+06        -0.43758E+06         0.00000E+00
    0.00000E+00         0.00000E+00         0.23258E+06
 
    0.14979E+07        -0.38140E+06         0.00000E+00
   -0.38140E+06        -0.52131E+06         0.00000E+00
    0.00000E+00         0.00000E+00         0.19531E+06
 
    0.14128E+07        -0.42955E+06         0.00000E+00
   -0.42955E+06        -0.61015E+06         0.00000E+00
    0.00000E+00         0.00000E+00         0.16052E+06
 
    0.13438E+07        -0.47257E+06         0.00000E+00
   -0.47257E+06        -0.70312E+06         0.00000E+00
    0.00000E+00         0.00000E+00         0.12814E+06
 
    0.12895E+07        -0.50960E+06         0.00000E+00
   -0.50960E+06        -0.79930E+06         0.00000E+00
    0.00000E+00         0.00000E+00         0.98046E+05
 
    0.12484E+07        -0.54001E+06         0.00000E+00
   -0.54001E+06        -0.89779E+06         0.00000E+00
    0.00000E+00         0.00000E+00         0.70126E+05
 
    0.12189E+07        -0.56331E+06         0.00000E+00
   -0.56331E+06        -0.99772E+06         0.00000E+00
    0.00000E+00         0.00000E+00         0.44245E+05
 
    0.11996E+07        -0.57918E+06         0.00000E+00
   -0.57918E+06        -0.10983E+07         0.00000E+00
    0.00000E+00         0.00000E+00         0.20263E+05
 
    0.11891E+07        -0.58743E+06         0.00000E+00
   -0.58743E+06        -0.11989E+07         0.00000E+00
    0.00000E+00         0.00000E+00        -0.19643E+04
 
    0.11858E+07        -0.58796E+06         0.00000E+00
   -0.58796E+06        -0.12987E+07         0.00000E+00
    0.00000E+00         0.00000E+00        -0.22587E+05
 
    0.11886E+07        -0.58077E+06         0.00000E+00
   -0.58077E+06        -0.13973E+07         0.00000E+00
    0.00000E+00         0.00000E+00        -0.41753E+05
 
    0.11961E+07        -0.56594E+06         0.00000E+00
   -0.56594E+06        -0.14941E+07         0.00000E+00
    0.00000E+00         0.00000E+00        -0.59611E+05
 
    0.12071E+07        -0.54358E+06         0.00000E+00
   -0.54358E+06        -0.15887E+07         0.00000E+00
    0.00000E+00         0.00000E+00        -0.76309E+05
 
    0.12206E+07        -0.51386E+06         0.00000E+00
   -0.51386E+06        -0.16806E+07         0.00000E+00
    0.00000E+00         0.00000E+00        -0.91991E+05
 
    0.12354E+07        -0.47699E+06         0.00000E+00
   -0.47699E+06        -0.17694E+07         0.00000E+00
    0.00000E+00         0.00000E+00        -0.10680E+06
 
    0.12505E+07        -0.43318E+06         0.00000E+00
   -0.43318E+06        -0.18548E+07         0.00000E+00
    0.00000E+00         0.00000E+00        -0.12087E+06
 
    0.12649E+07        -0.38269E+06         0.00000E+00
   -0.38269E+06        -0.19366E+07         0.00000E+00
    0.00000E+00         0.00000E+00        -0.13433E+06
 
    0.12776E+07        -0.32580E+06         0.00000E+00
   -0.32580E+06        -0.20143E+07         0.00000E+00
    0.00000E+00         0.00000E+00        -0.14733E+06
 
    0.12877E+07        -0.26281E+06         0.00000E+00
   -0.26281E+06        -0.20876E+07         0.00000E+00
    0.00000E+00         0.00000E+00        -0.15997E+06
 
    0.12943E+07        -0.19402E+06         0.00000E+00
   -0.19402E+06        -0.21563E+07         0.00000E+00
    0.00000E+00         0.00000E+00        -0.17239E+06
 
    0.12965E+07        -0.11981E+06         0.00000E+00
   -0.11981E+06        -0.22200E+07         0.00000E+00
    0.00000E+00         0.00000E+00        -0.18470E+06
 
    0.12933E+07        -0.40573E+05         0.00000E+00
   -0.40573E+05        -0.22784E+07         0.00000E+00
    0.00000E+00         0.00000E+00        -0.19700E+06
 
    0.12840E+07         0.43258E+05         0.00000E+00
    0.43258E+05        -0.23311E+07         0.00000E+00
    0.00000E+00         0.00000E+00        -0.20942E+06
 
    0.12675E+07         0.13117E+06         0.00000E+00
    0.13117E+06        -0.23777E+07         0.00000E+00
    0.00000E+00         0.00000E+00        -0.22205E+06
 
    0.12431E+07         0.22259E+06         0.00000E+00
    0.22259E+06        -0.24179E+07         0.00000E+00
    0.00000E+00         0.00000E+00        -0.23497E+06
 
    0.12098E+07         0.31686E+06         0.00000E+00
    0.31686E+06        -0.24512E+07         0.00000E+00
    0.00000E+00         0.00000E+00        -0.24828E+06
 
    0.11670E+07         0.41322E+06         0.00000E+00
    0.41322E+06        -0.24773E+07         0.00000E+00
    0.00000E+00         0.00000E+00        -0.26205E+06
 
    0.11138E+07         0.51079E+06         0.00000E+00
    0.51079E+06        -0.24956E+07         0.00000E+00
    0.00000E+00         0.00000E+00        -0.27635E+06
 
    0.10496E+07         0.60858E+06         0.00000E+00
    0.60858E+06        -0.25057E+07         0.00000E+00
    0.00000E+00         0.00000E+00        -0.29123E+06
 
    0.97369E+06         0.70547E+06         0.00000E+00
    0.70547E+06        -0.25073E+07         0.00000E+00
    0.00000E+00         0.00000E+00        -0.30673E+06
 
    0.88574E+06         0.80018E+06         0.00000E+00
    0.80018E+06        -0.25000E+07         0.00000E+00
    0.00000E+00         0.00000E+00        -0.32286E+06
 
    0.78543E+06         0.89131E+06         0.00000E+00
    0.89131E+06        -0.24836E+07         0.00000E+00
    0.00000E+00         0.00000E+00        -0.33964E+06
 
    0.67267E+06         0.97732E+06         0.00000E+00
    0.97732E+06        -0.24579E+07         0.00000E+00
    0.00000E+00         0.00000E+00        -0.35704E+06
 
    0.54762E+06         0.10565E+07         0.00000E+00
    0.10565E+07        -0.24228E+07         0.00000E+00
    0.00000E+00         0.00000E+00        -0.37504E+06
 
    0.41072E+06         0.11272E+07         0.00000E+00
    0.11272E+07        -0.23786E+07         0.00000E+00
    0.00000E+00         0.00000E+00        -0.39357E+06
 
    0.26276E+06         0.11874E+07         0.00000E+00
    0.11874E+07        -0.23254E+07         0.00000E+00
    0.00000E+00         0.00000E+00        -0.41254E+06
 
    0.10489E+06         0.12352E+07         0.00000E+00
    0.12352E+07        -0.22641E+07         0.00000E+00
    0.00000E+00         0.00000E+00        -0.43184E+06
 
   -0.61348E+05         0.12688E+07         0.00000E+00
    0.12688E+07        -0.21953E+07         0.00000E+00
    0.00000E+00         0.00000E+00        -0.45134E+06
 
   -0.23409E+06         0.12864E+07         0.00000E+00
    0.12864E+07        -0.21205E+07         0.00000E+00
    0.00000E+00         0.00000E+00        -0.47092E+06
 
   -0.41089E+06         0.12861E+07         0.00000E+00
    0.12861E+07        -0.20407E+07         0.00000E+00
    0.00000E+00         0.00000E+00        -0.49033E+06
 
    0.36375E+07         0.19119E+05         0.00000E+00
    0.19119E+05        -0.13664E+06         0.00000E+00
    0.00000E+00         0.00000E+00         0.70018E+06
 
    0.32300E+07        -0.14865E+05         0.00000E+00
   -0.14865E+05        -0.14523E+06         0.00000E+00
    0.00000E+00         0.00000E+00         0.61696E+06
 
    0.28551E+07        -0.72822E+05         0.00000E+00
   -0.72822E+05        -0.16747E+06         0.00000E+00
    0.00000E+00         0.00000E+00         0.53753E+06
 
    0.25157E+07        -0.14986E+06         0.00000E+00
   -0.14986E+06        -0.20532E+06         0.00000E+00
    0.00000E+00         0.00000E+00         0.46207E+06
 
    0.22137E+07        -0.24046E+06         0.00000E+00
   -0.24046E+06        -0.25869E+06         0.00000E+00
    0.00000E+00         0.00000E+00         0.39100E+06
 
    0.19497E+07        -0.33961E+06         0.00000E+00
   -0.33961E+06        -0.32685E+06         0.00000E+00
    0.00000E+00         0.00000E+00         0.32457E+06
 
    0.17231E+07        -0.44292E+06         0.00000E+00
   -0.44292E+06        -0.40866E+06         0.00000E+00
    0.00000E+00         0.00000E+00         0.26288E+06
 
    0.15323E+07        -0.54657E+06         0.00000E+00
   -0.54657E+06        -0.50269E+06         0.00000E+00
    0.00000E+00         0.00000E+00         0.20592E+06
 
    0.13754E+07        -0.64734E+06         0.00000E+00
   -0.64734E+06        -0.60727E+06         0.00000E+00
    0.00000E+00         0.00000E+00         0.15363E+06
 
    0.12500E+07        -0.74258E+06         0.00000E+00
   -0.74258E+06        -0.72058E+06         0.00000E+00
    0.00000E+00         0.00000E+00         0.10588E+06
 
    0.11533E+07        -0.83019E+06         0.00000E+00
   -0.83019E+06        -0.84080E+06         0.00000E+00
    0.00000E+00         0.00000E+00         0.62490E+05
 
    0.10824E+07        -0.90857E+06         0.00000E+00
   -0.90857E+06        -0.96614E+06         0.00000E+00
    0.00000E+00         0.00000E+00         0.23246E+05
 
    0.10344E+07        -0.97662E+06         0.00000E+00
   -0.97662E+06        -0.10949E+07         0.00000E+00
    0.00000E+00         0.00000E+00        -0.12100E+05
 
    0.10065E+07        -0.10336E+07         0.00000E+00
   -0.10336E+07        -0.12256E+07         0.00000E+00
    0.00000E+00         0.00000E+00        -0.43817E+05
 
    0.99601E+06        -0.10792E+07         0.00000E+00
   -0.10792E+07        -0.13569E+07         0.00000E+00
    0.00000E+00         0.00000E+00        -0.72185E+05
 
    0.10002E+07        -0.11131E+07         0.00000E+00
   -0.11131E+07        -0.14877E+07         0.00000E+00
    0.00000E+00         0.00000E+00        -0.97487E+05
 
    0.10169E+07        -0.11356E+07         0.00000E+00
   -0.11356E+07        -0.16169E+07         0.00000E+00
    0.00000E+00         0.00000E+00        -0.12001E+06
 
    0.10437E+07        -0.11469E+07         0.00000E+00
   -0.11469E+07        -0.17438E+07         0.00000E+00
    0.00000E+00         0.00000E+00        -0.14002E+06
 
    0.10789E+07        -0.11473E+07         0.00000E+00
   -0.11473E+07        -0.18678E+07         0.00000E+00
    0.00000E+00         0.00000E+00        -0.15780E+06
 
    0.11205E+07        -0.11372E+07         0.00000E+00
   -0.11372E+07        -0.19884E+07         0.00000E+00
    0.00000E+00         0.00000E+00        -0.17359E+06
 
    0.11670E+07        -0.11170E+07         0.00000E+00
   -0.11170E+07        -0.21052E+07         0.00000E+00
    0.00000E+00         0.00000E+00        -0.18766E+06
 
    0.12169E+07        -0.10872E+07         0.00000E+00
   -0.10872E+07        -0.22180E+07         0.00000E+00
    0.00000E+00         0.00000E+00        -0.20021E+06
 
    0.12691E+07        -0.10482E+07         0.00000E+00
   -0.10482E+07        -0.23265E+07         0.00000E+00
    0.00000E+00         0.00000E+00        -0.21149E+06
 
    0.13222E+07        -0.10004E+07         0.00000E+00
   -0.10004E+07        -0.24307E+07         0.00000E+00
    0.00000E+00         0.00000E+00        -0.22170E+06
 
    0.13752E+07        -0.94430E+06         0.00000E+00
   -0.94430E+06        -0.25304E+07         0.00000E+00
    0.00000E+00         0.00000E+00        -0.23103E+06
 
    0.14271E+07        -0.88012E+06         0.00000E+00
   -0.88012E+06        -0.26256E+07         0.00000E+00
    0.00000E+00         0.00000E+00        -0.23969E+06
 
    0.14770E+07        -0.80819E+06         0.00000E+00
   -0.80819E+06        -0.27162E+07         0.00000E+00
    0.00000E+00         0.00000E+00        -0.24785E+06
 
    0.15238E+07        -0.72880E+06         0.00000E+00
   -0.72880E+06        -0.28023E+07         0.00000E+00
    0.00000E+00         0.00000E+00        -0.25570E+06
 
    0.15666E+07        -0.64217E+06         0.00000E+00
   -0.64217E+06        -0.28836E+07         0.00000E+00
    0.00000E+00         0.00000E+00        -0.26339E+06
 
    0.16045E+07        -0.54851E+06         0.00000E+00
   -0.54851E+06        -0.29601E+07         0.00000E+00
    0.00000E+00         0.00000E+00        -0.27111E+06
 
    0.16365E+07        -0.44802E+06         0.00000E+00
   -0.44802E+06        -0.30316E+07         0.00000E+00
    0.00000E+00         0.00000E+00        -0.27902E+06
 
    0.16616E+07        -0.34090E+06         0.00000E+00
   -0.34090E+06        -0.30980E+07         0.00000E+00
    0.00000E+00         0.00000E+00        -0.28727E+06
 
    0.16786E+07        -0.22735E+06         0.00000E+00
   -0.22735E+06        -0.31588E+07         0.00000E+00
    0.00000E+00         0.00000E+00        -0.29604E+06
 
    0.16864E+07        -0.10762E+06         0.00000E+00
   -0.10762E+06        -0.32137E+07         0.00000E+00
    0.00000E+00         0.00000E+00        -0.30547E+06
 
    0.16837E+07         0.17962E+05         0.00000E+00
    0.17962E+05        -0.32623E+07         0.00000E+00
    0.00000E+00         0.00000E+00        -0.31573E+06
 
    0.16692E+07         0.14901E+06         0.00000E+00
    0.14901E+06        -0.33040E+07         0.00000E+00
    0.00000E+00         0.00000E+00        -0.32697E+06
 
    0.16414E+07         0.28500E+06         0.00000E+00
    0.28500E+06        -0.33381E+07         0.00000E+00
    0.00000E+00         0.00000E+00        -0.33935E+06
 
    0.15988E+07         0.42524E+06         0.00000E+00
    0.42524E+06        -0.33638E+07         0.00000E+00
    0.00000E+00         0.00000E+00        -0.35300E+06
 
    0.15399E+07         0.56885E+06         0.00000E+00
    0.56885E+06        -0.33802E+07         0.00000E+00
    0.00000E+00         0.00000E+00        -0.36806E+06
 
    0.14631E+07         0.71469E+06         0.00000E+00
    0.71469E+06        -0.33864E+07         0.00000E+00
    0.00000E+00         0.00000E+00        -0.38466E+06
 
    0.13670E+07         0.86137E+06         0.00000E+00
    0.86137E+06        -0.33815E+07         0.00000E+00
    0.00000E+00         0.00000E+00        -0.40291E+06
 
    0.12500E+07         0.10071E+07         0.00000E+00
    0.10071E+07        -0.33643E+07         0.00000E+00
    0.00000E+00         0.00000E+00        -0.42287E+06
 
    0.11108E+07         0.11499E+07         0.00000E+00
    0.11499E+07        -0.33340E+07         0.00000E+00
    0.00000E+00         0.00000E+00        -0.44462E+06
 
    0.94862E+06         0.12873E+07         0.00000E+00
    0.12873E+07        -0.32895E+07         0.00000E+00
    0.00000E+00         0.00000E+00        -0.46818E+06
 
    0.76260E+06         0.14165E+07         0.00000E+00
    0.14165E+07        -0.32303E+07         0.00000E+00
    0.00000E+00         0.00000E+00        -0.49355E+06
 
    0.55253E+06         0.15344E+07         0.00000E+00
    0.15344E+07        -0.31559E+07         0.00000E+00
    0.00000E+00         0.00000E+00        -0.52068E+06
 
    0.31876E+06         0.16373E+07         0.00000E+00
    0.16373E+07        -0.30661E+07         0.00000E+00
    0.00000E+00         0.00000E+00        -0.54947E+06
 
    0.62410E+05         0.17213E+07         0.00000E+00
    0.17213E+07        -0.29610E+07         0.00000E+00
    0.00000E+00         0.00000E+00        -0.57972E+06
 
   -0.21431E+06         0.17823E+07         0.00000E+00
    0.17823E+07        -0.28415E+07         0.00000E+00
    0.00000E+00         0.00000E+00        -0.61115E+06
 
   -0.50893E+06         0.18167E+07         0.00000E+00
    0.18167E+07        -0.27100E+07         0.00000E+00
    0.00000E+00         0.00000E+00        -0.64378E+06
 
    0.29415E+07        -0.12939E+05         0.00000E+00
   -0.12939E+05        -0.52757E+06         0.00000E+00
    0.00000E+00         0.00000E+00         0.48279E+06
 
    0.23785E+07        -0.14483E+06         0.00000E+00
   -0.14483E+06        -0.55177E+06         0.00000E+00
    0.00000E+00         0.00000E+00         0.36534E+06
 
    0.18906E+07        -0.30603E+06         0.00000E+00
   -0.30603E+06        -0.60759E+06         0.00000E+00
    0.00000E+00         0.00000E+00         0.25660E+06
 
    0.14788E+07        -0.48270E+06         0.00000E+00
   -0.48270E+06        -0.68981E+06         0.00000E+00
    0.00000E+00         0.00000E+00         0.15779E+06
 
    0.11391E+07        -0.66553E+06         0.00000E+00
   -0.66553E+06        -0.79559E+06         0.00000E+00
    0.00000E+00         0.00000E+00         0.68705E+05
 
    0.86675E+06        -0.84692E+06         0.00000E+00
   -0.84692E+06        -0.92178E+06         0.00000E+00
    0.00000E+00         0.00000E+00        -0.11006E+05
 
    0.65604E+06        -0.10206E+07         0.00000E+00
   -0.10206E+07        -0.10646E+07         0.00000E+00
    0.00000E+00         0.00000E+00        -0.81716E+05
 
    0.50071E+06        -0.11816E+07         0.00000E+00
   -0.11816E+07        -0.12200E+07         0.00000E+00
    0.00000E+00         0.00000E+00        -0.14387E+06
 
    0.39410E+06        -0.13265E+07         0.00000E+00
   -0.13265E+07        -0.13841E+07         0.00000E+00
    0.00000E+00         0.00000E+00        -0.19799E+06
 
    0.32951E+06        -0.14532E+07         0.00000E+00
   -0.14532E+07        -0.15530E+07         0.00000E+00
    0.00000E+00         0.00000E+00        -0.24469E+06
 
    0.30053E+06        -0.15603E+07         0.00000E+00
   -0.15603E+07        -0.17236E+07         0.00000E+00
    0.00000E+00         0.00000E+00        -0.28462E+06
 
    0.30117E+06        -0.16477E+07         0.00000E+00
   -0.16477E+07        -0.18933E+07         0.00000E+00
    0.00000E+00         0.00000E+00        -0.31842E+06
 
    0.32606E+06        -0.17158E+07         0.00000E+00
   -0.17158E+07        -0.20598E+07         0.00000E+00
    0.00000E+00         0.00000E+00        -0.34676E+06
 
    0.37046E+06        -0.17654E+07         0.00000E+00
   -0.17654E+07        -0.22217E+07         0.00000E+00
    0.00000E+00         0.00000E+00        -0.37025E+06
 
    0.43028E+06        -0.17974E+07         0.00000E+00
   -0.17974E+07        -0.23777E+07         0.00000E+00
    0.00000E+00         0.00000E+00        -0.38948E+06
 
    0.50202E+06        -0.18133E+07         0.00000E+00
   -0.18133E+07        -0.25269E+07         0.00000E+00
    0.00000E+00         0.00000E+00        -0.40498E+06
 
    0.58275E+06        -0.18141E+07         0.00000E+00
   -0.18141E+07        -0.26690E+07         0.00000E+00
    0.00000E+00         0.00000E+00        -0.41726E+06
 
    0.67003E+06        -0.18014E+07         0.00000E+00
   -0.18014E+07        -0.28038E+07         0.00000E+00
    0.00000E+00         0.00000E+00        -0.42675E+06
 
    0.76181E+06        -0.17761E+07         0.00000E+00
   -0.17761E+07        -0.29311E+07         0.00000E+00
    0.00000E+00         0.00000E+00        -0.43386E+06
 
    0.85644E+06        -0.17396E+07         0.00000E+00
   -0.17396E+07        -0.30512E+07         0.00000E+00
    0.00000E+00         0.00000E+00        -0.43895E+06
 
    0.95254E+06        -0.16927E+07         0.00000E+00
   -0.16927E+07        -0.31644E+07         0.00000E+00
    0.00000E+00         0.00000E+00        -0.44236E+06
 
    0.10490E+07        -0.16365E+07         0.00000E+00
   -0.16365E+07        -0.32709E+07         0.00000E+00
    0.00000E+00         0.00000E+00        -0.44438E+06
 
    0.11449E+07        -0.15715E+07         0.00000E+00
   -0.15715E+07        -0.33712E+07         0.00000E+00
    0.00000E+00         0.00000E+00        -0.44527E+06
 
    0.12393E+07        -0.14985E+07         0.00000E+00
   -0.14985E+07        -0.34658E+07         0.00000E+00
    0.00000E+00         0.00000E+00        -0.44530E+06
 
    0.13318E+07        -0.14180E+07         0.00000E+00
   -0.14180E+07        -0.35551E+07         0.00000E+00
    0.00000E+00         0.00000E+00        -0.44467E+06
 
    0.14215E+07        -0.13302E+07         0.00000E+00
   -0.13302E+07        -0.36395E+07         0.00000E+00
    0.00000E+00         0.00000E+00        -0.44361E+06
 
    0.15080E+07        -0.12354E+07         0.00000E+00
   -0.12354E+07        -0.37195E+07         0.00000E+00
    0.00000E+00         0.00000E+00        -0.44231E+06
 
    0.15906E+07        -0.11338E+07         0.00000E+00
   -0.11338E+07        -0.37955E+07         0.00000E+00
    0.00000E+00         0.00000E+00        -0.44097E+06
 
    0.16688E+07        -0.10254E+07         0.00000E+00
   -0.10254E+07        -0.38677E+07         0.00000E+00
    0.00000E+00         0.00000E+00        -0.43977E+06
 
    0.17419E+07        -0.90998E+06         0.00000E+00
   -0.90998E+06        -0.39364E+07         0.00000E+00
    0.00000E+00         0.00000E+00        -0.43889E+06
 
    0.18091E+07        -0.78745E+06         0.00000E+00
   -0.78745E+06        -0.40017E+07         0.00000E+00
    0.00000E+00         0.00000E+00        -0.43854E+06
 
    0.18694E+07        -0.65752E+06         0.00000E+00
   -0.65752E+06        -0.40639E+07         0.00000E+00
    0.00000E+00         0.00000E+00        -0.43889E+06
 
    0.19219E+07        -0.51987E+06         0.00000E+00
   -0.51987E+06        -0.41227E+07         0.00000E+00
    0.00000E+00         0.00000E+00        -0.44015E+06
 
    0.19653E+07        -0.37413E+06         0.00000E+00
   -0.37413E+06        -0.41779E+07         0.00000E+00
    0.00000E+00         0.00000E+00        -0.44252E+06
 
    0.19982E+07        -0.21993E+06         0.00000E+00
   -0.21993E+06        -0.42293E+07         0.00000E+00
    0.00000E+00         0.00000E+00        -0.44623E+06
 
    0.20187E+07        -0.56881E+05         0.00000E+00
   -0.56881E+05        -0.42763E+07         0.00000E+00
    0.00000E+00         0.00000E+00        -0.45152E+06
 
    0.20248E+07         0.11531E+06         0.00000E+00
    0.11531E+06        -0.43180E+07         0.00000E+00
    0.00000E+00         0.00000E+00        -0.45865E+06
 
    0.20142E+07         0.29683E+06         0.00000E+00
    0.29683E+06        -0.43535E+07         0.00000E+00
    0.00000E+00         0.00000E+00        -0.46787E+06
 
    0.19841E+07         0.48768E+06         0.00000E+00
    0.48768E+06        -0.43815E+07         0.00000E+00
    0.00000E+00         0.00000E+00        -0.47948E+06
 
    0.19314E+07         0.68757E+06         0.00000E+00
    0.68757E+06        -0.44003E+07         0.00000E+00
    0.00000E+00         0.00000E+00        -0.49377E+06
 
    0.18528E+07         0.89583E+06         0.00000E+00
    0.89583E+06        -0.44080E+07         0.00000E+00
    0.00000E+00         0.00000E+00        -0.51104E+06
 
    0.17445E+07         0.11113E+07         0.00000E+00
    0.11113E+07        -0.44024E+07         0.00000E+00
    0.00000E+00         0.00000E+00        -0.53158E+06
 
    0.16025E+07         0.13320E+07         0.00000E+00
    0.13320E+07        -0.43809E+07         0.00000E+00
    0.00000E+00         0.00000E+00        -0.55567E+06
 
    0.14231E+07         0.15555E+07         0.00000E+00
    0.15555E+07        -0.43408E+07         0.00000E+00
    0.00000E+00         0.00000E+00        -0.58354E+06
 
    0.12023E+07         0.17782E+07         0.00000E+00
    0.17782E+07        -0.42793E+07         0.00000E+00
    0.00000E+00         0.00000E+00        -0.61539E+06
 
    0.93687E+06         0.19955E+07         0.00000E+00
    0.19955E+07        -0.41936E+07         0.00000E+00
    0.00000E+00         0.00000E+00        -0.65135E+06
 
    0.62372E+06         0.22023E+07         0.00000E+00
    0.22023E+07        -0.40815E+07         0.00000E+00
    0.00000E+00         0.00000E+00        -0.69155E+06
 
    0.26038E+06         0.23923E+07         0.00000E+00
    0.23923E+07        -0.39411E+07         0.00000E+00
    0.00000E+00         0.00000E+00        -0.73614E+06
 
   -0.15488E+06         0.25580E+07         0.00000E+00
    0.25580E+07        -0.37707E+07         0.00000E+00
    0.00000E+00         0.00000E+00        -0.78511E+06
 
   -0.61968E+06         0.26881E+07         0.00000E+00
    0.26881E+07        -0.35663E+07         0.00000E+00
    0.00000E+00         0.00000E+00        -0.83721E+06
 
    0.65125E+06        -0.12271E+06         0.00000E+00
   -0.12271E+06        -0.17801E+07         0.00000E+00
    0.00000E+00         0.00000E+00        -0.22576E+06
 
   -0.53700E+05        -0.46170E+06         0.00000E+00
   -0.46170E+06        -0.18546E+07         0.00000E+00
    0.00000E+00         0.00000E+00        -0.38165E+06
 
   -0.59831E+06        -0.79976E+06         0.00000E+00
   -0.79976E+06        -0.19698E+07         0.00000E+00
    0.00000E+00         0.00000E+00        -0.51363E+06
 
   -0.10053E+07        -0.11278E+07         0.00000E+00
   -0.11278E+07        -0.21262E+07         0.00000E+00
    0.00000E+00         0.00000E+00        -0.62631E+06
 
   -0.12906E+07        -0.14327E+07         0.00000E+00
   -0.14327E+07        -0.23145E+07         0.00000E+00
    0.00000E+00         0.00000E+00        -0.72102E+06
 
   -0.14713E+07        -0.17044E+07         0.00000E+00
   -0.17044E+07        -0.25232E+07         0.00000E+00
    0.00000E+00         0.00000E+00        -0.79890E+06
 
   -0.15653E+07        -0.19372E+07         0.00000E+00
   -0.19372E+07        -0.27420E+07         0.00000E+00
    0.00000E+00         0.00000E+00        -0.86146E+06
 
   -0.15901E+07        -0.21292E+07         0.00000E+00
   -0.21292E+07        -0.29624E+07         0.00000E+00
    0.00000E+00         0.00000E+00        -0.91049E+06
 
   -0.15611E+07        -0.22811E+07         0.00000E+00
   -0.22811E+07        -0.31779E+07         0.00000E+00
    0.00000E+00         0.00000E+00        -0.94780E+06
 
   -0.14916E+07        -0.23953E+07         0.00000E+00
   -0.23953E+07        -0.33840E+07         0.00000E+00
    0.00000E+00         0.00000E+00        -0.97512E+06
 
   -0.13925E+07        -0.24754E+07         0.00000E+00
   -0.24754E+07        -0.35777E+07         0.00000E+00
    0.00000E+00         0.00000E+00        -0.99404E+06
 
   -0.12726E+07        -0.25250E+07         0.00000E+00
   -0.25250E+07        -0.37572E+07         0.00000E+00
    0.00000E+00         0.00000E+00        -0.10060E+07
 
   -0.11386E+07        -0.25481E+07         0.00000E+00
   -0.25481E+07        -0.39218E+07         0.00000E+00
    0.00000E+00         0.00000E+00        -0.10121E+07
 
   -0.99593E+06        -0.25484E+07         0.00000E+00
   -0.25484E+07        -0.40712E+07         0.00000E+00
    0.00000E+00         0.00000E+00        -0.10134E+07
 
   -0.84847E+06        -0.25292E+07         0.00000E+00
   -0.25292E+07        -0.42060E+07         0.00000E+00
    0.00000E+00         0.00000E+00        -0.10109E+07
 
   -0.69920E+06        -0.24937E+07         0.00000E+00
   -0.24937E+07        -0.43267E+07         0.00000E+00
    0.00000E+00         0.00000E+00        -0.10052E+07
 
   -0.55026E+06        -0.24444E+07         0.00000E+00
   -0.24444E+07        -0.44345E+07         0.00000E+00
    0.00000E+00         0.00000E+00        -0.99695E+06
 
   -0.40315E+06        -0.23836E+07         0.00000E+00
   -0.23836E+07        -0.45303E+07         0.00000E+00
    0.00000E+00         0.00000E+00        -0.98668E+06
 
   -0.25886E+06        -0.23133E+07         0.00000E+00
   -0.23133E+07        -0.46153E+07         0.00000E+00
    0.00000E+00         0.00000E+00        -0.97483E+06
 
   -0.11805E+06        -0.22351E+07         0.00000E+00
   -0.22351E+07        -0.46908E+07         0.00000E+00
    0.00000E+00         0.00000E+00        -0.96176E+06
 
    0.18938E+05        -0.21502E+07         0.00000E+00
   -0.21502E+07        -0.47578E+07         0.00000E+00
    0.00000E+00         0.00000E+00        -0.94777E+06
 
    0.15194E+06        -0.20596E+07         0.00000E+00
   -0.20596E+07        -0.48176E+07         0.00000E+00
    0.00000E+00         0.00000E+00        -0.93312E+06
 
    0.28096E+06        -0.19642E+07         0.00000E+00
   -0.19642E+07        -0.48712E+07         0.00000E+00
    0.00000E+00         0.00000E+00        -0.91804E+06
 
    0.40607E+06        -0.18644E+07         0.00000E+00
   -0.18644E+07        -0.49197E+07         0.00000E+00
    0.00000E+00         0.00000E+00        -0.90272E+06
 
    0.52742E+06        -0.17606E+07         0.00000E+00
   -0.17606E+07        -0.49640E+07         0.00000E+00
    0.00000E+00         0.00000E+00        -0.88732E+06
 
    0.64516E+06        -0.16530E+07         0.00000E+00
   -0.16530E+07        -0.50051E+07         0.00000E+00
    0.00000E+00         0.00000E+00        -0.87200E+06
 
    0.75945E+06        -0.15414E+07         0.00000E+00
   -0.15414E+07        -0.50439E+07         0.00000E+00
    0.00000E+00         0.00000E+00        -0.85688E+06
 
    0.87041E+06        -0.14258E+07         0.00000E+00
   -0.14258E+07        -0.50810E+07         0.00000E+00
    0.00000E+00         0.00000E+00        -0.84212E+06
 
    0.97810E+06        -0.13058E+07         0.00000E+00
   -0.13058E+07        -0.51172E+07         0.00000E+00
    0.00000E+00         0.00000E+00        -0.82782E+06
 
    0.10825E+07        -0.11808E+07         0.00000E+00
   -0.11808E+07        -0.51531E+07         0.00000E+00
    0.00000E+00         0.00000E+00        -0.81413E+06
 
    0.11834E+07        -0.10502E+07         0.00000E+00
   -0.10502E+07        -0.51893E+07         0.00000E+00
    0.00000E+00         0.00000E+00        -0.80118E+06
 
    0.12806E+07        -0.91311E+06         0.00000E+00
   -0.91311E+06        -0.52262E+07         0.00000E+00
    0.00000E+00         0.00000E+00        -0.78912E+06
 
    0.13734E+07        -0.76854E+06         0.00000E+00
   -0.76854E+06        -0.52640E+07         0.00000E+00
    0.00000E+00         0.00000E+00        -0.77812E+06
 
    0.14612E+07        -0.61531E+06         0.00000E+00
   -0.61531E+06        -0.53031E+07         0.00000E+00
    0.00000E+00         0.00000E+00        -0.76838E+06
 
    0.15429E+07        -0.45206E+06         0.00000E+00
   -0.45206E+06        -0.53435E+07         0.00000E+00
    0.00000E+00         0.00000E+00        -0.76011E+06
 
    0.16170E+07        -0.27728E+06         0.00000E+00
   -0.27728E+06        -0.53849E+07         0.00000E+00
    0.00000E+00         0.00000E+00        -0.75359E+06
 
    0.16815E+07        -0.89276E+05         0.00000E+00
   -0.89276E+05        -0.54271E+07         0.00000E+00
    0.00000E+00         0.00000E+00        -0.74911E+06
 
    0.17339E+07         0.11378E+06         0.00000E+00
    0.11378E+06        -0.54692E+07         0.00000E+00
    0.00000E+00         0.00000E+00        -0.74705E+06
 
    0.17709E+07         0.33380E+06         0.00000E+00
    0.33380E+06        -0.55102E+07         0.00000E+00
    0.00000E+00         0.00000E+00        -0.74784E+06
 
    0.17884E+07         0.57274E+06         0.00000E+00
    0.57274E+06        -0.55484E+07         0.00000E+00
    0.00000E+00         0.00000E+00        -0.75199E+06
 
    0.17811E+07         0.83246E+06         0.00000E+00
    0.83246E+06        -0.55816E+07         0.00000E+00
    0.00000E+00         0.00000E+00        -0.76009E+06
 
    0.17427E+07         0.11145E+07         0.00000E+00
    0.11145E+07        -0.56068E+07         0.00000E+00
    0.00000E+00         0.00000E+00        -0.77282E+06
 
    0.16653E+07         0.14200E+07         0.00000E+00
    0.14200E+07        -0.56200E+07         0.00000E+00
    0.00000E+00         0.00000E+00        -0.79094E+06
 
    0.15401E+07         0.17489E+07         0.00000E+00
    0.17489E+07        -0.56163E+07         0.00000E+00
    0.00000E+00         0.00000E+00        -0.81525E+06
 
    0.13565E+07         0.21000E+07         0.00000E+00
    0.21000E+07        -0.55893E+07         0.00000E+00
    0.00000E+00         0.00000E+00        -0.84658E+06
 
    0.11034E+07         0.24697E+07         0.00000E+00
    0.24697E+07        -0.55315E+07         0.00000E+00
    0.00000E+00         0.00000E+00        -0.88561E+06
 
    0.76990E+06         0.28521E+07         0.00000E+00
    0.28521E+07        -0.54343E+07         0.00000E+00
    0.00000E+00         0.00000E+00        -0.93288E+06
 
    0.34570E+06         0.32383E+07         0.00000E+00
    0.32383E+07        -0.52889E+07         0.00000E+00
    0.00000E+00         0.00000E+00        -0.98865E+06
 
   -0.17880E+06         0.36183E+07         0.00000E+00
    0.36183E+07        -0.50890E+07         0.00000E+00
    0.00000E+00         0.00000E+00        -0.10536E+07
 
   -0.82087E+06         0.39865E+07         0.00000E+00
    0.39865E+07        -0.48362E+07         0.00000E+00
    0.00000E+00         0.00000E+00        -0.11314E+07
 
   -0.52105E+07        -0.40389E+06         0.00000E+00
   -0.40389E+06        -0.51265E+07         0.00000E+00
    0.00000E+00         0.00000E+00        -0.20674E+07
 
   -0.57973E+07        -0.10742E+07         0.00000E+00
   -0.10742E+07        -0.52349E+07         0.00000E+00
    0.00000E+00         0.00000E+00        -0.22064E+07
 
   -0.61396E+07        -0.16817E+07         0.00000E+00
   -0.16817E+07        -0.54461E+07         0.00000E+00
    0.00000E+00         0.00000E+00        -0.23171E+07
 
   -0.62684E+07        -0.21854E+07         0.00000E+00
   -0.21854E+07        -0.56997E+07         0.00000E+00
    0.00000E+00         0.00000E+00        -0.23936E+07
 
   -0.62388E+07        -0.25776E+07         0.00000E+00
   -0.25776E+07        -0.59602E+07         0.00000E+00
    0.00000E+00         0.00000E+00        -0.24398E+07
 
   -0.61018E+07        -0.28659E+07         0.00000E+00
   -0.28659E+07        -0.62072E+07         0.00000E+00
    0.00000E+00         0.00000E+00        -0.24618E+07
 
   -0.58969E+07        -0.30642E+07         0.00000E+00
   -0.30642E+07        -0.64297E+07         0.00000E+00
    0.00000E+00         0.00000E+00        -0.24653E+07
 
   -0.56531E+07        -0.31877E+07         0.00000E+00
   -0.31877E+07        -0.66226E+07         0.00000E+00
    0.00000E+00         0.00000E+00        -0.24551E+07
 
   -0.53902E+07        -0.32505E+07         0.00000E+00
   -0.32505E+07        -0.67845E+07         0.00000E+00
    0.00000E+00         0.00000E+00        -0.24349E+07
 
   -0.51217E+07        -0.32654E+07         0.00000E+00
   -0.32654E+07        -0.69162E+07         0.00000E+00
    0.00000E+00         0.00000E+00        -0.24076E+07
 
   -0.48562E+07        -0.32430E+07         0.00000E+00
   -0.32430E+07        -0.70198E+07         0.00000E+00
    0.00000E+00         0.00000E+00        -0.23752E+07
 
   -0.45993E+07        -0.31921E+07         0.00000E+00
   -0.31921E+07        -0.70979E+07         0.00000E+00
    0.00000E+00         0.00000E+00        -0.23394E+07
 
   -0.43540E+07        -0.31198E+07         0.00000E+00
   -0.31198E+07        -0.71535E+07         0.00000E+00
    0.00000E+00         0.00000E+00        -0.23015E+07
 
   -0.41218E+07        -0.30317E+07         0.00000E+00
   -0.30317E+07        -0.71895E+07         0.00000E+00
    0.00000E+00         0.00000E+00        -0.22623E+07
 
   -0.39032E+07        -0.29324E+07         0.00000E+00
   -0.29324E+07        -0.72088E+07         0.00000E+00
    0.00000E+00         0.00000E+00        -0.22224E+07
 
   -0.36980E+07        -0.28253E+07         0.00000E+00
   -0.28253E+07        -0.72140E+07         0.00000E+00
    0.00000E+00         0.00000E+00        -0.21824E+07
 
   -0.35056E+07        -0.27131E+07         0.00000E+00
   -0.27131E+07        -0.72076E+07         0.00000E+00
    0.00000E+00         0.00000E+00        -0.21426E+07
 
   -0.33250E+07        -0.25979E+07         0.00000E+00
   -0.25979E+07        -0.71918E+07         0.00000E+00
    0.00000E+00         0.00000E+00        -0.21033E+07
 
   -0.31551E+07        -0.24812E+07         0.00000E+00
   -0.24812E+07        -0.71685E+07         0.00000E+00
    0.00000E+00         0.00000E+00        -0.20647E+07
 
   -0.29949E+07        -0.23641E+07         0.00000E+00
   -0.23641E+07        -0.71394E+07         0.00000E+00
    0.00000E+00         0.00000E+00        -0.20269E+07
 
   -0.28431E+07        -0.22474E+07         0.00000E+00
   -0.22474E+07        -0.71061E+07         0.00000E+00
    0.00000E+00         0.00000E+00        -0.19898E+07
 
   -0.26986E+07        -0.21316E+07         0.00000E+00
   -0.21316E+07        -0.70700E+07         0.00000E+00
    0.00000E+00         0.00000E+00        -0.19537E+07
 
   -0.25602E+07        -0.20168E+07         0.00000E+00
   -0.20168E+07        -0.70323E+07         0.00000E+00
    0.00000E+00         0.00000E+00        -0.19185E+07
 
   -0.24268E+07        -0.19032E+07         0.00000E+00
   -0.19032E+07        -0.69940E+07         0.00000E+00
    0.00000E+00         0.00000E+00        -0.18842E+07
 
   -0.22974E+07        -0.17907E+07         0.00000E+00
   -0.17907E+07        -0.69562E+07         0.00000E+00
    0.00000E+00         0.00000E+00        -0.18507E+07
 
   -0.21709E+07        -0.16789E+07         0.00000E+00
   -0.16789E+07        -0.69196E+07         0.00000E+00
    0.00000E+00         0.00000E+00        -0.18181E+07
 
   -0.20465E+07        -0.15676E+07         0.00000E+00
   -0.15676E+07        -0.68853E+07         0.00000E+00
    0.00000E+00         0.00000E+00        -0.17864E+07
 
   -0.19232E+07        -0.14561E+07         0.00000E+00
   -0.14561E+07        -0.68538E+07         0.00000E+00
    0.00000E+00         0.00000E+00        -0.17554E+07
 
   -0.18001E+07        -0.13438E+07         0.00000E+00
   -0.13438E+07        -0.68259E+07         0.00000E+00
    0.00000E+00         0.00000E+00        -0.17252E+07
 
   -0.16765E+07        -0.12298E+07         0.00000E+00
   -0.12298E+07        -0.68022E+07         0.00000E+00
    0.00000E+00         0.00000E+00        -0.16957E+07
 
   -0.15516E+07        -0.11132E+07         0.00000E+00
   -0.11132E+07        -0.67834E+07         0.00000E+00
    0.00000E+00         0.00000E+00        -0.16670E+07
 
   -0.14249E+07        -0.99277E+06         0.00000E+00
   -0.99277E+06        -0.67702E+07         0.00000E+00
    0.00000E+00         0.00000E+00        -0.16390E+07
 
   -0.12958E+07        -0.86708E+06         0.00000E+00
   -0.86708E+06        -0.67631E+07         0.00000E+00
    0.00000E+00         0.00000E+00        -0.16118E+07
 
   -0.11639E+07        -0.73446E+06         0.00000E+00
   -0.73446E+06        -0.67627E+07         0.00000E+00
    0.00000E+00         0.00000E+00        -0.15853E+07
 
   -0.10289E+07        -0.59294E+06         0.00000E+00
   -0.59294E+06        -0.67695E+07         0.00000E+00
    0.00000E+00         0.00000E+00        -0.15597E+07
 
   -0.89103E+06        -0.44017E+06         0.00000E+00
   -0.44017E+06        -0.67842E+07         0.00000E+00
    0.00000E+00         0.00000E+00        -0.15350E+07
 
   -0.75051E+06        -0.27335E+06         0.00000E+00
   -0.27335E+06        -0.68070E+07         0.00000E+00
    0.00000E+00         0.00000E+00        -0.15115E+07
 
   -0.60825E+06        -0.89151E+05         0.00000E+00
   -0.89151E+05        -0.68384E+07         0.00000E+00
    0.00000E+00         0.00000E+00        -0.14893E+07
 
   -0.46576E+06         0.11636E+06         0.00000E+00
    0.11636E+06        -0.68784E+07         0.00000E+00
    0.00000E+00         0.00000E+00        -0.14688E+07
 
   -0.32546E+06         0.34786E+06         0.00000E+00
    0.34786E+06        -0.69268E+07         0.00000E+00
    0.00000E+00         0.00000E+00        -0.14505E+07
 
   -0.19105E+06         0.61085E+06         0.00000E+00
    0.61085E+06        -0.69831E+07         0.00000E+00
    0.00000E+00         0.00000E+00        -0.14348E+07
 
   -0.68034E+05         0.91177E+06         0.00000E+00
    0.91177E+06        -0.70459E+07         0.00000E+00
    0.00000E+00         0.00000E+00        -0.14228E+07
 
    0.35670E+05         0.12580E+07         0.00000E+00
    0.12580E+07        -0.71129E+07         0.00000E+00
    0.00000E+00         0.00000E+00        -0.14154E+07
 
    0.10877E+06         0.16578E+07         0.00000E+00
    0.16578E+07        -0.71803E+07         0.00000E+00
    0.00000E+00         0.00000E+00        -0.14143E+07
 
    0.13548E+06         0.21200E+07         0.00000E+00
    0.21200E+07        -0.72422E+07         0.00000E+00
    0.00000E+00         0.00000E+00        -0.14213E+07
 
    0.94238E+05         0.26532E+07         0.00000E+00
    0.26532E+07        -0.72895E+07         0.00000E+00
    0.00000E+00         0.00000E+00        -0.14390E+07
 
   -0.43263E+05         0.32637E+07         0.00000E+00
    0.32637E+07        -0.73083E+07         0.00000E+00
    0.00000E+00         0.00000E+00        -0.14703E+07
 
   -0.31130E+06         0.39524E+07         0.00000E+00
    0.39524E+07        -0.72780E+07         0.00000E+00
    0.00000E+00         0.00000E+00        -0.15179E+07
 
   -0.74342E+06         0.47077E+07         0.00000E+00
    0.47077E+07        -0.71673E+07         0.00000E+00
    0.00000E+00         0.00000E+00        -0.15822E+07
 
   -0.13483E+07         0.54929E+07         0.00000E+00
    0.54929E+07        -0.69282E+07         0.00000E+00
    0.00000E+00         0.00000E+00        -0.16553E+07
 
   -0.17140E+08        -0.90624E+06         0.00000E+00
   -0.90624E+06        -0.12143E+08         0.00000E+00
    0.00000E+00         0.00000E+00        -0.58567E+07
 
   -0.16799E+08        -0.20607E+07         0.00000E+00
   -0.20607E+07        -0.12467E+08         0.00000E+00
    0.00000E+00         0.00000E+00        -0.58532E+07
 
   -0.16144E+08        -0.27911E+07         0.00000E+00
   -0.27911E+07        -0.12688E+08         0.00000E+00
    0.00000E+00         0.00000E+00        -0.57663E+07
 
   -0.15396E+08        -0.32248E+07         0.00000E+00
   -0.32248E+07        -0.12815E+08         0.00000E+00
    0.00000E+00         0.00000E+00        -0.56422E+07
 
   -0.14654E+08        -0.34542E+07         0.00000E+00
   -0.34542E+07        -0.12863E+08         0.00000E+00
    0.00000E+00         0.00000E+00        -0.55034E+07
 
   -0.13963E+08        -0.35447E+07         0.00000E+00
   -0.35447E+07        -0.12844E+08         0.00000E+00
    0.00000E+00         0.00000E+00        -0.53614E+07
 
   -0.13337E+08        -0.35420E+07         0.00000E+00
   -0.35420E+07        -0.12773E+08         0.00000E+00
    0.00000E+00         0.00000E+00        -0.52221E+07
 
   -0.12780E+08        -0.34778E+07         0.00000E+00
   -0.34778E+07        -0.12662E+08         0.00000E+00
    0.00000E+00         0.00000E+00        -0.50883E+07
 
   -0.12287E+08        -0.33741E+07         0.00000E+00
   -0.33741E+07        -0.12520E+08         0.00000E+00
    0.00000E+00         0.00000E+00        -0.49614E+07
 
   -0.11852E+08        -0.32461E+07         0.00000E+00
   -0.32461E+07        -0.12357E+08         0.00000E+00
    0.00000E+00         0.00000E+00        -0.48418E+07
 
   -0.11470E+08        -0.31042E+07         0.00000E+00
   -0.31042E+07        -0.12178E+08         0.00000E+00
    0.00000E+00         0.00000E+00        -0.47297E+07
 
   -0.11134E+08        -0.29558E+07         0.00000E+00
   -0.29558E+07        -0.11989E+08         0.00000E+00
    0.00000E+00         0.00000E+00        -0.46247E+07
 
   -0.10837E+08        -0.28056E+07         0.00000E+00
   -0.28056E+07        -0.11795E+08         0.00000E+00
    0.00000E+00         0.00000E+00        -0.45264E+07
 
   -0.10574E+08        -0.26568E+07         0.00000E+00
   -0.26568E+07        -0.11598E+08         0.00000E+00
    0.00000E+00         0.00000E+00        -0.44344E+07
 
   -0.10339E+08        -0.25117E+07         0.00000E+00
   -0.25117E+07        -0.11402E+08         0.00000E+00
    0.00000E+00         0.00000E+00        -0.43483E+07
 
   -0.10130E+08        -0.23714E+07         0.00000E+00
   -0.23714E+07        -0.11208E+08         0.00000E+00
    0.00000E+00         0.00000E+00        -0.42675E+07
 
   -0.99402E+07        -0.22369E+07         0.00000E+00
   -0.22369E+07        -0.11018E+08         0.00000E+00
    0.00000E+00         0.00000E+00        -0.41916E+07
 
   -0.97682E+07        -0.21084E+07         0.00000E+00
   -0.21084E+07        -0.10832E+08         0.00000E+00
    0.00000E+00         0.00000E+00        -0.41201E+07
 
   -0.96105E+07        -0.19860E+07         0.00000E+00
   -0.19860E+07        -0.10653E+08         0.00000E+00
    0.00000E+00         0.00000E+00        -0.40526E+07
 
   -0.94645E+07        -0.18697E+07         0.00000E+00
   -0.18697E+07        -0.10480E+08         0.00000E+00
    0.00000E+00         0.00000E+00        -0.39888E+07
 
   -0.93280E+07        -0.17591E+07         0.00000E+00
   -0.17591E+07        -0.10313E+08         0.00000E+00
    0.00000E+00         0.00000E+00        -0.39282E+07
 
   -0.91988E+07        -0.16541E+07         0.00000E+00
   -0.16541E+07        -0.10154E+08         0.00000E+00
    0.00000E+00         0.00000E+00        -0.38706E+07
 
   -0.90751E+07        -0.15541E+07         0.00000E+00
   -0.15541E+07        -0.10003E+08         0.00000E+00
    0.00000E+00         0.00000E+00        -0.38156E+07
 
   -0.89552E+07        -0.14587E+07         0.00000E+00
   -0.14587E+07        -0.98588E+07         0.00000E+00
    0.00000E+00         0.00000E+00        -0.37628E+07
 
   -0.88376E+07        -0.13674E+07         0.00000E+00
   -0.13674E+07        -0.97228E+07         0.00000E+00
    0.00000E+00         0.00000E+00        -0.37121E+07
 
   -0.87206E+07        -0.12796E+07         0.00000E+00
   -0.12796E+07        -0.95947E+07         0.00000E+00
    0.00000E+00         0.00000E+00        -0.36631E+07
 
   -0.86029E+07        -0.11949E+07         0.00000E+00
   -0.11949E+07        -0.94747E+07         0.00000E+00
    0.00000E+00         0.00000E+00        -0.36155E+07
 
   -0.84831E+07        -0.11125E+07         0.00000E+00
   -0.11125E+07        -0.93630E+07         0.00000E+00
    0.00000E+00         0.00000E+00        -0.35692E+07
 
   -0.83598E+07        -0.10317E+07         0.00000E+00
   -0.10317E+07        -0.92597E+07         0.00000E+00
    0.00000E+00         0.00000E+00        -0.35239E+07
 
   -0.82314E+07        -0.95182E+06         0.00000E+00
   -0.95182E+06        -0.91651E+07         0.00000E+00
    0.00000E+00         0.00000E+00        -0.34793E+07
 
   -0.80966E+07        -0.87190E+06         0.00000E+00
   -0.87190E+06        -0.90794E+07         0.00000E+00
    0.00000E+00         0.00000E+00        -0.34352E+07
 
   -0.79537E+07        -0.79096E+06         0.00000E+00
   -0.79096E+06        -0.90030E+07         0.00000E+00
    0.00000E+00         0.00000E+00        -0.33913E+07
 
   -0.78012E+07        -0.70781E+06         0.00000E+00
   -0.70781E+06        -0.89363E+07         0.00000E+00
    0.00000E+00         0.00000E+00        -0.33475E+07
 
   -0.76371E+07        -0.62104E+06         0.00000E+00
   -0.62104E+06        -0.88801E+07         0.00000E+00
    0.00000E+00         0.00000E+00        -0.33034E+07
 
   -0.74596E+07        -0.52896E+06         0.00000E+00
   -0.52896E+06        -0.88348E+07         0.00000E+00
    0.00000E+00         0.00000E+00        -0.32589E+07
 
   -0.72664E+07        -0.42952E+06         0.00000E+00
   -0.42952E+06        -0.88016E+07         0.00000E+00
    0.00000E+00         0.00000E+00        -0.32136E+07
 
   -0.70553E+07        -0.32016E+06         0.00000E+00
   -0.32016E+06        -0.87813E+07         0.00000E+00
    0.00000E+00         0.00000E+00        -0.31673E+07
 
   -0.68237E+07        -0.19769E+06         0.00000E+00
   -0.19769E+06        -0.87753E+07         0.00000E+00
    0.00000E+00         0.00000E+00        -0.31198E+07
 
   -0.65688E+07        -0.58090E+05         0.00000E+00
   -0.58090E+05        -0.87851E+07         0.00000E+00
    0.00000E+00         0.00000E+00        -0.30708E+07
 
   -0.62875E+07         0.10378E+06         0.00000E+00
    0.10378E+06        -0.88126E+07         0.00000E+00
    0.00000E+00         0.00000E+00        -0.30200E+07
 
   -0.59769E+07         0.29451E+06         0.00000E+00
    0.29451E+06        -0.88596E+07         0.00000E+00
    0.00000E+00         0.00000E+00        -0.29673E+07
 
   -0.56340E+07         0.52272E+06         0.00000E+00
    0.52272E+06        -0.89288E+07         0.00000E+00
    0.00000E+00         0.00000E+00        -0.29126E+07
 
   -0.52563E+07         0.79964E+06         0.00000E+00
    0.79964E+06        -0.90226E+07         0.00000E+00
    0.00000E+00         0.00000E+00        -0.28558E+07
 
   -0.48428E+07         0.11402E+07         0.00000E+00
    0.11402E+07        -0.91438E+07         0.00000E+00
    0.00000E+00         0.00000E+00        -0.27973E+07
 
   -0.43949E+07         0.15642E+07         0.00000E+00
    0.15642E+07        -0.92951E+07         0.00000E+00
    0.00000E+00         0.00000E+00        -0.27380E+07
 
   -0.39197E+07         0.20985E+07         0.00000E+00
    0.20985E+07        -0.94785E+07         0.00000E+00
    0.00000E+00         0.00000E+00        -0.26796E+07
 
   -0.34349E+07         0.27792E+07         0.00000E+00
    0.27792E+07        -0.96947E+07         0.00000E+00
    0.00000E+00         0.00000E+00        -0.26259E+07
 
   -0.29799E+07         0.36550E+07         0.00000E+00
    0.36550E+07        -0.99416E+07         0.00000E+00
    0.00000E+00         0.00000E+00        -0.25843E+07
 
   -0.26377E+07         0.47914E+07         0.00000E+00
    0.47914E+07        -0.10212E+08         0.00000E+00
    0.00000E+00         0.00000E+00        -0.25698E+07
 
   -0.25825E+07         0.62736E+07         0.00000E+00
    0.62736E+07        -0.10488E+08         0.00000E+00
    0.00000E+00         0.00000E+00        -0.26141E+07
 
   -0.34903E+08        -0.16508E+07         0.00000E+00
   -0.16508E+07        -0.23695E+08         0.00000E+00
    0.00000E+00         0.00000E+00        -0.11720E+08
 
   -0.31707E+08        -0.20108E+07         0.00000E+00
   -0.20108E+07        -0.23162E+08         0.00000E+00
    0.00000E+00         0.00000E+00        -0.10974E+08
 
   -0.29346E+08        -0.21197E+07         0.00000E+00
   -0.21197E+07        -0.22540E+08         0.00000E+00
    0.00000E+00         0.00000E+00        -0.10377E+08
 
   -0.27555E+08        -0.21034E+07         0.00000E+00
   -0.21034E+07        -0.21878E+08         0.00000E+00
    0.00000E+00         0.00000E+00        -0.98867E+07
 
   -0.26169E+08        -0.20256E+07         0.00000E+00
   -0.20256E+07        -0.21209E+08         0.00000E+00
    0.00000E+00         0.00000E+00        -0.94756E+07
 
   -0.25078E+08        -0.19195E+07         0.00000E+00
   -0.19195E+07        -0.20551E+08         0.00000E+00
    0.00000E+00         0.00000E+00        -0.91258E+07
 
   -0.24208E+08        -0.18026E+07         0.00000E+00
   -0.18026E+07        -0.19914E+08         0.00000E+00
    0.00000E+00         0.00000E+00        -0.88244E+07
 
   -0.23504E+08        -0.16842E+07         0.00000E+00
   -0.16842E+07        -0.19306E+08         0.00000E+00
    0.00000E+00         0.00000E+00        -0.85621E+07
 
   -0.22929E+08        -0.15691E+07         0.00000E+00
   -0.15691E+07        -0.18730E+08         0.00000E+00
    0.00000E+00         0.00000E+00        -0.83318E+07
 
   -0.22455E+08        -0.14599E+07         0.00000E+00
   -0.14599E+07        -0.18186E+08         0.00000E+00
    0.00000E+00         0.00000E+00        -0.81281E+07
 
   -0.22060E+08        -0.13574E+07         0.00000E+00
   -0.13574E+07        -0.17674E+08         0.00000E+00
    0.00000E+00         0.00000E+00        -0.79468E+07
 
   -0.21728E+08        -0.12622E+07         0.00000E+00
   -0.12622E+07        -0.17193E+08         0.00000E+00
    0.00000E+00         0.00000E+00        -0.77842E+07
 
   -0.21446E+08        -0.11740E+07         0.00000E+00
   -0.11740E+07        -0.16743E+08         0.00000E+00
    0.00000E+00         0.00000E+00        -0.76378E+07
 
   -0.21205E+08        -0.10925E+07         0.00000E+00
   -0.10925E+07        -0.16321E+08         0.00000E+00
    0.00000E+00         0.00000E+00        -0.75051E+07
 
   -0.20996E+08        -0.10174E+07         0.00000E+00
   -0.10174E+07        -0.15926E+08         0.00000E+00
    0.00000E+00         0.00000E+00        -0.73843E+07
 
   -0.20813E+08        -0.94815E+06         0.00000E+00
   -0.94815E+06        -0.15556E+08         0.00000E+00
    0.00000E+00         0.00000E+00        -0.72737E+07
 
   -0.20651E+08        -0.88427E+06         0.00000E+00
   -0.88427E+06        -0.15209E+08         0.00000E+00
    0.00000E+00         0.00000E+00        -0.71721E+07
 
   -0.20506E+08        -0.82530E+06         0.00000E+00
   -0.82530E+06        -0.14885E+08         0.00000E+00
    0.00000E+00         0.00000E+00        -0.70782E+07
 
   -0.20375E+08        -0.77078E+06         0.00000E+00
   -0.77078E+06        -0.14581E+08         0.00000E+00
    0.00000E+00         0.00000E+00        -0.69911E+07
 
   -0.20253E+08        -0.72031E+06         0.00000E+00
   -0.72031E+06        -0.14297E+08         0.00000E+00
    0.00000E+00         0.00000E+00        -0.69100E+07
 
   -0.20140E+08        -0.67348E+06         0.00000E+00
   -0.67348E+06        -0.14030E+08         0.00000E+00
    0.00000E+00         0.00000E+00        -0.68339E+07
 
   -0.20032E+08        -0.62993E+06         0.00000E+00
   -0.62993E+06        -0.13780E+08         0.00000E+00
    0.00000E+00         0.00000E+00        -0.67623E+07
 
   -0.19927E+08        -0.58931E+06         0.00000E+00
   -0.58931E+06        -0.13546E+08         0.00000E+00
    0.00000E+00         0.00000E+00        -0.66946E+07
 
   -0.19824E+08        -0.55130E+06         0.00000E+00
   -0.55130E+06        -0.13327E+08         0.00000E+00
    0.00000E+00         0.00000E+00        -0.66302E+07
 
   -0.19722E+08        -0.51559E+06         0.00000E+00
   -0.51559E+06        -0.13121E+08         0.00000E+00
    0.00000E+00         0.00000E+00        -0.65686E+07
 
   -0.19618E+08        -0.48188E+06         0.00000E+00
   -0.48188E+06        -0.12929E+08         0.00000E+00
    0.00000E+00         0.00000E+00        -0.65094E+07
 
   -0.19511E+08        -0.44988E+06         0.00000E+00
   -0.44988E+06        -0.12749E+08         0.00000E+00
    0.00000E+00         0.00000E+00        -0.64520E+07
 
   -0.19399E+08        -0.41929E+06         0.00000E+00
   -0.41929E+06        -0.12582E+08         0.00000E+00
    0.00000E+00         0.00000E+00        -0.63962E+07
 
   -0.19281E+08        -0.38982E+06         0.00000E+00
   -0.38982E+06        -0.12426E+08         0.00000E+00
    0.00000E+00         0.00000E+00        -0.63414E+07
 
   -0.19155E+08        -0.36114E+06         0.00000E+00
   -0.36114E+06        -0.12281E+08         0.00000E+00
    0.00000E+00         0.00000E+00        -0.62873E+07
 
   -0.19020E+08        -0.33291E+06         0.00000E+00
   -0.33291E+06        -0.12148E+08         0.00000E+00
    0.00000E+00         0.00000E+00        -0.62335E+07
 
   -0.18872E+08        -0.30474E+06         0.00000E+00
   -0.30474E+06        -0.12025E+08         0.00000E+00
    0.00000E+00         0.00000E+00        -0.61794E+07
 
   -0.18710E+08        -0.27618E+06         0.00000E+00
   -0.27618E+06        -0.11914E+08         0.00000E+00
    0.00000E+00         0.00000E+00        -0.61247E+07
 
   -0.18531E+08        -0.24672E+06         0.00000E+00
   -0.24672E+06        -0.11814E+08         0.00000E+00
    0.00000E+00         0.00000E+00        -0.60689E+07
 
   -0.18331E+08        -0.21570E+06         0.00000E+00
   -0.21570E+06        -0.11726E+08         0.00000E+00
    0.00000E+00         0.00000E+00        -0.60115E+07
 
   -0.18108E+08        -0.18235E+06         0.00000E+00
   -0.18235E+06        -0.11651E+08         0.00000E+00
    0.00000E+00         0.00000E+00        -0.59518E+07
 
   -0.17856E+08        -0.14568E+06         0.00000E+00
   -0.14568E+06        -0.11589E+08         0.00000E+00
    0.00000E+00         0.00000E+00        -0.58892E+07
 
   -0.17571E+08        -0.10441E+06         0.00000E+00
   -0.10441E+06        -0.11543E+08         0.00000E+00
    0.00000E+00         0.00000E+00        -0.58228E+07
 
   -0.17244E+08        -0.56900E+05         0.00000E+00
   -0.56900E+05        -0.11515E+08         0.00000E+00
    0.00000E+00         0.00000E+00        -0.57519E+07
 
   -0.16869E+08        -0.95495E+03         0.00000E+00
   -0.95495E+03        -0.11506E+08         0.00000E+00
    0.00000E+00         0.00000E+00        -0.56751E+07
 
   -0.16435E+08         0.66365E+05         0.00000E+00
    0.66365E+05        -0.11522E+08         0.00000E+00
    0.00000E+00         0.00000E+00        -0.55913E+07
 
   -0.15928E+08         0.14908E+06         0.00000E+00
    0.14908E+06        -0.11566E+08         0.00000E+00
    0.00000E+00         0.00000E+00        -0.54987E+07
 
   -0.15332E+08         0.25280E+06         0.00000E+00
    0.25280E+06        -0.11645E+08         0.00000E+00
    0.00000E+00         0.00000E+00        -0.53953E+07
 
   -0.14625E+08         0.38547E+06         0.00000E+00
    0.38547E+06        -0.11767E+08         0.00000E+00
    0.00000E+00         0.00000E+00        -0.52784E+07
 
   -0.13778E+08         0.55867E+06         0.00000E+00
    0.55867E+06        -0.11945E+08         0.00000E+00
    0.00000E+00         0.00000E+00        -0.51444E+07
 
   -0.12750E+08         0.78968E+06         0.00000E+00
    0.78968E+06        -0.12193E+08         0.00000E+00
    0.00000E+00         0.00000E+00        -0.49885E+07
 
   -0.11486E+08         0.11052E+07         0.00000E+00
    0.11052E+07        -0.12534E+08         0.00000E+00
    0.00000E+00         0.00000E+00        -0.48040E+07
 
   -0.99058E+07         0.15478E+07         0.00000E+00
    0.15478E+07        -0.12998E+08         0.00000E+00
    0.00000E+00         0.00000E+00        -0.45807E+07
 
   -0.78899E+07         0.21889E+07         0.00000E+00
    0.21889E+07        -0.13626E+08         0.00000E+00
    0.00000E+00         0.00000E+00        -0.43033E+07
 
   -0.52491E+07         0.31545E+07         0.00000E+00
    0.31545E+07        -0.14481E+08         0.00000E+00
    0.00000E+00         0.00000E+00        -0.39460E+07
 
TENSORS stresstot double 
   -0.44362E+08        -0.76257E+06         0.00000E+00
   -0.76257E+06        -0.49680E+08         0.00000E+00
    0.00000E+00         0.00000E+00        -0.55017E+08
 
   -0.45320E+08        -0.10306E+07         0.00000E+00
   -0.10306E+07        -0.49998E+08         0.00000E+00
    0.00000E+00         0.00000E+00        -0.56283E+08
 
   -0.46160E+08        -0.11972E+07         0.00000E+00
   -0.11972E+07        -0.50355E+08         0.00000E+00
    0.00000E+00         0.00000E+00        -0.57403E+08
 
   -0.46904E+08        -0.13041E+07         0.00000E+00
   -0.13041E+07        -0.50750E+08         0.00000E+00
    0.00000E+00         0.00000E+00        -0.58348E+08
 
   -0.47701E+08        -0.13618E+07         0.00000E+00
   -0.13618E+07        -0.51199E+08         0.00000E+00
    0.00000E+00         0.00000E+00        -0.59008E+08
 
   -0.48478E+08        -0.13493E+07         0.00000E+00
   -0.13493E+07        -0.51654E+08         0.00000E+00
    0.00000E+00         0.00000E+00        -0.59404E+08
 
   -0.49178E+08        -0.12819E+07         0.00000E+00
   -0.12819E+07        -0.52093E+08         0.00000E+00
    0.00000E+00         0.00000E+00        -0.59631E+08
 
   -0.49729E+08        -0.12020E+07         0.00000E+00
   -0.12020E+07        -0.52516E+08         0.00000E+00
    0.00000E+00         0.00000E+00        -0.59826E+08
 
   -0.50169E+08        -0.11195E+07         0.00000E+00
   -0.11195E+07        -0.52919E+08         0.00000E+00
    0.00000E+00         0.00000E+00        -0.59995E+08
 
   -0.50526E+08        -0.10393E+07         0.00000E+00
   -0.10393E+07        -0.53299E+08         0.00000E+00
    0.00000E+00         0.00000E+00        -0.60142E+08
 
   -0.50819E+08        -0.96338E+06         0.00000E+00
   -0.96338E+06        -0.53658E+08         0.00000E+00
    0.00000E+00         0.00000E+00        -0.60272E+08
 
   -0.51063E+08        -0.89276E+06         0.00000E+00
   -0.89276E+06        -0.53994E+08         0.00000E+00
    0.00000E+00         0.00000E+00        -0.60388E+08
 
   -0.51267E+08        -0.82757E+06         0.00000E+00
   -0.82757E+06        -0.54308E+08         0.00000E+00
    0.00000E+00         0.00000E+00        -0.60492E+08
 
   -0.51441E+08        -0.76766E+06         0.00000E+00
   -0.76766E+06        -0.54602E+08         0.00000E+00
    0.00000E+00         0.00000E+00        -0.60586E+08
 
   -0.51591E+08        -0.71270E+06         0.00000E+00
   -0.71270E+06        -0.54877E+08         0.00000E+00
    0.00000E+00         0.00000E+00        -0.60671E+08
 
   -0.51720E+08        -0.66231E+06         0.00000E+00
   -0.66231E+06        -0.55134E+08         0.00000E+00
    0.00000E+00         0.00000E+00        -0.60748E+08
 
   -0.51834E+08        -0.61609E+06         0.00000E+00
   -0.61609E+06        -0.55375E+08         0.00000E+00
    0.00000E+00         0.00000E+00        -0.60819E+08
 
   -0.51936E+08        -0.57363E+06         0.00000E+00
   -0.57363E+06        -0.55599E+08         0.00000E+00
    0.00000E+00         0.00000E+00        -0.60884E+08
 
   -0.52028E+08        -0.53458E+06         0.00000E+00
   -0.53458E+06        -0.55809E+08         0.00000E+00
    0.00000E+00         0.00000E+00        -0.60945E+08
 
   -0.52112E+08        -0.49858E+06         0.00000E+00
   -0.49858E+06        -0.56006E+08         0.00000E+00
    0.00000E+00         0.00000E+00        -0.61001E+08
 
   -0.52191E+08        -0.46533E+06         0.00000E+00
   -0.46533E+06        -0.56190E+08         0.00000E+00
    0.00000E+00         0.00000E+00        -0.61053E+08
 
   -0.52265E+08        -0.43452E+06         0.00000E+00
   -0.43452E+06        -0.56362E+08         0.00000E+00
    0.00000E+00         0.00000E+00        -0.61102E+08
 
   -0.52336E+08        -0.40589E+06         0.00000E+00
   -0.40589E+06        -0.56523E+08         0.00000E+00
    0.00000E+00         0.00000E+00        -0.61149E+08
 
   -0.52406E+08        -0.37919E+06         0.00000E+00
   -0.37919E+06        -0.56673E+08         0.00000E+00
    0.00000E+00         0.00000E+00        -0.61193E+08
 
   -0.52476E+08        -0.35419E+06         0.00000E+00
   -0.35419E+06        -0.56814E+08         0.00000E+00
    0.00000E+00         0.00000E+00        -0.61235E+08
 
   -0.52546E+08        -0.33067E+06         0.00000E+00
   -0.33067E+06        -0.56946E+08         0.00000E+00
    0.00000E+00         0.00000E+00        -0.61276E+08
 
   -0.52619E+08        -0.30840E+06         0.00000E+00
   -0.30840E+06        -0.57069E+08         0.00000E+00
    0.00000E+00         0.00000E+00        -0.61315E+08
 
   -0.52694E+08        -0.28718E+06         0.00000E+00
   -0.28718E+06        -0.57184E+08         0.00000E+00
    0.00000E+00         0.00000E+00        -0.61353E+08
 
   -0.52773E+08        -0.26679E+06         0.00000E+00
   -0.26679E+06        -0.57291E+08         0.00000E+00
    0.00000E+00         0.00000E+00        -0.61390E+08
 
   -0.52857E+08        -0.24701E+06         0.00000E+00
   -0.24701E+06        -0.57389E+08         0.00000E+00
    0.00000E+00         0.00000E+00        -0.61426E+08
 
   -0.52948E+08        -0.22760E+06         0.00000E+00
   -0.22760E+06        -0.57481E+08         0.00000E+00
    0.00000E+00         0.00000E+00        -0.61463E+08
 
   -0.53047E+08        -0.20829E+06         0.00000E+00
   -0.20829E+06        -0.57564E+08         0.00000E+00
    0.00000E+00         0.00000E+00        -0.61499E+08
 
   -0.53155E+08        -0.18878E+06         0.00000E+00
   -0.18878E+06        -0.57640E+08         0.00000E+00
    0.00000E+00         0.00000E+00        -0.61536E+08
 
   -0.53275E+08        -0.16871E+06         0.00000E+00
   -0.16871E+06        -0.57709E+08         0.00000E+00
    0.00000E+00         0.00000E+00        -0.61574E+08
 
   -0.53408E+08        -0.14765E+06         0.00000E+00
   -0.14765E+06        -0.57769E+08         0.00000E+00
    0.00000E+00         0.00000E+00        -0.61612E+08
 
   -0.53557E+08        -0.12507E+06         0.00000E+00
   -0.12507E+06        -0.57820E+08         0.00000E+00
    0.00000E+00         0.00000E+00        -0.61653E+08
 
   -0.53725E+08        -0.10030E+06         0.00000E+00
   -0.10030E+06        -0.57863E+08         0.00000E+00
    0.00000E+00         0.00000E+00        -0.61695E+08
 
   -0.53915E+08        -0.72509E+05         0.00000E+00
   -0.72509E+05        -0.57894E+08         0.00000E+00
    0.00000E+00         0.00000E+00        -0.61739E+08
 
   -0.54133E+08        -0.40580E+05         0.00000E+00
   -0.40580E+05        -0.57915E+08         0.00000E+00
    0.00000E+00         0.00000E+00        -0.61787E+08
 
   -0.54382E+08        -0.30558E+04         0.00000E+00
   -0.30558E+04        -0.57921E+08         0.00000E+00
    0.00000E+00         0.00000E+00        -0.61838E+08
 
   -0.54672E+08         0.42026E+05         0.00000E+00
    0.42026E+05        -0.57912E+08         0.00000E+00
    0.00000E+00         0.00000E+00        -0.61894E+08
 
   -0.55009E+08         0.97347E+05         0.00000E+00
    0.97347E+05        -0.57883E+08         0.00000E+00
    0.00000E+00         0.00000E+00        -0.61956E+08
 
   -0.55406E+08         0.16664E+06         0.00000E+00
    0.16664E+06        -0.57832E+08         0.00000E+00
    0.00000E+00         0.00000E+00        -0.62025E+08
 
   -0.55877E+08         0.25522E+06         0.00000E+00
    0.25522E+06        -0.57751E+08         0.00000E+00
    0.00000E+00         0.00000E+00        -0.62103E+08
 
   -0.56442E+08         0.37079E+06         0.00000E+00
    0.37079E+06        -0.57633E+08         0.00000E+00
    0.00000E+00         0.00000E+00        -0.62192E+08
 
   -0.57126E+08         0.52488E+06         0.00000E+00
    0.52488E+06        -0.57468E+08         0.00000E+00
    0.00000E+00         0.00000E+00        -0.62296E+08
 
   -0.57968E+08         0.73525E+06         0.00000E+00
    0.73525E+06        -0.57241E+08         0.00000E+00
    0.00000E+00         0.00000E+00        -0.62419E+08
 
   -0.59020E+08         0.10304E+07         0.00000E+00
    0.10304E+07        -0.56933E+08         0.00000E+00
    0.00000E+00         0.00000E+00        -0.62568E+08
 
   -0.60363E+08         0.14578E+07         0.00000E+00
    0.14578E+07        -0.56514E+08         0.00000E+00
    0.00000E+00         0.00000E+00        -0.62753E+08
 
   -0.62122E+08         0.21015E+07         0.00000E+00
    0.21015E+07        -0.55945E+08         0.00000E+00
    0.00000E+00         0.00000E+00        -0.62991E+08
 
   -0.47587E+08        -0.40567E+06         0.00000E+00
   -0.40567E+06        -0.50259E+08         0.00000E+00
    0.00000E+00         0.00000E+00        -0.54467E+08
 
   -0.47535E+08        -0.10913E+07         0.00000E+00
   -0.10913E+07        -0.50039E+08         0.00000E+00
    0.00000E+00         0.00000E+00        -0.54413E+08
 
   -0.47710E+08        -0.15789E+07         0.00000E+00
   -0.15789E+07        -0.49901E+08         0.00000E+00
    0.00000E+00         0.00000E+00        -0.54420E+08
 
   -0.48000E+08        -0.19249E+07         0.00000E+00
   -0.19249E+07        -0.49816E+08         0.00000E+00
    0.00000E+00         0.00000E+00        -0.54461E+08
 
   -0.48348E+08        -0.21607E+07         0.00000E+00
   -0.21607E+07        -0.49736E+08         0.00000E+00
    0.00000E+00         0.00000E+00        -0.54515E+08
 
   -0.48732E+08        -0.22968E+07         0.00000E+00
   -0.22968E+07        -0.49699E+08         0.00000E+00
    0.00000E+00         0.00000E+00        -0.54584E+08
 
   -0.49124E+08        -0.23490E+07         0.00000E+00
   -0.23490E+07        -0.49711E+08         0.00000E+00
    0.00000E+00         0.00000E+00        -0.54665E+08
 
   -0.49495E+08        -0.23399E+07         0.00000E+00
   -0.23399E+07        -0.49757E+08         0.00000E+00
    0.00000E+00         0.00000E+00        -0.54748E+08
 
   -0.49834E+08        -0.22910E+07         0.00000E+00
   -0.22910E+07        -0.49828E+08         0.00000E+00
    0.00000E+00         0.00000E+00        -0.54831E+08
 
   -0.50138E+08        -0.22168E+07         0.00000E+00
   -0.22168E+07        -0.49920E+08         0.00000E+00
    0.00000E+00         0.00000E+00        -0.54910E+08
 
   -0.50408E+08        -0.21276E+07         0.00000E+00
   -0.21276E+07        -0.50025E+08         0.00000E+00
    0.00000E+00         0.00000E+00        -0.54985E+08
 
   -0.50646E+08        -0.20302E+07         0.00000E+00
   -0.20302E+07        -0.50141E+08         0.00000E+00
    0.00000E+00         0.00000E+00        -0.55056E+08
 
   -0.50857E+08        -0.19292E+07         0.00000E+00
   -0.19292E+07        -0.50263E+08         0.00000E+00
    0.00000E+00         0.00000E+00        -0.55122E+08
 
   -0.51044E+08        -0.18279E+07         0.00000E+00
   -0.18279E+07        -0.50389E+08         0.00000E+00
    0.00000E+00         0.00000E+00        -0.55185E+08
 
   -0.51210E+08        -0.17281E+07         0.00000E+00
   -0.17281E+07        -0.50516E+08         0.00000E+00
    0.00000E+00         0.00000E+00        -0.55243E+08
 
   -0.51359E+08        -0.16312E+07         0.00000E+00
   -0.16312E+07        -0.50644E+08         0.00000E+00
    0.00000E+00         0.00000E+00        -0.55299E+08
 
   -0.51492E+08        -0.15380E+07         0.00000E+00
   -0.15380E+07        -0.50769E+08         0.00000E+00
    0.00000E+00         0.00000E+00        -0.55350E+08
 
   -0.51614E+08        -0.14488E+07         0.00000E+00
   -0.14488E+07        -0.50892E+08         0.00000E+00
    0.00000E+00         0.00000E+00        -0.55399E+08
 
   -0.51724E+08        -0.13638E+07         0.00000E+00
   -0.13638E+07        -0.51012E+08         0.00000E+00
    0.00000E+00         0.00000E+00        -0.55445E+08
 
   -0.51826E+08        -0.12830E+07         0.00000E+00
   -0.12830E+07        -0.51128E+08         0.00000E+00
    0.00000E+00         0.00000E+00        -0.55489E+08
 
   -0.51921E+08        -0.12063E+07         0.00000E+00
   -0.12063E+07        -0.51239E+08         0.00000E+00
    0.00000E+00         0.00000E+00        -0.55530E+08
 
   -0.52010E+08        -0.11335E+07         0.00000E+00
   -0.11335E+07        -0.51346E+08         0.00000E+00
    0.00000E+00         0.00000E+00        -0.55569E+08
 
   -0.52096E+08        -0.10642E+07         0.00000E+00
   -0.10642E+07        -0.51448E+08         0.00000E+00
    0.00000E+00         0.00000E+00        -0.55607E+08
 
   -0.52178E+08        -0.99822E+06         0.00000E+00
   -0.99822E+06        -0.51545E+08         0.00000E+00
    0.00000E+00         0.00000E+00        -0.55643E+08
 
   -0.52259E+08        -0.93516E+06         0.00000E+00
   -0.93516E+06        -0.51637E+08         0.00000E+00
    0.00000E+00         0.00000E+00        -0.55677E+08
 
   -0.52339E+08        -0.87467E+06         0.00000E+00
   -0.87467E+06        -0.51724E+08         0.00000E+00
    0.00000E+00         0.00000E+00        -0.55711E+08
 
   -0.52419E+08        -0.81634E+06         0.00000E+00
   -0.81634E+06        -0.51805E+08         0.00000E+00
    0.00000E+00         0.00000E+00        -0.55743E+08
 
   -0.52500E+08        -0.75972E+06         0.00000E+00
   -0.75972E+06        -0.51880E+08         0.00000E+00
    0.00000E+00         0.00000E+00        -0.55774E+08
 
   -0.52583E+08        -0.70435E+06         0.00000E+00
   -0.70435E+06        -0.51950E+08         0.00000E+00
    0.00000E+00         0.00000E+00        -0.55805E+08
 
   -0.52670E+08        -0.64968E+06         0.00000E+00
   -0.64968E+06        -0.52014E+08         0.00000E+00
    0.00000E+00         0.00000E+00        -0.55835E+08
 
   -0.52761E+08        -0.59512E+06         0.00000E+00
   -0.59512E+06        -0.52073E+08         0.00000E+00
    0.00000E+00         0.00000E+00        -0.55865E+08
 
   -0.52857E+08        -0.53998E+06         0.00000E+00
   -0.53998E+06        -0.52124E+08         0.00000E+00
    0.00000E+00         0.00000E+00        -0.55894E+08
 
   -0.52959E+08        -0.48347E+06         0.00000E+00
   -0.48347E+06        -0.52170E+08         0.00000E+00
    0.00000E+00         0.00000E+00        -0.55924E+08
 
   -0.53069E+08        -0.42464E+06         0.00000E+00
   -0.42464E+06        -0.52208E+08         0.00000E+00
    0.00000E+00         0.00000E+00        -0.55954E+08
 
   -0.53188E+08        -0.36237E+06         0.00000E+00
   -0.36237E+06        -0.52239E+08         0.00000E+00
    0.00000E+00         0.00000E+00        -0.55983E+08
 
   -0.53317E+08        -0.29525E+06         0.00000E+00
   -0.29525E+06        -0.52262E+08         0.00000E+00
    0.00000E+00         0.00000E+00        -0.56014E+08
 
   -0.53458E+08        -0.22160E+06         0.00000E+00
   -0.22160E+06        -0.52276E+08         0.00000E+00
    0.00000E+00         0.00000E+00        -0.56045E+08
 
   -0.53612E+08        -0.13927E+06         0.00000E+00
   -0.13927E+06        -0.52281E+08         0.00000E+00
    0.00000E+00         0.00000E+00        -0.56077E+08
 
   -0.53783E+08        -0.45590E+05         0.00000E+00
   -0.45590E+05        -0.52275E+08         0.00000E+00
    0.00000E+00         0.00000E+00        -0.56110E+08
 
   -0.53970E+08         0.62873E+05         0.00000E+00
    0.62873E+05        -0.52257E+08         0.00000E+00
    0.00000E+00         0.00000E+00        -0.56144E+08
 
   -0.54177E+08         0.19053E+06         0.00000E+00
    0.19053E+06        -0.52227E+08         0.00000E+00
    0.00000E+00         0.00000E+00        -0.56179E+08
 
   -0.54406E+08         0.34310E+06         0.00000E+00
    0.34310E+06        -0.52181E+08         0.00000E+00
    0.00000E+00         0.00000E+00        -0.56215E+08
 
   -0.54657E+08         0.52809E+06         0.00000E+00
    0.52809E+06        -0.52119E+08         0.00000E+00
    0.00000E+00         0.00000E+00        -0.56253E+08
 
   -0.54933E+08         0.75544E+06         0.00000E+00
    0.75544E+06        -0.52039E+08         0.00000E+00
    0.00000E+00         0.00000E+00        -0.56292E+08
 
   -0.55231E+08         0.10384E+07         0.00000E+00
    0.10384E+07        -0.51938E+08         0.00000E+00
    0.00000E+00         0.00000E+00        -0.56332E+08
 
   -0.55547E+08         0.13948E+07         0.00000E+00
    0.13948E+07        -0.51816E+08         0.00000E+00
    0.00000E+00         0.00000E+00        -0.56371E+08
 
   -0.55870E+08         0.18487E+07         0.00000E+00
    0.18487E+07        -0.51673E+08         0.00000E+00
    0.00000E+00         0.00000E+00        -0.56407E+08
 
   -0.56172E+08         0.24326E+07         0.00000E+00
    0.24326E+07        -0.51508E+08         0.00000E+00
    0.00000E+00         0.00000E+00        -0.56434E+08
 
   -0.56400E+08         0.31902E+07         0.00000E+00
    0.31902E+07        -0.51329E+08         0.00000E+00
    0.00000E+00         0.00000E+00        -0.56444E+08
 
   -0.56436E+08         0.41782E+07         0.00000E+00
    0.41782E+07        -0.51145E+08         0.00000E+00
    0.00000E+00         0.00000E+00        -0.56414E+08
 
   -0.50305E+08        -0.25935E+06         0.00000E+00
   -0.25935E+06        -0.50001E+08         0.00000E+00
    0.00000E+00         0.00000E+00        -0.52140E+08
 
   -0.49903E+08        -0.64191E+06         0.00000E+00
   -0.64191E+06        -0.49973E+08         0.00000E+00
    0.00000E+00         0.00000E+00        -0.52054E+08
 
   -0.49628E+08        -0.10051E+07         0.00000E+00
   -0.10051E+07        -0.49872E+08         0.00000E+00
    0.00000E+00         0.00000E+00        -0.51979E+08
 
   -0.49479E+08        -0.13204E+07         0.00000E+00
   -0.13204E+07        -0.49735E+08         0.00000E+00
    0.00000E+00         0.00000E+00        -0.51922E+08
 
   -0.49434E+08        -0.15802E+07         0.00000E+00
   -0.15802E+07        -0.49590E+08         0.00000E+00
    0.00000E+00         0.00000E+00        -0.51884E+08
 
   -0.49465E+08        -0.17868E+07         0.00000E+00
   -0.17868E+07        -0.49439E+08         0.00000E+00
    0.00000E+00         0.00000E+00        -0.51860E+08
 
   -0.49552E+08        -0.19423E+07         0.00000E+00
   -0.19423E+07        -0.49290E+08         0.00000E+00
    0.00000E+00         0.00000E+00        -0.51848E+08
 
   -0.49679E+08        -0.20498E+07         0.00000E+00
   -0.20498E+07        -0.49154E+08         0.00000E+00
    0.00000E+00         0.00000E+00        -0.51846E+08
 
   -0.49832E+08        -0.21150E+07         0.00000E+00
   -0.21150E+07        -0.49035E+08         0.00000E+00
    0.00000E+00         0.00000E+00        -0.51852E+08
 
   -0.49997E+08        -0.21448E+07         0.00000E+00
   -0.21448E+07        -0.48935E+08         0.00000E+00
    0.00000E+00         0.00000E+00        -0.51866E+08
 
   -0.50167E+08        -0.21459E+07         0.00000E+00
   -0.21459E+07        -0.48853E+08         0.00000E+00
    0.00000E+00         0.00000E+00        -0.51883E+08
 
   -0.50336E+08        -0.21246E+07         0.00000E+00
   -0.21246E+07        -0.48789E+08         0.00000E+00
    0.00000E+00         0.00000E+00        -0.51904E+08
 
   -0.50501E+08        -0.20860E+07         0.00000E+00
   -0.20860E+07        -0.48741E+08         0.00000E+00
    0.00000E+00         0.00000E+00        -0.51927E+08
 
   -0.50658E+08        -0.20344E+07         0.00000E+00
   -0.20344E+07        -0.48706E+08         0.00000E+00
    0.00000E+00         0.00000E+00        -0.51952E+08
 
   -0.50807E+08        -0.19732E+07         0.00000E+00
   -0.19732E+07        -0.48685E+08         0.00000E+00
    0.00000E+00         0.00000E+00        -0.51977E+08
 
   -0.50948E+08        -0.19053E+07         0.00000E+00
   -0.19053E+07        -0.48674E+08         0.00000E+00
    0.00000E+00         0.00000E+00        -0.52003E+08
 
   -0.51080E+08        -0.18328E+07         0.00000E+00
   -0.18328E+07        -0.48671E+08         0.00000E+00
    0.00000E+00         0.00000E+00        -0.52029E+08
 
   -0.51205E+08        -0.17573E+07         0.00000E+00
   -0.17573E+07        -0.48676E+08         0.00000E+00
    0.00000E+00         0.00000E+00        -0.52055E+08
 
   -0.51322E+08        -0.16801E+07         0.00000E+00
   -0.16801E+07        -0.48687E+08         0.00000E+00
    0.00000E+00         0.00000E+00        -0.52081E+08
 
   -0.51433E+08        -0.16020E+07         0.00000E+00
   -0.16020E+07        -0.48702E+08         0.00000E+00
    0.00000E+00         0.00000E+00        -0.52106E+08
 
   -0.51538E+08        -0.15238E+07         0.00000E+00
   -0.15238E+07        -0.48721E+08         0.00000E+00
    0.00000E+00         0.00000E+00        -0.52131E+08
 
   -0.51637E+08        -0.14459E+07         0.00000E+00
   -0.14459E+07        -0.48742E+08         0.00000E+00
    0.00000E+00         0.00000E+00        -0.52155E+08
 
   -0.51732E+08        -0.13686E+07         0.00000E+00
   -0.13686E+07        -0.48765E+08         0.00000E+00
    0.00000E+00         0.00000E+00        -0.52179E+08
 
   -0.51824E+08        -0.12918E+07         0.00000E+00
   -0.12918E+07        -0.48788E+08         0.00000E+00
    0.00000E+00         0.00000E+00        -0.52202E+08
 
   -0.51913E+08        -0.12157E+07         0.00000E+00
   -0.12157E+07        -0.48812E+08         0.00000E+00
    0.00000E+00         0.00000E+00        -0.52224E+08
 
   -0.51999E+08        -0.11401E+07         0.00000E+00
   -0.11401E+07        -0.48835E+08         0.00000E+00
    0.00000E+00         0.00000E+00        -0.52246E+08
 
   -0.52084E+08        -0.10647E+07         0.00000E+00
   -0.10647E+07        -0.48856E+08         0.00000E+00
    0.00000E+00         0.00000E+00        -0.52267E+08
 
   -0.52168E+08        -0.98924E+06         0.00000E+00
   -0.98924E+06        -0.48877E+08         0.00000E+00
    0.00000E+00         0.00000E+00        -0.52288E+08
 
   -0.52252E+08        -0.91324E+06         0.00000E+00
   -0.91324E+06        -0.48894E+08         0.00000E+00
    0.00000E+00         0.00000E+00        -0.52308E+08
 
   -0.52336E+08        -0.83617E+06         0.00000E+00
   -0.83617E+06        -0.48910E+08         0.00000E+00
    0.00000E+00         0.00000E+00        -0.52328E+08
 
   -0.52420E+08        -0.75737E+06         0.00000E+00
   -0.75737E+06        -0.48922E+08         0.00000E+00
    0.00000E+00         0.00000E+00        -0.52348E+08
 
   -0.52506E+08        -0.67605E+06         0.00000E+00
   -0.67605E+06        -0.48930E+08         0.00000E+00
    0.00000E+00         0.00000E+00        -0.52366E+08
 
   -0.52593E+08        -0.59128E+06         0.00000E+00
   -0.59128E+06        -0.48935E+08         0.00000E+00
    0.00000E+00         0.00000E+00        -0.52385E+08
 
   -0.52682E+08        -0.50195E+06         0.00000E+00
   -0.50195E+06        -0.48935E+08         0.00000E+00
    0.00000E+00         0.00000E+00        -0.52402E+08
 
   -0.52772E+08        -0.40674E+06         0.00000E+00
   -0.40674E+06        -0.48930E+08         0.00000E+00
    0.00000E+00         0.00000E+00        -0.52420E+08
 
   -0.52865E+08        -0.30407E+06         0.00000E+00
   -0.30407E+06        -0.48920E+08         0.00000E+00
    0.00000E+00         0.00000E+00        -0.52436E+08
 
   -0.52959E+08        -0.19210E+06         0.00000E+00
   -0.19210E+06        -0.48905E+08         0.00000E+00
    0.00000E+00         0.00000E+00        -0.52452E+08
 
   -0.53055E+08        -0.68595E+05         0.00000E+00
   -0.68595E+05        -0.48884E+08         0.00000E+00
    0.00000E+00         0.00000E+00        -0.52467E+08
 
   -0.53150E+08         0.69062E+05         0.00000E+00
    0.69062E+05        -0.48858E+08         0.00000E+00
    0.00000E+00         0.00000E+00        -0.52481E+08
 
   -0.53244E+08         0.22399E+06         0.00000E+00
    0.22399E+06        -0.48825E+08         0.00000E+00
    0.00000E+00         0.00000E+00        -0.52493E+08
 
   -0.53334E+08         0.39985E+06         0.00000E+00
    0.39985E+06        -0.48788E+08         0.00000E+00
    0.00000E+00         0.00000E+00        -0.52503E+08
 
   -0.53416E+08         0.60094E+06         0.00000E+00
    0.60094E+06        -0.48746E+08         0.00000E+00
    0.00000E+00         0.00000E+00        -0.52512E+08
 
   -0.53485E+08         0.83218E+06         0.00000E+00
    0.83218E+06        -0.48702E+08         0.00000E+00
    0.00000E+00         0.00000E+00        -0.52516E+08
 
   -0.53534E+08         0.10991E+07         0.00000E+00
    0.10991E+07        -0.48657E+08         0.00000E+00
    0.00000E+00         0.00000E+00        -0.52517E+08
 
   -0.53552E+08         0.14075E+07         0.00000E+00
    0.14075E+07        -0.48616E+08         0.00000E+00
    0.00000E+00         0.00000E+00        -0.52513E+08
 
   -0.53524E+08         0.17631E+07         0.00000E+00
    0.17631E+07        -0.48584E+08         0.00000E+00
    0.00000E+00         0.00000E+00        -0.52501E+08
 
   -0.53432E+08         0.21702E+07         0.00000E+00
    0.21702E+07        -0.48572E+08         0.00000E+00
    0.00000E+00         0.00000E+00        -0.52480E+08
 
   -0.53253E+08         0.26294E+07         0.00000E+00
    0.26294E+07        -0.48592E+08         0.00000E+00
    0.00000E+00         0.00000E+00        -0.52448E+08
 
   -0.52965E+08         0.31329E+07         0.00000E+00
    0.31329E+07        -0.48666E+08         0.00000E+00
    0.00000E+00         0.00000E+00        -0.52405E+08
 
   -0.52561E+08         0.36561E+07         0.00000E+00
    0.36561E+07        -0.48826E+08         0.00000E+00
    0.00000E+00         0.00000E+00        -0.52357E+08
 
   -0.51824E+08        -0.68446E+05         0.00000E+00
   -0.68446E+05        -0.50041E+08         0.00000E+00
    0.00000E+00         0.00000E+00        -0.51104E+08
 
   -0.51341E+08        -0.28341E+06         0.00000E+00
   -0.28341E+06        -0.49984E+08         0.00000E+00
    0.00000E+00         0.00000E+00        -0.50996E+08
 
   -0.50967E+08        -0.49394E+06         0.00000E+00
   -0.49394E+06        -0.49910E+08         0.00000E+00
    0.00000E+00         0.00000E+00        -0.50906E+08
 
   -0.50681E+08        -0.69893E+06         0.00000E+00
   -0.69893E+06        -0.49814E+08         0.00000E+00
    0.00000E+00         0.00000E+00        -0.50830E+08
 
   -0.50472E+08        -0.89189E+06         0.00000E+00
   -0.89189E+06        -0.49698E+08         0.00000E+00
    0.00000E+00         0.00000E+00        -0.50765E+08
 
   -0.50330E+08        -0.10666E+07         0.00000E+00
   -0.10666E+07        -0.49569E+08         0.00000E+00
    0.00000E+00         0.00000E+00        -0.50711E+08
 
   -0.50244E+08        -0.12202E+07         0.00000E+00
   -0.12202E+07        -0.49433E+08         0.00000E+00
    0.00000E+00         0.00000E+00        -0.50666E+08
 
   -0.50205E+08        -0.13509E+07         0.00000E+00
   -0.13509E+07        -0.49294E+08         0.00000E+00
    0.00000E+00         0.00000E+00        -0.50631E+08
 
   -0.50204E+08        -0.14582E+07         0.00000E+00
   -0.14582E+07        -0.49155E+08         0.00000E+00
    0.00000E+00         0.00000E+00        -0.50603E+08
 
   -0.50234E+08        -0.15424E+07         0.00000E+00
   -0.15424E+07        -0.49019E+08         0.00000E+00
    0.00000E+00         0.00000E+00        -0.50581E+08
 
   -0.50287E+08        -0.16044E+07         0.00000E+00
   -0.16044E+07        -0.48889E+08         0.00000E+00
    0.00000E+00         0.00000E+00        -0.50566E+08
 
   -0.50356E+08        -0.16462E+07         0.00000E+00
   -0.16462E+07        -0.48767E+08         0.00000E+00
    0.00000E+00         0.00000E+00        -0.50556E+08
 
   -0.50438E+08        -0.16699E+07         0.00000E+00
   -0.16699E+07        -0.48654E+08         0.00000E+00
    0.00000E+00         0.00000E+00        -0.50549E+08
 
   -0.50528E+08        -0.16775E+07         0.00000E+00
   -0.16775E+07        -0.48551E+08         0.00000E+00
    0.00000E+00         0.00000E+00        -0.50547E+08
 
   -0.50623E+08        -0.16713E+07         0.00000E+00
   -0.16713E+07        -0.48456E+08         0.00000E+00
    0.00000E+00         0.00000E+00        -0.50547E+08
 
   -0.50721E+08        -0.16533E+07         0.00000E+00
   -0.16533E+07        -0.48371E+08         0.00000E+00
    0.00000E+00         0.00000E+00        -0.50549E+08
 
   -0.50819E+08        -0.16251E+07         0.00000E+00
   -0.16251E+07        -0.48295E+08         0.00000E+00
    0.00000E+00         0.00000E+00        -0.50554E+08
 
   -0.50917E+08        -0.15886E+07         0.00000E+00
   -0.15886E+07        -0.48226E+08         0.00000E+00
    0.00000E+00         0.00000E+00        -0.50560E+08
 
   -0.51014E+08        -0.15449E+07         0.00000E+00
   -0.15449E+07        -0.48166E+08         0.00000E+00
    0.00000E+00         0.00000E+00        -0.50567E+08
 
   -0.51109E+08        -0.14953E+07         0.00000E+00
   -0.14953E+07        -0.48111E+08         0.00000E+00
    0.00000E+00         0.00000E+00        -0.50575E+08
 
   -0.51202E+08        -0.14407E+07         0.00000E+00
   -0.14407E+07        -0.48063E+08         0.00000E+00
    0.00000E+00         0.00000E+00        -0.50584E+08
 
   -0.51292E+08        -0.13819E+07         0.00000E+00
   -0.13819E+07        -0.48020E+08         0.00000E+00
    0.00000E+00         0.00000E+00        -0.50593E+08
 
   -0.51380E+08        -0.13194E+07         0.00000E+00
   -0.13194E+07        -0.47981E+08         0.00000E+00
    0.00000E+00         0.00000E+00        -0.50603E+08
 
   -0.51465E+08        -0.12537E+07         0.00000E+00
   -0.12537E+07        -0.47946E+08         0.00000E+00
    0.00000E+00         0.00000E+00        -0.50613E+08
 
   -0.51547E+08        -0.11850E+07         0.00000E+00
   -0.11850E+07        -0.47913E+08         0.00000E+00
    0.00000E+00         0.00000E+00        -0.50623E+08
 
   -0.51627E+08        -0.11135E+07         0.00000E+00
   -0.11135E+07        -0.47884E+08         0.00000E+00
    0.00000E+00         0.00000E+00        -0.50633E+08
 
   -0.51705E+08        -0.10393E+07         0.00000E+00
   -0.10393E+07        -0.47856E+08         0.00000E+00
    0.00000E+00         0.00000E+00        -0.50643E+08
 
   -0.51780E+08        -0.96216E+06         0.00000E+00
   -0.96216E+06        -0.47829E+08         0.00000E+00
    0.00000E+00         0.00000E+00        -0.50653E+08
 
   -0.51853E+08        -0.88198E+06         0.00000E+00
   -0.88198E+06        -0.47804E+08         0.00000E+00
    0.00000E+00         0.00000E+00        -0.50662E+08
 
   -0.51924E+08        -0.79841E+06         0.00000E+00
   -0.79841E+06        -0.47778E+08         0.00000E+00
    0.00000E+00         0.00000E+00        -0.50671E+08
 
   -0.51993E+08        -0.71101E+06         0.00000E+00
   -0.71101E+06        -0.47753E+08         0.00000E+00
    0.00000E+00         0.00000E+00        -0.50680E+08
 
   -0.52059E+08        -0.61924E+06         0.00000E+00
   -0.61924E+06        -0.47727E+08         0.00000E+00
    0.00000E+00         0.00000E+00        -0.50688E+08
 
   -0.52122E+08        -0.52245E+06         0.00000E+00
   -0.52245E+06        -0.47701E+08         0.00000E+00
    0.00000E+00         0.00000E+00        -0.50695E+08
 
   -0.52181E+08        -0.41986E+06         0.00000E+00
   -0.41986E+06        -0.47674E+08         0.00000E+00
    0.00000E+00         0.00000E+00        -0.50702E+08
 
   -0.52236E+08        -0.31058E+06         0.00000E+00
   -0.31058E+06        -0.47646E+08         0.00000E+00
    0.00000E+00         0.00000E+00        -0.50707E+08
 
   -0.52287E+08        -0.19361E+06         0.00000E+00
   -0.19361E+06        -0.47618E+08         0.00000E+00
    0.00000E+00         0.00000E+00        -0.50712E+08
 
   -0.52330E+08        -0.67829E+05         0.00000E+00
   -0.67829E+05        -0.47589E+08         0.00000E+00
    0.00000E+00         0.00000E+00        -0.50715E+08
 
   -0.52366E+08         0.67971E+05         0.00000E+00
    0.67971E+05        -0.47561E+08         0.00000E+00
    0.00000E+00         0.00000E+00        -0.50716E+08
 
   -0.52391E+08         0.21507E+06         0.00000E+00
    0.21507E+06        -0.47533E+08         0.00000E+00
    0.00000E+00         0.00000E+00        -0.50716E+08
 
   -0.52403E+08         0.37475E+06         0.00000E+00
    0.37475E+06        -0.47507E+08         0.00000E+00
    0.00000E+00         0.00000E+00        -0.50713E+08
 
   -0.52399E+08         0.54824E+06         0.00000E+00
    0.54824E+06        -0.47484E+08         0.00000E+00
    0.00000E+00         0.00000E+00        -0.50707E+08
 
   -0.52374E+08         0.73661E+06         0.00000E+00
    0.73661E+06        -0.47467E+08         0.00000E+00
    0.00000E+00         0.00000E+00        -0.50699E+08
 
   -0.52323E+08         0.94051E+06         0.00000E+00
    0.94051E+06        -0.47458E+08         0.00000E+00
    0.00000E+00         0.00000E+00        -0.50687E+08
 
   -0.52240E+08         0.11600E+07         0.00000E+00
    0.11600E+07        -0.47461E+08         0.00000E+00
    0.00000E+00         0.00000E+00        -0.50671E+08
 
   -0.52117E+08         0.13942E+07         0.00000E+00
    0.13942E+07        -0.47478E+08         0.00000E+00
    0.00000E+00         0.00000E+00        -0.50650E+08
 
   -0.51949E+08         0.16409E+07         0.00000E+00
    0.16409E+07        -0.47517E+08         0.00000E+00
    0.00000E+00         0.00000E+00        -0.50624E+08
 
   -0.51727E+08         0.18958E+07         0.00000E+00
    0.18958E+07        -0.47581E+08         0.00000E+00
    0.00000E+00         0.00000E+00        -0.50592E+08
 
   -0.51444E+08         0.21533E+07         0.00000E+00
    0.21533E+07        -0.47678E+08         0.00000E+00
    0.00000E+00         0.00000E+00        -0.50555E+08
 
   -0.51095E+08         0.24064E+07         0.00000E+00
    0.24064E+07        -0.47811E+08         0.00000E+00
    0.00000E+00         0.00000E+00        -0.50512E+08
 
   -0.50667E+08         0.26517E+07         0.00000E+00
    0.26517E+07        -0.47980E+08         0.00000E+00
    0.00000E+00         0.00000E+00        -0.50460E+08
 
   -0.52433E+08        -0.48339E+04         0.00000E+00
   -0.48339E+04        -0.50011E+08         0.00000E+00
    0.00000E+00         0.00000E+00        -0.50708E+08
 
   -0.52055E+08        -0.82545E+05         0.00000E+00
   -0.82545E+05        -0.49999E+08         0.00000E+00
    0.00000E+00         0.00000E+00        -0.50630E+08
 
   -0.51724E+08        -0.18246E+06         0.00000E+00
   -0.18246E+06        -0.49964E+08         0.00000E+00
    0.00000E+00         0.00000E+00        -0.50557E+08
 
   -0.51442E+08        -0.29376E+06         0.00000E+00
   -0.29376E+06        -0.49912E+08         0.00000E+00
    0.00000E+00         0.00000E+00        -0.50490E+08
 
   -0.51207E+08        -0.41006E+06         0.00000E+00
   -0.41006E+06        -0.49845E+08         0.00000E+00
    0.00000E+00         0.00000E+00        -0.50430E+08
 
   -0.51016E+08        -0.52658E+06         0.00000E+00
   -0.52658E+06        -0.49764E+08         0.00000E+00
    0.00000E+00         0.00000E+00        -0.50375E+08
 
   -0.50866E+08        -0.63916E+06         0.00000E+00
   -0.63916E+06        -0.49673E+08         0.00000E+00
    0.00000E+00         0.00000E+00        -0.50327E+08
 
   -0.50752E+08        -0.74461E+06         0.00000E+00
   -0.74461E+06        -0.49574E+08         0.00000E+00
    0.00000E+00         0.00000E+00        -0.50285E+08
 
   -0.50671E+08        -0.84073E+06         0.00000E+00
   -0.84073E+06        -0.49469E+08         0.00000E+00
    0.00000E+00         0.00000E+00        -0.50247E+08
 
   -0.50618E+08        -0.92600E+06         0.00000E+00
   -0.92600E+06        -0.49359E+08         0.00000E+00
    0.00000E+00         0.00000E+00        -0.50215E+08
 
   -0.50589E+08        -0.99945E+06         0.00000E+00
   -0.99945E+06        -0.49248E+08         0.00000E+00
    0.00000E+00         0.00000E+00        -0.50187E+08
 
   -0.50581E+08        -0.10606E+07         0.00000E+00
   -0.10606E+07        -0.49137E+08         0.00000E+00
    0.00000E+00         0.00000E+00        -0.50163E+08
 
   -0.50590E+08        -0.11095E+07         0.00000E+00
   -0.11095E+07        -0.49027E+08         0.00000E+00
    0.00000E+00         0.00000E+00        -0.50143E+08
 
   -0.50613E+08        -0.11463E+07         0.00000E+00
   -0.11463E+07        -0.48919E+08         0.00000E+00
    0.00000E+00         0.00000E+00        -0.50126E+08
 
   -0.50648E+08        -0.11716E+07         0.00000E+00
   -0.11716E+07        -0.48814E+08         0.00000E+00
    0.00000E+00         0.00000E+00        -0.50112E+08
 
   -0.50691E+08        -0.11860E+07         0.00000E+00
   -0.11860E+07        -0.48714E+08         0.00000E+00
    0.00000E+00         0.00000E+00        -0.50100E+08
 
   -0.50742E+08        -0.11903E+07         0.00000E+00
   -0.11903E+07        -0.48617E+08         0.00000E+00
    0.00000E+00         0.00000E+00        -0.50091E+08
 
   -0.50798E+08        -0.11852E+07         0.00000E+00
   -0.11852E+07        -0.48526E+08         0.00000E+00
    0.00000E+00         0.00000E+00        -0.50084E+08
 
   -0.50857E+08        -0.11715E+07         0.00000E+00
   -0.11715E+07        -0.48439E+08         0.00000E+00
    0.00000E+00         0.00000E+00        -0.50078E+08
 
   -0.50919E+08        -0.11500E+07         0.00000E+00
   -0.11500E+07        -0.48357E+08         0.00000E+00
    0.00000E+00         0.00000E+00        -0.50074E+08
 
   -0.50982E+08        -0.11213E+07         0.00000E+00
   -0.11213E+07        -0.48279E+08         0.00000E+00
    0.00000E+00         0.00000E+00        -0.50072E+08
 
   -0.51046E+08        -0.10859E+07         0.00000E+00
   -0.10859E+07        -0.48206E+08         0.00000E+00
    0.00000E+00         0.00000E+00        -0.50070E+08
 
   -0.51110E+08        -0.10446E+07         0.00000E+00
   -0.10446E+07        -0.48137E+08         0.00000E+00
    0.00000E+00         0.00000E+00        -0.50069E+08
 
   -0.51173E+08        -0.99754E+06         0.00000E+00
   -0.99754E+06        -0.48072E+08         0.00000E+00
    0.00000E+00         0.00000E+00        -0.50068E+08
 
   -0.51235E+08        -0.94521E+06         0.00000E+00
   -0.94521E+06        -0.48010E+08         0.00000E+00
    0.00000E+00         0.00000E+00        -0.50068E+08
 
   -0.51295E+08        -0.88786E+06         0.00000E+00
   -0.88786E+06        -0.47952E+08         0.00000E+00
    0.00000E+00         0.00000E+00        -0.50069E+08
 
   -0.51354E+08        -0.82565E+06         0.00000E+00
   -0.82565E+06        -0.47897E+08         0.00000E+00
    0.00000E+00         0.00000E+00        -0.50069E+08
 
   -0.51409E+08        -0.75868E+06         0.00000E+00
   -0.75868E+06        -0.47845E+08         0.00000E+00
    0.00000E+00         0.00000E+00        -0.50070E+08
 
   -0.51462E+08        -0.68699E+06         0.00000E+00
   -0.68699E+06        -0.47795E+08         0.00000E+00
    0.00000E+00         0.00000E+00        -0.50071E+08
 
   -0.51512E+08        -0.61054E+06         0.00000E+00
   -0.61054E+06        -0.47748E+08         0.00000E+00
    0.00000E+00         0.00000E+00        -0.50071E+08
 
   -0.51557E+08        -0.52921E+06         0.00000E+00
   -0.52921E+06        -0.47703E+08         0.00000E+00
    0.00000E+00         0.00000E+00        -0.50071E+08
 
   -0.51598E+08        -0.44285E+06         0.00000E+00
   -0.44285E+06        -0.47660E+08         0.00000E+00
    0.00000E+00         0.00000E+00        -0.50071E+08
 
   -0.51634E+08        -0.35126E+06         0.00000E+00
   -0.35126E+06        -0.47620E+08         0.00000E+00
    0.00000E+00         0.00000E+00        -0.50070E+08
 
   -0.51664E+08        -0.25420E+06         0.00000E+00
   -0.25420E+06        -0.47582E+08         0.00000E+00
    0.00000E+00         0.00000E+00        -0.50068E+08
 
   -0.51686E+08        -0.15145E+06         0.00000E+00
   -0.15145E+06        -0.47546E+08         0.00000E+00
    0.00000E+00         0.00000E+00        -0.50066E+08
 
   -0.51701E+08        -0.42754E+05         0.00000E+00
   -0.42754E+05        -0.47514E+08         0.00000E+00
    0.00000E+00         0.00000E+00        -0.50062E+08
 
   -0.51706E+08         0.72071E+05         0.00000E+00
    0.72071E+05        -0.47485E+08         0.00000E+00
    0.00000E+00         0.00000E+00        -0.50057E+08
 
   -0.51699E+08         0.19314E+06         0.00000E+00
    0.19314E+06        -0.47461E+08         0.00000E+00
    0.00000E+00         0.00000E+00        -0.50051E+08
 
   -0.51680E+08         0.32045E+06         0.00000E+00
    0.32045E+06        -0.47442E+08         0.00000E+00
    0.00000E+00         0.00000E+00        -0.50044E+08
 
   -0.51645E+08         0.45379E+06         0.00000E+00
    0.45379E+06        -0.47429E+08         0.00000E+00
    0.00000E+00         0.00000E+00        -0.50034E+08
 
   -0.51593E+08         0.59271E+06         0.00000E+00
    0.59271E+06        -0.47423E+08         0.00000E+00
    0.00000E+00         0.00000E+00        -0.50023E+08
 
   -0.51522E+08         0.73640E+06         0.00000E+00
    0.73640E+06        -0.47426E+08         0.00000E+00
    0.00000E+00         0.00000E+00        -0.50009E+08
 
   -0.51428E+08         0.88364E+06         0.00000E+00
    0.88364E+06        -0.47440E+08         0.00000E+00
    0.00000E+00         0.00000E+00        -0.49993E+08
 
   -0.51308E+08         0.10327E+07         0.00000E+00
    0.10327E+07        -0.47466E+08         0.00000E+00
    0.00000E+00         0.00000E+00        -0.49974E+08
 
   -0.51162E+08         0.11811E+07         0.00000E+00
    0.11811E+07        -0.47507E+08         0.00000E+00
    0.00000E+00         0.00000E+00        -0.49953E+08
 
   -0.50985E+08         0.13260E+07         0.00000E+00
    0.13260E+07        -0.47564E+08         0.00000E+00
    0.00000E+00         0.00000E+00        -0.49929E+08
 
   -0.50777E+08         0.14638E+07         0.00000E+00
    0.14638E+07        -0.47638E+08         0.00000E+00
    0.00000E+00         0.00000E+00        -0.49902E+08
 
   -0.50536E+08         0.15903E+07         0.00000E+00
    0.15903E+07        -0.47731E+08         0.00000E+00
    0.00000E+00         0.00000E+00        -0.49873E+08
 
   -0.50259E+08         0.17006E+07         0.00000E+00
    0.17006E+07        -0.47845E+08         0.00000E+00
    0.00000E+00         0.00000E+00        -0.49840E+08
 
   -0.49950E+08         0.17871E+07         0.00000E+00
    0.17871E+07        -0.47981E+08         0.00000E+00
    0.00000E+00         0.00000E+00        -0.49805E+08
 
   -0.52594E+08         0.15548E+05         0.00000E+00
    0.15548E+05        -0.50006E+08         0.00000E+00
    0.00000E+00         0.00000E+00        -0.50578E+08
 
   -0.52321E+08        -0.25505E+04         0.00000E+00
   -0.25505E+04        -0.50000E+08         0.00000E+00
    0.00000E+00         0.00000E+00        -0.50522E+08
 
   -0.52069E+08        -0.36329E+05         0.00000E+00
   -0.36329E+05        -0.49986E+08         0.00000E+00
    0.00000E+00         0.00000E+00        -0.50469E+08
 
   -0.51839E+08        -0.83299E+05         0.00000E+00
   -0.83299E+05        -0.49963E+08         0.00000E+00
    0.00000E+00         0.00000E+00        -0.50418E+08
 
   -0.51634E+08        -0.13991E+06         0.00000E+00
   -0.13991E+06        -0.49929E+08         0.00000E+00
    0.00000E+00         0.00000E+00        -0.50371E+08
 
   -0.51453E+08        -0.20279E+06         0.00000E+00
   -0.20279E+06        -0.49885E+08         0.00000E+00
    0.00000E+00         0.00000E+00        -0.50326E+08
 
   -0.51297E+08        -0.26907E+06         0.00000E+00
   -0.26907E+06        -0.49833E+08         0.00000E+00
    0.00000E+00         0.00000E+00        -0.50284E+08
 
   -0.51164E+08        -0.33622E+06         0.00000E+00
   -0.33622E+06        -0.49773E+08         0.00000E+00
    0.00000E+00         0.00000E+00        -0.50245E+08
 
   -0.51054E+08        -0.40207E+06         0.00000E+00
   -0.40207E+06        -0.49705E+08         0.00000E+00
    0.00000E+00         0.00000E+00        -0.50210E+08
 
   -0.50965E+08        -0.46483E+06         0.00000E+00
   -0.46483E+06        -0.49632E+08         0.00000E+00
    0.00000E+00         0.00000E+00        -0.50177E+08
 
   -0.50894E+08        -0.52308E+06         0.00000E+00
   -0.52308E+06        -0.49554E+08         0.00000E+00
    0.00000E+00         0.00000E+00        -0.50148E+08
 
   -0.50842E+08        -0.57574E+06         0.00000E+00
   -0.57574E+06        -0.49472E+08         0.00000E+00
    0.00000E+00         0.00000E+00        -0.50121E+08
 
   -0.50805E+08        -0.62198E+06         0.00000E+00
   -0.62198E+06        -0.49388E+08         0.00000E+00
    0.00000E+00         0.00000E+00        -0.50096E+08
 
   -0.50781E+08        -0.66126E+06         0.00000E+00
   -0.66126E+06        -0.49302E+08         0.00000E+00
    0.00000E+00         0.00000E+00        -0.50075E+08
 
   -0.50770E+08        -0.69322E+06         0.00000E+00
   -0.69322E+06        -0.49215E+08         0.00000E+00
    0.00000E+00         0.00000E+00        -0.50055E+08
 
   -0.50769E+08        -0.71770E+06         0.00000E+00
   -0.71770E+06        -0.49128E+08         0.00000E+00
    0.00000E+00         0.00000E+00        -0.50037E+08
 
   -0.50776E+08        -0.73466E+06         0.00000E+00
   -0.73466E+06        -0.49042E+08         0.00000E+00
    0.00000E+00         0.00000E+00        -0.50022E+08
 
   -0.50791E+08        -0.74421E+06         0.00000E+00
   -0.74421E+06        -0.48957E+08         0.00000E+00
    0.00000E+00         0.00000E+00        -0.50008E+08
 
   -0.50812E+08        -0.74650E+06         0.00000E+00
   -0.74650E+06        -0.48874E+08         0.00000E+00
    0.00000E+00         0.00000E+00        -0.49995E+08
 
   -0.50838E+08        -0.74175E+06         0.00000E+00
   -0.74175E+06        -0.48793E+08         0.00000E+00
    0.00000E+00         0.00000E+00        -0.49984E+08
 
   -0.50867E+08        -0.73022E+06         0.00000E+00
   -0.73022E+06        -0.48715E+08         0.00000E+00
    0.00000E+00         0.00000E+00        -0.49974E+08
 
   -0.50899E+08        -0.71218E+06         0.00000E+00
   -0.71218E+06        -0.48639E+08         0.00000E+00
    0.00000E+00         0.00000E+00        -0.49966E+08
 
   -0.50933E+08        -0.68791E+06         0.00000E+00
   -0.68791E+06        -0.48565E+08         0.00000E+00
    0.00000E+00         0.00000E+00        -0.49958E+08
 
   -0.50967E+08        -0.65766E+06         0.00000E+00
   -0.65766E+06        -0.48495E+08         0.00000E+00
    0.00000E+00         0.00000E+00        -0.49950E+08
 
   -0.51002E+08        -0.62169E+06         0.00000E+00
   -0.62169E+06        -0.48427E+08         0.00000E+00
    0.00000E+00         0.00000E+00        -0.49944E+08
 
   -0.51036E+08        -0.58021E+06         0.00000E+00
   -0.58021E+06        -0.48363E+08         0.00000E+00
    0.00000E+00         0.00000E+00        -0.49938E+08
 
   -0.51069E+08        -0.53345E+06         0.00000E+00
   -0.53345E+06        -0.48301E+08         0.00000E+00
    0.00000E+00         0.00000E+00        -0.49932E+08
 
   -0.51100E+08        -0.48157E+06         0.00000E+00
   -0.48157E+06        -0.48242E+08         0.00000E+00
    0.00000E+00         0.00000E+00        -0.49927E+08
 
   -0.51129E+08        -0.42476E+06         0.00000E+00
   -0.42476E+06        -0.48187E+08         0.00000E+00
    0.00000E+00         0.00000E+00        -0.49921E+08
 
   -0.51154E+08        -0.36314E+06         0.00000E+00
   -0.36314E+06        -0.48135E+08         0.00000E+00
    0.00000E+00         0.00000E+00        -0.49916E+08
 
   -0.51176E+08        -0.29687E+06         0.00000E+00
   -0.29687E+06        -0.48086E+08         0.00000E+00
    0.00000E+00         0.00000E+00        -0.49910E+08
 
   -0.51193E+08        -0.22608E+06         0.00000E+00
   -0.22608E+06        -0.48041E+08         0.00000E+00
    0.00000E+00         0.00000E+00        -0.49905E+08
 
   -0.51205E+08        -0.15092E+06         0.00000E+00
   -0.15092E+06        -0.47999E+08         0.00000E+00
    0.00000E+00         0.00000E+00        -0.49899E+08
 
   -0.51210E+08        -0.71571E+05         0.00000E+00
   -0.71571E+05        -0.47962E+08         0.00000E+00
    0.00000E+00         0.00000E+00        -0.49892E+08
 
   -0.51209E+08         0.11755E+05         0.00000E+00
    0.11755E+05        -0.47929E+08         0.00000E+00
    0.00000E+00         0.00000E+00        -0.49886E+08
 
   -0.51200E+08         0.98781E+05         0.00000E+00
    0.98781E+05        -0.47900E+08         0.00000E+00
    0.00000E+00         0.00000E+00        -0.49878E+08
 
   -0.51182E+08         0.18915E+06         0.00000E+00
    0.18915E+06        -0.47877E+08         0.00000E+00
    0.00000E+00         0.00000E+00        -0.49870E+08
 
   -0.51154E+08         0.28239E+06         0.00000E+00
    0.28239E+06        -0.47859E+08         0.00000E+00
    0.00000E+00         0.00000E+00        -0.49861E+08
 
   -0.51115E+08         0.37792E+06         0.00000E+00
    0.37792E+06        -0.47847E+08         0.00000E+00
    0.00000E+00         0.00000E+00        -0.49850E+08
 
   -0.51064E+08         0.47496E+06         0.00000E+00
    0.47496E+06        -0.47842E+08         0.00000E+00
    0.00000E+00         0.00000E+00        -0.49839E+08
 
   -0.51001E+08         0.57258E+06         0.00000E+00
    0.57258E+06        -0.47845E+08         0.00000E+00
    0.00000E+00         0.00000E+00        -0.49827E+08
 
   -0.50923E+08         0.66961E+06         0.00000E+00
    0.66961E+06        -0.47856E+08         0.00000E+00
    0.00000E+00         0.00000E+00        -0.49814E+08
 
   -0.50831E+08         0.76467E+06         0.00000E+00
    0.76467E+06        -0.47876E+08         0.00000E+00
    0.00000E+00         0.00000E+00        -0.49799E+08
 
   -0.50724E+08         0.85612E+06         0.00000E+00
    0.85612E+06        -0.47905E+08         0.00000E+00
    0.00000E+00         0.00000E+00        -0.49784E+08
 
   -0.50600E+08         0.94211E+06         0.00000E+00
    0.94211E+06        -0.47944E+08         0.00000E+00
    0.00000E+00         0.00000E+00        -0.49767E+08
 
   -0.50461E+08         0.10205E+07         0.00000E+00
    0.10205E+07        -0.47993E+08         0.00000E+00
    0.00000E+00         0.00000E+00        -0.49749E+08
 
   -0.50306E+08         0.10890E+07         0.00000E+00
    0.10890E+07        -0.48052E+08         0.00000E+00
    0.00000E+00         0.00000E+00        -0.49730E+08
 
   -0.50136E+08         0.11448E+07         0.00000E+00
    0.11448E+07        -0.48122E+08         0.00000E+00
    0.00000E+00         0.00000E+00        -0.49710E+08
 
   -0.49952E+08         0.11852E+07         0.00000E+00
    0.11852E+07        -0.48201E+08         0.00000E+00
    0.00000E+00         0.00000E+00        -0.49689E+08
 
   -0.49757E+08         0.12080E+07         0.00000E+00
    0.12080E+07        -0.48289E+08         0.00000E+00
    0.00000E+00         0.00000E+00        -0.49667E+08
 
   -0.52564E+08         0.20117E+05         0.00000E+00
    0.20117E+05        -0.50002E+08         0.00000E+00
    0.00000E+00         0.00000E+00        -0.50527E+08
 
   -0.52365E+08         0.30782E+05         0.00000E+00
    0.30782E+05        -0.50000E+08         0.00000E+00
    0.00000E+00         0.00000E+00        -0.50487E+08
 
   -0.52175E+08         0.29990E+05         0.00000E+00
    0.29990E+05        -0.49994E+08         0.00000E+00
    0.00000E+00         0.00000E+00        -0.50448E+08
 
   -0.51996E+08         0.19485E+05         0.00000E+00
    0.19485E+05        -0.49983E+08         0.00000E+00
    0.00000E+00         0.00000E+00        -0.50410E+08
 
   -0.51830E+08         0.76755E+03         0.00000E+00
    0.76755E+03        -0.49966E+08         0.00000E+00
    0.00000E+00         0.00000E+00        -0.50373E+08
 
   -0.51676E+08        -0.24584E+05         0.00000E+00
   -0.24584E+05        -0.49943E+08         0.00000E+00
    0.00000E+00         0.00000E+00        -0.50338E+08
 
   -0.51537E+08        -0.54944E+05         0.00000E+00
   -0.54944E+05        -0.49914E+08         0.00000E+00
    0.00000E+00         0.00000E+00        -0.50304E+08
 
   -0.51411E+08        -0.88755E+05         0.00000E+00
   -0.88755E+05        -0.49879E+08         0.00000E+00
    0.00000E+00         0.00000E+00        -0.50272E+08
 
   -0.51300E+08        -0.12457E+06         0.00000E+00
   -0.12457E+06        -0.49838E+08         0.00000E+00
    0.00000E+00         0.00000E+00        -0.50242E+08
 
   -0.51202E+08        -0.16106E+06         0.00000E+00
   -0.16106E+06        -0.49792E+08         0.00000E+00
    0.00000E+00         0.00000E+00        -0.50213E+08
 
   -0.51118E+08        -0.19704E+06         0.00000E+00
   -0.19704E+06        -0.49742E+08         0.00000E+00
    0.00000E+00         0.00000E+00        -0.50186E+08
 
   -0.51046E+08        -0.23148E+06         0.00000E+00
   -0.23148E+06        -0.49687E+08         0.00000E+00
    0.00000E+00         0.00000E+00        -0.50161E+08
 
   -0.50986E+08        -0.26351E+06         0.00000E+00
   -0.26351E+06        -0.49629E+08         0.00000E+00
    0.00000E+00         0.00000E+00        -0.50137E+08
 
   -0.50937E+08        -0.29238E+06         0.00000E+00
   -0.29238E+06        -0.49569E+08         0.00000E+00
    0.00000E+00         0.00000E+00        -0.50115E+08
 
   -0.50897E+08        -0.31751E+06         0.00000E+00
   -0.31751E+06        -0.49505E+08         0.00000E+00
    0.00000E+00         0.00000E+00        -0.50094E+08
 
   -0.50867E+08        -0.33844E+06         0.00000E+00
   -0.33844E+06        -0.49440E+08         0.00000E+00
    0.00000E+00         0.00000E+00        -0.50075E+08
 
   -0.50845E+08        -0.35480E+06         0.00000E+00
   -0.35480E+06        -0.49374E+08         0.00000E+00
    0.00000E+00         0.00000E+00        -0.50058E+08
 
   -0.50829E+08        -0.36635E+06         0.00000E+00
   -0.36635E+06        -0.49308E+08         0.00000E+00
    0.00000E+00         0.00000E+00        -0.50041E+08
 
   -0.50820E+08        -0.37291E+06         0.00000E+00
   -0.37291E+06        -0.49241E+08         0.00000E+00
    0.00000E+00         0.00000E+00        -0.50026E+08
 
   -0.50815E+08        -0.37441E+06         0.00000E+00
   -0.37441E+06        -0.49175E+08         0.00000E+00
    0.00000E+00         0.00000E+00        -0.50012E+08
 
   -0.50815E+08        -0.37080E+06         0.00000E+00
   -0.37080E+06        -0.49109E+08         0.00000E+00
    0.00000E+00         0.00000E+00        -0.49999E+08
 
   -0.50819E+08        -0.36211E+06         0.00000E+00
   -0.36211E+06        -0.49044E+08         0.00000E+00
    0.00000E+00         0.00000E+00        -0.49987E+08
 
   -0.50825E+08        -0.34840E+06         0.00000E+00
   -0.34840E+06        -0.48981E+08         0.00000E+00
    0.00000E+00         0.00000E+00        -0.49975E+08
 
   -0.50833E+08        -0.32976E+06         0.00000E+00
   -0.32976E+06        -0.48919E+08         0.00000E+00
    0.00000E+00         0.00000E+00        -0.49964E+08
 
   -0.50842E+08        -0.30631E+06         0.00000E+00
   -0.30631E+06        -0.48860E+08         0.00000E+00
    0.00000E+00         0.00000E+00        -0.49954E+08
 
   -0.50851E+08        -0.27820E+06         0.00000E+00
   -0.27820E+06        -0.48802E+08         0.00000E+00
    0.00000E+00         0.00000E+00        -0.49945E+08
 
   -0.50860E+08        -0.24558E+06         0.00000E+00
   -0.24558E+06        -0.48747E+08         0.00000E+00
    0.00000E+00         0.00000E+00        -0.49935E+08
 
   -0.50868E+08        -0.20863E+06         0.00000E+00
   -0.20863E+06        -0.48695E+08         0.00000E+00
    0.00000E+00         0.00000E+00        -0.49926E+08
 
   -0.50874E+08        -0.16754E+06         0.00000E+00
   -0.16754E+06        -0.48645E+08         0.00000E+00
    0.00000E+00         0.00000E+00        -0.49918E+08
 
   -0.50878E+08        -0.12253E+06         0.00000E+00
   -0.12253E+06        -0.48599E+08         0.00000E+00
    0.00000E+00         0.00000E+00        -0.49909E+08
 
   -0.50879E+08        -0.73847E+05         0.00000E+00
   -0.73847E+05        -0.48556E+08         0.00000E+00
    0.00000E+00         0.00000E+00        -0.49901E+08
 
   -0.50877E+08        -0.21742E+05         0.00000E+00
   -0.21742E+05        -0.48516E+08         0.00000E+00
    0.00000E+00         0.00000E+00        -0.49893E+08
 
   -0.50871E+08         0.33481E+05         0.00000E+00
    0.33481E+05        -0.48481E+08         0.00000E+00
    0.00000E+00         0.00000E+00        -0.49884E+08
 
   -0.50860E+08         0.91485E+05         0.00000E+00
    0.91485E+05        -0.48449E+08         0.00000E+00
    0.00000E+00         0.00000E+00        -0.49876E+08
 
   -0.50844E+08         0.15188E+06         0.00000E+00
    0.15188E+06        -0.48421E+08         0.00000E+00
    0.00000E+00         0.00000E+00        -0.49867E+08
 
   -0.50822E+08         0.21422E+06         0.00000E+00
    0.21422E+06        -0.48399E+08         0.00000E+00
    0.00000E+00         0.00000E+00        -0.49858E+08
 
   -0.50794E+08         0.27800E+06         0.00000E+00
    0.27800E+06        -0.48381E+08         0.00000E+00
    0.00000E+00         0.00000E+00        -0.49849E+08
 
   -0.50759E+08         0.34263E+06         0.00000E+00
    0.34263E+06        -0.48368E+08         0.00000E+00
    0.00000E+00         0.00000E+00        -0.49839E+08
 
   -0.50716E+08         0.40745E+06         0.00000E+00
    0.40745E+06        -0.48361E+08         0.00000E+00
    0.00000E+00         0.00000E+00        -0.49829E+08
 
   -0.50666E+08         0.47169E+06         0.00000E+00
    0.47169E+06        -0.48359E+08         0.00000E+00
    0.00000E+00         0.00000E+00        -0.49819E+08
 
   -0.50608E+08         0.53451E+06         0.00000E+00
    0.53451E+06        -0.48363E+08         0.00000E+00
    0.00000E+00         0.00000E+00        -0.49808E+08
 
   -0.50541E+08         0.59497E+06         0.00000E+00
    0.59497E+06        -0.48374E+08         0.00000E+00
    0.00000E+00         0.00000E+00        -0.49797E+08
 
   -0.50467E+08         0.65204E+06         0.00000E+00
    0.65204E+06        -0.48390E+08         0.00000E+00
    0.00000E+00         0.00000E+00        -0.49785E+08
 
   -0.50384E+08         0.70460E+06         0.00000E+00
    0.70460E+06        -0.48413E+08         0.00000E+00
    0.00000E+00         0.00000E+00        -0.49773E+08
 
   -0.50293E+08         0.75145E+06         0.00000E+00
    0.75145E+06        -0.48442E+08         0.00000E+00
    0.00000E+00         0.00000E+00        -0.49761E+08
 
   -0.50195E+08         0.79135E+06         0.00000E+00
    0.79135E+06        -0.48477E+08         0.00000E+00
    0.00000E+00         0.00000E+00        -0.49748E+08
 
   -0.50091E+08         0.82301E+06         0.00000E+00
    0.82301E+06        -0.48518E+08         0.00000E+00
    0.00000E+00         0.00000E+00        -0.49736E+08
 
   -0.49981E+08         0.84520E+06         0.00000E+00
    0.84520E+06        -0.48563E+08         0.00000E+00
    0.00000E+00         0.00000E+00        -0.49723E+08
 
   -0.49866E+08         0.85675E+06         0.00000E+00
    0.85675E+06        -0.48613E+08         0.00000E+00
    0.00000E+00         0.00000E+00        -0.49710E+08
 
   -0.49749E+08         0.85640E+06         0.00000E+00
    0.85640E+06        -0.48666E+08         0.00000E+00
    0.00000E+00         0.00000E+00        -0.49697E+08
 
   -0.52448E+08         0.21818E+05         0.00000E+00
    0.21818E+05        -0.50001E+08         0.00000E+00
    0.00000E+00         0.00000E+00        -0.50493E+08
 
   -0.52297E+08         0.46187E+05         0.00000E+00
    0.46187E+05        -0.50000E+08         0.00000E+00
    0.00000E+00         0.00000E+00        -0.50463E+08
 
   -0.52152E+08         0.62963E+05         0.00000E+00
    0.62963E+05        -0.49997E+08         0.00000E+00
    0.00000E+00         0.00000E+00        -0.50433E+08
 
   -0.52012E+08         0.72705E+05         0.00000E+00
    0.72705E+05        -0.49991E+08         0.00000E+00
    0.00000E+00         0.00000E+00        -0.50404E+08
 
   -0.51878E+08         0.76180E+05         0.00000E+00
    0.76180E+05        -0.49982E+08         0.00000E+00
    0.00000E+00         0.00000E+00        -0.50375E+08
 
   -0.51752E+08         0.74208E+05         0.00000E+00
    0.74208E+05        -0.49969E+08         0.00000E+00
    0.00000E+00         0.00000E+00        -0.50347E+08
 
   -0.51634E+08         0.67639E+05         0.00000E+00
    0.67639E+05        -0.49952E+08         0.00000E+00
    0.00000E+00         0.00000E+00        -0.50320E+08
 
   -0.51524E+08         0.57343E+05         0.00000E+00
    0.57343E+05        -0.49932E+08         0.00000E+00
    0.00000E+00         0.00000E+00        -0.50294E+08
 
   -0.51422E+08         0.44192E+05         0.00000E+00
    0.44192E+05        -0.49908E+08         0.00000E+00
    0.00000E+00         0.00000E+00        -0.50269E+08
 
   -0.51329E+08         0.29030E+05         0.00000E+00
    0.29030E+05        -0.49880E+08         0.00000E+00
    0.00000E+00         0.00000E+00        -0.50245E+08
 
   -0.51245E+08         0.12659E+05         0.00000E+00
    0.12659E+05        -0.49849E+08         0.00000E+00
    0.00000E+00         0.00000E+00        -0.50222E+08
 
   -0.51168E+08        -0.41690E+04         0.00000E+00
   -0.41690E+04        -0.49814E+08         0.00000E+00
    0.00000E+00         0.00000E+00        -0.50200E+08
 
   -0.51100E+08        -0.20767E+05         0.00000E+00
   -0.20767E+05        -0.49776E+08         0.00000E+00
    0.00000E+00         0.00000E+00        -0.50178E+08
 
   -0.51040E+08        -0.36516E+05         0.00000E+00
   -0.36516E+05        -0.49736E+08         0.00000E+00
    0.00000E+00         0.00000E+00        -0.50158E+08
 
   -0.50987E+08        -0.50868E+05         0.00000E+00
   -0.50868E+05        -0.49693E+08         0.00000E+00
    0.00000E+00         0.00000E+00        -0.50139E+08
 
   -0.50941E+08        -0.63351E+05         0.00000E+00
   -0.63351E+05        -0.49648E+08         0.00000E+00
    0.00000E+00         0.00000E+00        -0.50121E+08
 
   -0.50901E+08        -0.73559E+05         0.00000E+00
   -0.73559E+05        -0.49602E+08         0.00000E+00
    0.00000E+00         0.00000E+00        -0.50104E+08
 
   -0.50867E+08        -0.81159E+05         0.00000E+00
   -0.81159E+05        -0.49554E+08         0.00000E+00
    0.00000E+00         0.00000E+00        -0.50087E+08
 
   -0.50838E+08        -0.85880E+05         0.00000E+00
   -0.85880E+05        -0.49506E+08         0.00000E+00
    0.00000E+00         0.00000E+00        -0.50072E+08
 
   -0.50813E+08        -0.87514E+05         0.00000E+00
   -0.87514E+05        -0.49457E+08         0.00000E+00
    0.00000E+00         0.00000E+00        -0.50057E+08
 
   -0.50792E+08        -0.85906E+05         0.00000E+00
   -0.85906E+05        -0.49408E+08         0.00000E+00
    0.00000E+00         0.00000E+00        -0.50043E+08
 
   -0.50775E+08        -0.80954E+05         0.00000E+00
   -0.80954E+05        -0.49359E+08         0.00000E+00
    0.00000E+00         0.00000E+00        -0.50030E+08
 
   -0.50760E+08        -0.72604E+05         0.00000E+00
   -0.72604E+05        -0.49311E+08         0.00000E+00
    0.00000E+00         0.00000E+00        -0.50017E+08
 
   -0.50747E+08        -0.60843E+05         0.00000E+00
   -0.60843E+05        -0.49263E+08         0.00000E+00
    0.00000E+00         0.00000E+00        -0.50005E+08
 
   -0.50736E+08        -0.45698E+05         0.00000E+00
   -0.45698E+05        -0.49217E+08         0.00000E+00
    0.00000E+00         0.00000E+00        -0.49994E+08
 
   -0.50725E+08        -0.27232E+05         0.00000E+00
   -0.27232E+05        -0.49172E+08         0.00000E+00
    0.00000E+00         0.00000E+00        -0.49983E+08
 
   -0.50715E+08        -0.55441E+04         0.00000E+00
   -0.55441E+04        -0.49129E+08         0.00000E+00
    0.00000E+00         0.00000E+00        -0.49972E+08
 
   -0.50705E+08         0.19236E+05         0.00000E+00
    0.19236E+05        -0.49088E+08         0.00000E+00
    0.00000E+00         0.00000E+00        -0.49962E+08
 
   -0.50695E+08         0.46947E+05         0.00000E+00
    0.46947E+05        -0.49049E+08         0.00000E+00
    0.00000E+00         0.00000E+00        -0.49952E+08
 
   -0.50683E+08         0.77393E+05         0.00000E+00
    0.77393E+05        -0.49013E+08         0.00000E+00
    0.00000E+00         0.00000E+00        -0.49942E+08
 
   -0.50669E+08         0.11035E+06         0.00000E+00
    0.11035E+06        -0.48979E+08         0.00000E+00
    0.00000E+00         0.00000E+00        -0.49933E+08
 
   -0.50654E+08         0.14555E+06         0.00000E+00
    0.14555E+06        -0.48949E+08         0.00000E+00
    0.00000E+00         0.00000E+00        -0.49924E+08
 
   -0.50636E+08         0.18271E+06         0.00000E+00
    0.18271E+06        -0.48921E+08         0.00000E+00
    0.00000E+00         0.00000E+00        -0.49914E+08
 
   -0.50615E+08         0.22150E+06         0.00000E+00
    0.22150E+06        -0.48897E+08         0.00000E+00
    0.00000E+00         0.00000E+00        -0.49905E+08
 
   -0.50591E+08         0.26154E+06         0.00000E+00
    0.26154E+06        -0.48876E+08         0.00000E+00
    0.00000E+00         0.00000E+00        -0.49896E+08
 
   -0.50564E+08         0.30242E+06         0.00000E+00
    0.30242E+06        -0.48859E+08         0.00000E+00
    0.00000E+00         0.00000E+00        -0.49888E+08
 
   -0.50532E+08         0.34371E+06         0.00000E+00
    0.34371E+06        -0.48845E+08         0.00000E+00
    0.00000E+00         0.00000E+00        -0.49879E+08
 
   -0.50497E+08         0.38490E+06         0.00000E+00
    0.38490E+06        -0.48836E+08         0.00000E+00
    0.00000E+00         0.00000E+00        -0.49870E+08
 
   -0.50458E+08         0.42547E+06         0.00000E+00
    0.42547E+06        -0.48831E+08         0.00000E+00
    0.00000E+00         0.00000E+00        -0.49861E+08
 
   -0.50414E+08         0.46485E+06         0.00000E+00
    0.46485E+06        -0.48830E+08         0.00000E+00
    0.00000E+00         0.00000E+00        -0.49852E+08
 
   -0.50366E+08         0.50243E+06         0.00000E+00
    0.50243E+06        -0.48833E+08         0.00000E+00
    0.00000E+00         0.00000E+00        -0.49843E+08
 
   -0.50314E+08         0.53758E+06         0.00000E+00
    0.53758E+06        -0.48841E+08         0.00000E+00
    0.00000E+00         0.00000E+00        -0.49834E+08
 
   -0.50258E+08         0.56963E+06         0.00000E+00
    0.56963E+06        -0.48852E+08         0.00000E+00
    0.00000E+00         0.00000E+00        -0.49825E+08
 
   -0.50198E+08         0.59793E+06         0.00000E+00
    0.59793E+06        -0.48868E+08         0.00000E+00
    0.00000E+00         0.00000E+00        -0.49816E+08
 
   -0.50135E+08         0.62178E+06         0.00000E+00
    0.62178E+06        -0.48886E+08         0.00000E+00
    0.00000E+00         0.00000E+00        -0.49807E+08
 
   -0.50070E+08         0.64053E+06         0.00000E+00
    0.64053E+06        -0.48909E+08         0.00000E+00
    0.00000E+00         0.00000E+00        -0.49799E+08
 
   -0.50002E+08         0.65355E+06         0.00000E+00
    0.65355E+06        -0.48934E+08         0.00000E+00
    0.00000E+00         0.00000E+00        -0.49790E+08
 
   -0.49934E+08         0.66025E+06         0.00000E+00
    0.66025E+06        -0.48961E+08         0.00000E+00
    0.00000E+00         0.00000E+00        -0.49782E+08
 
   -0.49865E+08         0.66008E+06         0.00000E+00
    0.66008E+06        -0.48991E+08         0.00000E+00
    0.00000E+00         0.00000E+00        -0.49774E+08
 
   -0.49797E+08         0.65263E+06         0.00000E+00
    0.65263E+06        -0.49021E+08         0.00000E+00
    0.00000E+00         0.00000E+00        -0.49767E+08
 
   -0.52288E+08         0.22751E+05         0.00000E+00
    0.22751E+05        -0.50000E+08         0.00000E+00
    0.00000E+00         0.00000E+00        -0.50458E+08
 
   -0.52172E+08         0.54592E+05         0.00000E+00
    0.54592E+05        -0.50000E+08         0.00000E+00
    0.00000E+00         0.00000E+00        -0.50435E+08
 
   -0.52057E+08         0.80903E+05         0.00000E+00
    0.80903E+05        -0.49998E+08         0.00000E+00
    0.00000E+00         0.00000E+00        -0.50412E+08
 
   -0.51946E+08         0.10205E+06         0.00000E+00
    0.10205E+06        -0.49995E+08         0.00000E+00
    0.00000E+00         0.00000E+00        -0.50389E+08
 
   -0.51838E+08         0.11842E+06         0.00000E+00
    0.11842E+06        -0.49990E+08         0.00000E+00
    0.00000E+00         0.00000E+00        -0.50366E+08
 
   -0.51735E+08         0.13045E+06         0.00000E+00
    0.13045E+06        -0.49983E+08         0.00000E+00
    0.00000E+00         0.00000E+00        -0.50344E+08
 
   -0.51636E+08         0.13864E+06         0.00000E+00
    0.13864E+06        -0.49973E+08         0.00000E+00
    0.00000E+00         0.00000E+00        -0.50322E+08
 
   -0.51542E+08         0.14347E+06         0.00000E+00
    0.14347E+06        -0.49961E+08         0.00000E+00
    0.00000E+00         0.00000E+00        -0.50301E+08
 
   -0.51453E+08         0.14549E+06         0.00000E+00
    0.14549E+06        -0.49947E+08         0.00000E+00
    0.00000E+00         0.00000E+00        -0.50281E+08
 
   -0.51369E+08         0.14519E+06         0.00000E+00
    0.14519E+06        -0.49931E+08         0.00000E+00
    0.00000E+00         0.00000E+00        -0.50261E+08
 
   -0.51291E+08         0.14311E+06         0.00000E+00
    0.14311E+06        -0.49912E+08         0.00000E+00
    0.00000E+00         0.00000E+00        -0.50241E+08
 
   -0.51218E+08         0.13973E+06         0.00000E+00
    0.13973E+06        -0.49890E+08         0.00000E+00
    0.00000E+00         0.00000E+00        -0.50222E+08
 
   -0.51150E+08         0.13554E+06         0.00000E+00
    0.13554E+06        -0.49867E+08         0.00000E+00
    0.00000E+00         0.00000E+00        -0.50204E+08
 
   -0.51087E+08         0.13098E+06         0.00000E+00
    0.13098E+06        -0.49841E+08         0.00000E+00
    0.00000E+00         0.00000E+00        -0.50186E+08
 
   -0.51030E+08         0.12647E+06         0.00000E+00
    0.12647E+06        -0.49814E+08         0.00000E+00
    0.00000E+00         0.00000E+00        -0.50169E+08
 
   -0.50977E+08         0.12239E+06         0.00000E+00
    0.12239E+06        -0.49785E+08         0.00000E+00
    0.00000E+00         0.00000E+00        -0.50153E+08
 
   -0.50929E+08         0.11908E+06         0.00000E+00
    0.11908E+06        -0.49754E+08         0.00000E+00
    0.00000E+00         0.00000E+00        -0.50137E+08
 
   -0.50885E+08         0.11683E+06         0.00000E+00
    0.11683E+06        -0.49723E+08         0.00000E+00
    0.00000E+00         0.00000E+00        -0.50122E+08
 
   -0.50845E+08         0.11591E+06         0.00000E+00
    0.11591E+06        -0.49690E+08         0.00000E+00
    0.00000E+00         0.00000E+00        -0.50108E+08
 
   -0.50809E+08         0.11652E+06         0.00000E+00
    0.11652E+06        -0.49657E+08         0.00000E+00
    0.00000E+00         0.00000E+00        -0.50094E+08
 
   -0.50775E+08         0.11884E+06         0.00000E+00
    0.11884E+06        -0.49623E+08         0.00000E+00
    0.00000E+00         0.00000E+00        -0.50080E+08
 
   -0.50745E+08         0.12300E+06         0.00000E+00
    0.12300E+06        -0.49590E+08         0.00000E+00
    0.00000E+00         0.00000E+00        -0.50068E+08
 
   -0.50717E+08         0.12911E+06         0.00000E+00
    0.12911E+06        -0.49556E+08         0.00000E+00
    0.00000E+00         0.00000E+00        -0.50055E+08
 
   -0.50691E+08         0.13722E+06         0.00000E+00
    0.13722E+06        -0.49523E+08         0.00000E+00
    0.00000E+00         0.00000E+00        -0.50043E+08
 
   -0.50666E+08         0.14734E+06         0.00000E+00
    0.14734E+06        -0.49490E+08         0.00000E+00
    0.00000E+00         0.00000E+00        -0.50032E+08
 
   -0.50643E+08         0.15948E+06         0.00000E+00
    0.15948E+06        -0.49459E+08         0.00000E+00
    0.00000E+00         0.00000E+00        -0.50021E+08
 
   -0.50620E+08         0.17359E+06         0.00000E+00
    0.17359E+06        -0.49428E+08         0.00000E+00
    0.00000E+00         0.00000E+00        -0.50010E+08
 
   -0.50598E+08         0.18958E+06         0.00000E+00
    0.18958E+06        -0.49399E+08         0.00000E+00
    0.00000E+00         0.00000E+00        -0.50000E+08
 
   -0.50576E+08         0.20735E+06         0.00000E+00
    0.20735E+06        -0.49371E+08         0.00000E+00
    0.00000E+00         0.00000E+00        -0.49990E+08
 
   -0.50554E+08         0.22676E+06         0.00000E+00
    0.22676E+06        -0.49345E+08         0.00000E+00
    0.00000E+00         0.00000E+00        -0.49980E+08
 
   -0.50531E+08         0.24765E+06         0.00000E+00
    0.24765E+06        -0.49321E+08         0.00000E+00
    0.00000E+00         0.00000E+00        -0.49971E+08
 
   -0.50508E+08         0.26981E+06         0.00000E+00
    0.26981E+06        -0.49299E+08         0.00000E+00
    0.00000E+00         0.00000E+00        -0.49962E+08
 
   -0.50483E+08         0.29303E+06         0.00000E+00
    0.29303E+06        -0.49280E+08         0.00000E+00
    0.00000E+00         0.00000E+00        -0.49953E+08
 
   -0.50457E+08         0.31705E+06         0.00000E+00
    0.31705E+06        -0.49262E+08         0.00000E+00
    0.00000E+00         0.00000E+00        -0.49945E+08
 
   -0.50430E+08         0.34160E+06         0.00000E+00
    0.34160E+06        -0.49248E+08         0.00000E+00
    0.00000E+00         0.00000E+00        -0.49936E+08
 
   -0.50401E+08         0.36638E+06         0.00000E+00
    0.36638E+06        -0.49236E+08         0.00000E+00
    0.00000E+00         0.00000E+00        -0.49928E+08
 
   -0.50370E+08         0.39106E+06         0.00000E+00
    0.39106E+06        -0.49227E+08         0.00000E+00
    0.00000E+00         0.00000E+00        -0.49920E+08
 
   -0.50337E+08         0.41530E+06         0.00000E+00
    0.41530E+06        -0.49220E+08         0.00000E+00
    0.00000E+00         0.00000E+00        -0.49912E+08
 
   -0.50302E+08         0.43875E+06         0.00000E+00
    0.43875E+06        -0.49216E+08         0.00000E+00
    0.00000E+00         0.00000E+00        -0.49904E+08
 
   -0.50266E+08         0.46103E+06         0.00000E+00
    0.46103E+06        -0.49216E+08         0.00000E+00
    0.00000E+00         0.00000E+00        -0.49897E+08
 
   -0.50228E+08         0.48175E+06         0.00000E+00
    0.48175E+06        -0.49217E+08         0.00000E+00
    0.00000E+00         0.00000E+00        -0.49890E+08
 
   -0.50188E+08         0.50052E+06         0.00000E+00
    0.50052E+06        -0.49222E+08         0.00000E+00
    0.00000E+00         0.00000E+00        -0.49883E+08
 
   -0.50147E+08         0.51697E+06         0.00000E+00
    0.51697E+06        -0.49229E+08         0.00000E+00
    0.00000E+00         0.00000E+00        -0.49876E+08
 
   -0.50105E+08         0.53071E+06         0.00000E+00
    0.53071E+06        -0.49238E+08         0.00000E+00
    0.00000E+00         0.00000E+00        -0.49869E+08
 
   -0.50062E+08         0.54139E+06         0.00000E+00
    0.54139E+06        -0.49250E+08         0.00000E+00
    0.00000E+00         0.00000E+00        -0.49863E+08
 
   -0.50018E+08         0.54866E+06         0.00000E+00
    0.54866E+06        -0.49263E+08         0.00000E+00
    0.00000E+00         0.00000E+00        -0.49857E+08
 
   -0.49975E+08         0.55221E+06         0.00000E+00
    0.55221E+06        -0.49278E+08         0.00000E+00
    0.00000E+00         0.00000E+00        -0.49851E+08
 
   -0.49933E+08         0.55178E+06         0.00000E+00
    0.55178E+06        -0.49294E+08         0.00000E+00
    0.00000E+00         0.00000E+00        -0.49846E+08
 
   -0.49892E+08         0.54716E+06         0.00000E+00
    0.54716E+06        -0.49311E+08         0.00000E+00
    0.00000E+00         0.00000E+00        -0.49841E+08
 
   -0.49854E+08         0.53817E+06         0.00000E+00
    0.53817E+06        -0.49328E+08         0.00000E+00
    0.00000E+00         0.00000E+00        -0.49837E+08
 
   -0.52106E+08         0.23115E+05         0.00000E+00
    0.23115E+05        -0.50000E+08         0.00000E+00
    0.00000E+00         0.00000E+00        -0.50421E+08
 
   -0.52014E+08         0.58846E+05         0.00000E+00
    0.58846E+05        -0.50000E+08         0.00000E+00
    0.00000E+00         0.00000E+00        -0.50403E+08
 
   -0.51923E+08         0.90331E+05         0.00000E+00
    0.90331E+05        -0.49999E+08         0.00000E+00
    0.00000E+00         0.00000E+00        -0.50385E+08
 
   -0.51834E+08         0.11778E+06         0.00000E+00
    0.11778E+06        -0.49998E+08         0.00000E+00
    0.00000E+00         0.00000E+00        -0.50366E+08
 
   -0.51747E+08         0.14146E+06         0.00000E+00
    0.14146E+06        -0.49995E+08         0.00000E+00
    0.00000E+00         0.00000E+00        -0.50348E+08
 
   -0.51662E+08         0.16164E+06         0.00000E+00
    0.16164E+06        -0.49991E+08         0.00000E+00
    0.00000E+00         0.00000E+00        -0.50331E+08
 
   -0.51579E+08         0.17860E+06         0.00000E+00
    0.17860E+06        -0.49986E+08         0.00000E+00
    0.00000E+00         0.00000E+00        -0.50313E+08
 
   -0.51500E+08         0.19267E+06         0.00000E+00
    0.19267E+06        -0.49980E+08         0.00000E+00
    0.00000E+00         0.00000E+00        -0.50296E+08
 
   -0.51423E+08         0.20417E+06         0.00000E+00
    0.20417E+06        -0.49972E+08         0.00000E+00
    0.00000E+00         0.00000E+00        -0.50279E+08
 
   -0.51350E+08         0.21343E+06         0.00000E+00
    0.21343E+06        -0.49963E+08         0.00000E+00
    0.00000E+00         0.00000E+00        -0.50263E+08
 
   -0.51280E+08         0.22077E+06         0.00000E+00
    0.22077E+06        -0.49952E+08         0.00000E+00
    0.00000E+00         0.00000E+00        -0.50246E+08
 
   -0.51213E+08         0.22652E+06         0.00000E+00
    0.22652E+06        -0.49940E+08         0.00000E+00
    0.00000E+00         0.00000E+00        -0.50231E+08
 
   -0.51149E+08         0.23102E+06         0.00000E+00
    0.23102E+06        -0.49926E+08         0.00000E+00
    0.00000E+00         0.00000E+00        -0.50215E+08
 
   -0.51089E+08         0.23455E+06         0.00000E+00
    0.23455E+06        -0.49911E+08         0.00000E+00
    0.00000E+00         0.00000E+00        -0.50200E+08
 
   -0.51033E+08         0.23742E+06         0.00000E+00
    0.23742E+06        -0.49895E+08         0.00000E+00
    0.00000E+00         0.00000E+00        -0.50186E+08
 
   -0.50979E+08         0.23989E+06         0.00000E+00
    0.23989E+06        -0.49877E+08         0.00000E+00
    0.00000E+00         0.00000E+00        -0.50171E+08
 
   -0.50929E+08         0.24223E+06         0.00000E+00
    0.24223E+06        -0.49859E+08         0.00000E+00
    0.00000E+00         0.00000E+00        -0.50158E+08
 
   -0.50882E+08         0.24466E+06         0.00000E+00
    0.24466E+06        -0.49839E+08         0.00000E+00
    0.00000E+00         0.00000E+00        -0.50144E+08
 
   -0.50838E+08         0.24738E+06         0.00000E+00
    0.24738E+06        -0.49819E+08         0.00000E+00
    0.00000E+00         0.00000E+00        -0.50131E+08
 
   -0.50796E+08         0.25058E+06         0.00000E+00
    0.25058E+06        -0.49798E+08         0.00000E+00
    0.00000E+00         0.00000E+00        -0.50119E+08
 
   -0.50757E+08         0.25441E+06         0.00000E+00
    0.25441E+06        -0.49777E+08         0.00000E+00
    0.00000E+00         0.00000E+00        -0.50107E+08
 
   -0.50719E+08         0.25898E+06         0.00000E+00
    0.25898E+06        -0.49756E+08         0.00000E+00
    0.00000E+00         0.00000E+00        -0.50095E+08
 
   -0.50684E+08         0.26441E+06         0.00000E+00
    0.26441E+06        -0.49734E+08         0.00000E+00
    0.00000E+00         0.00000E+00        -0.50084E+08
 
   -0.50651E+08         0.27075E+06         0.00000E+00
    0.27075E+06        -0.49713E+08         0.00000E+00
    0.00000E+00         0.00000E+00        -0.50073E+08
 
   -0.50619E+08         0.27805E+06         0.00000E+00
    0.27805E+06        -0.49692E+08         0.00000E+00
    0.00000E+00         0.00000E+00        -0.50062E+08
 
   -0.50588E+08         0.28633E+06         0.00000E+00
    0.28633E+06        -0.49671E+08         0.00000E+00
    0.00000E+00         0.00000E+00        -0.50052E+08
 
   -0.50559E+08         0.29559E+06         0.00000E+00
    0.29559E+06        -0.49651E+08         0.00000E+00
    0.00000E+00         0.00000E+00        -0.50042E+08
 
   -0.50530E+08         0.30577E+06         0.00000E+00
    0.30577E+06        -0.49632E+08         0.00000E+00
    0.00000E+00         0.00000E+00        -0.50033E+08
 
   -0.50502E+08         0.31684E+06         0.00000E+00
    0.31684E+06        -0.49614E+08         0.00000E+00
    0.00000E+00         0.00000E+00        -0.50023E+08
 
   -0.50474E+08         0.32870E+06         0.00000E+00
    0.32870E+06        -0.49598E+08         0.00000E+00
    0.00000E+00         0.00000E+00        -0.50014E+08
 
   -0.50446E+08         0.34126E+06         0.00000E+00
    0.34126E+06        -0.49582E+08         0.00000E+00
    0.00000E+00         0.00000E+00        -0.50006E+08
 
   -0.50419E+08         0.35438E+06         0.00000E+00
    0.35438E+06        -0.49568E+08         0.00000E+00
    0.00000E+00         0.00000E+00        -0.49997E+08
 
   -0.50391E+08         0.36794E+06         0.00000E+00
    0.36794E+06        -0.49555E+08         0.00000E+00
    0.00000E+00         0.00000E+00        -0.49989E+08
 
   -0.50363E+08         0.38175E+06         0.00000E+00
    0.38175E+06        -0.49544E+08         0.00000E+00
    0.00000E+00         0.00000E+00        -0.49982E+08
 
   -0.50335E+08         0.39566E+06         0.00000E+00
    0.39566E+06        -0.49535E+08         0.00000E+00
    0.00000E+00         0.00000E+00        -0.49974E+08
 
   -0.50306E+08         0.40946E+06         0.00000E+00
    0.40946E+06        -0.49527E+08         0.00000E+00
    0.00000E+00         0.00000E+00        -0.49967E+08
 
   -0.50277E+08         0.42296E+06         0.00000E+00
    0.42296E+06        -0.49521E+08         0.00000E+00
    0.00000E+00         0.00000E+00        -0.49960E+08
 
   -0.50247E+08         0.43594E+06         0.00000E+00
    0.43594E+06        -0.49517E+08         0.00000E+00
    0.00000E+00         0.00000E+00        -0.49953E+08
 
   -0.50217E+08         0.44819E+06         0.00000E+00
    0.44819E+06        -0.49515E+08         0.00000E+00
    0.00000E+00         0.00000E+00        -0.49947E+08
 
   -0.50187E+08         0.45947E+06         0.00000E+00
    0.45947E+06        -0.49514E+08         0.00000E+00
    0.00000E+00         0.00000E+00        -0.49940E+08
 
   -0.50156E+08         0.46958E+06         0.00000E+00
    0.46958E+06        -0.49515E+08         0.00000E+00
    0.00000E+00         0.00000E+00        -0.49934E+08
 
   -0.50125E+08         0.47828E+06         0.00000E+00
    0.47828E+06        -0.49518E+08         0.00000E+00
    0.00000E+00         0.00000E+00        -0.49929E+08
 
   -0.50095E+08         0.48538E+06         0.00000E+00
    0.48538E+06        -0.49522E+08         0.00000E+00
    0.00000E+00         0.00000E+00        -0.49924E+08
 
   -0.50064E+08         0.49067E+06         0.00000E+00
    0.49067E+06        -0.49528E+08         0.00000E+00
    0.00000E+00         0.00000E+00        -0.49919E+08
 
   -0.50035E+08         0.49397E+06         0.00000E+00
    0.49397E+06        -0.49535E+08         0.00000E+00
    0.00000E+00         0.00000E+00        -0.49914E+08
 
   -0.50006E+08         0.49512E+06         0.00000E+00
    0.49512E+06        -0.49542E+08         0.00000E+00
    0.00000E+00         0.00000E+00        -0.49910E+08
 
   -0.49978E+08         0.49398E+06         0.00000E+00
    0.49398E+06        -0.49551E+08         0.00000E+00
    0.00000E+00         0.00000E+00        -0.49906E+08
 
   -0.49952E+08         0.49044E+06         0.00000E+00
    0.49044E+06        -0.49560E+08         0.00000E+00
    0.00000E+00         0.00000E+00        -0.49902E+08
 
   -0.49928E+08         0.48444E+06         0.00000E+00
    0.48444E+06        -0.49569E+08         0.00000E+00
    0.00000E+00         0.00000E+00        -0.49900E+08
 
   -0.49906E+08         0.47594E+06         0.00000E+00
    0.47594E+06        -0.49578E+08         0.00000E+00
    0.00000E+00         0.00000E+00        -0.49897E+08
 
   -0.51913E+08         0.22803E+05         0.00000E+00
    0.22803E+05        -0.50000E+08         0.00000E+00
    0.00000E+00         0.00000E+00        -0.50383E+08
 
   -0.51840E+08         0.60011E+05         0.00000E+00
    0.60011E+05        -0.50000E+08         0.00000E+00
    0.00000E+00         0.00000E+00        -0.50368E+08
 
   -0.51768E+08         0.93807E+05         0.00000E+00
    0.93807E+05        -0.50000E+08         0.00000E+00
    0.00000E+00         0.00000E+00        -0.50354E+08
 
   -0.51697E+08         0.12435E+06         0.00000E+00
    0.12435E+06        -0.50000E+08         0.00000E+00
    0.00000E+00         0.00000E+00        -0.50339E+08
 
   -0.51626E+08         0.15181E+06         0.00000E+00
    0.15181E+06        -0.49999E+08         0.00000E+00
    0.00000E+00         0.00000E+00        -0.50325E+08
 
   -0.51556E+08         0.17636E+06         0.00000E+00
    0.17636E+06        -0.49998E+08         0.00000E+00
    0.00000E+00         0.00000E+00        -0.50311E+08
 
   -0.51488E+08         0.19821E+06         0.00000E+00
    0.19821E+06        -0.49996E+08         0.00000E+00
    0.00000E+00         0.00000E+00        -0.50297E+08
 
   -0.51421E+08         0.21756E+06         0.00000E+00
    0.21756E+06        -0.49993E+08         0.00000E+00
    0.00000E+00         0.00000E+00        -0.50283E+08
 
   -0.51356E+08         0.23462E+06         0.00000E+00
    0.23462E+06        -0.49990E+08         0.00000E+00
    0.00000E+00         0.00000E+00        -0.50269E+08
 
   -0.51293E+08         0.24960E+06         0.00000E+00
    0.24960E+06        -0.49985E+08         0.00000E+00
    0.00000E+00         0.00000E+00        -0.50256E+08
 
   -0.51231E+08         0.26272E+06         0.00000E+00
    0.26272E+06        -0.49980E+08         0.00000E+00
    0.00000E+00         0.00000E+00        -0.50242E+08
 
   -0.51172E+08         0.27420E+06         0.00000E+00
    0.27420E+06        -0.49974E+08         0.00000E+00
    0.00000E+00         0.00000E+00        -0.50229E+08
 
   -0.51115E+08         0.28425E+06         0.00000E+00
    0.28425E+06        -0.49967E+08         0.00000E+00
    0.00000E+00         0.00000E+00        -0.50216E+08
 
   -0.51060E+08         0.29308E+06         0.00000E+00
    0.29308E+06        -0.49959E+08         0.00000E+00
    0.00000E+00         0.00000E+00        -0.50204E+08
 
   -0.51007E+08         0.30089E+06         0.00000E+00
    0.30089E+06        -0.49951E+08         0.00000E+00
    0.00000E+00         0.00000E+00        -0.50192E+08
 
   -0.50956E+08         0.30787E+06         0.00000E+00
    0.30787E+06        -0.49941E+08         0.00000E+00
    0.00000E+00         0.00000E+00        -0.50179E+08
 
   -0.50907E+08         0.31421E+06         0.00000E+00
    0.31421E+06        -0.49931E+08         0.00000E+00
    0.00000E+00         0.00000E+00        -0.50168E+08
 
   -0.50861E+08         0.32007E+06         0.00000E+00
    0.32007E+06        -0.49920E+08         0.00000E+00
    0.00000E+00         0.00000E+00        -0.50156E+08
 
   -0.50816E+08         0.32560E+06         0.00000E+00
    0.32560E+06        -0.49909E+08         0.00000E+00
    0.00000E+00         0.00000E+00        -0.50145E+08
 
   -0.50773E+08         0.33094E+06         0.00000E+00
    0.33094E+06        -0.49898E+08         0.00000E+00
    0.00000E+00         0.00000E+00        -0.50134E+08
 
   -0.50732E+08         0.33621E+06         0.00000E+00
    0.33621E+06        -0.49886E+08         0.00000E+00
    0.00000E+00         0.00000E+00        -0.50124E+08
 
   -0.50693E+08         0.34151E+06         0.00000E+00
    0.34151E+06        -0.49874E+08         0.00000E+00
    0.00000E+00         0.00000E+00        -0.50113E+08
 
   -0.50656E+08         0.34692E+06         0.00000E+00
    0.34692E+06        -0.49861E+08         0.00000E+00
    0.00000E+00         0.00000E+00        -0.50103E+08
 
   -0.50619E+08         0.35252E+06         0.00000E+00
    0.35252E+06        -0.49849E+08         0.00000E+00
    0.00000E+00         0.00000E+00        -0.50094E+08
 
   -0.50585E+08         0.35836E+06         0.00000E+00
    0.35836E+06        -0.49837E+08         0.00000E+00
    0.00000E+00         0.00000E+00        -0.50084E+08
 
   -0.50551E+08         0.36445E+06         0.00000E+00
    0.36445E+06        -0.49825E+08         0.00000E+00
    0.00000E+00         0.00000E+00        -0.50075E+08
 
   -0.50518E+08         0.37083E+06         0.00000E+00
    0.37083E+06        -0.49814E+08         0.00000E+00
    0.00000E+00         0.00000E+00        -0.50066E+08
 
   -0.50487E+08         0.37747E+06         0.00000E+00
    0.37747E+06        -0.49803E+08         0.00000E+00
    0.00000E+00         0.00000E+00        -0.50058E+08
 
   -0.50456E+08         0.38437E+06         0.00000E+00
    0.38437E+06        -0.49793E+08         0.00000E+00
    0.00000E+00         0.00000E+00        -0.50050E+08
 
   -0.50426E+08         0.39149E+06         0.00000E+00
    0.39149E+06        -0.49783E+08         0.00000E+00
    0.00000E+00         0.00000E+00        -0.50042E+08
 
   -0.50396E+08         0.39877E+06         0.00000E+00
    0.39877E+06        -0.49774E+08         0.00000E+00
    0.00000E+00         0.00000E+00        -0.50034E+08
 
   -0.50367E+08         0.40614E+06         0.00000E+00
    0.40614E+06        -0.49766E+08         0.00000E+00
    0.00000E+00         0.00000E+00        -0.50027E+08
 
   -0.50339E+08         0.41354E+06         0.00000E+00
    0.41354E+06        -0.49759E+08         0.00000E+00
    0.00000E+00         0.00000E+00        -0.50020E+08
 
   -0.50311E+08         0.42087E+06         0.00000E+00
    0.42087E+06        -0.49753E+08         0.00000E+00
    0.00000E+00         0.00000E+00        -0.50013E+08
 
   -0.50283E+08         0.42804E+06         0.00000E+00
    0.42804E+06        -0.49747E+08         0.00000E+00
    0.00000E+00         0.00000E+00        -0.50006E+08
 
   -0.50256E+08         0.43493E+06         0.00000E+00
    0.43493E+06        -0.49743E+08         0.00000E+00
    0.00000E+00         0.00000E+00        -0.50000E+08
 
   -0.50229E+08         0.44145E+06         0.00000E+00
    0.44145E+06        -0.49740E+08         0.00000E+00
    0.00000E+00         0.00000E+00        -0.49994E+08
 
   -0.50202E+08         0.44746E+06         0.00000E+00
    0.44746E+06        -0.49738E+08         0.00000E+00
    0.00000E+00         0.00000E+00        -0.49988E+08
 
   -0.50176E+08         0.45285E+06         0.00000E+00
    0.45285E+06        -0.49738E+08         0.00000E+00
    0.00000E+00         0.00000E+00        -0.49983E+08
 
   -0.50150E+08         0.45751E+06         0.00000E+00
    0.45751E+06        -0.49738E+08         0.00000E+00
    0.00000E+00         0.00000E+00        -0.49978E+08
 
   -0.50125E+08         0.46132E+06         0.00000E+00
    0.46132E+06        -0.49739E+08         0.00000E+00
    0.00000E+00         0.00000E+00        -0.49973E+08
 
   -0.50100E+08         0.46417E+06         0.00000E+00
    0.46417E+06        -0.49741E+08         0.00000E+00
    0.00000E+00         0.00000E+00        -0.49968E+08
 
   -0.50077E+08         0.46595E+06         0.00000E+00
    0.46595E+06        -0.49744E+08         0.00000E+00
    0.00000E+00         0.00000E+00        -0.49964E+08
 
   -0.50054E+08         0.46658E+06         0.00000E+00
    0.46658E+06        -0.49747E+08         0.00000E+00
    0.00000E+00         0.00000E+00        -0.49960E+08
 
   -0.50033E+08         0.46599E+06         0.00000E+00
    0.46599E+06        -0.49751E+08         0.00000E+00
    0.00000E+00         0.00000E+00        -0.49957E+08
 
   -0.50012E+08         0.46409E+06         0.00000E+00
    0.46409E+06        -0.49756E+08         0.00000E+00
    0.00000E+00         0.00000E+00        -0.49954E+08
 
   -0.49994E+08         0.46086E+06         0.00000E+00
    0.46086E+06        -0.49761E+08         0.00000E+00
    0.00000E+00         0.00000E+00        -0.49951E+08
 
   -0.49977E+08         0.45626E+06         0.00000E+00
    0.45626E+06        -0.49766E+08         0.00000E+00
    0.00000E+00         0.00000E+00        -0.49949E+08
 
   -0.49962E+08         0.45030E+06         0.00000E+00
    0.45030E+06        -0.49771E+08         0.00000E+00
    0.00000E+00         0.00000E+00        -0.49947E+08
 
   -0.49950E+08         0.44300E+06         0.00000E+00
    0.44300E+06        -0.49776E+08         0.00000E+00
    0.00000E+00         0.00000E+00        -0.49945E+08
 
   -0.51719E+08         0.21859E+05         0.00000E+00
    0.21859E+05        -0.50000E+08         0.00000E+00
    0.00000E+00         0.00000E+00        -0.50344E+08
 
   -0.51662E+08         0.58762E+05         0.00000E+00
    0.58762E+05        -0.50000E+08         0.00000E+00
    0.00000E+00         0.00000E+00        -0.50333E+08
 
   -0.51605E+08         0.92882E+05         0.00000E+00
    0.92882E+05        -0.50001E+08         0.00000E+00
    0.00000E+00         0.00000E+00        -0.50321E+08
 
   -0.51548E+08         0.12433E+06         0.00000E+00
    0.12433E+06        -0.50002E+08         0.00000E+00
    0.00000E+00         0.00000E+00        -0.50310E+08
 
   -0.51491E+08         0.15321E+06         0.00000E+00
    0.15321E+06        -0.50002E+08         0.00000E+00
    0.00000E+00         0.00000E+00        -0.50299E+08
 
   -0.51434E+08         0.17967E+06         0.00000E+00
    0.17967E+06        -0.50002E+08         0.00000E+00
    0.00000E+00         0.00000E+00        -0.50287E+08
 
   -0.51378E+08         0.20382E+06         0.00000E+00
    0.20382E+06        -0.50003E+08         0.00000E+00
    0.00000E+00         0.00000E+00        -0.50276E+08
 
   -0.51322E+08         0.22581E+06         0.00000E+00
    0.22581E+06        -0.50002E+08         0.00000E+00
    0.00000E+00         0.00000E+00        -0.50265E+08
 
   -0.51268E+08         0.24577E+06         0.00000E+00
    0.24577E+06        -0.50002E+08         0.00000E+00
    0.00000E+00         0.00000E+00        -0.50254E+08
 
   -0.51214E+08         0.26385E+06         0.00000E+00
    0.26385E+06        -0.50001E+08         0.00000E+00
    0.00000E+00         0.00000E+00        -0.50243E+08
 
   -0.51161E+08         0.28020E+06         0.00000E+00
    0.28020E+06        -0.50000E+08         0.00000E+00
    0.00000E+00         0.00000E+00        -0.50232E+08
 
   -0.51109E+08         0.29496E+06         0.00000E+00
    0.29496E+06        -0.49998E+08         0.00000E+00
    0.00000E+00         0.00000E+00        -0.50221E+08
 
   -0.51059E+08         0.30827E+06         0.00000E+00
    0.30827E+06        -0.49995E+08         0.00000E+00
    0.00000E+00         0.00000E+00        -0.50211E+08
 
   -0.51010E+08         0.32027E+06         0.00000E+00
    0.32027E+06        -0.49993E+08         0.00000E+00
    0.00000E+00         0.00000E+00        -0.50200E+08
 
   -0.50962E+08         0.33112E+06         0.00000E+00
    0.33112E+06        -0.49989E+08         0.00000E+00
    0.00000E+00         0.00000E+00        -0.50190E+08
 
   -0.50915E+08         0.34093E+06         0.00000E+00
    0.34093E+06        -0.49986E+08         0.00000E+00
    0.00000E+00         0.00000E+00        -0.50180E+08
 
   -0.50870E+08         0.34983E+06         0.00000E+00
    0.34983E+06        -0.49981E+08         0.00000E+00
    0.00000E+00         0.00000E+00        -0.50170E+08
 
   -0.50827E+08         0.35795E+06         0.00000E+00
    0.35795E+06        -0.49977E+08         0.00000E+00
    0.00000E+00         0.00000E+00        -0.50161E+08
 
   -0.50784E+08         0.36539E+06         0.00000E+00
    0.36539E+06        -0.49972E+08         0.00000E+00
    0.00000E+00         0.00000E+00        -0.50151E+08
 
   -0.50743E+08         0.37226E+06         0.00000E+00
    0.37226E+06        -0.49967E+08         0.00000E+00
    0.00000E+00         0.00000E+00        -0.50142E+08
 
   -0.50703E+08         0.37865E+06         0.00000E+00
    0.37865E+06        -0.49962E+08         0.00000E+00
    0.00000E+00         0.00000E+00        -0.50133E+08
 
   -0.50665E+08         0.38464E+06         0.00000E+00
    0.38464E+06        -0.49956E+08         0.00000E+00
    0.00000E+00         0.00000E+00        -0.50124E+08
 
   -0.50628E+08         0.39030E+06         0.00000E+00
    0.39030E+06        -0.49951E+08         0.00000E+00
    0.00000E+00         0.00000E+00        -0.50116E+08
 
   -0.50592E+08         0.39569E+06         0.00000E+00
    0.39569E+06        -0.49945E+08         0.00000E+00
    0.00000E+00         0.00000E+00        -0.50107E+08
 
   -0.50557E+08         0.40086E+06         0.00000E+00
    0.40086E+06        -0.49939E+08         0.00000E+00
    0.00000E+00         0.00000E+00        -0.50099E+08
 
   -0.50523E+08         0.40583E+06         0.00000E+00
    0.40583E+06        -0.49934E+08         0.00000E+00
    0.00000E+00         0.00000E+00        -0.50091E+08
 
   -0.50490E+08         0.41065E+06         0.00000E+00
    0.41065E+06        -0.49929E+08         0.00000E+00
    0.00000E+00         0.00000E+00        -0.50084E+08
 
   -0.50458E+08         0.41532E+06         0.00000E+00
    0.41532E+06        -0.49924E+08         0.00000E+00
    0.00000E+00         0.00000E+00        -0.50076E+08
 
   -0.50427E+08         0.41985E+06         0.00000E+00
    0.41985E+06        -0.49919E+08         0.00000E+00
    0.00000E+00         0.00000E+00        -0.50069E+08
 
   -0.50397E+08         0.42423E+06         0.00000E+00
    0.42423E+06        -0.49915E+08         0.00000E+00
    0.00000E+00         0.00000E+00        -0.50062E+08
 
   -0.50368E+08         0.42844E+06         0.00000E+00
    0.42844E+06        -0.49911E+08         0.00000E+00
    0.00000E+00         0.00000E+00        -0.50056E+08
 
   -0.50339E+08         0.43246E+06         0.00000E+00
    0.43246E+06        -0.49907E+08         0.00000E+00
    0.00000E+00         0.00000E+00        -0.50049E+08
 
   -0.50312E+08         0.43626E+06         0.00000E+00
    0.43626E+06        -0.49904E+08         0.00000E+00
    0.00000E+00         0.00000E+00        -0.50043E+08
 
   -0.50285E+08         0.43980E+06         0.00000E+00
    0.43980E+06        -0.49902E+08         0.00000E+00
    0.00000E+00         0.00000E+00        -0.50037E+08
 
   -0.50258E+08         0.44304E+06         0.00000E+00
    0.44304E+06        -0.49900E+08         0.00000E+00
    0.00000E+00         0.00000E+00        -0.50032E+08
 
   -0.50233E+08         0.44593E+06         0.00000E+00
    0.44593E+06        -0.49899E+08         0.00000E+00
    0.00000E+00         0.00000E+00        -0.50026E+08
 
   -0.50208E+08         0.44842E+06         0.00000E+00
    0.44842E+06        -0.49898E+08         0.00000E+00
    0.00000E+00         0.00000E+00        -0.50021E+08
 
   -0.50184E+08         0.45045E+06         0.00000E+00
    0.45045E+06        -0.49898E+08         0.00000E+00
    0.00000E+00         0.00000E+00        -0.50016E+08
 
   -0.50161E+08         0.45198E+06         0.00000E+00
    0.45198E+06        -0.49898E+08         0.00000E+00
    0.00000E+00         0.00000E+00        -0.50012E+08
 
   -0.50138E+08         0.45295E+06         0.00000E+00
    0.45295E+06        -0.49899E+08         0.00000E+00
    0.00000E+00         0.00000E+00        -0.50008E+08
 
   -0.50117E+08         0.45332E+06         0.00000E+00
    0.45332E+06        -0.49901E+08         0.00000E+00
    0.00000E+00         0.00000E+00        -0.50004E+08
 
   -0.50096E+08         0.45305E+06         0.00000E+00
    0.45305E+06        -0.49903E+08         0.00000E+00
    0.00000E+00         0.00000E+00        -0.50000E+08
 
   -0.50077E+08         0.45209E+06         0.00000E+00
    0.45209E+06        -0.49905E+08         0.00000E+00
    0.00000E+00         0.00000E+00        -0.49997E+08
 
   -0.50059E+08         0.45042E+06         0.00000E+00
    0.45042E+06        -0.49908E+08         0.00000E+00
    0.00000E+00         0.00000E+00        -0.49993E+08
 
   -0.50043E+08         0.44801E+06         0.00000E+00
    0.44801E+06        -0.49911E+08         0.00000E+00
    0.00000E+00         0.00000E+00        -0.49991E+08
 
   -0.50028E+08         0.44488E+06         0.00000E+00
    0.44488E+06        -0.49914E+08         0.00000E+00
    0.00000E+00         0.00000E+00        -0.49988E+08
 
   -0.50014E+08         0.44100E+06         0.00000E+00
    0.44100E+06        -0.49917E+08         0.00000E+00
    0.00000E+00         0.00000E+00        -0.49986E+08
 
   -0.50003E+08         0.43642E+06         0.00000E+00
    0.43642E+06        -0.49921E+08         0.00000E+00
    0.00000E+00         0.00000E+00        -0.49985E+08
 
   -0.49993E+08         0.43115E+06         0.00000E+00
    0.43115E+06        -0.49924E+08         0.00000E+00
    0.00000E+00         0.00000E+00        -0.49983E+08
 
   -0.49985E+08         0.42525E+06         0.00000E+00
    0.42525E+06        -0.49927E+08         0.00000E+00
    0.00000E+00         0.00000E+00        -0.49982E+08
 
   -0.51532E+08         0.20424E+05         0.00000E+00
    0.20424E+05        -0.50000E+08         0.00000E+00
    0.00000E+00         0.00000E+00        -0.50306E+08
 
   -0.51488E+08         0.55754E+05         0.00000E+00
    0.55754E+05        -0.50000E+08         0.00000E+00
    0.00000E+00         0.00000E+00        -0.50298E+08
 
   -0.51443E+08         0.88812E+05         0.00000E+00
    0.88812E+05        -0.50001E+08         0.00000E+00
    0.00000E+00         0.00000E+00        -0.50289E+08
 
   -0.51398E+08         0.11967E+06         0.00000E+00
    0.11967E+06        -0.50003E+08         0.00000E+00
    0.00000E+00         0.00000E+00        -0.50280E+08
 
   -0.51352E+08         0.14840E+06         0.00000E+00
    0.14840E+06        -0.50004E+08         0.00000E+00
    0.00000E+00         0.00000E+00        -0.50271E+08
 
   -0.51306E+08         0.17509E+06         0.00000E+00
    0.17509E+06        -0.50006E+08         0.00000E+00
    0.00000E+00         0.00000E+00        -0.50262E+08
 
   -0.51260E+08         0.19982E+06         0.00000E+00
    0.19982E+06        -0.50007E+08         0.00000E+00
    0.00000E+00         0.00000E+00        -0.50254E+08
 
   -0.51215E+08         0.22268E+06         0.00000E+00
    0.22268E+06        -0.50009E+08         0.00000E+00
    0.00000E+00         0.00000E+00        -0.50245E+08
 
   -0.51169E+08         0.24378E+06         0.00000E+00
    0.24378E+06        -0.50010E+08         0.00000E+00
    0.00000E+00         0.00000E+00        -0.50236E+08
 
   -0.51124E+08         0.26320E+06         0.00000E+00
    0.26320E+06        -0.50011E+08         0.00000E+00
    0.00000E+00         0.00000E+00        -0.50227E+08
 
   -0.51079E+08         0.28103E+06         0.00000E+00
    0.28103E+06        -0.50013E+08         0.00000E+00
    0.00000E+00         0.00000E+00        -0.50218E+08
 
   -0.51035E+08         0.29739E+06         0.00000E+00
    0.29739E+06        -0.50014E+08         0.00000E+00
    0.00000E+00         0.00000E+00        -0.50210E+08
 
   -0.50991E+08         0.31237E+06         0.00000E+00
    0.31237E+06        -0.50014E+08         0.00000E+00
    0.00000E+00         0.00000E+00        -0.50201E+08
 
   -0.50948E+08         0.32606E+06         0.00000E+00
    0.32606E+06        -0.50015E+08         0.00000E+00
    0.00000E+00         0.00000E+00        -0.50193E+08
 
   -0.50906E+08         0.33856E+06         0.00000E+00
    0.33856E+06        -0.50015E+08         0.00000E+00
    0.00000E+00         0.00000E+00        -0.50184E+08
 
   -0.50864E+08         0.34997E+06         0.00000E+00
    0.34997E+06        -0.50015E+08         0.00000E+00
    0.00000E+00         0.00000E+00        -0.50176E+08
 
   -0.50824E+08         0.36036E+06         0.00000E+00
    0.36036E+06        -0.50015E+08         0.00000E+00
    0.00000E+00         0.00000E+00        -0.50168E+08
 
   -0.50784E+08         0.36984E+06         0.00000E+00
    0.36984E+06        -0.50015E+08         0.00000E+00
    0.00000E+00         0.00000E+00        -0.50160E+08
 
   -0.50745E+08         0.37847E+06         0.00000E+00
    0.37847E+06        -0.50015E+08         0.00000E+00
    0.00000E+00         0.00000E+00        -0.50152E+08
 
   -0.50708E+08         0.38633E+06         0.00000E+00
    0.38633E+06        -0.50014E+08         0.00000E+00
    0.00000E+00         0.00000E+00        -0.50144E+08
 
   -0.50671E+08         0.39350E+06         0.00000E+00
    0.39350E+06        -0.50013E+08         0.00000E+00
    0.00000E+00         0.00000E+00        -0.50137E+08
 
   -0.50635E+08         0.40004E+06         0.00000E+00
    0.40004E+06        -0.50012E+08         0.00000E+00
    0.00000E+00         0.00000E+00        -0.50129E+08
 
   -0.50600E+08         0.40600E+06         0.00000E+00
    0.40600E+06        -0.50011E+08         0.00000E+00
    0.00000E+00         0.00000E+00        -0.50122E+08
 
   -0.50565E+08         0.41143E+06         0.00000E+00
    0.41143E+06        -0.50010E+08         0.00000E+00
    0.00000E+00         0.00000E+00        -0.50115E+08
 
   -0.50532E+08         0.41639E+06         0.00000E+00
    0.41639E+06        -0.50009E+08         0.00000E+00
    0.00000E+00         0.00000E+00        -0.50108E+08
 
   -0.50500E+08         0.42090E+06         0.00000E+00
    0.42090E+06        -0.50008E+08         0.00000E+00
    0.00000E+00         0.00000E+00        -0.50102E+08
 
   -0.50469E+08         0.42500E+06         0.00000E+00
    0.42500E+06        -0.50007E+08         0.00000E+00
    0.00000E+00         0.00000E+00        -0.50095E+08
 
   -0.50438E+08         0.42871E+06         0.00000E+00
    0.42871E+06        -0.50006E+08         0.00000E+00
    0.00000E+00         0.00000E+00        -0.50089E+08
 
   -0.50408E+08         0.43205E+06         0.00000E+00
    0.43205E+06        -0.50005E+08         0.00000E+00
    0.00000E+00         0.00000E+00        -0.50083E+08
 
   -0.50380E+08         0.43503E+06         0.00000E+00
    0.43503E+06        -0.50005E+08         0.00000E+00
    0.00000E+00         0.00000E+00        -0.50077E+08
 
   -0.50352E+08         0.43766E+06         0.00000E+00
    0.43766E+06        -0.50005E+08         0.00000E+00
    0.00000E+00         0.00000E+00        -0.50071E+08
 
   -0.50324E+08         0.43993E+06         0.00000E+00
    0.43993E+06        -0.50004E+08         0.00000E+00
    0.00000E+00         0.00000E+00        -0.50066E+08
 
   -0.50298E+08         0.44186E+06         0.00000E+00
    0.44186E+06        -0.50005E+08         0.00000E+00
    0.00000E+00         0.00000E+00        -0.50061E+08
 
   -0.50273E+08         0.44342E+06         0.00000E+00
    0.44342E+06        -0.50005E+08         0.00000E+00
    0.00000E+00         0.00000E+00        -0.50056E+08
 
   -0.50248E+08         0.44462E+06         0.00000E+00
    0.44462E+06        -0.50006E+08         0.00000E+00
    0.00000E+00         0.00000E+00        -0.50051E+08
 
   -0.50225E+08         0.44544E+06         0.00000E+00
    0.44544E+06        -0.50006E+08         0.00000E+00
    0.00000E+00         0.00000E+00        -0.50046E+08
 
   -0.50202E+08         0.44587E+06         0.00000E+00
    0.44587E+06        -0.50008E+08         0.00000E+00
    0.00000E+00         0.00000E+00        -0.50042E+08
 
   -0.50180E+08         0.44589E+06         0.00000E+00
    0.44589E+06        -0.50009E+08         0.00000E+00
    0.00000E+00         0.00000E+00        -0.50038E+08
 
   -0.50159E+08         0.44550E+06         0.00000E+00
    0.44550E+06        -0.50011E+08         0.00000E+00
    0.00000E+00         0.00000E+00        -0.50034E+08
 
   -0.50139E+08         0.44468E+06         0.00000E+00
    0.44468E+06        -0.50013E+08         0.00000E+00
    0.00000E+00         0.00000E+00        -0.50030E+08
 
   -0.50121E+08         0.44343E+06         0.00000E+00
    0.44343E+06        -0.50015E+08         0.00000E+00
    0.00000E+00         0.00000E+00        -0.50027E+08
 
   -0.50103E+08         0.44175E+06         0.00000E+00
    0.44175E+06        -0.50017E+08         0.00000E+00
    0.00000E+00         0.00000E+00        -0.50024E+08
 
   -0.50086E+08         0.43963E+06         0.00000E+00
    0.43963E+06        -0.50020E+08         0.00000E+00
    0.00000E+00         0.00000E+00        -0.50021E+08
 
   -0.50071E+08         0.43708E+06         0.00000E+00
    0.43708E+06        -0.50022E+08         0.00000E+00
    0.00000E+00         0.00000E+00        -0.50019E+08
 
   -0.50058E+08         0.43412E+06         0.00000E+00
    0.43412E+06        -0.50025E+08         0.00000E+00
    0.00000E+00         0.00000E+00        -0.50017E+08
 
   -0.50045E+08         0.43077E+06         0.00000E+00
    0.43077E+06        -0.50028E+08         0.00000E+00
    0.00000E+00         0.00000E+00        -0.50015E+08
 
   -0.50034E+08         0.42705E+06         0.00000E+00
    0.42705E+06        -0.50030E+08         0.00000E+00
    0.00000E+00         0.00000E+00        -0.50013E+08
 
   -0.50025E+08         0.42301E+06         0.00000E+00
    0.42301E+06        -0.50033E+08         0.00000E+00
    0.00000E+00         0.00000E+00        -0.50012E+08
 
   -0.50018E+08         0.41870E+06         0.00000E+00
    0.41870E+06        -0.50035E+08         0.00000E+00
    0.00000E+00         0.00000E+00        -0.50011E+08
 
   -0.50012E+08         0.41417E+06         0.00000E+00
    0.41417E+06        -0.50037E+08         0.00000E+00
    0.00000E+00         0.00000E+00        -0.50010E+08
 
   -0.51356E+08         0.18673E+05         0.00000E+00
    0.18673E+05        -0.50000E+08         0.00000E+00
    0.00000E+00         0.00000E+00        -0.50271E+08
 
   -0.51322E+08         0.51599E+05         0.00000E+00
    0.51599E+05        -0.50001E+08         0.00000E+00
    0.00000E+00         0.00000E+00        -0.50265E+08
 
   -0.51287E+08         0.82684E+05         0.00000E+00
    0.82684E+05        -0.50002E+08         0.00000E+00
    0.00000E+00         0.00000E+00        -0.50258E+08
 
   -0.51252E+08         0.11197E+06         0.00000E+00
    0.11197E+06        -0.50003E+08         0.00000E+00
    0.00000E+00         0.00000E+00        -0.50251E+08
 
   -0.51216E+08         0.13950E+06         0.00000E+00
    0.13950E+06        -0.50005E+08         0.00000E+00
    0.00000E+00         0.00000E+00        -0.50244E+08
 
   -0.51179E+08         0.16533E+06         0.00000E+00
    0.16533E+06        -0.50007E+08         0.00000E+00
    0.00000E+00         0.00000E+00        -0.50237E+08
 
   -0.51142E+08         0.18951E+06         0.00000E+00
    0.18951E+06        -0.50010E+08         0.00000E+00
    0.00000E+00         0.00000E+00        -0.50230E+08
 
   -0.51105E+08         0.21209E+06         0.00000E+00
    0.21209E+06        -0.50013E+08         0.00000E+00
    0.00000E+00         0.00000E+00        -0.50223E+08
 
   -0.51067E+08         0.23315E+06         0.00000E+00
    0.23315E+06        -0.50015E+08         0.00000E+00
    0.00000E+00         0.00000E+00        -0.50217E+08
 
   -0.51030E+08         0.25273E+06         0.00000E+00
    0.25273E+06        -0.50018E+08         0.00000E+00
    0.00000E+00         0.00000E+00        -0.50210E+08
 
   -0.50992E+08         0.27092E+06         0.00000E+00
    0.27092E+06        -0.50021E+08         0.00000E+00
    0.00000E+00         0.00000E+00        -0.50203E+08
 
   -0.50955E+08         0.28776E+06         0.00000E+00
    0.28776E+06        -0.50024E+08         0.00000E+00
    0.00000E+00         0.00000E+00        -0.50196E+08
 
   -0.50917E+08         0.30333E+06         0.00000E+00
    0.30333E+06        -0.50027E+08         0.00000E+00
    0.00000E+00         0.00000E+00        -0.50189E+08
 
   -0.50880E+08         0.31769E+06         0.00000E+00
    0.31769E+06        -0.50029E+08         0.00000E+00
    0.00000E+00         0.00000E+00        -0.50182E+08
 
   -0.50844E+08         0.33091E+06         0.00000E+00
    0.33091E+06        -0.50032E+08         0.00000E+00
    0.00000E+00         0.00000E+00        -0.50175E+08
 
   -0.50808E+08         0.34305E+06         0.00000E+00
    0.34305E+06        -0.50035E+08         0.00000E+00
    0.00000E+00         0.00000E+00        -0.50168E+08
 
   -0.50772E+08         0.35418E+06         0.00000E+00
    0.35418E+06        -0.50037E+08         0.00000E+00
    0.00000E+00         0.00000E+00        -0.50162E+08
 
   -0.50737E+08         0.36435E+06         0.00000E+00
    0.36435E+06        -0.50039E+08         0.00000E+00
    0.00000E+00         0.00000E+00        -0.50155E+08
 
   -0.50702E+08         0.37363E+06         0.00000E+00
    0.37363E+06        -0.50042E+08         0.00000E+00
    0.00000E+00         0.00000E+00        -0.50149E+08
 
   -0.50668E+08         0.38208E+06         0.00000E+00
    0.38208E+06        -0.50044E+08         0.00000E+00
    0.00000E+00         0.00000E+00        -0.50142E+08
 
   -0.50635E+08         0.38974E+06         0.00000E+00
    0.38974E+06        -0.50046E+08         0.00000E+00
    0.00000E+00         0.00000E+00        -0.50136E+08
 
   -0.50602E+08         0.39666E+06         0.00000E+00
    0.39666E+06        -0.50048E+08         0.00000E+00
    0.00000E+00         0.00000E+00        -0.50130E+08
 
   -0.50570E+08         0.40290E+06         0.00000E+00
    0.40290E+06        -0.50050E+08         0.00000E+00
    0.00000E+00         0.00000E+00        -0.50124E+08
 
   -0.50539E+08         0.40849E+06         0.00000E+00
    0.40849E+06        -0.50052E+08         0.00000E+00
    0.00000E+00         0.00000E+00        -0.50118E+08
 
   -0.50509E+08         0.41348E+06         0.00000E+00
    0.41348E+06        -0.50054E+08         0.00000E+00
    0.00000E+00         0.00000E+00        -0.50113E+08
 
   -0.50479E+08         0.41790E+06         0.00000E+00
    0.41790E+06        -0.50056E+08         0.00000E+00
    0.00000E+00         0.00000E+00        -0.50107E+08
 
   -0.50450E+08         0.42178E+06         0.00000E+00
    0.42178E+06        -0.50058E+08         0.00000E+00
    0.00000E+00         0.00000E+00        -0.50102E+08
 
   -0.50421E+08         0.42515E+06         0.00000E+00
    0.42515E+06        -0.50060E+08         0.00000E+00
    0.00000E+00         0.00000E+00        -0.50096E+08
 
   -0.50394E+08         0.42803E+06         0.00000E+00
    0.42803E+06        -0.50062E+08         0.00000E+00
    0.00000E+00         0.00000E+00        -0.50091E+08
 
   -0.50367E+08         0.43046E+06         0.00000E+00
    0.43046E+06        -0.50064E+08         0.00000E+00
    0.00000E+00         0.00000E+00        -0.50086E+08
 
   -0.50341E+08         0.43244E+06         0.00000E+00
    0.43244E+06        -0.50066E+08         0.00000E+00
    0.00000E+00         0.00000E+00        -0.50081E+08
 
   -0.50316E+08         0.43399E+06         0.00000E+00
    0.43399E+06        -0.50068E+08         0.00000E+00
    0.00000E+00         0.00000E+00        -0.50077E+08
 
   -0.50291E+08         0.43513E+06         0.00000E+00
    0.43513E+06        -0.50071E+08         0.00000E+00
    0.00000E+00         0.00000E+00        -0.50072E+08
 
   -0.50268E+08         0.43586E+06         0.00000E+00
    0.43586E+06        -0.50073E+08         0.00000E+00
    0.00000E+00         0.00000E+00        -0.50068E+08
 
   -0.50245E+08         0.43621E+06         0.00000E+00
    0.43621E+06        -0.50076E+08         0.00000E+00
    0.00000E+00         0.00000E+00        -0.50064E+08
 
   -0.50224E+08         0.43618E+06         0.00000E+00
    0.43618E+06        -0.50078E+08         0.00000E+00
    0.00000E+00         0.00000E+00        -0.50060E+08
 
   -0.50203E+08         0.43578E+06         0.00000E+00
    0.43578E+06        -0.50081E+08         0.00000E+00
    0.00000E+00         0.00000E+00        -0.50057E+08
 
   -0.50183E+08         0.43502E+06         0.00000E+00
    0.43502E+06        -0.50083E+08         0.00000E+00
    0.00000E+00         0.00000E+00        -0.50053E+08
 
   -0.50164E+08         0.43391E+06         0.00000E+00
    0.43391E+06        -0.50086E+08         0.00000E+00
    0.00000E+00         0.00000E+00        -0.50050E+08
 
   -0.50146E+08         0.43247E+06         0.00000E+00
    0.43247E+06        -0.50089E+08         0.00000E+00
    0.00000E+00         0.00000E+00        -0.50047E+08
 
   -0.50129E+08         0.43071E+06         0.00000E+00
    0.43071E+06        -0.50092E+08         0.00000E+00
    0.00000E+00         0.00000E+00        -0.50044E+08
 
   -0.50113E+08         0.42864E+06         0.00000E+00
    0.42864E+06        -0.50095E+08         0.00000E+00
    0.00000E+00         0.00000E+00        -0.50042E+08
 
   -0.50098E+08         0.42630E+06         0.00000E+00
    0.42630E+06        -0.50097E+08         0.00000E+00
    0.00000E+00         0.00000E+00        -0.50039E+08
 
   -0.50085E+08         0.42371E+06         0.00000E+00
    0.42371E+06        -0.50100E+08         0.00000E+00
    0.00000E+00         0.00000E+00        -0.50037E+08
 
   -0.50073E+08         0.42088E+06         0.00000E+00
    0.42088E+06        -0.50103E+08         0.00000E+00
    0.00000E+00         0.00000E+00        -0.50035E+08
 
   -0.50062E+08         0.41787E+06         0.00000E+00
    0.41787E+06        -0.50106E+08         0.00000E+00
    0.00000E+00         0.00000E+00        -0.50033E+08
 
   -0.50052E+08         0.41472E+06         0.00000E+00
    0.41472E+06        -0.50108E+08         0.00000E+00
    0.00000E+00         0.00000E+00        -0.50032E+08
 
   -0.50044E+08         0.41146E+06         0.00000E+00
    0.41146E+06        -0.50111E+08         0.00000E+00
    0.00000E+00         0.00000E+00        -0.50031E+08
 
   -0.50037E+08         0.40815E+06         0.00000E+00
    0.40815E+06        -0.50113E+08         0.00000E+00
    0.00000E+00         0.00000E+00        -0.50030E+08
 
   -0.50031E+08         0.40485E+06         0.00000E+00
    0.40485E+06        -0.50115E+08         0.00000E+00
    0.00000E+00         0.00000E+00        -0.50029E+08
 
   -0.51194E+08         0.16770E+05         0.00000E+00
    0.16770E+05        -0.50000E+08         0.00000E+00
    0.00000E+00         0.00000E+00        -0.50239E+08
 
   -0.51169E+08         0.46821E+05         0.00000E+00
    0.46821E+05        -0.50001E+08         0.00000E+00
    0.00000E+00         0.00000E+00        -0.50234E+08
 
   -0.51142E+08         0.75400E+05         0.00000E+00
    0.75400E+05        -0.50002E+08         0.00000E+00
    0.00000E+00         0.00000E+00        -0.50229E+08
 
   -0.51115E+08         0.10252E+06         0.00000E+00
    0.10252E+06        -0.50004E+08         0.00000E+00
    0.00000E+00         0.00000E+00        -0.50224E+08
 
   -0.51087E+08         0.12822E+06         0.00000E+00
    0.12822E+06        -0.50006E+08         0.00000E+00
    0.00000E+00         0.00000E+00        -0.50218E+08
 
   -0.51058E+08         0.15250E+06         0.00000E+00
    0.15250E+06        -0.50008E+08         0.00000E+00
    0.00000E+00         0.00000E+00        -0.50213E+08
 
   -0.51028E+08         0.17542E+06         0.00000E+00
    0.17542E+06        -0.50011E+08         0.00000E+00
    0.00000E+00         0.00000E+00        -0.50208E+08
 
   -0.50998E+08         0.19699E+06         0.00000E+00
    0.19699E+06        -0.50015E+08         0.00000E+00
    0.00000E+00         0.00000E+00        -0.50202E+08
 
   -0.50967E+08         0.21726E+06         0.00000E+00
    0.21726E+06        -0.50018E+08         0.00000E+00
    0.00000E+00         0.00000E+00        -0.50197E+08
 
   -0.50936E+08         0.23626E+06         0.00000E+00
    0.23626E+06        -0.50022E+08         0.00000E+00
    0.00000E+00         0.00000E+00        -0.50192E+08
 
   -0.50905E+08         0.25404E+06         0.00000E+00
    0.25404E+06        -0.50025E+08         0.00000E+00
    0.00000E+00         0.00000E+00        -0.50186E+08
 
   -0.50874E+08         0.27064E+06         0.00000E+00
    0.27064E+06        -0.50029E+08         0.00000E+00
    0.00000E+00         0.00000E+00        -0.50181E+08
 
   -0.50843E+08         0.28609E+06         0.00000E+00
    0.28609E+06        -0.50033E+08         0.00000E+00
    0.00000E+00         0.00000E+00        -0.50175E+08
 
   -0.50811E+08         0.30045E+06         0.00000E+00
    0.30045E+06        -0.50037E+08         0.00000E+00
    0.00000E+00         0.00000E+00        -0.50170E+08
 
   -0.50780E+08         0.31376E+06         0.00000E+00
    0.31376E+06        -0.50041E+08         0.00000E+00
    0.00000E+00         0.00000E+00        -0.50164E+08
 
   -0.50749E+08         0.32606E+06         0.00000E+00
    0.32606E+06        -0.50046E+08         0.00000E+00
    0.00000E+00         0.00000E+00        -0.50159E+08
 
   -0.50718E+08         0.33740E+06         0.00000E+00
    0.33740E+06        -0.50050E+08         0.00000E+00
    0.00000E+00         0.00000E+00        -0.50154E+08
 
   -0.50687E+08         0.34782E+06         0.00000E+00
    0.34782E+06        -0.50054E+08         0.00000E+00
    0.00000E+00         0.00000E+00        -0.50148E+08
 
   -0.50657E+08         0.35737E+06         0.00000E+00
    0.35737E+06        -0.50058E+08         0.00000E+00
    0.00000E+00         0.00000E+00        -0.50143E+08
 
   -0.50627E+08         0.36608E+06         0.00000E+00
    0.36608E+06        -0.50062E+08         0.00000E+00
    0.00000E+00         0.00000E+00        -0.50138E+08
 
   -0.50598E+08         0.37401E+06         0.00000E+00
    0.37401E+06        -0.50066E+08         0.00000E+00
    0.00000E+00         0.00000E+00        -0.50133E+08
 
   -0.50569E+08         0.38117E+06         0.00000E+00
    0.38117E+06        -0.50070E+08         0.00000E+00
    0.00000E+00         0.00000E+00        -0.50128E+08
 
   -0.50540E+08         0.38763E+06         0.00000E+00
    0.38763E+06        -0.50074E+08         0.00000E+00
    0.00000E+00         0.00000E+00        -0.50123E+08
 
   -0.50512E+08         0.39340E+06         0.00000E+00
    0.39340E+06        -0.50078E+08         0.00000E+00
    0.00000E+00         0.00000E+00        -0.50118E+08
 
   -0.50485E+08         0.39853E+06         0.00000E+00
    0.39853E+06        -0.50082E+08         0.00000E+00
    0.00000E+00         0.00000E+00        -0.50113E+08
 
   -0.50458E+08         0.40304E+06         0.00000E+00
    0.40304E+06        -0.50085E+08         0.00000E+00
    0.00000E+00         0.00000E+00        -0.50109E+08
 
   -0.50431E+08         0.40697E+06         0.00000E+00
    0.40697E+06        -0.50089E+08         0.00000E+00
    0.00000E+00         0.00000E+00        -0.50104E+08
 
   -0.50406E+08         0.41036E+06         0.00000E+00
    0.41036E+06        -0.50093E+08         0.00000E+00
    0.00000E+00         0.00000E+00        -0.50100E+08
 
   -0.50381E+08         0.41321E+06         0.00000E+00
    0.41321E+06        -0.50097E+08         0.00000E+00
    0.00000E+00         0.00000E+00        -0.50095E+08
 
   -0.50356E+08         0.41556E+06         0.00000E+00
    0.41556E+06        -0.50101E+08         0.00000E+00
    0.00000E+00         0.00000E+00        -0.50091E+08
 
   -0.50332E+08         0.41744E+06         0.00000E+00
    0.41744E+06        -0.50104E+08         0.00000E+00
    0.00000E+00         0.00000E+00        -0.50087E+08
 
   -0.50309E+08         0.41887E+06         0.00000E+00
    0.41887E+06        -0.50108E+08         0.00000E+00
    0.00000E+00         0.00000E+00        -0.50083E+08
 
   -0.50287E+08         0.41987E+06         0.00000E+00
    0.41987E+06        -0.50112E+08         0.00000E+00
    0.00000E+00         0.00000E+00        -0.50080E+08
 
   -0.50266E+08         0.42046E+06         0.00000E+00
    0.42046E+06        -0.50115E+08         0.00000E+00
    0.00000E+00         0.00000E+00        -0.50076E+08
 
   -0.50245E+08         0.42067E+06         0.00000E+00
    0.42067E+06        -0.50119E+08         0.00000E+00
    0.00000E+00         0.00000E+00        -0.50073E+08
 
   -0.50225E+08         0.42051E+06         0.00000E+00
    0.42051E+06        -0.50123E+08         0.00000E+00
    0.00000E+00         0.00000E+00        -0.50070E+08
 
   -0.50206E+08         0.42000E+06         0.00000E+00
    0.42000E+06        -0.50126E+08         0.00000E+00
    0.00000E+00         0.00000E+00        -0.50066E+08
 
   -0.50188E+08         0.41918E+06         0.00000E+00
    0.41918E+06        -0.50130E+08         0.00000E+00
    0.00000E+00         0.00000E+00        -0.50063E+08
 
   -0.50170E+08         0.41805E+06         0.00000E+00
    0.41805E+06        -0.50133E+08         0.00000E+00
    0.00000E+00         0.00000E+00        -0.50061E+08
 
   -0.50154E+08         0.41666E+06         0.00000E+00
    0.41666E+06        -0.50137E+08         0.00000E+00
    0.00000E+00         0.00000E+00        -0.50058E+08
 
   -0.50138E+08         0.41501E+06         0.00000E+00
    0.41501E+06        -0.50140E+08         0.00000E+00
    0.00000E+00         0.00000E+00        -0.50056E+08
 
   -0.50123E+08         0.41315E+06         0.00000E+00
    0.41315E+06        -0.50144E+08         0.00000E+00
    0.00000E+00         0.00000E+00        -0.50053E+08
 
   -0.50110E+08         0.41110E+06         0.00000E+00
    0.41110E+06        -0.50147E+08         0.00000E+00
    0.00000E+00         0.00000E+00        -0.50051E+08
 
   -0.50097E+08         0.40889E+06         0.00000E+00
    0.40889E+06        -0.50150E+08         0.00000E+00
    0.00000E+00         0.00000E+00        -0.50050E+08
 
   -0.50086E+08         0.40657E+06         0.00000E+00
    0.40657E+06        -0.50153E+08         0.00000E+00
    0.00000E+00         0.00000E+00        -0.50048E+08
 
   -0.50075E+08         0.40416E+06         0.00000E+00
    0.40416E+06        -0.50156E+08         0.00000E+00
    0.00000E+00         0.00000E+00        -0.50046E+08
 
   -0.50066E+08         0.40172E+06         0.00000E+00
    0.40172E+06        -0.50159E+08         0.00000E+00
    0.00000E+00         0.00000E+00        -0.50045E+08
 
   -0.50058E+08         0.39929E+06         0.00000E+00
    0.39929E+06        -0.50162E+08         0.00000E+00
    0.00000E+00         0.00000E+00        -0.50044E+08
 
   -0.50051E+08         0.39693E+06         0.00000E+00
    0.39693E+06        -0.50164E+08         0.00000E+00
    0.00000E+00         0.00000E+00        -0.50043E+08
 
   -0.50045E+08         0.39468E+06         0.00000E+00
    0.39468E+06        -0.50167E+08         0.00000E+00
    0.00000E+00         0.00000E+00        -0.50042E+08
 
   -0.51048E+08         0.14847E+05         0.00000E+00
    0.14847E+05        -0.50000E+08         0.00000E+00
    0.00000E+00         0.00000E+00        -0.50210E+08
 
   -0.51029E+08         0.41832E+05         0.00000E+00
    0.41832E+05        -0.50001E+08         0.00000E+00
    0.00000E+00         0.00000E+00        -0.50206E+08
 
   -0.51009E+08         0.67656E+05         0.00000E+00
    0.67656E+05        -0.50002E+08         0.00000E+00
    0.00000E+00         0.00000E+00        -0.50202E+08
 
   -0.50989E+08         0.92321E+05         0.00000E+00
    0.92321E+05        -0.50004E+08         0.00000E+00
    0.00000E+00         0.00000E+00        -0.50198E+08
 
   -0.50967E+08         0.11583E+06         0.00000E+00
    0.11583E+06        -0.50006E+08         0.00000E+00
    0.00000E+00         0.00000E+00        -0.50195E+08
 
   -0.50944E+08         0.13820E+06         0.00000E+00
    0.13820E+06        -0.50009E+08         0.00000E+00
    0.00000E+00         0.00000E+00        -0.50191E+08
 
   -0.50921E+08         0.15944E+06         0.00000E+00
    0.15944E+06        -0.50012E+08         0.00000E+00
    0.00000E+00         0.00000E+00        -0.50186E+08
 
   -0.50896E+08         0.17957E+06         0.00000E+00
    0.17957E+06        -0.50015E+08         0.00000E+00
    0.00000E+00         0.00000E+00        -0.50182E+08
 
   -0.50872E+08         0.19860E+06         0.00000E+00
    0.19860E+06        -0.50019E+08         0.00000E+00
    0.00000E+00         0.00000E+00        -0.50178E+08
 
   -0.50847E+08         0.21657E+06         0.00000E+00
    0.21657E+06        -0.50023E+08         0.00000E+00
    0.00000E+00         0.00000E+00        -0.50174E+08
 
   -0.50821E+08         0.23348E+06         0.00000E+00
    0.23348E+06        -0.50027E+08         0.00000E+00
    0.00000E+00         0.00000E+00        -0.50170E+08
 
   -0.50795E+08         0.24937E+06         0.00000E+00
    0.24937E+06        -0.50032E+08         0.00000E+00
    0.00000E+00         0.00000E+00        -0.50165E+08
 
   -0.50769E+08         0.26426E+06         0.00000E+00
    0.26426E+06        -0.50036E+08         0.00000E+00
    0.00000E+00         0.00000E+00        -0.50161E+08
 
   -0.50743E+08         0.27819E+06         0.00000E+00
    0.27819E+06        -0.50041E+08         0.00000E+00
    0.00000E+00         0.00000E+00        -0.50157E+08
 
   -0.50717E+08         0.29118E+06         0.00000E+00
    0.29118E+06        -0.50046E+08         0.00000E+00
    0.00000E+00         0.00000E+00        -0.50152E+08
 
   -0.50690E+08         0.30325E+06         0.00000E+00
    0.30325E+06        -0.50051E+08         0.00000E+00
    0.00000E+00         0.00000E+00        -0.50148E+08
 
   -0.50664E+08         0.31446E+06         0.00000E+00
    0.31446E+06        -0.50056E+08         0.00000E+00
    0.00000E+00         0.00000E+00        -0.50144E+08
 
   -0.50638E+08         0.32481E+06         0.00000E+00
    0.32481E+06        -0.50061E+08         0.00000E+00
    0.00000E+00         0.00000E+00        -0.50140E+08
 
   -0.50611E+08         0.33435E+06         0.00000E+00
    0.33435E+06        -0.50066E+08         0.00000E+00
    0.00000E+00         0.00000E+00        -0.50135E+08
 
   -0.50585E+08         0.34311E+06         0.00000E+00
    0.34311E+06        -0.50071E+08         0.00000E+00
    0.00000E+00         0.00000E+00        -0.50131E+08
 
   -0.50560E+08         0.35111E+06         0.00000E+00
    0.35111E+06        -0.50076E+08         0.00000E+00
    0.00000E+00         0.00000E+00        -0.50127E+08
 
   -0.50534E+08         0.35839E+06         0.00000E+00
    0.35839E+06        -0.50081E+08         0.00000E+00
    0.00000E+00         0.00000E+00        -0.50123E+08
 
   -0.50509E+08         0.36498E+06         0.00000E+00
    0.36498E+06        -0.50086E+08         0.00000E+00
    0.00000E+00         0.00000E+00        -0.50119E+08
 
   -0.50484E+08         0.37090E+06         0.00000E+00
    0.37090E+06        -0.50091E+08         0.00000E+00
    0.00000E+00         0.00000E+00        -0.50115E+08
 
   -0.50460E+08         0.37619E+06         0.00000E+00
    0.37619E+06        -0.50096E+08         0.00000E+00
    0.00000E+00         0.00000E+00        -0.50111E+08
 
   -0.50436E+08         0.38088E+06         0.00000E+00
    0.38088E+06        -0.50101E+08         0.00000E+00
    0.00000E+00         0.00000E+00        -0.50107E+08
 
   -0.50413E+08         0.38499E+06         0.00000E+00
    0.38499E+06        -0.50106E+08         0.00000E+00
    0.00000E+00         0.00000E+00        -0.50104E+08
 
   -0.50390E+08         0.38855E+06         0.00000E+00
    0.38855E+06        -0.50111E+08         0.00000E+00
    0.00000E+00         0.00000E+00        -0.50100E+08
 
   -0.50367E+08         0.39159E+06         0.00000E+00
    0.39159E+06        -0.50116E+08         0.00000E+00
    0.00000E+00         0.00000E+00        -0.50096E+08
 
   -0.50345E+08         0.39413E+06         0.00000E+00
    0.39413E+06        -0.50120E+08         0.00000E+00
    0.00000E+00         0.00000E+00        -0.50093E+08
 
   -0.50324E+08         0.39620E+06         0.00000E+00
    0.39620E+06        -0.50125E+08         0.00000E+00
    0.00000E+00         0.00000E+00        -0.50090E+08
 
   -0.50303E+08         0.39782E+06         0.00000E+00
    0.39782E+06        -0.50130E+08         0.00000E+00
    0.00000E+00         0.00000E+00        -0.50086E+08
 
   -0.50283E+08         0.39903E+06         0.00000E+00
    0.39903E+06        -0.50134E+08         0.00000E+00
    0.00000E+00         0.00000E+00        -0.50083E+08
 
   -0.50263E+08         0.39984E+06         0.00000E+00
    0.39984E+06        -0.50139E+08         0.00000E+00
    0.00000E+00         0.00000E+00        -0.50080E+08
 
   -0.50244E+08         0.40028E+06         0.00000E+00
    0.40028E+06        -0.50143E+08         0.00000E+00
    0.00000E+00         0.00000E+00        -0.50077E+08
 
   -0.50226E+08         0.40038E+06         0.00000E+00
    0.40038E+06        -0.50148E+08         0.00000E+00
    0.00000E+00         0.00000E+00        -0.50075E+08
 
   -0.50208E+08         0.40017E+06         0.00000E+00
    0.40017E+06        -0.50152E+08         0.00000E+00
    0.00000E+00         0.00000E+00        -0.50072E+08
 
   -0.50191E+08         0.39966E+06         0.00000E+00
    0.39966E+06        -0.50156E+08         0.00000E+00
    0.00000E+00         0.00000E+00        -0.50070E+08
 
   -0.50175E+08         0.39889E+06         0.00000E+00
    0.39889E+06        -0.50160E+08         0.00000E+00
    0.00000E+00         0.00000E+00        -0.50067E+08
 
   -0.50160E+08         0.39789E+06         0.00000E+00
    0.39789E+06        -0.50164E+08         0.00000E+00
    0.00000E+00         0.00000E+00        -0.50065E+08
 
   -0.50146E+08         0.39668E+06         0.00000E+00
    0.39668E+06        -0.50168E+08         0.00000E+00
    0.00000E+00         0.00000E+00        -0.50063E+08
 
   -0.50132E+08         0.39530E+06         0.00000E+00
    0.39530E+06        -0.50172E+08         0.00000E+00
    0.00000E+00         0.00000E+00        -0.50061E+08
 
   -0.50119E+08         0.39378E+06         0.00000E+00
    0.39378E+06        -0.50176E+08         0.00000E+00
    0.00000E+00         0.00000E+00        -0.50059E+08
 
   -0.50107E+08         0.39216E+06         0.00000E+00
    0.39216E+06        -0.50180E+08         0.00000E+00
    0.00000E+00         0.00000E+00        -0.50057E+08
 
   -0.50096E+08         0.39047E+06         0.00000E+00
    0.39047E+06        -0.50183E+08         0.00000E+00
    0.00000E+00         0.00000E+00        -0.50056E+08
 
   -0.50085E+08         0.38876E+06         0.00000E+00
    0.38876E+06        -0.50186E+08         0.00000E+00
    0.00000E+00         0.00000E+00        -0.50054E+08
 
   -0.50076E+08         0.38705E+06         0.00000E+00
    0.38705E+06        -0.50190E+08         0.00000E+00
    0.00000E+00         0.00000E+00        -0.50053E+08
 
   -0.50067E+08         0.38541E+06         0.00000E+00
    0.38541E+06        -0.50193E+08         0.00000E+00
    0.00000E+00         0.00000E+00        -0.50052E+08
 
   -0.50060E+08         0.38386E+06         0.00000E+00
    0.38386E+06        -0.50195E+08         0.00000E+00
    0.00000E+00         0.00000E+00        -0.50051E+08
 
   -0.50053E+08         0.38247E+06         0.00000E+00
    0.38247E+06        -0.50198E+08         0.00000E+00
    0.00000E+00         0.00000E+00        -0.50050E+08
 
   -0.50918E+08         0.12999E+05         0.00000E+00
    0.12999E+05        -0.50000E+08         0.00000E+00
    0.00000E+00         0.00000E+00        -0.50184E+08
 
   -0.50905E+08         0.36928E+05         0.00000E+00
    0.36928E+05        -0.50001E+08         0.00000E+00
    0.00000E+00         0.00000E+00        -0.50181E+08
 
   -0.50890E+08         0.59957E+05         0.00000E+00
    0.59957E+05        -0.50002E+08         0.00000E+00
    0.00000E+00         0.00000E+00        -0.50178E+08
 
   -0.50874E+08         0.82076E+05         0.00000E+00
    0.82076E+05        -0.50004E+08         0.00000E+00
    0.00000E+00         0.00000E+00        -0.50176E+08
 
   -0.50857E+08         0.10328E+06         0.00000E+00
    0.10328E+06        -0.50006E+08         0.00000E+00
    0.00000E+00         0.00000E+00        -0.50173E+08
 
   -0.50840E+08         0.12357E+06         0.00000E+00
    0.12357E+06        -0.50009E+08         0.00000E+00
    0.00000E+00         0.00000E+00        -0.50170E+08
 
   -0.50821E+08         0.14294E+06         0.00000E+00
    0.14294E+06        -0.50012E+08         0.00000E+00
    0.00000E+00         0.00000E+00        -0.50167E+08
 
   -0.50802E+08         0.16140E+06         0.00000E+00
    0.16140E+06        -0.50015E+08         0.00000E+00
    0.00000E+00         0.00000E+00        -0.50164E+08
 
   -0.50783E+08         0.17896E+06         0.00000E+00
    0.17896E+06        -0.50019E+08         0.00000E+00
    0.00000E+00         0.00000E+00        -0.50160E+08
 
   -0.50762E+08         0.19563E+06         0.00000E+00
    0.19563E+06        -0.50023E+08         0.00000E+00
    0.00000E+00         0.00000E+00        -0.50157E+08
 
   -0.50742E+08         0.21141E+06         0.00000E+00
    0.21141E+06        -0.50027E+08         0.00000E+00
    0.00000E+00         0.00000E+00        -0.50154E+08
 
   -0.50720E+08         0.22633E+06         0.00000E+00
    0.22633E+06        -0.50032E+08         0.00000E+00
    0.00000E+00         0.00000E+00        -0.50150E+08
 
   -0.50699E+08         0.24039E+06         0.00000E+00
    0.24039E+06        -0.50037E+08         0.00000E+00
    0.00000E+00         0.00000E+00        -0.50147E+08
 
   -0.50677E+08         0.25361E+06         0.00000E+00
    0.25361E+06        -0.50042E+08         0.00000E+00
    0.00000E+00         0.00000E+00        -0.50144E+08
 
   -0.50655E+08         0.26602E+06         0.00000E+00
    0.26602E+06        -0.50047E+08         0.00000E+00
    0.00000E+00         0.00000E+00        -0.50140E+08
 
   -0.50633E+08         0.27763E+06         0.00000E+00
    0.27763E+06        -0.50052E+08         0.00000E+00
    0.00000E+00         0.00000E+00        -0.50137E+08
 
   -0.50611E+08         0.28846E+06         0.00000E+00
    0.28846E+06        -0.50057E+08         0.00000E+00
    0.00000E+00         0.00000E+00        -0.50134E+08
 
   -0.50588E+08         0.29853E+06         0.00000E+00
    0.29853E+06        -0.50063E+08         0.00000E+00
    0.00000E+00         0.00000E+00        -0.50130E+08
 
   -0.50566E+08         0.30787E+06         0.00000E+00
    0.30787E+06        -0.50068E+08         0.00000E+00
    0.00000E+00         0.00000E+00        -0.50127E+08
 
   -0.50544E+08         0.31650E+06         0.00000E+00
    0.31650E+06        -0.50074E+08         0.00000E+00
    0.00000E+00         0.00000E+00        -0.50123E+08
 
   -0.50522E+08         0.32444E+06         0.00000E+00
    0.32444E+06        -0.50079E+08         0.00000E+00
    0.00000E+00         0.00000E+00        -0.50120E+08
 
   -0.50499E+08         0.33172E+06         0.00000E+00
    0.33172E+06        -0.50085E+08         0.00000E+00
    0.00000E+00         0.00000E+00        -0.50117E+08
 
   -0.50478E+08         0.33836E+06         0.00000E+00
    0.33836E+06        -0.50090E+08         0.00000E+00
    0.00000E+00         0.00000E+00        -0.50114E+08
 
   -0.50456E+08         0.34438E+06         0.00000E+00
    0.34438E+06        -0.50096E+08         0.00000E+00
    0.00000E+00         0.00000E+00        -0.50110E+08
 
   -0.50435E+08         0.34980E+06         0.00000E+00
    0.34980E+06        -0.50101E+08         0.00000E+00
    0.00000E+00         0.00000E+00        -0.50107E+08
 
   -0.50414E+08         0.35466E+06         0.00000E+00
    0.35466E+06        -0.50107E+08         0.00000E+00
    0.00000E+00         0.00000E+00        -0.50104E+08
 
   -0.50393E+08         0.35898E+06         0.00000E+00
    0.35898E+06        -0.50112E+08         0.00000E+00
    0.00000E+00         0.00000E+00        -0.50101E+08
 
   -0.50372E+08         0.36277E+06         0.00000E+00
    0.36277E+06        -0.50118E+08         0.00000E+00
    0.00000E+00         0.00000E+00        -0.50098E+08
 
   -0.50352E+08         0.36607E+06         0.00000E+00
    0.36607E+06        -0.50123E+08         0.00000E+00
    0.00000E+00         0.00000E+00        -0.50095E+08
 
   -0.50333E+08         0.36890E+06         0.00000E+00
    0.36890E+06        -0.50128E+08         0.00000E+00
    0.00000E+00         0.00000E+00        -0.50092E+08
 
   -0.50313E+08         0.37129E+06         0.00000E+00
    0.37129E+06        -0.50134E+08         0.00000E+00
    0.00000E+00         0.00000E+00        -0.50089E+08
 
   -0.50295E+08         0.37325E+06         0.00000E+00
    0.37325E+06        -0.50139E+08         0.00000E+00
    0.00000E+00         0.00000E+00        -0.50087E+08
 
   -0.50276E+08         0.37482E+06         0.00000E+00
    0.37482E+06        -0.50144E+08         0.00000E+00
    0.00000E+00         0.00000E+00        -0.50084E+08
 
   -0.50259E+08         0.37602E+06         0.00000E+00
    0.37602E+06        -0.50149E+08         0.00000E+00
    0.00000E+00         0.00000E+00        -0.50082E+08
 
   -0.50242E+08         0.37688E+06         0.00000E+00
    0.37688E+06        -0.50154E+08         0.00000E+00
    0.00000E+00         0.00000E+00        -0.50079E+08
 
   -0.50225E+08         0.37741E+06         0.00000E+00
    0.37741E+06        -0.50159E+08         0.00000E+00
    0.00000E+00         0.00000E+00        -0.50077E+08
 
   -0.50209E+08         0.37765E+06         0.00000E+00
    0.37765E+06        -0.50163E+08         0.00000E+00
    0.00000E+00         0.00000E+00        -0.50074E+08
 
   -0.50193E+08         0.37763E+06         0.00000E+00
    0.37763E+06        -0.50168E+08         0.00000E+00
    0.00000E+00         0.00000E+00        -0.50072E+08
 
   -0.50178E+08         0.37738E+06         0.00000E+00
    0.37738E+06        -0.50173E+08         0.00000E+00
    0.00000E+00         0.00000E+00        -0.50070E+08
 
   -0.50164E+08         0.37691E+06         0.00000E+00
    0.37691E+06        -0.50177E+08         0.00000E+00
    0.00000E+00         0.00000E+00        -0.50068E+08
 
   -0.50151E+08         0.37627E+06         0.00000E+00
    0.37627E+06        -0.50181E+08         0.00000E+00
    0.00000E+00         0.00000E+00        -0.50066E+08
 
   -0.50138E+08         0.37548E+06         0.00000E+00
    0.37548E+06        -0.50186E+08         0.00000E+00
    0.00000E+00         0.00000E+00        -0.50065E+08
 
   -0.50125E+08         0.37457E+06         0.00000E+00
    0.37457E+06        -0.50190E+08         0.00000E+00
    0.00000E+00         0.00000E+00        -0.50063E+08
 
   -0.50113E+08         0.37358E+06         0.00000E+00
    0.37358E+06        -0.50194E+08         0.00000E+00
    0.00000E+00         0.00000E+00        -0.50061E+08
 
   -0.50102E+08         0.37255E+06         0.00000E+00
    0.37255E+06        -0.50197E+08         0.00000E+00
    0.00000E+00         0.00000E+00        -0.50060E+08
 
   -0.50092E+08         0.37150E+06         0.00000E+00
    0.37150E+06        -0.50201E+08         0.00000E+00
    0.00000E+00         0.00000E+00        -0.50059E+08
 
   -0.50083E+08         0.37047E+06         0.00000E+00
    0.37047E+06        -0.50205E+08         0.00000E+00
    0.00000E+00         0.00000E+00        -0.50057E+08
 
   -0.50074E+08         0.36951E+06         0.00000E+00
    0.36951E+06        -0.50208E+08         0.00000E+00
    0.00000E+00         0.00000E+00        -0.50056E+08
 
   -0.50065E+08         0.36865E+06         0.00000E+00
    0.36865E+06        -0.50211E+08         0.00000E+00
    0.00000E+00         0.00000E+00        -0.50055E+08
 
   -0.50058E+08         0.36793E+06         0.00000E+00
    0.36793E+06        -0.50215E+08         0.00000E+00
    0.00000E+00         0.00000E+00        -0.50054E+08
 
   -0.50804E+08         0.11285E+05         0.00000E+00
    0.11285E+05        -0.50000E+08         0.00000E+00
    0.00000E+00         0.00000E+00        -0.50161E+08
 
   -0.50794E+08         0.32305E+05         0.00000E+00
    0.32305E+05        -0.50000E+08         0.00000E+00
    0.00000E+00         0.00000E+00        -0.50159E+08
 
   -0.50784E+08         0.52638E+05         0.00000E+00
    0.52638E+05        -0.50002E+08         0.00000E+00
    0.00000E+00         0.00000E+00        -0.50157E+08
 
   -0.50772E+08         0.72268E+05         0.00000E+00
    0.72268E+05        -0.50003E+08         0.00000E+00
    0.00000E+00         0.00000E+00        -0.50155E+08
 
   -0.50759E+08         0.91183E+05         0.00000E+00
    0.91183E+05        -0.50005E+08         0.00000E+00
    0.00000E+00         0.00000E+00        -0.50153E+08
 
   -0.50746E+08         0.10937E+06         0.00000E+00
    0.10937E+06        -0.50008E+08         0.00000E+00
    0.00000E+00         0.00000E+00        -0.50151E+08
 
   -0.50731E+08         0.12683E+06         0.00000E+00
    0.12683E+06        -0.50011E+08         0.00000E+00
    0.00000E+00         0.00000E+00        -0.50148E+08
 
   -0.50716E+08         0.14356E+06         0.00000E+00
    0.14356E+06        -0.50014E+08         0.00000E+00
    0.00000E+00         0.00000E+00        -0.50146E+08
 
   -0.50701E+08         0.15955E+06         0.00000E+00
    0.15955E+06        -0.50018E+08         0.00000E+00
    0.00000E+00         0.00000E+00        -0.50144E+08
 
   -0.50685E+08         0.17480E+06         0.00000E+00
    0.17480E+06        -0.50022E+08         0.00000E+00
    0.00000E+00         0.00000E+00        -0.50141E+08
 
   -0.50668E+08         0.18933E+06         0.00000E+00
    0.18933E+06        -0.50026E+08         0.00000E+00
    0.00000E+00         0.00000E+00        -0.50139E+08
 
   -0.50651E+08         0.20313E+06         0.00000E+00
    0.20313E+06        -0.50031E+08         0.00000E+00
    0.00000E+00         0.00000E+00        -0.50136E+08
 
   -0.50633E+08         0.21621E+06         0.00000E+00
    0.21621E+06        -0.50035E+08         0.00000E+00
    0.00000E+00         0.00000E+00        -0.50134E+08
 
   -0.50615E+08         0.22858E+06         0.00000E+00
    0.22858E+06        -0.50040E+08         0.00000E+00
    0.00000E+00         0.00000E+00        -0.50131E+08
 
   -0.50597E+08         0.24026E+06         0.00000E+00
    0.24026E+06        -0.50045E+08         0.00000E+00
    0.00000E+00         0.00000E+00        -0.50128E+08
 
   -0.50578E+08         0.25124E+06         0.00000E+00
    0.25124E+06        -0.50050E+08         0.00000E+00
    0.00000E+00         0.00000E+00        -0.50126E+08
 
   -0.50559E+08         0.26155E+06         0.00000E+00
    0.26155E+06        -0.50056E+08         0.00000E+00
    0.00000E+00         0.00000E+00        -0.50123E+08
 
   -0.50541E+08         0.27121E+06         0.00000E+00
    0.27121E+06        -0.50061E+08         0.00000E+00
    0.00000E+00         0.00000E+00        -0.50120E+08
 
   -0.50522E+08         0.28021E+06         0.00000E+00
    0.28021E+06        -0.50067E+08         0.00000E+00
    0.00000E+00         0.00000E+00        -0.50118E+08
 
   -0.50503E+08         0.28859E+06         0.00000E+00
    0.28859E+06        -0.50072E+08         0.00000E+00
    0.00000E+00         0.00000E+00        -0.50115E+08
 
   -0.50484E+08         0.29636E+06         0.00000E+00
    0.29636E+06        -0.50078E+08         0.00000E+00
    0.00000E+00         0.00000E+00        -0.50112E+08
 
   -0.50465E+08         0.30353E+06         0.00000E+00
    0.30353E+06        -0.50084E+08         0.00000E+00
    0.00000E+00         0.00000E+00        -0.50110E+08
 
   -0.50446E+08         0.31013E+06         0.00000E+00
    0.31013E+06        -0.50089E+08         0.00000E+00
    0.00000E+00         0.00000E+00        -0.50107E+08
 
   -0.50427E+08         0.31618E+06         0.00000E+00
    0.31618E+06        -0.50095E+08         0.00000E+00
    0.00000E+00         0.00000E+00        -0.50104E+08
 
   -0.50409E+08         0.32168E+06         0.00000E+00
    0.32168E+06        -0.50101E+08         0.00000E+00
    0.00000E+00         0.00000E+00        -0.50102E+08
 
   -0.50390E+08         0.32667E+06         0.00000E+00
    0.32667E+06        -0.50106E+08         0.00000E+00
    0.00000E+00         0.00000E+00        -0.50099E+08
 
   -0.50372E+08         0.33116E+06         0.00000E+00
    0.33116E+06        -0.50112E+08         0.00000E+00
    0.00000E+00         0.00000E+00        -0.50097E+08
 
   -0.50354E+08         0.33518E+06         0.00000E+00
    0.33518E+06        -0.50118E+08         0.00000E+00
    0.00000E+00         0.00000E+00        -0.50094E+08
 
   -0.50336E+08         0.33874E+06         0.00000E+00
    0.33874E+06        -0.50123E+08         0.00000E+00
    0.00000E+00         0.00000E+00        -0.50092E+08
 
   -0.50319E+08         0.34187E+06         0.00000E+00
    0.34187E+06        -0.50129E+08         0.00000E+00
    0.00000E+00         0.00000E+00        -0.50089E+08
 
   -0.50302E+08         0.34460E+06         0.00000E+00
    0.34460E+06        -0.50134E+08         0.00000E+00
    0.00000E+00         0.00000E+00        -0.50087E+08
 
   -0.50285E+08         0.34693E+06         0.00000E+00
    0.34693E+06        -0.50140E+08         0.00000E+00
    0.00000E+00         0.00000E+00        -0.50085E+08
 
   -0.50268E+08         0.34890E+06         0.00000E+00
    0.34890E+06        -0.50145E+08         0.00000E+00
    0.00000E+00         0.00000E+00        -0.50083E+08
 
   -0.50252E+08         0.35052E+06         0.00000E+00
    0.35052E+06        -0.50150E+08         0.00000E+00
    0.00000E+00         0.00000E+00        -0.50081E+08
 
   -0.50237E+08         0.35183E+06         0.00000E+00
    0.35183E+06        -0.50155E+08         0.00000E+00
    0.00000E+00         0.00000E+00        -0.50078E+08
 
   -0.50222E+08         0.35284E+06         0.00000E+00
    0.35284E+06        -0.50160E+08         0.00000E+00
    0.00000E+00         0.00000E+00        -0.50076E+08
 
   -0.50207E+08         0.35359E+06         0.00000E+00
    0.35359E+06        -0.50165E+08         0.00000E+00
    0.00000E+00         0.00000E+00        -0.50074E+08
 
   -0.50193E+08         0.35409E+06         0.00000E+00
    0.35409E+06        -0.50170E+08         0.00000E+00
    0.00000E+00         0.00000E+00        -0.50073E+08
 
   -0.50179E+08         0.35438E+06         0.00000E+00
    0.35438E+06        -0.50175E+08         0.00000E+00
    0.00000E+00         0.00000E+00        -0.50071E+08
 
   -0.50165E+08         0.35447E+06         0.00000E+00
    0.35447E+06        -0.50179E+08         0.00000E+00
    0.00000E+00         0.00000E+00        -0.50069E+08
 
   -0.50153E+08         0.35440E+06         0.00000E+00
    0.35440E+06        -0.50184E+08         0.00000E+00
    0.00000E+00         0.00000E+00        -0.50067E+08
 
   -0.50140E+08         0.35420E+06         0.00000E+00
    0.35420E+06        -0.50188E+08         0.00000E+00
    0.00000E+00         0.00000E+00        -0.50066E+08
 
   -0.50128E+08         0.35389E+06         0.00000E+00
    0.35389E+06        -0.50193E+08         0.00000E+00
    0.00000E+00         0.00000E+00        -0.50064E+08
 
   -0.50117E+08         0.35350E+06         0.00000E+00
    0.35350E+06        -0.50197E+08         0.00000E+00
    0.00000E+00         0.00000E+00        -0.50063E+08
 
   -0.50106E+08         0.35306E+06         0.00000E+00
    0.35306E+06        -0.50201E+08         0.00000E+00
    0.00000E+00         0.00000E+00        -0.50061E+08
 
   -0.50096E+08         0.35261E+06         0.00000E+00
    0.35261E+06        -0.50205E+08         0.00000E+00
    0.00000E+00         0.00000E+00        -0.50060E+08
 
   -0.50086E+08         0.35216E+06         0.00000E+00
    0.35216E+06        -0.50209E+08         0.00000E+00
    0.00000E+00         0.00000E+00        -0.50059E+08
 
   -0.50077E+08         0.35177E+06         0.00000E+00
    0.35177E+06        -0.50213E+08         0.00000E+00
    0.00000E+00         0.00000E+00        -0.50058E+08
 
   -0.50068E+08         0.35145E+06         0.00000E+00
    0.35145E+06        -0.50216E+08         0.00000E+00
    0.00000E+00         0.00000E+00        -0.50057E+08
 
   -0.50059E+08         0.35124E+06         0.00000E+00
    0.35124E+06        -0.50220E+08         0.00000E+00
    0.00000E+00         0.00000E+00        -0.50056E+08
 
   -0.50704E+08         0.97389E+04         0.00000E+00
    0.97389E+04        -0.50000E+08         0.00000E+00
    0.00000E+00         0.00000E+00        -0.50141E+08
 
   -0.50697E+08         0.28078E+05         0.00000E+00
    0.28078E+05        -0.50000E+08         0.00000E+00
    0.00000E+00         0.00000E+00        -0.50140E+08
 
   -0.50690E+08         0.45902E+05         0.00000E+00
    0.45902E+05        -0.50001E+08         0.00000E+00
    0.00000E+00         0.00000E+00        -0.50138E+08
 
   -0.50681E+08         0.63191E+05         0.00000E+00
    0.63191E+05        -0.50003E+08         0.00000E+00
    0.00000E+00         0.00000E+00        -0.50137E+08
 
   -0.50672E+08         0.79929E+05         0.00000E+00
    0.79929E+05        -0.50005E+08         0.00000E+00
    0.00000E+00         0.00000E+00        -0.50135E+08
 
   -0.50661E+08         0.96103E+05         0.00000E+00
    0.96103E+05        -0.50007E+08         0.00000E+00
    0.00000E+00         0.00000E+00        -0.50134E+08
 
   -0.50650E+08         0.11170E+06         0.00000E+00
    0.11170E+06        -0.50010E+08         0.00000E+00
    0.00000E+00         0.00000E+00        -0.50132E+08
 
   -0.50639E+08         0.12671E+06         0.00000E+00
    0.12671E+06        -0.50013E+08         0.00000E+00
    0.00000E+00         0.00000E+00        -0.50130E+08
 
   -0.50626E+08         0.14114E+06         0.00000E+00
    0.14114E+06        -0.50017E+08         0.00000E+00
    0.00000E+00         0.00000E+00        -0.50129E+08
 
   -0.50613E+08         0.15497E+06         0.00000E+00
    0.15497E+06        -0.50020E+08         0.00000E+00
    0.00000E+00         0.00000E+00        -0.50127E+08
 
   -0.50600E+08         0.16820E+06         0.00000E+00
    0.16820E+06        -0.50024E+08         0.00000E+00
    0.00000E+00         0.00000E+00        -0.50125E+08
 
   -0.50586E+08         0.18083E+06         0.00000E+00
    0.18083E+06        -0.50028E+08         0.00000E+00
    0.00000E+00         0.00000E+00        -0.50123E+08
 
   -0.50572E+08         0.19287E+06         0.00000E+00
    0.19287E+06        -0.50033E+08         0.00000E+00
    0.00000E+00         0.00000E+00        -0.50121E+08
 
   -0.50557E+08         0.20432E+06         0.00000E+00
    0.20432E+06        -0.50038E+08         0.00000E+00
    0.00000E+00         0.00000E+00        -0.50119E+08
 
   -0.50542E+08         0.21518E+06         0.00000E+00
    0.21518E+06        -0.50042E+08         0.00000E+00
    0.00000E+00         0.00000E+00        -0.50117E+08
 
   -0.50527E+08         0.22546E+06         0.00000E+00
    0.22546E+06        -0.50047E+08         0.00000E+00
    0.00000E+00         0.00000E+00        -0.50115E+08
 
   -0.50511E+08         0.23516E+06         0.00000E+00
    0.23516E+06        -0.50052E+08         0.00000E+00
    0.00000E+00         0.00000E+00        -0.50113E+08
 
   -0.50495E+08         0.24430E+06         0.00000E+00
    0.24430E+06        -0.50058E+08         0.00000E+00
    0.00000E+00         0.00000E+00        -0.50111E+08
 
   -0.50479E+08         0.25288E+06         0.00000E+00
    0.25288E+06        -0.50063E+08         0.00000E+00
    0.00000E+00         0.00000E+00        -0.50108E+08
 
   -0.50463E+08         0.26092E+06         0.00000E+00
    0.26092E+06        -0.50068E+08         0.00000E+00
    0.00000E+00         0.00000E+00        -0.50106E+08
 
   -0.50447E+08         0.26843E+06         0.00000E+00
    0.26843E+06        -0.50074E+08         0.00000E+00
    0.00000E+00         0.00000E+00        -0.50104E+08
 
   -0.50431E+08         0.27542E+06         0.00000E+00
    0.27542E+06        -0.50079E+08         0.00000E+00
    0.00000E+00         0.00000E+00        -0.50102E+08
 
   -0.50414E+08         0.28190E+06         0.00000E+00
    0.28190E+06        -0.50085E+08         0.00000E+00
    0.00000E+00         0.00000E+00        -0.50100E+08
 
   -0.50398E+08         0.28789E+06         0.00000E+00
    0.28789E+06        -0.50091E+08         0.00000E+00
    0.00000E+00         0.00000E+00        -0.50098E+08
 
   -0.50382E+08         0.29341E+06         0.00000E+00
    0.29341E+06        -0.50096E+08         0.00000E+00
    0.00000E+00         0.00000E+00        -0.50096E+08
 
   -0.50366E+08         0.29846E+06         0.00000E+00
    0.29846E+06        -0.50102E+08         0.00000E+00
    0.00000E+00         0.00000E+00        -0.50094E+08
 
   -0.50350E+08         0.30307E+06         0.00000E+00
    0.30307E+06        -0.50107E+08         0.00000E+00
    0.00000E+00         0.00000E+00        -0.50091E+08
 
   -0.50334E+08         0.30726E+06         0.00000E+00
    0.30726E+06        -0.50113E+08         0.00000E+00
    0.00000E+00         0.00000E+00        -0.50089E+08
 
   -0.50319E+08         0.31104E+06         0.00000E+00
    0.31104E+06        -0.50118E+08         0.00000E+00
    0.00000E+00         0.00000E+00        -0.50087E+08
 
   -0.50303E+08         0.31443E+06         0.00000E+00
    0.31443E+06        -0.50124E+08         0.00000E+00
    0.00000E+00         0.00000E+00        -0.50085E+08
 
   -0.50288E+08         0.31744E+06         0.00000E+00
    0.31744E+06        -0.50129E+08         0.00000E+00
    0.00000E+00         0.00000E+00        -0.50083E+08
 
   -0.50273E+08         0.32011E+06         0.00000E+00
    0.32011E+06        -0.50135E+08         0.00000E+00
    0.00000E+00         0.00000E+00        -0.50082E+08
 
   -0.50258E+08         0.32244E+06         0.00000E+00
    0.32244E+06        -0.50140E+08         0.00000E+00
    0.00000E+00         0.00000E+00        -0.50080E+08
 
   -0.50244E+08         0.32447E+06         0.00000E+00
    0.32447E+06        -0.50145E+08         0.00000E+00
    0.00000E+00         0.00000E+00        -0.50078E+08
 
   -0.50230E+08         0.32620E+06         0.00000E+00
    0.32620E+06        -0.50150E+08         0.00000E+00
    0.00000E+00         0.00000E+00        -0.50076E+08
 
   -0.50216E+08         0.32766E+06         0.00000E+00
    0.32766E+06        -0.50156E+08         0.00000E+00
    0.00000E+00         0.00000E+00        -0.50074E+08
 
   -0.50202E+08         0.32888E+06         0.00000E+00
    0.32888E+06        -0.50161E+08         0.00000E+00
    0.00000E+00         0.00000E+00        -0.50073E+08
 
   -0.50189E+08         0.32987E+06         0.00000E+00
    0.32987E+06        -0.50165E+08         0.00000E+00
    0.00000E+00         0.00000E+00        -0.50071E+08
 
   -0.50176E+08         0.33065E+06         0.00000E+00
    0.33065E+06        -0.50170E+08         0.00000E+00
    0.00000E+00         0.00000E+00        -0.50069E+08
 
   -0.50164E+08         0.33126E+06         0.00000E+00
    0.33126E+06        -0.50175E+08         0.00000E+00
    0.00000E+00         0.00000E+00        -0.50068E+08
 
   -0.50152E+08         0.33171E+06         0.00000E+00
    0.33171E+06        -0.50180E+08         0.00000E+00
    0.00000E+00         0.00000E+00        -0.50066E+08
 
   -0.50140E+08         0.33203E+06         0.00000E+00
    0.33203E+06        -0.50184E+08         0.00000E+00
    0.00000E+00         0.00000E+00        -0.50065E+08
 
   -0.50129E+08         0.33224E+06         0.00000E+00
    0.33224E+06        -0.50189E+08         0.00000E+00
    0.00000E+00         0.00000E+00        -0.50063E+08
 
   -0.50118E+08         0.33237E+06         0.00000E+00
    0.33237E+06        -0.50193E+08         0.00000E+00
    0.00000E+00         0.00000E+00        -0.50062E+08
 
   -0.50107E+08         0.33245E+06         0.00000E+00
    0.33245E+06        -0.50197E+08         0.00000E+00
    0.00000E+00         0.00000E+00        -0.50061E+08
 
   -0.50097E+08         0.33249E+06         0.00000E+00
    0.33249E+06        -0.50201E+08         0.00000E+00
    0.00000E+00         0.00000E+00        -0.50060E+08
 
   -0.50087E+08         0.33252E+06         0.00000E+00
    0.33252E+06        -0.50205E+08         0.00000E+00
    0.00000E+00         0.00000E+00        -0.50058E+08
 
   -0.50077E+08         0.33257E+06         0.00000E+00
    0.33257E+06        -0.50209E+08         0.00000E+00
    0.00000E+00         0.00000E+00        -0.50057E+08
 
   -0.50068E+08         0.33267E+06         0.00000E+00
    0.33267E+06        -0.50213E+08         0.00000E+00
    0.00000E+00         0.00000E+00        -0.50056E+08
 
   -0.50059E+08         0.33284E+06         0.00000E+00
    0.33284E+06        -0.50217E+08         0.00000E+00
    0.00000E+00         0.00000E+00        -0.50055E+08
 
   -0.50617E+08         0.83729E+04         0.00000E+00
    0.83729E+04        -0.50000E+08         0.00000E+00
    0.00000E+00         0.00000E+00        -0.50123E+08
 
   -0.50613E+08         0.24300E+05         0.00000E+00
    0.24300E+05        -0.50000E+08         0.00000E+00
    0.00000E+00         0.00000E+00        -0.50123E+08
 
   -0.50608E+08         0.39848E+05         0.00000E+00
    0.39848E+05        -0.50001E+08         0.00000E+00
    0.00000E+00         0.00000E+00        -0.50122E+08
 
   -0.50601E+08         0.54996E+05         0.00000E+00
    0.54996E+05        -0.50003E+08         0.00000E+00
    0.00000E+00         0.00000E+00        -0.50121E+08
 
   -0.50594E+08         0.69725E+05         0.00000E+00
    0.69725E+05        -0.50004E+08         0.00000E+00
    0.00000E+00         0.00000E+00        -0.50120E+08
 
   -0.50587E+08         0.84020E+05         0.00000E+00
    0.84020E+05        -0.50007E+08         0.00000E+00
    0.00000E+00         0.00000E+00        -0.50119E+08
 
   -0.50578E+08         0.97868E+05         0.00000E+00
    0.97868E+05        -0.50009E+08         0.00000E+00
    0.00000E+00         0.00000E+00        -0.50117E+08
 
   -0.50569E+08         0.11126E+06         0.00000E+00
    0.11126E+06        -0.50012E+08         0.00000E+00
    0.00000E+00         0.00000E+00        -0.50116E+08
 
   -0.50559E+08         0.12418E+06         0.00000E+00
    0.12418E+06        -0.50015E+08         0.00000E+00
    0.00000E+00         0.00000E+00        -0.50115E+08
 
   -0.50549E+08         0.13662E+06         0.00000E+00
    0.13662E+06        -0.50018E+08         0.00000E+00
    0.00000E+00         0.00000E+00        -0.50113E+08
 
   -0.50538E+08         0.14859E+06         0.00000E+00
    0.14859E+06        -0.50022E+08         0.00000E+00
    0.00000E+00         0.00000E+00        -0.50112E+08
 
   -0.50527E+08         0.16007E+06         0.00000E+00
    0.16007E+06        -0.50026E+08         0.00000E+00
    0.00000E+00         0.00000E+00        -0.50111E+08
 
   -0.50515E+08         0.17106E+06         0.00000E+00
    0.17106E+06        -0.50030E+08         0.00000E+00
    0.00000E+00         0.00000E+00        -0.50109E+08
 
   -0.50503E+08         0.18156E+06         0.00000E+00
    0.18156E+06        -0.50034E+08         0.00000E+00
    0.00000E+00         0.00000E+00        -0.50108E+08
 
   -0.50491E+08         0.19158E+06         0.00000E+00
    0.19158E+06        -0.50039E+08         0.00000E+00
    0.00000E+00         0.00000E+00        -0.50106E+08
 
   -0.50478E+08         0.20111E+06         0.00000E+00
    0.20111E+06        -0.50043E+08         0.00000E+00
    0.00000E+00         0.00000E+00        -0.50104E+08
 
   -0.50465E+08         0.21016E+06         0.00000E+00
    0.21016E+06        -0.50048E+08         0.00000E+00
    0.00000E+00         0.00000E+00        -0.50103E+08
 
   -0.50452E+08         0.21873E+06         0.00000E+00
    0.21873E+06        -0.50053E+08         0.00000E+00
    0.00000E+00         0.00000E+00        -0.50101E+08
 
   -0.50439E+08         0.22683E+06         0.00000E+00
    0.22683E+06        -0.50058E+08         0.00000E+00
    0.00000E+00         0.00000E+00        -0.50099E+08
 
   -0.50425E+08         0.23447E+06         0.00000E+00
    0.23447E+06        -0.50063E+08         0.00000E+00
    0.00000E+00         0.00000E+00        -0.50098E+08
 
   -0.50411E+08         0.24165E+06         0.00000E+00
    0.24165E+06        -0.50068E+08         0.00000E+00
    0.00000E+00         0.00000E+00        -0.50096E+08
 
   -0.50398E+08         0.24839E+06         0.00000E+00
    0.24839E+06        -0.50073E+08         0.00000E+00
    0.00000E+00         0.00000E+00        -0.50094E+08
 
   -0.50384E+08         0.25468E+06         0.00000E+00
    0.25468E+06        -0.50079E+08         0.00000E+00
    0.00000E+00         0.00000E+00        -0.50092E+08
 
   -0.50370E+08         0.26055E+06         0.00000E+00
    0.26055E+06        -0.50084E+08         0.00000E+00
    0.00000E+00         0.00000E+00        -0.50091E+08
 
   -0.50356E+08         0.26601E+06         0.00000E+00
    0.26601E+06        -0.50089E+08         0.00000E+00
    0.00000E+00         0.00000E+00        -0.50089E+08
 
   -0.50342E+08         0.27106E+06         0.00000E+00
    0.27106E+06        -0.50095E+08         0.00000E+00
    0.00000E+00         0.00000E+00        -0.50087E+08
 
   -0.50328E+08         0.27572E+06         0.00000E+00
    0.27572E+06        -0.50100E+08         0.00000E+00
    0.00000E+00         0.00000E+00        -0.50086E+08
 
   -0.50314E+08         0.28001E+06         0.00000E+00
    0.28001E+06        -0.50105E+08         0.00000E+00
    0.00000E+00         0.00000E+00        -0.50084E+08
 
   -0.50300E+08         0.28393E+06         0.00000E+00
    0.28393E+06        -0.50111E+08         0.00000E+00
    0.00000E+00         0.00000E+00        -0.50082E+08
 
   -0.50287E+08         0.28751E+06         0.00000E+00
    0.28751E+06        -0.50116E+08         0.00000E+00
    0.00000E+00         0.00000E+00        -0.50081E+08
 
   -0.50273E+08         0.29076E+06         0.00000E+00
    0.29076E+06        -0.50121E+08         0.00000E+00
    0.00000E+00         0.00000E+00        -0.50079E+08
 
   -0.50260E+08         0.29369E+06         0.00000E+00
    0.29369E+06        -0.50126E+08         0.00000E+00
    0.00000E+00         0.00000E+00        -0.50077E+08
 
   -0.50247E+08         0.29632E+06         0.00000E+00
    0.29632E+06        -0.50132E+08         0.00000E+00
    0.00000E+00         0.00000E+00        -0.50076E+08
 
   -0.50234E+08         0.29867E+06         0.00000E+00
    0.29867E+06        -0.50137E+08         0.00000E+00
    0.00000E+00         0.00000E+00        -0.50074E+08
 
   -0.50221E+08         0.30075E+06         0.00000E+00
    0.30075E+06        -0.50142E+08         0.00000E+00
    0.00000E+00         0.00000E+00        -0.50073E+08
 
   -0.50208E+08         0.30259E+06         0.00000E+00
    0.30259E+06        -0.50147E+08         0.00000E+00
    0.00000E+00         0.00000E+00        -0.50071E+08
 
   -0.50196E+08         0.30421E+06         0.00000E+00
    0.30421E+06        -0.50152E+08         0.00000E+00
    0.00000E+00         0.00000E+00        -0.50070E+08
 
   -0.50184E+08         0.30561E+06         0.00000E+00
    0.30561E+06        -0.50157E+08         0.00000E+00
    0.00000E+00         0.00000E+00        -0.50068E+08
 
   -0.50172E+08         0.30682E+06         0.00000E+00
    0.30682E+06        -0.50161E+08         0.00000E+00
    0.00000E+00         0.00000E+00        -0.50067E+08
 
   -0.50160E+08         0.30786E+06         0.00000E+00
    0.30786E+06        -0.50166E+08         0.00000E+00
    0.00000E+00         0.00000E+00        -0.50065E+08
 
   -0.50149E+08         0.30875E+06         0.00000E+00
    0.30875E+06        -0.50171E+08         0.00000E+00
    0.00000E+00         0.00000E+00        -0.50064E+08
 
   -0.50138E+08         0.30950E+06         0.00000E+00
    0.30950E+06        -0.50175E+08         0.00000E+00
    0.00000E+00         0.00000E+00        -0.50063E+08
 
   -0.50127E+08         0.31015E+06         0.00000E+00
    0.31015E+06        -0.50180E+08         0.00000E+00
    0.00000E+00         0.00000E+00        -0.50061E+08
 
   -0.50116E+08         0.31070E+06         0.00000E+00
    0.31070E+06        -0.50184E+08         0.00000E+00
    0.00000E+00         0.00000E+00        -0.50060E+08
 
   -0.50106E+08         0.31118E+06         0.00000E+00
    0.31118E+06        -0.50188E+08         0.00000E+00
    0.00000E+00         0.00000E+00        -0.50059E+08
 
   -0.50095E+08         0.31162E+06         0.00000E+00
    0.31162E+06        -0.50193E+08         0.00000E+00
    0.00000E+00         0.00000E+00        -0.50058E+08
 
   -0.50086E+08         0.31202E+06         0.00000E+00
    0.31202E+06        -0.50197E+08         0.00000E+00
    0.00000E+00         0.00000E+00        -0.50057E+08
 
   -0.50076E+08         0.31241E+06         0.00000E+00
    0.31241E+06        -0.50201E+08         0.00000E+00
    0.00000E+00         0.00000E+00        -0.50055E+08
 
   -0.50067E+08         0.31282E+06         0.00000E+00
    0.31282E+06        -0.50205E+08         0.00000E+00
    0.00000E+00         0.00000E+00        -0.50054E+08
 
   -0.50057E+08         0.31326E+06         0.00000E+00
    0.31326E+06        -0.50209E+08         0.00000E+00
    0.00000E+00         0.00000E+00        -0.50053E+08
 
   -0.50542E+08         0.71852E+04         0.00000E+00
    0.71852E+04        -0.50000E+08         0.00000E+00
    0.00000E+00         0.00000E+00        -0.50108E+08
 
   -0.50540E+08         0.20982E+05         0.00000E+00
    0.20982E+05        -0.50000E+08         0.00000E+00
    0.00000E+00         0.00000E+00        -0.50108E+08
 
   -0.50536E+08         0.34504E+05         0.00000E+00
    0.34504E+05        -0.50001E+08         0.00000E+00
    0.00000E+00         0.00000E+00        -0.50107E+08
 
   -0.50531E+08         0.47732E+05         0.00000E+00
    0.47732E+05        -0.50002E+08         0.00000E+00
    0.00000E+00         0.00000E+00        -0.50107E+08
 
   -0.50526E+08         0.60648E+05         0.00000E+00
    0.60648E+05        -0.50004E+08         0.00000E+00
    0.00000E+00         0.00000E+00        -0.50106E+08
 
   -0.50520E+08         0.73234E+05         0.00000E+00
    0.73234E+05        -0.50006E+08         0.00000E+00
    0.00000E+00         0.00000E+00        -0.50105E+08
 
   -0.50514E+08         0.85477E+05         0.00000E+00
    0.85477E+05        -0.50008E+08         0.00000E+00
    0.00000E+00         0.00000E+00        -0.50104E+08
 
   -0.50507E+08         0.97364E+05         0.00000E+00
    0.97364E+05        -0.50010E+08         0.00000E+00
    0.00000E+00         0.00000E+00        -0.50103E+08
 
   -0.50499E+08         0.10888E+06         0.00000E+00
    0.10888E+06        -0.50013E+08         0.00000E+00
    0.00000E+00         0.00000E+00        -0.50103E+08
 
   -0.50491E+08         0.12003E+06         0.00000E+00
    0.12003E+06        -0.50016E+08         0.00000E+00
    0.00000E+00         0.00000E+00        -0.50101E+08
 
   -0.50483E+08         0.13079E+06         0.00000E+00
    0.13079E+06        -0.50019E+08         0.00000E+00
    0.00000E+00         0.00000E+00        -0.50100E+08
 
   -0.50474E+08         0.14116E+06         0.00000E+00
    0.14116E+06        -0.50023E+08         0.00000E+00
    0.00000E+00         0.00000E+00        -0.50099E+08
 
   -0.50464E+08         0.15114E+06         0.00000E+00
    0.15114E+06        -0.50027E+08         0.00000E+00
    0.00000E+00         0.00000E+00        -0.50098E+08
 
   -0.50454E+08         0.16071E+06         0.00000E+00
    0.16071E+06        -0.50031E+08         0.00000E+00
    0.00000E+00         0.00000E+00        -0.50097E+08
 
   -0.50444E+08         0.16989E+06         0.00000E+00
    0.16989E+06        -0.50035E+08         0.00000E+00
    0.00000E+00         0.00000E+00        -0.50096E+08
 
   -0.50434E+08         0.17867E+06         0.00000E+00
    0.17867E+06        -0.50039E+08         0.00000E+00
    0.00000E+00         0.00000E+00        -0.50094E+08
 
   -0.50423E+08         0.18705E+06         0.00000E+00
    0.18705E+06        -0.50043E+08         0.00000E+00
    0.00000E+00         0.00000E+00        -0.50093E+08
 
   -0.50412E+08         0.19503E+06         0.00000E+00
    0.19503E+06        -0.50048E+08         0.00000E+00
    0.00000E+00         0.00000E+00        -0.50092E+08
 
   -0.50400E+08         0.20262E+06         0.00000E+00
    0.20262E+06        -0.50052E+08         0.00000E+00
    0.00000E+00         0.00000E+00        -0.50091E+08
 
   -0.50389E+08         0.20981E+06         0.00000E+00
    0.20981E+06        -0.50057E+08         0.00000E+00
    0.00000E+00         0.00000E+00        -0.50089E+08
 
   -0.50377E+08         0.21662E+06         0.00000E+00
    0.21662E+06        -0.50062E+08         0.00000E+00
    0.00000E+00         0.00000E+00        -0.50088E+08
 
   -0.50366E+08         0.22305E+06         0.00000E+00
    0.22305E+06        -0.50067E+08         0.00000E+00
    0.00000E+00         0.00000E+00        -0.50086E+08
 
   -0.50354E+08         0.22910E+06         0.00000E+00
    0.22910E+06        -0.50071E+08         0.00000E+00
    0.00000E+00         0.00000E+00        -0.50085E+08
 
   -0.50342E+08         0.23479E+06         0.00000E+00
    0.23479E+06        -0.50076E+08         0.00000E+00
    0.00000E+00         0.00000E+00        -0.50084E+08
 
   -0.50330E+08         0.24012E+06         0.00000E+00
    0.24012E+06        -0.50081E+08         0.00000E+00
    0.00000E+00         0.00000E+00        -0.50082E+08
 
   -0.50318E+08         0.24510E+06         0.00000E+00
    0.24510E+06        -0.50086E+08         0.00000E+00
    0.00000E+00         0.00000E+00        -0.50081E+08
 
   -0.50306E+08         0.24974E+06         0.00000E+00
    0.24974E+06        -0.50091E+08         0.00000E+00
    0.00000E+00         0.00000E+00        -0.50079E+08
 
   -0.50293E+08         0.25406E+06         0.00000E+00
    0.25406E+06        -0.50096E+08         0.00000E+00
    0.00000E+00         0.00000E+00        -0.50078E+08
 
   -0.50281E+08         0.25805E+06         0.00000E+00
    0.25805E+06        -0.50101E+08         0.00000E+00
    0.00000E+00         0.00000E+00        -0.50077E+08
 
   -0.50269E+08         0.26174E+06         0.00000E+00
    0.26174E+06        -0.50107E+08         0.00000E+00
    0.00000E+00         0.00000E+00        -0.50075E+08
 
   -0.50257E+08         0.26514E+06         0.00000E+00
    0.26514E+06        -0.50112E+08         0.00000E+00
    0.00000E+00         0.00000E+00        -0.50074E+08
 
   -0.50245E+08         0.26825E+06         0.00000E+00
    0.26825E+06        -0.50116E+08         0.00000E+00
    0.00000E+00         0.00000E+00        -0.50072E+08
 
   -0.50234E+08         0.27110E+06         0.00000E+00
    0.27110E+06        -0.50121E+08         0.00000E+00
    0.00000E+00         0.00000E+00        -0.50071E+08
 
   -0.50222E+08         0.27370E+06         0.00000E+00
    0.27370E+06        -0.50126E+08         0.00000E+00
    0.00000E+00         0.00000E+00        -0.50070E+08
 
   -0.50210E+08         0.27605E+06         0.00000E+00
    0.27605E+06        -0.50131E+08         0.00000E+00
    0.00000E+00         0.00000E+00        -0.50068E+08
 
   -0.50199E+08         0.27818E+06         0.00000E+00
    0.27818E+06        -0.50136E+08         0.00000E+00
    0.00000E+00         0.00000E+00        -0.50067E+08
 
   -0.50188E+08         0.28010E+06         0.00000E+00
    0.28010E+06        -0.50141E+08         0.00000E+00
    0.00000E+00         0.00000E+00        -0.50066E+08
 
   -0.50176E+08         0.28182E+06         0.00000E+00
    0.28182E+06        -0.50145E+08         0.00000E+00
    0.00000E+00         0.00000E+00        -0.50064E+08
 
   -0.50165E+08         0.28337E+06         0.00000E+00
    0.28337E+06        -0.50150E+08         0.00000E+00
    0.00000E+00         0.00000E+00        -0.50063E+08
 
   -0.50154E+08         0.28474E+06         0.00000E+00
    0.28474E+06        -0.50155E+08         0.00000E+00
    0.00000E+00         0.00000E+00        -0.50062E+08
 
   -0.50144E+08         0.28597E+06         0.00000E+00
    0.28597E+06        -0.50159E+08         0.00000E+00
    0.00000E+00         0.00000E+00        -0.50061E+08
 
   -0.50133E+08         0.28707E+06         0.00000E+00
    0.28707E+06        -0.50164E+08         0.00000E+00
    0.00000E+00         0.00000E+00        -0.50059E+08
 
   -0.50123E+08         0.28805E+06         0.00000E+00
    0.28805E+06        -0.50168E+08         0.00000E+00
    0.00000E+00         0.00000E+00        -0.50058E+08
 
   -0.50113E+08         0.28893E+06         0.00000E+00
    0.28893E+06        -0.50173E+08         0.00000E+00
    0.00000E+00         0.00000E+00        -0.50057E+08
 
   -0.50102E+08         0.28973E+06         0.00000E+00
    0.28973E+06        -0.50177E+08         0.00000E+00
    0.00000E+00         0.00000E+00        -0.50056E+08
 
   -0.50093E+08         0.29046E+06         0.00000E+00
    0.29046E+06        -0.50181E+08         0.00000E+00
    0.00000E+00         0.00000E+00        -0.50055E+08
 
   -0.50083E+08         0.29114E+06         0.00000E+00
    0.29114E+06        -0.50185E+08         0.00000E+00
    0.00000E+00         0.00000E+00        -0.50054E+08
 
   -0.50073E+08         0.29178E+06         0.00000E+00
    0.29178E+06        -0.50189E+08         0.00000E+00
    0.00000E+00         0.00000E+00        -0.50053E+08
 
   -0.50064E+08         0.29240E+06         0.00000E+00
    0.29240E+06        -0.50194E+08         0.00000E+00
    0.00000E+00         0.00000E+00        -0.50051E+08
 
   -0.50055E+08         0.29301E+06         0.00000E+00
    0.29301E+06        -0.50198E+08         0.00000E+00
    0.00000E+00         0.00000E+00        -0.50050E+08
 
   -0.50478E+08         0.61652E+04         0.00000E+00
    0.61652E+04        -0.50000E+08         0.00000E+00
    0.00000E+00         0.00000E+00        -0.50096E+08
 
   -0.50476E+08         0.18106E+05         0.00000E+00
    0.18106E+05        -0.50000E+08         0.00000E+00
    0.00000E+00         0.00000E+00        -0.50095E+08
 
   -0.50473E+08         0.29852E+05         0.00000E+00
    0.29852E+05        -0.50001E+08         0.00000E+00
    0.00000E+00         0.00000E+00        -0.50095E+08
 
   -0.50470E+08         0.41386E+05         0.00000E+00
    0.41386E+05        -0.50002E+08         0.00000E+00
    0.00000E+00         0.00000E+00        -0.50094E+08
 
   -0.50467E+08         0.52689E+05         0.00000E+00
    0.52689E+05        -0.50003E+08         0.00000E+00
    0.00000E+00         0.00000E+00        -0.50094E+08
 
   -0.50462E+08         0.63746E+05         0.00000E+00
    0.63746E+05        -0.50005E+08         0.00000E+00
    0.00000E+00         0.00000E+00        -0.50093E+08
 
   -0.50457E+08         0.74544E+05         0.00000E+00
    0.74544E+05        -0.50007E+08         0.00000E+00
    0.00000E+00         0.00000E+00        -0.50093E+08
 
   -0.50452E+08         0.85068E+05         0.00000E+00
    0.85068E+05        -0.50009E+08         0.00000E+00
    0.00000E+00         0.00000E+00        -0.50092E+08
 
   -0.50446E+08         0.95308E+05         0.00000E+00
    0.95308E+05        -0.50012E+08         0.00000E+00
    0.00000E+00         0.00000E+00        -0.50091E+08
 
   -0.50439E+08         0.10525E+06         0.00000E+00
    0.10525E+06        -0.50014E+08         0.00000E+00
    0.00000E+00         0.00000E+00        -0.50091E+08
 
   -0.50433E+08         0.11490E+06         0.00000E+00
    0.11490E+06        -0.50017E+08         0.00000E+00
    0.00000E+00         0.00000E+00        -0.50090E+08
 
   -0.50425E+08         0.12423E+06         0.00000E+00
    0.12423E+06        -0.50020E+08         0.00000E+00
    0.00000E+00         0.00000E+00        -0.50089E+08
 
   -0.50418E+08         0.13324E+06         0.00000E+00
    0.13324E+06        -0.50023E+08         0.00000E+00
    0.00000E+00         0.00000E+00        -0.50088E+08
 
   -0.50410E+08         0.14194E+06         0.00000E+00
    0.14194E+06        -0.50027E+08         0.00000E+00
    0.00000E+00         0.00000E+00        -0.50087E+08
 
   -0.50401E+08         0.15031E+06         0.00000E+00
    0.15031E+06        -0.50031E+08         0.00000E+00
    0.00000E+00         0.00000E+00        -0.50086E+08
 
   -0.50392E+08         0.15835E+06         0.00000E+00
    0.15835E+06        -0.50034E+08         0.00000E+00
    0.00000E+00         0.00000E+00        -0.50085E+08
 
   -0.50383E+08         0.16607E+06         0.00000E+00
    0.16607E+06        -0.50038E+08         0.00000E+00
    0.00000E+00         0.00000E+00        -0.50084E+08
 
   -0.50374E+08         0.17345E+06         0.00000E+00
    0.17345E+06        -0.50042E+08         0.00000E+00
    0.00000E+00         0.00000E+00        -0.50083E+08
 
   -0.50365E+08         0.18051E+06         0.00000E+00
    0.18051E+06        -0.50046E+08         0.00000E+00
    0.00000E+00         0.00000E+00        -0.50082E+08
 
   -0.50355E+08         0.18724E+06         0.00000E+00
    0.18724E+06        -0.50051E+08         0.00000E+00
    0.00000E+00         0.00000E+00        -0.50081E+08
 
   -0.50345E+08         0.19364E+06         0.00000E+00
    0.19364E+06        -0.50055E+08         0.00000E+00
    0.00000E+00         0.00000E+00        -0.50080E+08
 
   -0.50335E+08         0.19973E+06         0.00000E+00
    0.19973E+06        -0.50059E+08         0.00000E+00
    0.00000E+00         0.00000E+00        -0.50079E+08
 
   -0.50325E+08         0.20550E+06         0.00000E+00
    0.20550E+06        -0.50064E+08         0.00000E+00
    0.00000E+00         0.00000E+00        -0.50078E+08
 
   -0.50315E+08         0.21095E+06         0.00000E+00
    0.21095E+06        -0.50069E+08         0.00000E+00
    0.00000E+00         0.00000E+00        -0.50077E+08
 
   -0.50304E+08         0.21610E+06         0.00000E+00
    0.21610E+06        -0.50073E+08         0.00000E+00
    0.00000E+00         0.00000E+00        -0.50075E+08
 
   -0.50294E+08         0.22095E+06         0.00000E+00
    0.22095E+06        -0.50078E+08         0.00000E+00
    0.00000E+00         0.00000E+00        -0.50074E+08
 
   -0.50283E+08         0.22551E+06         0.00000E+00
    0.22551E+06        -0.50082E+08         0.00000E+00
    0.00000E+00         0.00000E+00        -0.50073E+08
 
   -0.50273E+08         0.22978E+06         0.00000E+00
    0.22978E+06        -0.50087E+08         0.00000E+00
    0.00000E+00         0.00000E+00        -0.50072E+08
 
   -0.50262E+08         0.23378E+06         0.00000E+00
    0.23378E+06        -0.50092E+08         0.00000E+00
    0.00000E+00         0.00000E+00        -0.50071E+08
 
   -0.50251E+08         0.23751E+06         0.00000E+00
    0.23751E+06        -0.50096E+08         0.00000E+00
    0.00000E+00         0.00000E+00        -0.50070E+08
 
   -0.50241E+08         0.24097E+06         0.00000E+00
    0.24097E+06        -0.50101E+08         0.00000E+00
    0.00000E+00         0.00000E+00        -0.50068E+08
 
   -0.50230E+08         0.24419E+06         0.00000E+00
    0.24419E+06        -0.50106E+08         0.00000E+00
    0.00000E+00         0.00000E+00        -0.50067E+08
 
   -0.50220E+08         0.24718E+06         0.00000E+00
    0.24718E+06        -0.50110E+08         0.00000E+00
    0.00000E+00         0.00000E+00        -0.50066E+08
 
   -0.50209E+08         0.24993E+06         0.00000E+00
    0.24993E+06        -0.50115E+08         0.00000E+00
    0.00000E+00         0.00000E+00        -0.50065E+08
 
   -0.50199E+08         0.25247E+06         0.00000E+00
    0.25247E+06        -0.50120E+08         0.00000E+00
    0.00000E+00         0.00000E+00        -0.50064E+08
 
   -0.50188E+08         0.25480E+06         0.00000E+00
    0.25480E+06        -0.50124E+08         0.00000E+00
    0.00000E+00         0.00000E+00        -0.50062E+08
 
   -0.50178E+08         0.25693E+06         0.00000E+00
    0.25693E+06        -0.50129E+08         0.00000E+00
    0.00000E+00         0.00000E+00        -0.50061E+08
 
   -0.50168E+08         0.25889E+06         0.00000E+00
    0.25889E+06        -0.50133E+08         0.00000E+00
    0.00000E+00         0.00000E+00        -0.50060E+08
 
   -0.50157E+08         0.26067E+06         0.00000E+00
    0.26067E+06        -0.50138E+08         0.00000E+00
    0.00000E+00         0.00000E+00        -0.50059E+08
 
   -0.50147E+08         0.26230E+06         0.00000E+00
    0.26230E+06        -0.50142E+08         0.00000E+00
    0.00000E+00         0.00000E+00        -0.50058E+08
 
   -0.50137E+08         0.26378E+06         0.00000E+00
    0.26378E+06        -0.50147E+08         0.00000E+00
    0.00000E+00         0.00000E+00        -0.50057E+08
 
   -0.50127E+08         0.26512E+06         0.00000E+00
    0.26512E+06        -0.50151E+08         0.00000E+00
    0.00000E+00         0.00000E+00        -0.50056E+08
 
   -0.50117E+08         0.26635E+06         0.00000E+00
    0.26635E+06        -0.50155E+08         0.00000E+00
    0.00000E+00         0.00000E+00        -0.50055E+08
 
   -0.50108E+08         0.26747E+06         0.00000E+00
    0.26747E+06        -0.50159E+08         0.00000E+00
    0.00000E+00         0.00000E+00        -0.50053E+08
 
   -0.50098E+08         0.26849E+06         0.00000E+00
    0.26849E+06        -0.50164E+08         0.00000E+00
    0.00000E+00         0.00000E+00        -0.50052E+08
 
   -0.50089E+08         0.26943E+06         0.00000E+00
    0.26943E+06        -0.50168E+08         0.00000E+00
    0.00000E+00         0.00000E+00        -0.50051E+08
 
   -0.50079E+08         0.27030E+06         0.00000E+00
    0.27030E+06        -0.50172E+08         0.00000E+00
    0.00000E+00         0.00000E+00        -0.50050E+08
 
   -0.50070E+08         0.27110E+06         0.00000E+00
    0.27110E+06        -0.50176E+08         0.00000E+00
    0.00000E+00         0.00000E+00        -0.50049E+08
 
   -0.50060E+08         0.27186E+06         0.00000E+00
    0.27186E+06        -0.50180E+08         0.00000E+00
    0.00000E+00         0.00000E+00        -0.50048E+08
 
   -0.50051E+08         0.27259E+06         0.00000E+00
    0.27259E+06        -0.50184E+08         0.00000E+00
    0.00000E+00         0.00000E+00        -0.50047E+08
 
   -0.50422E+08         0.52974E+04         0.00000E+00
    0.52974E+04        -0.50000E+08         0.00000E+00
    0.00000E+00         0.00000E+00        -0.50084E+08
 
   -0.50421E+08         0.15637E+05         0.00000E+00
    0.15637E+05        -0.50000E+08         0.00000E+00
    0.00000E+00         0.00000E+00        -0.50084E+08
 
   -0.50419E+08         0.25843E+05         0.00000E+00
    0.25843E+05        -0.50001E+08         0.00000E+00
    0.00000E+00         0.00000E+00        -0.50084E+08
 
   -0.50417E+08         0.35898E+05         0.00000E+00
    0.35898E+05        -0.50002E+08         0.00000E+00
    0.00000E+00         0.00000E+00        -0.50084E+08
 
   -0.50414E+08         0.45786E+05         0.00000E+00
    0.45786E+05        -0.50003E+08         0.00000E+00
    0.00000E+00         0.00000E+00        -0.50083E+08
 
   -0.50411E+08         0.55493E+05         0.00000E+00
    0.55493E+05        -0.50004E+08         0.00000E+00
    0.00000E+00         0.00000E+00        -0.50083E+08
 
   -0.50407E+08         0.65005E+05         0.00000E+00
    0.65005E+05        -0.50006E+08         0.00000E+00
    0.00000E+00         0.00000E+00        -0.50083E+08
 
   -0.50403E+08         0.74310E+05         0.00000E+00
    0.74310E+05        -0.50008E+08         0.00000E+00
    0.00000E+00         0.00000E+00        -0.50082E+08
 
   -0.50398E+08         0.83396E+05         0.00000E+00
    0.83396E+05        -0.50010E+08         0.00000E+00
    0.00000E+00         0.00000E+00        -0.50082E+08
 
   -0.50393E+08         0.92254E+05         0.00000E+00
    0.92254E+05        -0.50012E+08         0.00000E+00
    0.00000E+00         0.00000E+00        -0.50081E+08
 
   -0.50388E+08         0.10087E+06         0.00000E+00
    0.10087E+06        -0.50015E+08         0.00000E+00
    0.00000E+00         0.00000E+00        -0.50080E+08
 
   -0.50382E+08         0.10925E+06         0.00000E+00
    0.10925E+06        -0.50018E+08         0.00000E+00
    0.00000E+00         0.00000E+00        -0.50080E+08
 
   -0.50376E+08         0.11737E+06         0.00000E+00
    0.11737E+06        -0.50020E+08         0.00000E+00
    0.00000E+00         0.00000E+00        -0.50079E+08
 
   -0.50369E+08         0.12524E+06         0.00000E+00
    0.12524E+06        -0.50024E+08         0.00000E+00
    0.00000E+00         0.00000E+00        -0.50078E+08
 
   -0.50362E+08         0.13284E+06         0.00000E+00
    0.13284E+06        -0.50027E+08         0.00000E+00
    0.00000E+00         0.00000E+00        -0.50078E+08
 
   -0.50355E+08         0.14018E+06         0.00000E+00
    0.14018E+06        -0.50030E+08         0.00000E+00
    0.00000E+00         0.00000E+00        -0.50077E+08
 
   -0.50347E+08         0.14725E+06         0.00000E+00
    0.14725E+06        -0.50034E+08         0.00000E+00
    0.00000E+00         0.00000E+00        -0.50076E+08
 
   -0.50340E+08         0.15405E+06         0.00000E+00
    0.15405E+06        -0.50037E+08         0.00000E+00
    0.00000E+00         0.00000E+00        -0.50075E+08
 
   -0.50332E+08         0.16058E+06         0.00000E+00
    0.16058E+06        -0.50041E+08         0.00000E+00
    0.00000E+00         0.00000E+00        -0.50074E+08
 
   -0.50323E+08         0.16684E+06         0.00000E+00
    0.16684E+06        -0.50045E+08         0.00000E+00
    0.00000E+00         0.00000E+00        -0.50074E+08
 
   -0.50315E+08         0.17283E+06         0.00000E+00
    0.17283E+06        -0.50049E+08         0.00000E+00
    0.00000E+00         0.00000E+00        -0.50073E+08
 
   -0.50306E+08         0.17855E+06         0.00000E+00
    0.17855E+06        -0.50053E+08         0.00000E+00
    0.00000E+00         0.00000E+00        -0.50072E+08
 
   -0.50298E+08         0.18400E+06         0.00000E+00
    0.18400E+06        -0.50057E+08         0.00000E+00
    0.00000E+00         0.00000E+00        -0.50071E+08
 
   -0.50289E+08         0.18919E+06         0.00000E+00
    0.18919E+06        -0.50061E+08         0.00000E+00
    0.00000E+00         0.00000E+00        -0.50070E+08
 
   -0.50280E+08         0.19411E+06         0.00000E+00
    0.19411E+06        -0.50065E+08         0.00000E+00
    0.00000E+00         0.00000E+00        -0.50069E+08
 
   -0.50271E+08         0.19878E+06         0.00000E+00
    0.19878E+06        -0.50069E+08         0.00000E+00
    0.00000E+00         0.00000E+00        -0.50068E+08
 
   -0.50261E+08         0.20320E+06         0.00000E+00
    0.20320E+06        -0.50073E+08         0.00000E+00
    0.00000E+00         0.00000E+00        -0.50067E+08
 
   -0.50252E+08         0.20738E+06         0.00000E+00
    0.20738E+06        -0.50078E+08         0.00000E+00
    0.00000E+00         0.00000E+00        -0.50066E+08
 
   -0.50243E+08         0.21131E+06         0.00000E+00
    0.21131E+06        -0.50082E+08         0.00000E+00
    0.00000E+00         0.00000E+00        -0.50065E+08
 
   -0.50233E+08         0.21501E+06         0.00000E+00
    0.21501E+06        -0.50086E+08         0.00000E+00
    0.00000E+00         0.00000E+00        -0.50064E+08
 
   -0.50224E+08         0.21848E+06         0.00000E+00
    0.21848E+06        -0.50091E+08         0.00000E+00
    0.00000E+00         0.00000E+00        -0.50063E+08
 
   -0.50215E+08         0.22173E+06         0.00000E+00
    0.22173E+06        -0.50095E+08         0.00000E+00
    0.00000E+00         0.00000E+00        -0.50062E+08
 
   -0.50205E+08         0.22477E+06         0.00000E+00
    0.22477E+06        -0.50099E+08         0.00000E+00
    0.00000E+00         0.00000E+00        -0.50061E+08
 
   -0.50196E+08         0.22760E+06         0.00000E+00
    0.22760E+06        -0.50104E+08         0.00000E+00
    0.00000E+00         0.00000E+00        -0.50060E+08
 
   -0.50186E+08         0.23024E+06         0.00000E+00
    0.23024E+06        -0.50108E+08         0.00000E+00
    0.00000E+00         0.00000E+00        -0.50059E+08
 
   -0.50177E+08         0.23269E+06         0.00000E+00
    0.23269E+06        -0.50112E+08         0.00000E+00
    0.00000E+00         0.00000E+00        -0.50058E+08
 
   -0.50167E+08         0.23496E+06         0.00000E+00
    0.23496E+06        -0.50117E+08         0.00000E+00
    0.00000E+00         0.00000E+00        -0.50057E+08
 
   -0.50158E+08         0.23706E+06         0.00000E+00
    0.23706E+06        -0.50121E+08         0.00000E+00
    0.00000E+00         0.00000E+00        -0.50056E+08
 
   -0.50148E+08         0.23900E+06         0.00000E+00
    0.23900E+06        -0.50125E+08         0.00000E+00
    0.00000E+00         0.00000E+00        -0.50055E+08
 
   -0.50139E+08         0.24079E+06         0.00000E+00
    0.24079E+06        -0.50129E+08         0.00000E+00
    0.00000E+00         0.00000E+00        -0.50054E+08
 
   -0.50130E+08         0.24244E+06         0.00000E+00
    0.24244E+06        -0.50133E+08         0.00000E+00
    0.00000E+00         0.00000E+00        -0.50053E+08
 
   -0.50120E+08         0.24395E+06         0.00000E+00
    0.24395E+06        -0.50138E+08         0.00000E+00
    0.00000E+00         0.00000E+00        -0.50052E+08
 
   -0.50111E+08         0.24534E+06         0.00000E+00
    0.24534E+06        -0.50142E+08         0.00000E+00
    0.00000E+00         0.00000E+00        -0.50051E+08
 
   -0.50102E+08         0.24662E+06         0.00000E+00
    0.24662E+06        -0.50146E+08         0.00000E+00
    0.00000E+00         0.00000E+00        -0.50050E+08
 
   -0.50093E+08         0.24779E+06         0.00000E+00
    0.24779E+06        -0.50150E+08         0.00000E+00
    0.00000E+00         0.00000E+00        -0.50049E+08
 
   -0.50084E+08         0.24887E+06         0.00000E+00
    0.24887E+06        -0.50154E+08         0.00000E+00
    0.00000E+00         0.00000E+00        -0.50048E+08
 
   -0.50075E+08         0.24986E+06         0.00000E+00
    0.24986E+06        -0.50158E+08         0.00000E+00
    0.00000E+00         0.00000E+00        -0.50047E+08
 
   -0.50066E+08         0.25077E+06         0.00000E+00
    0.25077E+06        -0.50162E+08         0.00000E+00
    0.00000E+00         0.00000E+00        -0.50045E+08
 
   -0.50056E+08         0.25161E+06         0.00000E+00
    0.25161E+06        -0.50166E+08         0.00000E+00
    0.00000E+00         0.00000E+00        -0.50044E+08
 
   -0.50047E+08         0.25239E+06         0.00000E+00
    0.25239E+06        -0.50170E+08         0.00000E+00
    0.00000E+00         0.00000E+00        -0.50043E+08
 
   -0.50373E+08         0.45640E+04         0.00000E+00
    0.45640E+04        -0.50000E+08         0.00000E+00
    0.00000E+00         0.00000E+00        -0.50075E+08
 
   -0.50373E+08         0.13534E+05         0.00000E+00
    0.13534E+05        -0.50000E+08         0.00000E+00
    0.00000E+00         0.00000E+00        -0.50075E+08
 
   -0.50372E+08         0.22414E+05         0.00000E+00
    0.22414E+05        -0.50001E+08         0.00000E+00
    0.00000E+00         0.00000E+00        -0.50074E+08
 
   -0.50370E+08         0.31190E+05         0.00000E+00
    0.31190E+05        -0.50001E+08         0.00000E+00
    0.00000E+00         0.00000E+00        -0.50074E+08
 
   -0.50368E+08         0.39847E+05         0.00000E+00
    0.39847E+05        -0.50002E+08         0.00000E+00
    0.00000E+00         0.00000E+00        -0.50074E+08
 
   -0.50366E+08         0.48372E+05         0.00000E+00
    0.48372E+05        -0.50004E+08         0.00000E+00
    0.00000E+00         0.00000E+00        -0.50074E+08
 
   -0.50363E+08         0.56752E+05         0.00000E+00
    0.56752E+05        -0.50005E+08         0.00000E+00
    0.00000E+00         0.00000E+00        -0.50074E+08
 
   -0.50360E+08         0.64976E+05         0.00000E+00
    0.64976E+05        -0.50007E+08         0.00000E+00
    0.00000E+00         0.00000E+00        -0.50073E+08
 
   -0.50356E+08         0.73034E+05         0.00000E+00
    0.73034E+05        -0.50009E+08         0.00000E+00
    0.00000E+00         0.00000E+00        -0.50073E+08
 
   -0.50352E+08         0.80916E+05         0.00000E+00
    0.80916E+05        -0.50011E+08         0.00000E+00
    0.00000E+00         0.00000E+00        -0.50072E+08
 
   -0.50347E+08         0.88613E+05         0.00000E+00
    0.88613E+05        -0.50013E+08         0.00000E+00
    0.00000E+00         0.00000E+00        -0.50072E+08
 
   -0.50343E+08         0.96118E+05         0.00000E+00
    0.96118E+05        -0.50015E+08         0.00000E+00
    0.00000E+00         0.00000E+00        -0.50072E+08
 
   -0.50338E+08         0.10342E+06         0.00000E+00
    0.10342E+06        -0.50018E+08         0.00000E+00
    0.00000E+00         0.00000E+00        -0.50071E+08
 
   -0.50332E+08         0.11052E+06         0.00000E+00
    0.11052E+06        -0.50020E+08         0.00000E+00
    0.00000E+00         0.00000E+00        -0.50070E+08
 
   -0.50326E+08         0.11742E+06         0.00000E+00
    0.11742E+06        -0.50023E+08         0.00000E+00
    0.00000E+00         0.00000E+00        -0.50070E+08
 
   -0.50320E+08         0.12409E+06         0.00000E+00
    0.12409E+06        -0.50026E+08         0.00000E+00
    0.00000E+00         0.00000E+00        -0.50069E+08
 
   -0.50314E+08         0.13055E+06         0.00000E+00
    0.13055E+06        -0.50029E+08         0.00000E+00
    0.00000E+00         0.00000E+00        -0.50069E+08
 
   -0.50308E+08         0.13679E+06         0.00000E+00
    0.13679E+06        -0.50032E+08         0.00000E+00
    0.00000E+00         0.00000E+00        -0.50068E+08
 
   -0.50301E+08         0.14280E+06         0.00000E+00
    0.14280E+06        -0.50036E+08         0.00000E+00
    0.00000E+00         0.00000E+00        -0.50067E+08
 
   -0.50294E+08         0.14859E+06         0.00000E+00
    0.14859E+06        -0.50039E+08         0.00000E+00
    0.00000E+00         0.00000E+00        -0.50067E+08
 
   -0.50287E+08         0.15415E+06         0.00000E+00
    0.15415E+06        -0.50043E+08         0.00000E+00
    0.00000E+00         0.00000E+00        -0.50066E+08
 
   -0.50279E+08         0.15950E+06         0.00000E+00
    0.15950E+06        -0.50046E+08         0.00000E+00
    0.00000E+00         0.00000E+00        -0.50065E+08
 
   -0.50272E+08         0.16461E+06         0.00000E+00
    0.16461E+06        -0.50050E+08         0.00000E+00
    0.00000E+00         0.00000E+00        -0.50064E+08
 
   -0.50264E+08         0.16950E+06         0.00000E+00
    0.16950E+06        -0.50054E+08         0.00000E+00
    0.00000E+00         0.00000E+00        -0.50064E+08
 
   -0.50256E+08         0.17418E+06         0.00000E+00
    0.17418E+06        -0.50057E+08         0.00000E+00
    0.00000E+00         0.00000E+00        -0.50063E+08
 
   -0.50248E+08         0.17863E+06         0.00000E+00
    0.17863E+06        -0.50061E+08         0.00000E+00
    0.00000E+00         0.00000E+00        -0.50062E+08
 
   -0.50240E+08         0.18287E+06         0.00000E+00
    0.18287E+06        -0.50065E+08         0.00000E+00
    0.00000E+00         0.00000E+00        -0.50061E+08
 
   -0.50232E+08         0.18690E+06         0.00000E+00
    0.18690E+06        -0.50069E+08         0.00000E+00
    0.00000E+00         0.00000E+00        -0.50060E+08
 
   -0.50224E+08         0.19071E+06         0.00000E+00
    0.19071E+06        -0.50073E+08         0.00000E+00
    0.00000E+00         0.00000E+00        -0.50059E+08
 
   -0.50216E+08         0.19433E+06         0.00000E+00
    0.19433E+06        -0.50077E+08         0.00000E+00
    0.00000E+00         0.00000E+00        -0.50058E+08
 
   -0.50207E+08         0.19774E+06         0.00000E+00
    0.19774E+06        -0.50081E+08         0.00000E+00
    0.00000E+00         0.00000E+00        -0.50058E+08
 
   -0.50199E+08         0.20096E+06         0.00000E+00
    0.20096E+06        -0.50085E+08         0.00000E+00
    0.00000E+00         0.00000E+00        -0.50057E+08
 
   -0.50190E+08         0.20399E+06         0.00000E+00
    0.20399E+06        -0.50089E+08         0.00000E+00
    0.00000E+00         0.00000E+00        -0.50056E+08
 
   -0.50182E+08         0.20684E+06         0.00000E+00
    0.20684E+06        -0.50093E+08         0.00000E+00
    0.00000E+00         0.00000E+00        -0.50055E+08
 
   -0.50173E+08         0.20951E+06         0.00000E+00
    0.20951E+06        -0.50097E+08         0.00000E+00
    0.00000E+00         0.00000E+00        -0.50054E+08
 
   -0.50165E+08         0.21201E+06         0.00000E+00
    0.21201E+06        -0.50101E+08         0.00000E+00
    0.00000E+00         0.00000E+00        -0.50053E+08
 
   -0.50156E+08         0.21435E+06         0.00000E+00
    0.21435E+06        -0.50105E+08         0.00000E+00
    0.00000E+00         0.00000E+00        -0.50052E+08
 
   -0.50147E+08         0.21652E+06         0.00000E+00
    0.21652E+06        -0.50109E+08         0.00000E+00
    0.00000E+00         0.00000E+00        -0.50051E+08
 
   -0.50139E+08         0.21855E+06         0.00000E+00
    0.21855E+06        -0.50113E+08         0.00000E+00
    0.00000E+00         0.00000E+00        -0.50050E+08
 
   -0.50130E+08         0.22043E+06         0.00000E+00
    0.22043E+06        -0.50117E+08         0.00000E+00
    0.00000E+00         0.00000E+00        -0.50049E+08
 
   -0.50121E+08         0.22217E+06         0.00000E+00
    0.22217E+06        -0.50120E+08         0.00000E+00
    0.00000E+00         0.00000E+00        -0.50048E+08
 
   -0.50113E+08         0.22378E+06         0.00000E+00
    0.22378E+06        -0.50124E+08         0.00000E+00
    0.00000E+00         0.00000E+00        -0.50047E+08
 
   -0.50104E+08         0.22527E+06         0.00000E+00
    0.22527E+06        -0.50128E+08         0.00000E+00
    0.00000E+00         0.00000E+00        -0.50047E+08
 
   -0.50096E+08         0.22664E+06         0.00000E+00
    0.22664E+06        -0.50132E+08         0.00000E+00
    0.00000E+00         0.00000E+00        -0.50046E+08
 
   -0.50087E+08         0.22790E+06         0.00000E+00
    0.22790E+06        -0.50136E+08         0.00000E+00
    0.00000E+00         0.00000E+00        -0.50045E+08
 
   -0.50078E+08         0.22905E+06         0.00000E+00
    0.22905E+06        -0.50140E+08         0.00000E+00
    0.00000E+00         0.00000E+00        -0.50044E+08
 
   -0.50070E+08         0.23011E+06         0.00000E+00
    0.23011E+06        -0.50144E+08         0.00000E+00
    0.00000E+00         0.00000E+00        -0.50043E+08
 
   -0.50061E+08         0.23107E+06         0.00000E+00
    0.23107E+06        -0.50148E+08         0.00000E+00
    0.00000E+00         0.00000E+00        -0.50042E+08
 
   -0.50052E+08         0.23195E+06         0.00000E+00
    0.23195E+06        -0.50152E+08         0.00000E+00
    0.00000E+00         0.00000E+00        -0.50041E+08
 
   -0.50044E+08         0.23275E+06         0.00000E+00
    0.23275E+06        -0.50155E+08         0.00000E+00
    0.00000E+00         0.00000E+00        -0.50040E+08
 
   -0.50331E+08         0.39469E+04         0.00000E+00
    0.39469E+04        -0.50000E+08         0.00000E+00
    0.00000E+00         0.00000E+00        -0.50066E+08
 
   -0.50331E+08         0.11750E+05         0.00000E+00
    0.11750E+05        -0.50000E+08         0.00000E+00
    0.00000E+00         0.00000E+00        -0.50066E+08
 
   -0.50330E+08         0.19496E+05         0.00000E+00
    0.19496E+05        -0.50001E+08         0.00000E+00
    0.00000E+00         0.00000E+00        -0.50066E+08
 
   -0.50329E+08         0.27171E+05         0.00000E+00
    0.27171E+05        -0.50001E+08         0.00000E+00
    0.00000E+00         0.00000E+00        -0.50066E+08
 
   -0.50328E+08         0.34763E+05         0.00000E+00
    0.34763E+05        -0.50002E+08         0.00000E+00
    0.00000E+00         0.00000E+00        -0.50066E+08
 
   -0.50326E+08         0.42261E+05         0.00000E+00
    0.42261E+05        -0.50003E+08         0.00000E+00
    0.00000E+00         0.00000E+00        -0.50066E+08
 
   -0.50324E+08         0.49652E+05         0.00000E+00
    0.49652E+05        -0.50004E+08         0.00000E+00
    0.00000E+00         0.00000E+00        -0.50066E+08
 
   -0.50321E+08         0.56926E+05         0.00000E+00
    0.56926E+05        -0.50006E+08         0.00000E+00
    0.00000E+00         0.00000E+00        -0.50065E+08
 
   -0.50318E+08         0.64075E+05         0.00000E+00
    0.64075E+05        -0.50007E+08         0.00000E+00
    0.00000E+00         0.00000E+00        -0.50065E+08
 
   -0.50315E+08         0.71088E+05         0.00000E+00
    0.71088E+05        -0.50009E+08         0.00000E+00
    0.00000E+00         0.00000E+00        -0.50065E+08
 
   -0.50311E+08         0.77959E+05         0.00000E+00
    0.77959E+05        -0.50011E+08         0.00000E+00
    0.00000E+00         0.00000E+00        -0.50064E+08
 
   -0.50308E+08         0.84679E+05         0.00000E+00
    0.84679E+05        -0.50013E+08         0.00000E+00
    0.00000E+00         0.00000E+00        -0.50064E+08
 
   -0.50303E+08         0.91242E+05         0.00000E+00
    0.91242E+05        -0.50015E+08         0.00000E+00
    0.00000E+00         0.00000E+00        -0.50064E+08
 
   -0.50299E+08         0.97643E+05         0.00000E+00
    0.97643E+05        -0.50018E+08         0.00000E+00
    0.00000E+00         0.00000E+00        -0.50063E+08
 
   -0.50294E+08         0.10387E+06         0.00000E+00
    0.10387E+06        -0.50020E+08         0.00000E+00
    0.00000E+00         0.00000E+00        -0.50063E+08
 
   -0.50289E+08         0.10993E+06         0.00000E+00
    0.10993E+06        -0.50023E+08         0.00000E+00
    0.00000E+00         0.00000E+00        -0.50062E+08
 
   -0.50284E+08         0.11582E+06         0.00000E+00
    0.11582E+06        -0.50025E+08         0.00000E+00
    0.00000E+00         0.00000E+00        -0.50062E+08
 
   -0.50278E+08         0.12152E+06         0.00000E+00
    0.12152E+06        -0.50028E+08         0.00000E+00
    0.00000E+00         0.00000E+00        -0.50061E+08
 
   -0.50272E+08         0.12704E+06         0.00000E+00
    0.12704E+06        -0.50031E+08         0.00000E+00
    0.00000E+00         0.00000E+00        -0.50061E+08
 
   -0.50267E+08         0.13237E+06         0.00000E+00
    0.13237E+06        -0.50034E+08         0.00000E+00
    0.00000E+00         0.00000E+00        -0.50060E+08
 
   -0.50260E+08         0.13752E+06         0.00000E+00
    0.13752E+06        -0.50037E+08         0.00000E+00
    0.00000E+00         0.00000E+00        -0.50060E+08
 
   -0.50254E+08         0.14248E+06         0.00000E+00
    0.14248E+06        -0.50040E+08         0.00000E+00
    0.00000E+00         0.00000E+00        -0.50059E+08
 
   -0.50248E+08         0.14725E+06         0.00000E+00
    0.14725E+06        -0.50044E+08         0.00000E+00
    0.00000E+00         0.00000E+00        -0.50058E+08
 
   -0.50241E+08         0.15184E+06         0.00000E+00
    0.15184E+06        -0.50047E+08         0.00000E+00
    0.00000E+00         0.00000E+00        -0.50058E+08
 
   -0.50234E+08         0.15624E+06         0.00000E+00
    0.15624E+06        -0.50050E+08         0.00000E+00
    0.00000E+00         0.00000E+00        -0.50057E+08
 
   -0.50227E+08         0.16045E+06         0.00000E+00
    0.16045E+06        -0.50054E+08         0.00000E+00
    0.00000E+00         0.00000E+00        -0.50056E+08
 
   -0.50220E+08         0.16447E+06         0.00000E+00
    0.16447E+06        -0.50057E+08         0.00000E+00
    0.00000E+00         0.00000E+00        -0.50055E+08
 
   -0.50213E+08         0.16832E+06         0.00000E+00
    0.16832E+06        -0.50061E+08         0.00000E+00
    0.00000E+00         0.00000E+00        -0.50055E+08
 
   -0.50206E+08         0.17198E+06         0.00000E+00
    0.17198E+06        -0.50064E+08         0.00000E+00
    0.00000E+00         0.00000E+00        -0.50054E+08
 
   -0.50198E+08         0.17547E+06         0.00000E+00
    0.17547E+06        -0.50068E+08         0.00000E+00
    0.00000E+00         0.00000E+00        -0.50053E+08
 
   -0.50191E+08         0.17878E+06         0.00000E+00
    0.17878E+06        -0.50071E+08         0.00000E+00
    0.00000E+00         0.00000E+00        -0.50052E+08
 
   -0.50183E+08         0.18192E+06         0.00000E+00
    0.18192E+06        -0.50075E+08         0.00000E+00
    0.00000E+00         0.00000E+00        -0.50052E+08
 
   -0.50176E+08         0.18489E+06         0.00000E+00
    0.18489E+06        -0.50079E+08         0.00000E+00
    0.00000E+00         0.00000E+00        -0.50051E+08
 
   -0.50168E+08         0.18770E+06         0.00000E+00
    0.18770E+06        -0.50082E+08         0.00000E+00
    0.00000E+00         0.00000E+00        -0.50050E+08
 
   -0.50160E+08         0.19034E+06         0.00000E+00
    0.19034E+06        -0.50086E+08         0.00000E+00
    0.00000E+00         0.00000E+00        -0.50049E+08
 
   -0.50153E+08         0.19283E+06         0.00000E+00
    0.19283E+06        -0.50090E+08         0.00000E+00
    0.00000E+00         0.00000E+00        -0.50048E+08
 
   -0.50145E+08         0.19517E+06         0.00000E+00
    0.19517E+06        -0.50093E+08         0.00000E+00
    0.00000E+00         0.00000E+00        -0.50048E+08
 
   -0.50137E+08         0.19737E+06         0.00000E+00
    0.19737E+06        -0.50097E+08         0.00000E+00
    0.00000E+00         0.00000E+00        -0.50047E+08
 
   -0.50129E+08         0.19942E+06         0.00000E+00
    0.19942E+06        -0.50101E+08         0.00000E+00
    0.00000E+00         0.00000E+00        -0.50046E+08
 
   -0.50121E+08         0.20133E+06         0.00000E+00
    0.20133E+06        -0.50105E+08         0.00000E+00
    0.00000E+00         0.00000E+00        -0.50045E+08
 
   -0.50113E+08         0.20311E+06         0.00000E+00
    0.20311E+06        -0.50108E+08         0.00000E+00
    0.00000E+00         0.00000E+00        -0.50044E+08
 
   -0.50105E+08         0.20476E+06         0.00000E+00
    0.20476E+06        -0.50112E+08         0.00000E+00
    0.00000E+00         0.00000E+00        -0.50043E+08
 
   -0.50097E+08         0.20629E+06         0.00000E+00
    0.20629E+06        -0.50116E+08         0.00000E+00
    0.00000E+00         0.00000E+00        -0.50043E+08
 
   -0.50089E+08         0.20770E+06         0.00000E+00
    0.20770E+06        -0.50119E+08         0.00000E+00
    0.00000E+00         0.00000E+00        -0.50042E+08
 
   -0.50081E+08         0.20899E+06         0.00000E+00
    0.20899E+06        -0.50123E+08         0.00000E+00
    0.00000E+00         0.00000E+00        -0.50041E+08
 
   -0.50073E+08         0.21018E+06         0.00000E+00
    0.21018E+06        -0.50127E+08         0.00000E+00
    0.00000E+00         0.00000E+00        -0.50040E+08
 
   -0.50065E+08         0.21126E+06         0.00000E+00
    0.21126E+06        -0.50130E+08         0.00000E+00
    0.00000E+00         0.00000E+00        -0.50039E+08
 
   -0.50056E+08         0.21224E+06         0.00000E+00
    0.21224E+06        -0.50134E+08         0.00000E+00
    0.00000E+00         0.00000E+00        -0.50038E+08
 
   -0.50048E+08         0.21312E+06         0.00000E+00
    0.21312E+06        -0.50138E+08         0.00000E+00
    0.00000E+00         0.00000E+00        -0.50037E+08
 
   -0.50040E+08         0.21391E+06         0.00000E+00
    0.21391E+06        -0.50141E+08         0.00000E+00
    0.00000E+00         0.00000E+00        -0.50036E+08
 
   -0.50295E+08         0.34289E+04         0.00000E+00
    0.34289E+04        -0.50000E+08         0.00000E+00
    0.00000E+00         0.00000E+00        -0.50059E+08
 
   -0.50295E+08         0.10242E+05         0.00000E+00
    0.10242E+05        -0.50000E+08         0.00000E+00
    0.00000E+00         0.00000E+00        -0.50059E+08
 
   -0.50294E+08         0.17020E+05         0.00000E+00
    0.17020E+05        -0.50001E+08         0.00000E+00
    0.00000E+00         0.00000E+00        -0.50059E+08
 
   -0.50294E+08         0.23753E+05         0.00000E+00
    0.23753E+05        -0.50001E+08         0.00000E+00
    0.00000E+00         0.00000E+00        -0.50059E+08
 
   -0.50292E+08         0.30427E+05         0.00000E+00
    0.30427E+05        -0.50002E+08         0.00000E+00
    0.00000E+00         0.00000E+00        -0.50059E+08
 
   -0.50291E+08         0.37035E+05         0.00000E+00
    0.37035E+05        -0.50003E+08         0.00000E+00
    0.00000E+00         0.00000E+00        -0.50059E+08
 
   -0.50289E+08         0.43565E+05         0.00000E+00
    0.43565E+05        -0.50004E+08         0.00000E+00
    0.00000E+00         0.00000E+00        -0.50059E+08
 
   -0.50287E+08         0.50009E+05         0.00000E+00
    0.50009E+05        -0.50005E+08         0.00000E+00
    0.00000E+00         0.00000E+00        -0.50058E+08
 
   -0.50285E+08         0.56357E+05         0.00000E+00
    0.56357E+05        -0.50006E+08         0.00000E+00
    0.00000E+00         0.00000E+00        -0.50058E+08
 
   -0.50282E+08         0.62603E+05         0.00000E+00
    0.62603E+05        -0.50008E+08         0.00000E+00
    0.00000E+00         0.00000E+00        -0.50058E+08
 
   -0.50279E+08         0.68738E+05         0.00000E+00
    0.68738E+05        -0.50009E+08         0.00000E+00
    0.00000E+00         0.00000E+00        -0.50058E+08
 
   -0.50276E+08         0.74756E+05         0.00000E+00
    0.74756E+05        -0.50011E+08         0.00000E+00
    0.00000E+00         0.00000E+00        -0.50057E+08
 
   -0.50273E+08         0.80650E+05         0.00000E+00
    0.80650E+05        -0.50013E+08         0.00000E+00
    0.00000E+00         0.00000E+00        -0.50057E+08
 
   -0.50269E+08         0.86415E+05         0.00000E+00
    0.86415E+05        -0.50015E+08         0.00000E+00
    0.00000E+00         0.00000E+00        -0.50057E+08
 
   -0.50265E+08         0.92045E+05         0.00000E+00
    0.92045E+05        -0.50017E+08         0.00000E+00
    0.00000E+00         0.00000E+00        -0.50056E+08
 
   -0.50261E+08         0.97536E+05         0.00000E+00
    0.97536E+05        -0.50020E+08         0.00000E+00
    0.00000E+00         0.00000E+00        -0.50056E+08
 
   -0.50256E+08         0.10288E+06         0.00000E+00
    0.10288E+06        -0.50022E+08         0.00000E+00
    0.00000E+00         0.00000E+00        -0.50056E+08
 
   -0.50251E+08         0.10808E+06         0.00000E+00
    0.10808E+06        -0.50024E+08         0.00000E+00
    0.00000E+00         0.00000E+00        -0.50055E+08
 
   -0.50246E+08         0.11313E+06         0.00000E+00
    0.11313E+06        -0.50027E+08         0.00000E+00
    0.00000E+00         0.00000E+00        -0.50055E+08
 
   -0.50241E+08         0.11803E+06         0.00000E+00
    0.11803E+06        -0.50030E+08         0.00000E+00
    0.00000E+00         0.00000E+00        -0.50054E+08
 
   -0.50236E+08         0.12278E+06         0.00000E+00
    0.12278E+06        -0.50032E+08         0.00000E+00
    0.00000E+00         0.00000E+00        -0.50054E+08
 
   -0.50231E+08         0.12736E+06         0.00000E+00
    0.12736E+06        -0.50035E+08         0.00000E+00
    0.00000E+00         0.00000E+00        -0.50053E+08
 
   -0.50225E+08         0.13179E+06         0.00000E+00
    0.13179E+06        -0.50038E+08         0.00000E+00
    0.00000E+00         0.00000E+00        -0.50053E+08
 
   -0.50219E+08         0.13606E+06         0.00000E+00
    0.13606E+06        -0.50041E+08         0.00000E+00
    0.00000E+00         0.00000E+00        -0.50052E+08
 
   -0.50213E+08         0.14018E+06         0.00000E+00
    0.14018E+06        -0.50044E+08         0.00000E+00
    0.00000E+00         0.00000E+00        -0.50051E+08
 
   -0.50207E+08         0.14413E+06         0.00000E+00
    0.14413E+06        -0.50047E+08         0.00000E+00
    0.00000E+00         0.00000E+00        -0.50051E+08
 
   -0.50201E+08         0.14792E+06         0.00000E+00
    0.14792E+06        -0.50050E+08         0.00000E+00
    0.00000E+00         0.00000E+00        -0.50050E+08
 
   -0.50195E+08         0.15156E+06         0.00000E+00
    0.15156E+06        -0.50053E+08         0.00000E+00
    0.00000E+00         0.00000E+00        -0.50050E+08
 
   -0.50188E+08         0.15504E+06         0.00000E+00
    0.15504E+06        -0.50057E+08         0.00000E+00
    0.00000E+00         0.00000E+00        -0.50049E+08
 
   -0.50182E+08         0.15837E+06         0.00000E+00
    0.15837E+06        -0.50060E+08         0.00000E+00
    0.00000E+00         0.00000E+00        -0.50048E+08
 
   -0.50175E+08         0.16154E+06         0.00000E+00
    0.16154E+06        -0.50063E+08         0.00000E+00
    0.00000E+00         0.00000E+00        -0.50048E+08
 
   -0.50168E+08         0.16456E+06         0.00000E+00
    0.16456E+06        -0.50066E+08         0.00000E+00
    0.00000E+00         0.00000E+00        -0.50047E+08
 
   -0.50162E+08         0.16743E+06         0.00000E+00
    0.16743E+06        -0.50070E+08         0.00000E+00
    0.00000E+00         0.00000E+00        -0.50046E+08
 
   -0.50155E+08         0.17016E+06         0.00000E+00
    0.17016E+06        -0.50073E+08         0.00000E+00
    0.00000E+00         0.00000E+00        -0.50046E+08
 
   -0.50148E+08         0.17274E+06         0.00000E+00
    0.17274E+06        -0.50076E+08         0.00000E+00
    0.00000E+00         0.00000E+00        -0.50045E+08
 
   -0.50141E+08         0.17517E+06         0.00000E+00
    0.17517E+06        -0.50080E+08         0.00000E+00
    0.00000E+00         0.00000E+00        -0.50044E+08
 
   -0.50133E+08         0.17747E+06         0.00000E+00
    0.17747E+06        -0.50083E+08         0.00000E+00
    0.00000E+00         0.00000E+00        -0.50043E+08
 
   -0.50126E+08         0.17963E+06         0.00000E+00
    0.17963E+06        -0.50087E+08         0.00000E+00
    0.00000E+00         0.00000E+00        -0.50043E+08
 
   -0.50119E+08         0.18166E+06         0.00000E+00
    0.18166E+06        -0.50090E+08         0.00000E+00
    0.00000E+00         0.00000E+00        -0.50042E+08
 
   -0.50112E+08         0.18356E+06         0.00000E+00
    0.18356E+06        -0.50093E+08         0.00000E+00
    0.00000E+00         0.00000E+00        -0.50041E+08
 
   -0.50104E+08         0.18533E+06         0.00000E+00
    0.18533E+06        -0.50097E+08         0.00000E+00
    0.00000E+00         0.00000E+00        -0.50040E+08
 
   -0.50097E+08         0.18698E+06         0.00000E+00
    0.18698E+06        -0.50100E+08         0.00000E+00
    0.00000E+00         0.00000E+00        -0.50039E+08
 
   -0.50090E+08         0.18850E+06         0.00000E+00
    0.18850E+06        -0.50104E+08         0.00000E+00
    0.00000E+00         0.00000E+00        -0.50039E+08
 
   -0.50082E+08         0.18991E+06         0.00000E+00
    0.18991E+06        -0.50107E+08         0.00000E+00
    0.00000E+00         0.00000E+00        -0.50038E+08
 
   -0.50075E+08         0.19121E+06         0.00000E+00
    0.19121E+06        -0.50111E+08         0.00000E+00
    0.00000E+00         0.00000E+00        -0.50037E+08
 
   -0.50067E+08         0.19239E+06         0.00000E+00
    0.19239E+06        -0.50114E+08         0.00000E+00
    0.00000E+00         0.00000E+00        -0.50036E+08
 
   -0.50059E+08         0.19346E+06         0.00000E+00
    0.19346E+06        -0.50117E+08         0.00000E+00
    0.00000E+00         0.00000E+00        -0.50035E+08
 
   -0.50052E+08         0.19443E+06         0.00000E+00
    0.19443E+06        -0.50121E+08         0.00000E+00
    0.00000E+00         0.00000E+00        -0.50035E+08
 
   -0.50044E+08         0.19529E+06         0.00000E+00
    0.19529E+06        -0.50124E+08         0.00000E+00
    0.00000E+00         0.00000E+00        -0.50034E+08
 
   -0.50036E+08         0.19605E+06         0.00000E+00
    0.19605E+06        -0.50128E+08         0.00000E+00
    0.00000E+00         0.00000E+00        -0.50033E+08
 
   -0.50263E+08         0.29942E+04         0.00000E+00
    0.29942E+04        -0.50000E+08         0.00000E+00
    0.00000E+00         0.00000E+00        -0.50053E+08
 
   -0.50263E+08         0.89681E+04         0.00000E+00
    0.89681E+04        -0.50000E+08         0.00000E+00
    0.00000E+00         0.00000E+00        -0.50053E+08
 
   -0.50263E+08         0.14923E+05         0.00000E+00
    0.14923E+05        -0.50000E+08         0.00000E+00
    0.00000E+00         0.00000E+00        -0.50053E+08
 
   -0.50262E+08         0.20848E+05         0.00000E+00
    0.20848E+05        -0.50001E+08         0.00000E+00
    0.00000E+00         0.00000E+00        -0.50053E+08
 
   -0.50261E+08         0.26735E+05         0.00000E+00
    0.26735E+05        -0.50001E+08         0.00000E+00
    0.00000E+00         0.00000E+00        -0.50053E+08
 
   -0.50260E+08         0.32574E+05         0.00000E+00
    0.32574E+05        -0.50002E+08         0.00000E+00
    0.00000E+00         0.00000E+00        -0.50052E+08
 
   -0.50259E+08         0.38357E+05         0.00000E+00
    0.38357E+05        -0.50003E+08         0.00000E+00
    0.00000E+00         0.00000E+00        -0.50052E+08
 
   -0.50257E+08         0.44077E+05         0.00000E+00
    0.44077E+05        -0.50004E+08         0.00000E+00
    0.00000E+00         0.00000E+00        -0.50052E+08
 
   -0.50255E+08         0.49724E+05         0.00000E+00
    0.49724E+05        -0.50005E+08         0.00000E+00
    0.00000E+00         0.00000E+00        -0.50052E+08
 
   -0.50253E+08         0.55293E+05         0.00000E+00
    0.55293E+05        -0.50007E+08         0.00000E+00
    0.00000E+00         0.00000E+00        -0.50052E+08
 
   -0.50251E+08         0.60777E+05         0.00000E+00
    0.60777E+05        -0.50008E+08         0.00000E+00
    0.00000E+00         0.00000E+00        -0.50052E+08
 
   -0.50248E+08         0.66169E+05         0.00000E+00
    0.66169E+05        -0.50010E+08         0.00000E+00
    0.00000E+00         0.00000E+00        -0.50051E+08
 
   -0.50245E+08         0.71463E+05         0.00000E+00
    0.71463E+05        -0.50011E+08         0.00000E+00
    0.00000E+00         0.00000E+00        -0.50051E+08
 
   -0.50242E+08         0.76654E+05         0.00000E+00
    0.76654E+05        -0.50013E+08         0.00000E+00
    0.00000E+00         0.00000E+00        -0.50051E+08
 
   -0.50238E+08         0.81738E+05         0.00000E+00
    0.81738E+05        -0.50015E+08         0.00000E+00
    0.00000E+00         0.00000E+00        -0.50051E+08
 
   -0.50235E+08         0.86709E+05         0.00000E+00
    0.86709E+05        -0.50017E+08         0.00000E+00
    0.00000E+00         0.00000E+00        -0.50050E+08
 
   -0.50231E+08         0.91564E+05         0.00000E+00
    0.91564E+05        -0.50019E+08         0.00000E+00
    0.00000E+00         0.00000E+00        -0.50050E+08
 
   -0.50227E+08         0.96299E+05         0.00000E+00
    0.96299E+05        -0.50021E+08         0.00000E+00
    0.00000E+00         0.00000E+00        -0.50050E+08
 
   -0.50223E+08         0.10091E+06         0.00000E+00
    0.10091E+06        -0.50023E+08         0.00000E+00
    0.00000E+00         0.00000E+00        -0.50049E+08
 
   -0.50218E+08         0.10540E+06         0.00000E+00
    0.10540E+06        -0.50026E+08         0.00000E+00
    0.00000E+00         0.00000E+00        -0.50049E+08
 
   -0.50214E+08         0.10975E+06         0.00000E+00
    0.10975E+06        -0.50028E+08         0.00000E+00
    0.00000E+00         0.00000E+00        -0.50048E+08
 
   -0.50209E+08         0.11398E+06         0.00000E+00
    0.11398E+06        -0.50031E+08         0.00000E+00
    0.00000E+00         0.00000E+00        -0.50048E+08
 
   -0.50204E+08         0.11807E+06         0.00000E+00
    0.11807E+06        -0.50033E+08         0.00000E+00
    0.00000E+00         0.00000E+00        -0.50047E+08
 
   -0.50199E+08         0.12203E+06         0.00000E+00
    0.12203E+06        -0.50036E+08         0.00000E+00
    0.00000E+00         0.00000E+00        -0.50047E+08
 
   -0.50194E+08         0.12585E+06         0.00000E+00
    0.12585E+06        -0.50038E+08         0.00000E+00
    0.00000E+00         0.00000E+00        -0.50046E+08
 
   -0.50189E+08         0.12954E+06         0.00000E+00
    0.12954E+06        -0.50041E+08         0.00000E+00
    0.00000E+00         0.00000E+00        -0.50046E+08
 
   -0.50183E+08         0.13309E+06         0.00000E+00
    0.13309E+06        -0.50044E+08         0.00000E+00
    0.00000E+00         0.00000E+00        -0.50045E+08
 
   -0.50177E+08         0.13651E+06         0.00000E+00
    0.13651E+06        -0.50047E+08         0.00000E+00
    0.00000E+00         0.00000E+00        -0.50045E+08
 
   -0.50172E+08         0.13979E+06         0.00000E+00
    0.13979E+06        -0.50050E+08         0.00000E+00
    0.00000E+00         0.00000E+00        -0.50044E+08
 
   -0.50166E+08         0.14294E+06         0.00000E+00
    0.14294E+06        -0.50053E+08         0.00000E+00
    0.00000E+00         0.00000E+00        -0.50044E+08
 
   -0.50160E+08         0.14594E+06         0.00000E+00
    0.14594E+06        -0.50055E+08         0.00000E+00
    0.00000E+00         0.00000E+00        -0.50043E+08
 
   -0.50154E+08         0.14882E+06         0.00000E+00
    0.14882E+06        -0.50058E+08         0.00000E+00
    0.00000E+00         0.00000E+00        -0.50042E+08
 
   -0.50148E+08         0.15156E+06         0.00000E+00
    0.15156E+06        -0.50061E+08         0.00000E+00
    0.00000E+00         0.00000E+00        -0.50042E+08
 
   -0.50142E+08         0.15417E+06         0.00000E+00
    0.15417E+06        -0.50064E+08         0.00000E+00
    0.00000E+00         0.00000E+00        -0.50041E+08
 
   -0.50135E+08         0.15665E+06         0.00000E+00
    0.15665E+06        -0.50068E+08         0.00000E+00
    0.00000E+00         0.00000E+00        -0.50041E+08
 
   -0.50129E+08         0.15900E+06         0.00000E+00
    0.15900E+06        -0.50071E+08         0.00000E+00
    0.00000E+00         0.00000E+00        -0.50040E+08
 
   -0.50122E+08         0.16122E+06         0.00000E+00
    0.16122E+06        -0.50074E+08         0.00000E+00
    0.00000E+00         0.00000E+00        -0.50039E+08
 
   -0.50116E+08         0.16332E+06         0.00000E+00
    0.16332E+06        -0.50077E+08         0.00000E+00
    0.00000E+00         0.00000E+00        -0.50039E+08
 
   -0.50109E+08         0.16529E+06         0.00000E+00
    0.16529E+06        -0.50080E+08         0.00000E+00
    0.00000E+00         0.00000E+00        -0.50038E+08
 
   -0.50103E+08         0.16714E+06         0.00000E+00
    0.16714E+06        -0.50083E+08         0.00000E+00
    0.00000E+00         0.00000E+00        -0.50037E+08
 
   -0.50096E+08         0.16886E+06         0.00000E+00
    0.16886E+06        -0.50086E+08         0.00000E+00
    0.00000E+00         0.00000E+00        -0.50036E+08
 
   -0.50089E+08         0.17047E+06         0.00000E+00
    0.17047E+06        -0.50089E+08         0.00000E+00
    0.00000E+00         0.00000E+00        -0.50036E+08
 
   -0.50082E+08         0.17197E+06         0.00000E+00
    0.17197E+06        -0.50093E+08         0.00000E+00
    0.00000E+00         0.00000E+00        -0.50035E+08
 
   -0.50075E+08         0.17335E+06         0.00000E+00
    0.17335E+06        -0.50096E+08         0.00000E+00
    0.00000E+00         0.00000E+00        -0.50034E+08
 
   -0.50068E+08         0.17461E+06         0.00000E+00
    0.17461E+06        -0.50099E+08         0.00000E+00
    0.00000E+00         0.00000E+00        -0.50033E+08
 
   -0.50061E+08         0.17576E+06         0.00000E+00
    0.17576E+06        -0.50102E+08         0.00000E+00
    0.00000E+00         0.00000E+00        -0.50033E+08
 
   -0.50054E+08         0.17681E+06         0.00000E+00
    0.17681E+06        -0.50105E+08         0.00000E+00
    0.00000E+00         0.00000E+00        -0.50032E+08
 
   -0.50047E+08         0.17774E+06         0.00000E+00
    0.17774E+06        -0.50109E+08         0.00000E+00
    0.00000E+00         0.00000E+00        -0.50031E+08
 
   -0.50040E+08         0.17857E+06         0.00000E+00
    0.17857E+06        -0.50112E+08         0.00000E+00
    0.00000E+00         0.00000E+00        -0.50030E+08
 
   -0.50033E+08         0.17929E+06         0.00000E+00
    0.17929E+06        -0.50115E+08         0.00000E+00
    0.00000E+00         0.00000E+00        -0.50030E+08
 
   -0.50235E+08         0.26290E+04         0.00000E+00
    0.26290E+04        -0.50000E+08         0.00000E+00
    0.00000E+00         0.00000E+00        -0.50047E+08
 
   -0.50235E+08         0.78912E+04         0.00000E+00
    0.78912E+04        -0.50000E+08         0.00000E+00
    0.00000E+00         0.00000E+00        -0.50047E+08
 
   -0.50235E+08         0.13144E+05         0.00000E+00
    0.13144E+05        -0.50000E+08         0.00000E+00
    0.00000E+00         0.00000E+00        -0.50047E+08
 
   -0.50234E+08         0.18379E+05         0.00000E+00
    0.18379E+05        -0.50001E+08         0.00000E+00
    0.00000E+00         0.00000E+00        -0.50047E+08
 
   -0.50234E+08         0.23589E+05         0.00000E+00
    0.23589E+05        -0.50001E+08         0.00000E+00
    0.00000E+00         0.00000E+00        -0.50047E+08
 
   -0.50233E+08         0.28766E+05         0.00000E+00
    0.28766E+05        -0.50002E+08         0.00000E+00
    0.00000E+00         0.00000E+00        -0.50047E+08
 
   -0.50232E+08         0.33902E+05         0.00000E+00
    0.33902E+05        -0.50003E+08         0.00000E+00
    0.00000E+00         0.00000E+00        -0.50047E+08
 
   -0.50230E+08         0.38991E+05         0.00000E+00
    0.38991E+05        -0.50004E+08         0.00000E+00
    0.00000E+00         0.00000E+00        -0.50047E+08
 
   -0.50229E+08         0.44026E+05         0.00000E+00
    0.44026E+05        -0.50005E+08         0.00000E+00
    0.00000E+00         0.00000E+00        -0.50047E+08
 
   -0.50227E+08         0.49001E+05         0.00000E+00
    0.49001E+05        -0.50006E+08         0.00000E+00
    0.00000E+00         0.00000E+00        -0.50047E+08
 
   -0.50225E+08         0.53909E+05         0.00000E+00
    0.53909E+05        -0.50007E+08         0.00000E+00
    0.00000E+00         0.00000E+00        -0.50046E+08
 
   -0.50223E+08         0.58745E+05         0.00000E+00
    0.58745E+05        -0.50008E+08         0.00000E+00
    0.00000E+00         0.00000E+00        -0.50046E+08
 
   -0.50220E+08         0.63504E+05         0.00000E+00
    0.63504E+05        -0.50010E+08         0.00000E+00
    0.00000E+00         0.00000E+00        -0.50046E+08
 
   -0.50217E+08         0.68181E+05         0.00000E+00
    0.68181E+05        -0.50011E+08         0.00000E+00
    0.00000E+00         0.00000E+00        -0.50046E+08
 
   -0.50214E+08         0.72771E+05         0.00000E+00
    0.72771E+05        -0.50013E+08         0.00000E+00
    0.00000E+00         0.00000E+00        -0.50045E+08
 
   -0.50211E+08         0.77270E+05         0.00000E+00
    0.77270E+05        -0.50015E+08         0.00000E+00
    0.00000E+00         0.00000E+00        -0.50045E+08
 
   -0.50208E+08         0.81673E+05         0.00000E+00
    0.81673E+05        -0.50016E+08         0.00000E+00
    0.00000E+00         0.00000E+00        -0.50045E+08
 
   -0.50205E+08         0.85979E+05         0.00000E+00
    0.85979E+05        -0.50018E+08         0.00000E+00
    0.00000E+00         0.00000E+00        -0.50045E+08
 
   -0.50201E+08         0.90182E+05         0.00000E+00
    0.90182E+05        -0.50020E+08         0.00000E+00
    0.00000E+00         0.00000E+00        -0.50044E+08
 
   -0.50197E+08         0.94280E+05         0.00000E+00
    0.94280E+05        -0.50022E+08         0.00000E+00
    0.00000E+00         0.00000E+00        -0.50044E+08
 
   -0.50193E+08         0.98271E+05         0.00000E+00
    0.98271E+05        -0.50024E+08         0.00000E+00
    0.00000E+00         0.00000E+00        -0.50044E+08
 
   -0.50189E+08         0.10215E+06         0.00000E+00
    0.10215E+06        -0.50027E+08         0.00000E+00
    0.00000E+00         0.00000E+00        -0.50043E+08
 
   -0.50185E+08         0.10592E+06         0.00000E+00
    0.10592E+06        -0.50029E+08         0.00000E+00
    0.00000E+00         0.00000E+00        -0.50043E+08
 
   -0.50180E+08         0.10958E+06         0.00000E+00
    0.10958E+06        -0.50031E+08         0.00000E+00
    0.00000E+00         0.00000E+00        -0.50042E+08
 
   -0.50176E+08         0.11312E+06         0.00000E+00
    0.11312E+06        -0.50034E+08         0.00000E+00
    0.00000E+00         0.00000E+00        -0.50042E+08
 
   -0.50171E+08         0.11654E+06         0.00000E+00
    0.11654E+06        -0.50036E+08         0.00000E+00
    0.00000E+00         0.00000E+00        -0.50041E+08
 
   -0.50166E+08         0.11985E+06         0.00000E+00
    0.11985E+06        -0.50038E+08         0.00000E+00
    0.00000E+00         0.00000E+00        -0.50041E+08
 
   -0.50161E+08         0.12304E+06         0.00000E+00
    0.12304E+06        -0.50041E+08         0.00000E+00
    0.00000E+00         0.00000E+00        -0.50040E+08
 
   -0.50156E+08         0.12611E+06         0.00000E+00
    0.12611E+06        -0.50044E+08         0.00000E+00
    0.00000E+00         0.00000E+00        -0.50040E+08
 
   -0.50151E+08         0.12906E+06         0.00000E+00
    0.12906E+06        -0.50046E+08         0.00000E+00
    0.00000E+00         0.00000E+00        -0.50039E+08
 
   -0.50146E+08         0.13189E+06         0.00000E+00
    0.13189E+06        -0.50049E+08         0.00000E+00
    0.00000E+00         0.00000E+00        -0.50039E+08
 
   -0.50140E+08         0.13460E+06         0.00000E+00
    0.13460E+06        -0.50051E+08         0.00000E+00
    0.00000E+00         0.00000E+00        -0.50038E+08
 
   -0.50135E+08         0.13719E+06         0.00000E+00
    0.13719E+06        -0.50054E+08         0.00000E+00
    0.00000E+00         0.00000E+00        -0.50038E+08
 
   -0.50129E+08         0.13967E+06         0.00000E+00
    0.13967E+06        -0.50057E+08         0.00000E+00
    0.00000E+00         0.00000E+00        -0.50037E+08
 
   -0.50124E+08         0.14202E+06         0.00000E+00
    0.14202E+06        -0.50060E+08         0.00000E+00
    0.00000E+00         0.00000E+00        -0.50037E+08
 
   -0.50118E+08         0.14426E+06         0.00000E+00
    0.14426E+06        -0.50062E+08         0.00000E+00
    0.00000E+00         0.00000E+00        -0.50036E+08
 
   -0.50112E+08         0.14638E+06         0.00000E+00
    0.14638E+06        -0.50065E+08         0.00000E+00
    0.00000E+00         0.00000E+00        -0.50035E+08
 
   -0.50106E+08         0.14839E+06         0.00000E+00
    0.14839E+06        -0.50068E+08         0.00000E+00
    0.00000E+00         0.00000E+00        -0.50035E+08
 
   -0.50100E+08         0.15027E+06         0.00000E+00
    0.15027E+06        -0.50071E+08         0.00000E+00
    0.00000E+00         0.00000E+00        -0.50034E+08
 
   -0.50094E+08         0.15205E+06         0.00000E+00
    0.15205E+06        -0.50074E+08         0.00000E+00
    0.00000E+00         0.00000E+00        -0.50034E+08
 
   -0.50088E+08         0.15371E+06         0.00000E+00
    0.15371E+06        -0.50077E+08         0.00000E+00
    0.00000E+00         0.00000E+00        -0.50033E+08
 
   -0.50082E+08         0.15526E+06         0.00000E+00
    0.15526E+06        -0.50080E+08         0.00000E+00
    0.00000E+00         0.00000E+00        -0.50032E+08
 
   -0.50075E+08         0.15670E+06         0.00000E+00
    0.15670E+06        -0.50083E+08         0.00000E+00
    0.00000E+00         0.00000E+00        -0.50032E+08
 
   -0.50069E+08         0.15802E+06         0.00000E+00
    0.15802E+06        -0.50086E+08         0.00000E+00
    0.00000E+00         0.00000E+00        -0.50031E+08
 
   -0.50063E+08         0.15924E+06         0.00000E+00
    0.15924E+06        -0.50088E+08         0.00000E+00
    0.00000E+00         0.00000E+00        -0.50030E+08
 
   -0.50056E+08         0.16034E+06         0.00000E+00
    0.16034E+06        -0.50091E+08         0.00000E+00
    0.00000E+00         0.00000E+00        -0.50030E+08
 
   -0.50050E+08         0.16134E+06         0.00000E+00
    0.16134E+06        -0.50094E+08         0.00000E+00
    0.00000E+00         0.00000E+00        -0.50029E+08
 
   -0.50043E+08         0.16223E+06         0.00000E+00
    0.16223E+06        -0.50097E+08         0.00000E+00
    0.00000E+00         0.00000E+00        -0.50028E+08
 
   -0.50036E+08         0.16301E+06         0.00000E+00
    0.16301E+06        -0.50100E+08         0.00000E+00
    0.00000E+00         0.00000E+00        -0.50027E+08
 
   -0.50030E+08         0.16369E+06         0.00000E+00
    0.16369E+06        -0.50103E+08         0.00000E+00
    0.00000E+00         0.00000E+00        -0.50027E+08
 
   -0.50210E+08         0.23214E+04         0.00000E+00
    0.23214E+04        -0.50000E+08         0.00000E+00
    0.00000E+00         0.00000E+00        -0.50042E+08
 
   -0.50210E+08         0.69790E+04         0.00000E+00
    0.69790E+04        -0.50000E+08         0.00000E+00
    0.00000E+00         0.00000E+00        -0.50042E+08
 
   -0.50210E+08         0.11634E+05         0.00000E+00
    0.11634E+05        -0.50000E+08         0.00000E+00
    0.00000E+00         0.00000E+00        -0.50042E+08
 
   -0.50210E+08         0.16279E+05         0.00000E+00
    0.16279E+05        -0.50001E+08         0.00000E+00
    0.00000E+00         0.00000E+00        -0.50042E+08
 
   -0.50209E+08         0.20907E+05         0.00000E+00
    0.20907E+05        -0.50001E+08         0.00000E+00
    0.00000E+00         0.00000E+00        -0.50042E+08
 
   -0.50208E+08         0.25512E+05         0.00000E+00
    0.25512E+05        -0.50002E+08         0.00000E+00
    0.00000E+00         0.00000E+00        -0.50042E+08
 
   -0.50208E+08         0.30088E+05         0.00000E+00
    0.30088E+05        -0.50002E+08         0.00000E+00
    0.00000E+00         0.00000E+00        -0.50042E+08
 
   -0.50206E+08         0.34629E+05         0.00000E+00
    0.34629E+05        -0.50003E+08         0.00000E+00
    0.00000E+00         0.00000E+00        -0.50042E+08
 
   -0.50205E+08         0.39129E+05         0.00000E+00
    0.39129E+05        -0.50004E+08         0.00000E+00
    0.00000E+00         0.00000E+00        -0.50042E+08
 
   -0.50203E+08         0.43582E+05         0.00000E+00
    0.43582E+05        -0.50005E+08         0.00000E+00
    0.00000E+00         0.00000E+00        -0.50042E+08
 
   -0.50202E+08         0.47983E+05         0.00000E+00
    0.47983E+05        -0.50006E+08         0.00000E+00
    0.00000E+00         0.00000E+00        -0.50042E+08
 
   -0.50200E+08         0.52327E+05         0.00000E+00
    0.52327E+05        -0.50007E+08         0.00000E+00
    0.00000E+00         0.00000E+00        -0.50041E+08
 
   -0.50198E+08         0.56609E+05         0.00000E+00
    0.56609E+05        -0.50008E+08         0.00000E+00
    0.00000E+00         0.00000E+00        -0.50041E+08
 
   -0.50195E+08         0.60825E+05         0.00000E+00
    0.60825E+05        -0.50010E+08         0.00000E+00
    0.00000E+00         0.00000E+00        -0.50041E+08
 
   -0.50193E+08         0.64971E+05         0.00000E+00
    0.64971E+05        -0.50011E+08         0.00000E+00
    0.00000E+00         0.00000E+00        -0.50041E+08
 
   -0.50190E+08         0.69043E+05         0.00000E+00
    0.69043E+05        -0.50013E+08         0.00000E+00
    0.00000E+00         0.00000E+00        -0.50041E+08
 
   -0.50187E+08         0.73036E+05         0.00000E+00
    0.73036E+05        -0.50014E+08         0.00000E+00
    0.00000E+00         0.00000E+00        -0.50040E+08
 
   -0.50184E+08         0.76948E+05         0.00000E+00
    0.76948E+05        -0.50016E+08         0.00000E+00
    0.00000E+00         0.00000E+00        -0.50040E+08
 
   -0.50181E+08         0.80775E+05         0.00000E+00
    0.80775E+05        -0.50017E+08         0.00000E+00
    0.00000E+00         0.00000E+00        -0.50040E+08
 
   -0.50178E+08         0.84515E+05         0.00000E+00
    0.84515E+05        -0.50019E+08         0.00000E+00
    0.00000E+00         0.00000E+00        -0.50039E+08
 
   -0.50174E+08         0.88164E+05         0.00000E+00
    0.88164E+05        -0.50021E+08         0.00000E+00
    0.00000E+00         0.00000E+00        -0.50039E+08
 
   -0.50171E+08         0.91720E+05         0.00000E+00
    0.91720E+05        -0.50023E+08         0.00000E+00
    0.00000E+00         0.00000E+00        -0.50039E+08
 
   -0.50167E+08         0.95182E+05         0.00000E+00
    0.95182E+05        -0.50025E+08         0.00000E+00
    0.00000E+00         0.00000E+00        -0.50038E+08
 
   -0.50163E+08         0.98546E+05         0.00000E+00
    0.98546E+05        -0.50027E+08         0.00000E+00
    0.00000E+00         0.00000E+00        -0.50038E+08
 
   -0.50159E+08         0.10181E+06         0.00000E+00
    0.10181E+06        -0.50029E+08         0.00000E+00
    0.00000E+00         0.00000E+00        -0.50038E+08
 
   -0.50155E+08         0.10498E+06         0.00000E+00
    0.10498E+06        -0.50031E+08         0.00000E+00
    0.00000E+00         0.00000E+00        -0.50037E+08
 
   -0.50151E+08         0.10804E+06         0.00000E+00
    0.10804E+06        -0.50034E+08         0.00000E+00
    0.00000E+00         0.00000E+00        -0.50037E+08
 
   -0.50146E+08         0.11100E+06         0.00000E+00
    0.11100E+06        -0.50036E+08         0.00000E+00
    0.00000E+00         0.00000E+00        -0.50036E+08
 
   -0.50142E+08         0.11386E+06         0.00000E+00
    0.11386E+06        -0.50038E+08         0.00000E+00
    0.00000E+00         0.00000E+00        -0.50036E+08
 
   -0.50137E+08         0.11661E+06         0.00000E+00
    0.11661E+06        -0.50040E+08         0.00000E+00
    0.00000E+00         0.00000E+00        -0.50035E+08
 
   -0.50132E+08         0.11925E+06         0.00000E+00
    0.11925E+06        -0.50043E+08         0.00000E+00
    0.00000E+00         0.00000E+00        -0.50035E+08
 
   -0.50127E+08         0.12179E+06         0.00000E+00
    0.12179E+06        -0.50045E+08         0.00000E+00
    0.00000E+00         0.00000E+00        -0.50035E+08
 
   -0.50123E+08         0.12422E+06         0.00000E+00
    0.12422E+06        -0.50048E+08         0.00000E+00
    0.00000E+00         0.00000E+00        -0.50034E+08
 
   -0.50117E+08         0.12655E+06         0.00000E+00
    0.12655E+06        -0.50050E+08         0.00000E+00
    0.00000E+00         0.00000E+00        -0.50034E+08
 
   -0.50112E+08         0.12877E+06         0.00000E+00
    0.12877E+06        -0.50053E+08         0.00000E+00
    0.00000E+00         0.00000E+00        -0.50033E+08
 
   -0.50107E+08         0.13088E+06         0.00000E+00
    0.13088E+06        -0.50055E+08         0.00000E+00
    0.00000E+00         0.00000E+00        -0.50032E+08
 
   -0.50102E+08         0.13289E+06         0.00000E+00
    0.13289E+06        -0.50058E+08         0.00000E+00
    0.00000E+00         0.00000E+00        -0.50032E+08
 
   -0.50097E+08         0.13478E+06         0.00000E+00
    0.13478E+06        -0.50060E+08         0.00000E+00
    0.00000E+00         0.00000E+00        -0.50031E+08
 
   -0.50091E+08         0.13658E+06         0.00000E+00
    0.13658E+06        -0.50063E+08         0.00000E+00
    0.00000E+00         0.00000E+00        -0.50031E+08
 
   -0.50086E+08         0.13826E+06         0.00000E+00
    0.13826E+06        -0.50066E+08         0.00000E+00
    0.00000E+00         0.00000E+00        -0.50030E+08
 
   -0.50080E+08         0.13984E+06         0.00000E+00
    0.13984E+06        -0.50068E+08         0.00000E+00
    0.00000E+00         0.00000E+00        -0.50030E+08
 
   -0.50074E+08         0.14131E+06         0.00000E+00
    0.14131E+06        -0.50071E+08         0.00000E+00
    0.00000E+00         0.00000E+00        -0.50029E+08
 
   -0.50069E+08         0.14267E+06         0.00000E+00
    0.14267E+06        -0.50074E+08         0.00000E+00
    0.00000E+00         0.00000E+00        -0.50028E+08
 
   -0.50063E+08         0.14393E+06         0.00000E+00
    0.14393E+06        -0.50076E+08         0.00000E+00
    0.00000E+00         0.00000E+00        -0.50028E+08
 
   -0.50057E+08         0.14509E+06         0.00000E+00
    0.14509E+06        -0.50079E+08         0.00000E+00
    0.00000E+00         0.00000E+00        -0.50027E+08
 
   -0.50051E+08         0.14613E+06         0.00000E+00
    0.14613E+06        -0.50082E+08         0.00000E+00
    0.00000E+00         0.00000E+00        -0.50027E+08
 
   -0.50045E+08         0.14708E+06         0.00000E+00
    0.14708E+06        -0.50084E+08         0.00000E+00
    0.00000E+00         0.00000E+00        -0.50026E+08
 
   -0.50039E+08         0.14791E+06         0.00000E+00
    0.14791E+06        -0.50087E+08         0.00000E+00
    0.00000E+00         0.00000E+00        -0.50025E+08
 
   -0.50033E+08         0.14864E+06         0.00000E+00
    0.14864E+06        -0.50090E+08         0.00000E+00
    0.00000E+00         0.00000E+00        -0.50025E+08
 
   -0.50027E+08         0.14927E+06         0.00000E+00
    0.14927E+06        -0.50093E+08         0.00000E+00
    0.00000E+00         0.00000E+00        -0.50024E+08
 
   -0.50188E+08         0.20613E+04         0.00000E+00
    0.20613E+04        -0.50000E+08         0.00000E+00
    0.00000E+00         0.00000E+00        -0.50038E+08
 
   -0.50188E+08         0.62040E+04         0.00000E+00
    0.62040E+04        -0.50000E+08         0.00000E+00
    0.00000E+00         0.00000E+00        -0.50038E+08
 
   -0.50188E+08         0.10348E+05         0.00000E+00
    0.10348E+05        -0.50000E+08         0.00000E+00
    0.00000E+00         0.00000E+00        -0.50038E+08
 
   -0.50188E+08         0.14486E+05         0.00000E+00
    0.14486E+05        -0.50001E+08         0.00000E+00
    0.00000E+00         0.00000E+00        -0.50038E+08
 
   -0.50187E+08         0.18614E+05         0.00000E+00
    0.18614E+05        -0.50001E+08         0.00000E+00
    0.00000E+00         0.00000E+00        -0.50038E+08
 
   -0.50187E+08         0.22726E+05         0.00000E+00
    0.22726E+05        -0.50001E+08         0.00000E+00
    0.00000E+00         0.00000E+00        -0.50038E+08
 
   -0.50186E+08         0.26816E+05         0.00000E+00
    0.26816E+05        -0.50002E+08         0.00000E+00
    0.00000E+00         0.00000E+00        -0.50038E+08
 
   -0.50185E+08         0.30880E+05         0.00000E+00
    0.30880E+05        -0.50003E+08         0.00000E+00
    0.00000E+00         0.00000E+00        -0.50038E+08
 
   -0.50184E+08         0.34912E+05         0.00000E+00
    0.34912E+05        -0.50003E+08         0.00000E+00
    0.00000E+00         0.00000E+00        -0.50037E+08
 
   -0.50182E+08         0.38908E+05         0.00000E+00
    0.38908E+05        -0.50004E+08         0.00000E+00
    0.00000E+00         0.00000E+00        -0.50037E+08
 
   -0.50181E+08         0.42862E+05         0.00000E+00
    0.42862E+05        -0.50005E+08         0.00000E+00
    0.00000E+00         0.00000E+00        -0.50037E+08
 
   -0.50179E+08         0.46771E+05         0.00000E+00
    0.46771E+05        -0.50006E+08         0.00000E+00
    0.00000E+00         0.00000E+00        -0.50037E+08
 
   -0.50177E+08         0.50630E+05         0.00000E+00
    0.50630E+05        -0.50007E+08         0.00000E+00
    0.00000E+00         0.00000E+00        -0.50037E+08
 
   -0.50175E+08         0.54436E+05         0.00000E+00
    0.54436E+05        -0.50008E+08         0.00000E+00
    0.00000E+00         0.00000E+00        -0.50037E+08
 
   -0.50173E+08         0.58183E+05         0.00000E+00
    0.58183E+05        -0.50010E+08         0.00000E+00
    0.00000E+00         0.00000E+00        -0.50037E+08
 
   -0.50171E+08         0.61870E+05         0.00000E+00
    0.61870E+05        -0.50011E+08         0.00000E+00
    0.00000E+00         0.00000E+00        -0.50036E+08
 
   -0.50168E+08         0.65492E+05         0.00000E+00
    0.65492E+05        -0.50012E+08         0.00000E+00
    0.00000E+00         0.00000E+00        -0.50036E+08
 
   -0.50166E+08         0.69045E+05         0.00000E+00
    0.69045E+05        -0.50014E+08         0.00000E+00
    0.00000E+00         0.00000E+00        -0.50036E+08
 
   -0.50163E+08         0.72528E+05         0.00000E+00
    0.72528E+05        -0.50015E+08         0.00000E+00
    0.00000E+00         0.00000E+00        -0.50036E+08
 
   -0.50160E+08         0.75937E+05         0.00000E+00
    0.75937E+05        -0.50017E+08         0.00000E+00
    0.00000E+00         0.00000E+00        -0.50035E+08
 
   -0.50157E+08         0.79269E+05         0.00000E+00
    0.79269E+05        -0.50018E+08         0.00000E+00
    0.00000E+00         0.00000E+00        -0.50035E+08
 
   -0.50154E+08         0.82522E+05         0.00000E+00
    0.82522E+05        -0.50020E+08         0.00000E+00
    0.00000E+00         0.00000E+00        -0.50035E+08
 
   -0.50151E+08         0.85694E+05         0.00000E+00
    0.85694E+05        -0.50022E+08         0.00000E+00
    0.00000E+00         0.00000E+00        -0.50034E+08
 
   -0.50147E+08         0.88783E+05         0.00000E+00
    0.88783E+05        -0.50024E+08         0.00000E+00
    0.00000E+00         0.00000E+00        -0.50034E+08
 
   -0.50144E+08         0.91786E+05         0.00000E+00
    0.91786E+05        -0.50026E+08         0.00000E+00
    0.00000E+00         0.00000E+00        -0.50034E+08
 
   -0.50140E+08         0.94702E+05         0.00000E+00
    0.94702E+05        -0.50027E+08         0.00000E+00
    0.00000E+00         0.00000E+00        -0.50033E+08
 
   -0.50136E+08         0.97529E+05         0.00000E+00
    0.97529E+05        -0.50029E+08         0.00000E+00
    0.00000E+00         0.00000E+00        -0.50033E+08
 
   -0.50132E+08         0.10027E+06         0.00000E+00
    0.10027E+06        -0.50031E+08         0.00000E+00
    0.00000E+00         0.00000E+00        -0.50033E+08
 
   -0.50128E+08         0.10291E+06         0.00000E+00
    0.10291E+06        -0.50033E+08         0.00000E+00
    0.00000E+00         0.00000E+00        -0.50032E+08
 
   -0.50124E+08         0.10546E+06         0.00000E+00
    0.10546E+06        -0.50036E+08         0.00000E+00
    0.00000E+00         0.00000E+00        -0.50032E+08
 
   -0.50120E+08         0.10792E+06         0.00000E+00
    0.10792E+06        -0.50038E+08         0.00000E+00
    0.00000E+00         0.00000E+00        -0.50031E+08
 
   -0.50115E+08         0.11029E+06         0.00000E+00
    0.11029E+06        -0.50040E+08         0.00000E+00
    0.00000E+00         0.00000E+00        -0.50031E+08
 
   -0.50111E+08         0.11256E+06         0.00000E+00
    0.11256E+06        -0.50042E+08         0.00000E+00
    0.00000E+00         0.00000E+00        -0.50031E+08
 
   -0.50106E+08         0.11473E+06         0.00000E+00
    0.11473E+06        -0.50044E+08         0.00000E+00
    0.00000E+00         0.00000E+00        -0.50030E+08
 
   -0.50102E+08         0.11680E+06         0.00000E+00
    0.11680E+06        -0.50046E+08         0.00000E+00
    0.00000E+00         0.00000E+00        -0.50030E+08
 
   -0.50097E+08         0.11878E+06         0.00000E+00
    0.11878E+06        -0.50049E+08         0.00000E+00
    0.00000E+00         0.00000E+00        -0.50029E+08
 
   -0.50092E+08         0.12066E+06         0.00000E+00
    0.12066E+06        -0.50051E+08         0.00000E+00
    0.00000E+00         0.00000E+00        -0.50029E+08
 
   -0.50088E+08         0.12244E+06         0.00000E+00
    0.12244E+06        -0.50053E+08         0.00000E+00
    0.00000E+00         0.00000E+00        -0.50028E+08
 
   -0.50083E+08         0.12413E+06         0.00000E+00
    0.12413E+06        -0.50056E+08         0.00000E+00
    0.00000E+00         0.00000E+00        -0.50028E+08
 
   -0.50078E+08         0.12571E+06         0.00000E+00
    0.12571E+06        -0.50058E+08         0.00000E+00
    0.00000E+00         0.00000E+00        -0.50027E+08
 
   -0.50073E+08         0.12719E+06         0.00000E+00
    0.12719E+06        -0.50061E+08         0.00000E+00
    0.00000E+00         0.00000E+00        -0.50027E+08
 
   -0.50067E+08         0.12858E+06         0.00000E+00
    0.12858E+06        -0.50063E+08         0.00000E+00
    0.00000E+00         0.00000E+00        -0.50026E+08
 
   -0.50062E+08         0.12986E+06         0.00000E+00
    0.12986E+06        -0.50065E+08         0.00000E+00
    0.00000E+00         0.00000E+00        -0.50026E+08
 
   -0.50057E+08         0.13105E+06         0.00000E+00
    0.13105E+06        -0.50068E+08         0.00000E+00
    0.00000E+00         0.00000E+00        -0.50025E+08
 
   -0.50052E+08         0.13213E+06         0.00000E+00
    0.13213E+06        -0.50070E+08         0.00000E+00
    0.00000E+00         0.00000E+00        -0.50024E+08
 
   -0.50046E+08         0.13311E+06         0.00000E+00
    0.13311E+06        -0.50073E+08         0.00000E+00
    0.00000E+00         0.00000E+00        -0.50024E+08
 
   -0.50041E+08         0.13399E+06         0.00000E+00
    0.13399E+06        -0.50075E+08         0.00000E+00
    0.00000E+00         0.00000E+00        -0.50023E+08
 
   -0.50035E+08         0.13477E+06         0.00000E+00
    0.13477E+06        -0.50078E+08         0.00000E+00
    0.00000E+00         0.00000E+00        -0.50023E+08
 
   -0.50030E+08         0.13545E+06         0.00000E+00
    0.13545E+06        -0.50080E+08         0.00000E+00
    0.00000E+00         0.00000E+00        -0.50022E+08
 
   -0.50024E+08         0.13602E+06         0.00000E+00
    0.13602E+06        -0.50083E+08         0.00000E+00
    0.00000E+00         0.00000E+00        -0.50021E+08
 
   -0.50168E+08         0.18404E+04         0.00000E+00
    0.18404E+04        -0.50000E+08         0.00000E+00
    0.00000E+00         0.00000E+00        -0.50034E+08
 
   -0.50168E+08         0.55430E+04         0.00000E+00
    0.55430E+04        -0.50000E+08         0.00000E+00
    0.00000E+00         0.00000E+00        -0.50034E+08
 
   -0.50168E+08         0.92484E+04         0.00000E+00
    0.92484E+04        -0.50000E+08         0.00000E+00
    0.00000E+00         0.00000E+00        -0.50034E+08
 
   -0.50168E+08         0.12952E+05         0.00000E+00
    0.12952E+05        -0.50000E+08         0.00000E+00
    0.00000E+00         0.00000E+00        -0.50034E+08
 
   -0.50168E+08         0.16648E+05         0.00000E+00
    0.16648E+05        -0.50001E+08         0.00000E+00
    0.00000E+00         0.00000E+00        -0.50034E+08
 
   -0.50167E+08         0.20333E+05         0.00000E+00
    0.20333E+05        -0.50001E+08         0.00000E+00
    0.00000E+00         0.00000E+00        -0.50034E+08
 
   -0.50167E+08         0.24002E+05         0.00000E+00
    0.24002E+05        -0.50002E+08         0.00000E+00
    0.00000E+00         0.00000E+00        -0.50034E+08
 
   -0.50166E+08         0.27650E+05         0.00000E+00
    0.27650E+05        -0.50002E+08         0.00000E+00
    0.00000E+00         0.00000E+00        -0.50034E+08
 
   -0.50165E+08         0.31274E+05         0.00000E+00
    0.31274E+05        -0.50003E+08         0.00000E+00
    0.00000E+00         0.00000E+00        -0.50034E+08
 
   -0.50164E+08         0.34868E+05         0.00000E+00
    0.34868E+05        -0.50004E+08         0.00000E+00
    0.00000E+00         0.00000E+00        -0.50033E+08
 
   -0.50162E+08         0.38430E+05         0.00000E+00
    0.38430E+05        -0.50004E+08         0.00000E+00
    0.00000E+00         0.00000E+00        -0.50033E+08
 
   -0.50161E+08         0.41954E+05         0.00000E+00
    0.41954E+05        -0.50005E+08         0.00000E+00
    0.00000E+00         0.00000E+00        -0.50033E+08
 
   -0.50159E+08         0.45438E+05         0.00000E+00
    0.45438E+05        -0.50006E+08         0.00000E+00
    0.00000E+00         0.00000E+00        -0.50033E+08
 
   -0.50157E+08         0.48878E+05         0.00000E+00
    0.48878E+05        -0.50007E+08         0.00000E+00
    0.00000E+00         0.00000E+00        -0.50033E+08
 
   -0.50156E+08         0.52269E+05         0.00000E+00
    0.52269E+05        -0.50008E+08         0.00000E+00
    0.00000E+00         0.00000E+00        -0.50033E+08
 
   -0.50154E+08         0.55610E+05         0.00000E+00
    0.55610E+05        -0.50009E+08         0.00000E+00
    0.00000E+00         0.00000E+00        -0.50033E+08
 
   -0.50151E+08         0.58896E+05         0.00000E+00
    0.58896E+05        -0.50011E+08         0.00000E+00
    0.00000E+00         0.00000E+00        -0.50032E+08
 
   -0.50149E+08         0.62125E+05         0.00000E+00
    0.62125E+05        -0.50012E+08         0.00000E+00
    0.00000E+00         0.00000E+00        -0.50032E+08
 
   -0.50147E+08         0.65294E+05         0.00000E+00
    0.65294E+05        -0.50013E+08         0.00000E+00
    0.00000E+00         0.00000E+00        -0.50032E+08
 
   -0.50144E+08         0.68400E+05         0.00000E+00
    0.68400E+05        -0.50015E+08         0.00000E+00
    0.00000E+00         0.00000E+00        -0.50032E+08
 
   -0.50141E+08         0.71441E+05         0.00000E+00
    0.71441E+05        -0.50016E+08         0.00000E+00
    0.00000E+00         0.00000E+00        -0.50031E+08
 
   -0.50139E+08         0.74413E+05         0.00000E+00
    0.74413E+05        -0.50018E+08         0.00000E+00
    0.00000E+00         0.00000E+00        -0.50031E+08
 
   -0.50136E+08         0.77316E+05         0.00000E+00
    0.77316E+05        -0.50019E+08         0.00000E+00
    0.00000E+00         0.00000E+00        -0.50031E+08
 
   -0.50133E+08         0.80147E+05         0.00000E+00
    0.80147E+05        -0.50021E+08         0.00000E+00
    0.00000E+00         0.00000E+00        -0.50031E+08
 
   -0.50129E+08         0.82903E+05         0.00000E+00
    0.82903E+05        -0.50022E+08         0.00000E+00
    0.00000E+00         0.00000E+00        -0.50030E+08
 
   -0.50126E+08         0.85583E+05         0.00000E+00
    0.85583E+05        -0.50024E+08         0.00000E+00
    0.00000E+00         0.00000E+00        -0.50030E+08
 
   -0.50123E+08         0.88185E+05         0.00000E+00
    0.88185E+05        -0.50026E+08         0.00000E+00
    0.00000E+00         0.00000E+00        -0.50030E+08
 
   -0.50119E+08         0.90708E+05         0.00000E+00
    0.90708E+05        -0.50028E+08         0.00000E+00
    0.00000E+00         0.00000E+00        -0.50029E+08
 
   -0.50116E+08         0.93150E+05         0.00000E+00
    0.93150E+05        -0.50029E+08         0.00000E+00
    0.00000E+00         0.00000E+00        -0.50029E+08
 
   -0.50112E+08         0.95509E+05         0.00000E+00
    0.95509E+05        -0.50031E+08         0.00000E+00
    0.00000E+00         0.00000E+00        -0.50029E+08
 
   -0.50108E+08         0.97785E+05         0.00000E+00
    0.97785E+05        -0.50033E+08         0.00000E+00
    0.00000E+00         0.00000E+00        -0.50028E+08
 
   -0.50104E+08         0.99976E+05         0.00000E+00
    0.99976E+05        -0.50035E+08         0.00000E+00
    0.00000E+00         0.00000E+00        -0.50028E+08
 
   -0.50100E+08         0.10208E+06         0.00000E+00
    0.10208E+06        -0.50037E+08         0.00000E+00
    0.00000E+00         0.00000E+00        -0.50027E+08
 
   -0.50096E+08         0.10410E+06         0.00000E+00
    0.10410E+06        -0.50039E+08         0.00000E+00
    0.00000E+00         0.00000E+00        -0.50027E+08
 
   -0.50092E+08         0.10603E+06         0.00000E+00
    0.10603E+06        -0.50041E+08         0.00000E+00
    0.00000E+00         0.00000E+00        -0.50027E+08
 
   -0.50088E+08         0.10787E+06         0.00000E+00
    0.10787E+06        -0.50043E+08         0.00000E+00
    0.00000E+00         0.00000E+00        -0.50026E+08
 
   -0.50084E+08         0.10962E+06         0.00000E+00
    0.10962E+06        -0.50045E+08         0.00000E+00
    0.00000E+00         0.00000E+00        -0.50026E+08
 
   -0.50079E+08         0.11128E+06         0.00000E+00
    0.11128E+06        -0.50047E+08         0.00000E+00
    0.00000E+00         0.00000E+00        -0.50025E+08
 
   -0.50075E+08         0.11285E+06         0.00000E+00
    0.11285E+06        -0.50049E+08         0.00000E+00
    0.00000E+00         0.00000E+00        -0.50025E+08
 
   -0.50070E+08         0.11433E+06         0.00000E+00
    0.11433E+06        -0.50052E+08         0.00000E+00
    0.00000E+00         0.00000E+00        -0.50024E+08
 
   -0.50066E+08         0.11572E+06         0.00000E+00
    0.11572E+06        -0.50054E+08         0.00000E+00
    0.00000E+00         0.00000E+00        -0.50024E+08
 
   -0.50061E+08         0.11701E+06         0.00000E+00
    0.11701E+06        -0.50056E+08         0.00000E+00
    0.00000E+00         0.00000E+00        -0.50023E+08
 
   -0.50056E+08         0.11821E+06         0.00000E+00
    0.11821E+06        -0.50058E+08         0.00000E+00
    0.00000E+00         0.00000E+00        -0.50023E+08
 
   -0.50051E+08         0.11931E+06         0.00000E+00
    0.11931E+06        -0.50060E+08         0.00000E+00
    0.00000E+00         0.00000E+00        -0.50022E+08
 
   -0.50047E+08         0.12032E+06         0.00000E+00
    0.12032E+06        -0.50063E+08         0.00000E+00
    0.00000E+00         0.00000E+00        -0.50022E+08
 
   -0.50042E+08         0.12124E+06         0.00000E+00
    0.12124E+06        -0.50065E+08         0.00000E+00
    0.00000E+00         0.00000E+00        -0.50021E+08
 
   -0.50037E+08         0.12206E+06         0.00000E+00
    0.12206E+06        -0.50067E+08         0.00000E+00
    0.00000E+00         0.00000E+00        -0.50021E+08
 
   -0.50032E+08         0.12278E+06         0.00000E+00
    0.12278E+06        -0.50069E+08         0.00000E+00
    0.00000E+00         0.00000E+00        -0.50020E+08
 
   -0.50027E+08         0.12340E+06         0.00000E+00
    0.12340E+06        -0.50072E+08         0.00000E+00
    0.00000E+00         0.00000E+00        -0.50020E+08
 
   -0.50021E+08         0.12393E+06         0.00000E+00
    0.12393E+06        -0.50074E+08         0.00000E+00
    0.00000E+00         0.00000E+00        -0.50019E+08
 
   -0.50151E+08         0.16519E+04         0.00000E+00
    0.16519E+04        -0.50000E+08         0.00000E+00
    0.00000E+00         0.00000E+00        -0.50030E+08
 
   -0.50151E+08         0.49767E+04         0.00000E+00
    0.49767E+04        -0.50000E+08         0.00000E+00
    0.00000E+00         0.00000E+00        -0.50030E+08
 
   -0.50151E+08         0.83052E+04         0.00000E+00
    0.83052E+04        -0.50000E+08         0.00000E+00
    0.00000E+00         0.00000E+00        -0.50030E+08
 
   -0.50151E+08         0.11633E+05         0.00000E+00
    0.11633E+05        -0.50000E+08         0.00000E+00
    0.00000E+00         0.00000E+00        -0.50030E+08
 
   -0.50150E+08         0.14956E+05         0.00000E+00
    0.14956E+05        -0.50001E+08         0.00000E+00
    0.00000E+00         0.00000E+00        -0.50030E+08
 
   -0.50150E+08         0.18271E+05         0.00000E+00
    0.18271E+05        -0.50001E+08         0.00000E+00
    0.00000E+00         0.00000E+00        -0.50030E+08
 
   -0.50149E+08         0.21574E+05         0.00000E+00
    0.21574E+05        -0.50001E+08         0.00000E+00
    0.00000E+00         0.00000E+00        -0.50030E+08
 
   -0.50149E+08         0.24860E+05         0.00000E+00
    0.24860E+05        -0.50002E+08         0.00000E+00
    0.00000E+00         0.00000E+00        -0.50030E+08
 
   -0.50148E+08         0.28126E+05         0.00000E+00
    0.28126E+05        -0.50002E+08         0.00000E+00
    0.00000E+00         0.00000E+00        -0.50030E+08
 
   -0.50147E+08         0.31369E+05         0.00000E+00
    0.31369E+05        -0.50003E+08         0.00000E+00
    0.00000E+00         0.00000E+00        -0.50030E+08
 
   -0.50145E+08         0.34584E+05         0.00000E+00
    0.34584E+05        -0.50004E+08         0.00000E+00
    0.00000E+00         0.00000E+00        -0.50030E+08
 
   -0.50144E+08         0.37770E+05         0.00000E+00
    0.37770E+05        -0.50005E+08         0.00000E+00
    0.00000E+00         0.00000E+00        -0.50030E+08
 
   -0.50143E+08         0.40921E+05         0.00000E+00
    0.40921E+05        -0.50005E+08         0.00000E+00
    0.00000E+00         0.00000E+00        -0.50030E+08
 
   -0.50141E+08         0.44035E+05         0.00000E+00
    0.44035E+05        -0.50006E+08         0.00000E+00
    0.00000E+00         0.00000E+00        -0.50029E+08
 
   -0.50140E+08         0.47109E+05         0.00000E+00
    0.47109E+05        -0.50007E+08         0.00000E+00
    0.00000E+00         0.00000E+00        -0.50029E+08
 
   -0.50138E+08         0.50140E+05         0.00000E+00
    0.50140E+05        -0.50008E+08         0.00000E+00
    0.00000E+00         0.00000E+00        -0.50029E+08
 
   -0.50136E+08         0.53124E+05         0.00000E+00
    0.53124E+05        -0.50009E+08         0.00000E+00
    0.00000E+00         0.00000E+00        -0.50029E+08
 
   -0.50134E+08         0.56060E+05         0.00000E+00
    0.56060E+05        -0.50010E+08         0.00000E+00
    0.00000E+00         0.00000E+00        -0.50029E+08
 
   -0.50132E+08         0.58944E+05         0.00000E+00
    0.58944E+05        -0.50011E+08         0.00000E+00
    0.00000E+00         0.00000E+00        -0.50029E+08
 
   -0.50129E+08         0.61775E+05         0.00000E+00
    0.61775E+05        -0.50013E+08         0.00000E+00
    0.00000E+00         0.00000E+00        -0.50028E+08
 
   -0.50127E+08         0.64549E+05         0.00000E+00
    0.64549E+05        -0.50014E+08         0.00000E+00
    0.00000E+00         0.00000E+00        -0.50028E+08
 
   -0.50125E+08         0.67264E+05         0.00000E+00
    0.67264E+05        -0.50015E+08         0.00000E+00
    0.00000E+00         0.00000E+00        -0.50028E+08
 
   -0.50122E+08         0.69918E+05         0.00000E+00
    0.69918E+05        -0.50017E+08         0.00000E+00
    0.00000E+00         0.00000E+00        -0.50028E+08
 
   -0.50119E+08         0.72509E+05         0.00000E+00
    0.72509E+05        -0.50018E+08         0.00000E+00
    0.00000E+00         0.00000E+00        -0.50027E+08
 
   -0.50116E+08         0.75035E+05         0.00000E+00
    0.75035E+05        -0.50020E+08         0.00000E+00
    0.00000E+00         0.00000E+00        -0.50027E+08
 
   -0.50113E+08         0.77494E+05         0.00000E+00
    0.77494E+05        -0.50021E+08         0.00000E+00
    0.00000E+00         0.00000E+00        -0.50027E+08
 
   -0.50110E+08         0.79885E+05         0.00000E+00
    0.79885E+05        -0.50023E+08         0.00000E+00
    0.00000E+00         0.00000E+00        -0.50027E+08
 
   -0.50107E+08         0.82205E+05         0.00000E+00
    0.82205E+05        -0.50024E+08         0.00000E+00
    0.00000E+00         0.00000E+00        -0.50026E+08
 
   -0.50104E+08         0.84453E+05         0.00000E+00
    0.84453E+05        -0.50026E+08         0.00000E+00
    0.00000E+00         0.00000E+00        -0.50026E+08
 
   -0.50101E+08         0.86628E+05         0.00000E+00
    0.86628E+05        -0.50027E+08         0.00000E+00
    0.00000E+00         0.00000E+00        -0.50026E+08
 
   -0.50097E+08         0.88727E+05         0.00000E+00
    0.88727E+05        -0.50029E+08         0.00000E+00
    0.00000E+00         0.00000E+00        -0.50025E+08
 
   -0.50094E+08         0.90750E+05         0.00000E+00
    0.90750E+05        -0.50031E+08         0.00000E+00
    0.00000E+00         0.00000E+00        -0.50025E+08
 
   -0.50090E+08         0.92696E+05         0.00000E+00
    0.92696E+05        -0.50033E+08         0.00000E+00
    0.00000E+00         0.00000E+00        -0.50025E+08
 
   -0.50087E+08         0.94563E+05         0.00000E+00
    0.94563E+05        -0.50034E+08         0.00000E+00
    0.00000E+00         0.00000E+00        -0.50024E+08
 
   -0.50083E+08         0.96351E+05         0.00000E+00
    0.96351E+05        -0.50036E+08         0.00000E+00
    0.00000E+00         0.00000E+00        -0.50024E+08
 
   -0.50079E+08         0.98057E+05         0.00000E+00
    0.98057E+05        -0.50038E+08         0.00000E+00
    0.00000E+00         0.00000E+00        -0.50023E+08
 
   -0.50075E+08         0.99681E+05         0.00000E+00
    0.99681E+05        -0.50040E+08         0.00000E+00
    0.00000E+00         0.00000E+00        -0.50023E+08
 
   -0.50071E+08         0.10122E+06         0.00000E+00
    0.10122E+06        -0.50042E+08         0.00000E+00
    0.00000E+00         0.00000E+00        -0.50023E+08
 
   -0.50067E+08         0.10268E+06         0.00000E+00
    0.10268E+06        -0.50044E+08         0.00000E+00
    0.00000E+00         0.00000E+00        -0.50022E+08
 
   -0.50063E+08         0.10405E+06         0.00000E+00
    0.10405E+06        -0.50046E+08         0.00000E+00
    0.00000E+00         0.00000E+00        -0.50022E+08
 
   -0.50059E+08         0.10534E+06         0.00000E+00
    0.10534E+06        -0.50048E+08         0.00000E+00
    0.00000E+00         0.00000E+00        -0.50021E+08
 
   -0.50055E+08         0.10654E+06         0.00000E+00
    0.10654E+06        -0.50050E+08         0.00000E+00
    0.00000E+00         0.00000E+00        -0.50021E+08
 
   -0.50051E+08         0.10765E+06         0.00000E+00
    0.10765E+06        -0.50052E+08         0.00000E+00
    0.00000E+00         0.00000E+00        -0.50020E+08
 
   -0.50046E+08         0.10868E+06         0.00000E+00
    0.10868E+06        -0.50054E+08         0.00000E+00
    0.00000E+00         0.00000E+00        -0.50020E+08
 
   -0.50042E+08         0.10961E+06         0.00000E+00
    0.10961E+06        -0.50056E+08         0.00000E+00
    0.00000E+00         0.00000E+00        -0.50020E+08
 
   -0.50037E+08         0.11046E+06         0.00000E+00
    0.11046E+06        -0.50058E+08         0.00000E+00
    0.00000E+00         0.00000E+00        -0.50019E+08
 
   -0.50033E+08         0.11122E+06         0.00000E+00
    0.11122E+06        -0.50060E+08         0.00000E+00
    0.00000E+00         0.00000E+00        -0.50019E+08
 
   -0.50028E+08         0.11188E+06         0.00000E+00
    0.11188E+06        -0.50062E+08         0.00000E+00
    0.00000E+00         0.00000E+00        -0.50018E+08
 
   -0.50024E+08         0.11245E+06         0.00000E+00
    0.11245E+06        -0.50064E+08         0.00000E+00
    0.00000E+00         0.00000E+00        -0.50018E+08
 
   -0.50019E+08         0.11293E+06         0.00000E+00
    0.11293E+06        -0.50066E+08         0.00000E+00
    0.00000E+00         0.00000E+00        -0.50017E+08
 
   -0.50135E+08         0.14901E+04         0.00000E+00
    0.14901E+04        -0.50000E+08         0.00000E+00
    0.00000E+00         0.00000E+00        -0.50027E+08
 
   -0.50135E+08         0.44895E+04         0.00000E+00
    0.44895E+04        -0.50000E+08         0.00000E+00
    0.00000E+00         0.00000E+00        -0.50027E+08
 
   -0.50135E+08         0.74924E+04         0.00000E+00
    0.74924E+04        -0.50000E+08         0.00000E+00
    0.00000E+00         0.00000E+00        -0.50027E+08
 
   -0.50135E+08         0.10496E+05         0.00000E+00
    0.10496E+05        -0.50000E+08         0.00000E+00
    0.00000E+00         0.00000E+00        -0.50027E+08
 
   -0.50135E+08         0.13495E+05         0.00000E+00
    0.13495E+05        -0.50001E+08         0.00000E+00
    0.00000E+00         0.00000E+00        -0.50027E+08
 
   -0.50134E+08         0.16489E+05         0.00000E+00
    0.16489E+05        -0.50001E+08         0.00000E+00
    0.00000E+00         0.00000E+00        -0.50027E+08
 
   -0.50134E+08         0.19472E+05         0.00000E+00
    0.19472E+05        -0.50001E+08         0.00000E+00
    0.00000E+00         0.00000E+00        -0.50027E+08
 
   -0.50133E+08         0.22442E+05         0.00000E+00
    0.22442E+05        -0.50002E+08         0.00000E+00
    0.00000E+00         0.00000E+00        -0.50027E+08
 
   -0.50132E+08         0.25395E+05         0.00000E+00
    0.25395E+05        -0.50002E+08         0.00000E+00
    0.00000E+00         0.00000E+00        -0.50027E+08
 
   -0.50131E+08         0.28329E+05         0.00000E+00
    0.28329E+05        -0.50003E+08         0.00000E+00
    0.00000E+00         0.00000E+00        -0.50027E+08
 
   -0.50130E+08         0.31241E+05         0.00000E+00
    0.31241E+05        -0.50003E+08         0.00000E+00
    0.00000E+00         0.00000E+00        -0.50027E+08
 
   -0.50129E+08         0.34126E+05         0.00000E+00
    0.34126E+05        -0.50004E+08         0.00000E+00
    0.00000E+00         0.00000E+00        -0.50027E+08
 
   -0.50128E+08         0.36983E+05         0.00000E+00
    0.36983E+05        -0.50005E+08         0.00000E+00
    0.00000E+00         0.00000E+00        -0.50026E+08
 
   -0.50126E+08         0.39808E+05         0.00000E+00
    0.39808E+05        -0.50005E+08         0.00000E+00
    0.00000E+00         0.00000E+00        -0.50026E+08
 
   -0.50125E+08         0.42599E+05         0.00000E+00
    0.42599E+05        -0.50006E+08         0.00000E+00
    0.00000E+00         0.00000E+00        -0.50026E+08
 
   -0.50123E+08         0.45353E+05         0.00000E+00
    0.45353E+05        -0.50007E+08         0.00000E+00
    0.00000E+00         0.00000E+00        -0.50026E+08
 
   -0.50122E+08         0.48067E+05         0.00000E+00
    0.48067E+05        -0.50008E+08         0.00000E+00
    0.00000E+00         0.00000E+00        -0.50026E+08
 
   -0.50120E+08         0.50739E+05         0.00000E+00
    0.50739E+05        -0.50009E+08         0.00000E+00
    0.00000E+00         0.00000E+00        -0.50026E+08
 
   -0.50118E+08         0.53367E+05         0.00000E+00
    0.53367E+05        -0.50010E+08         0.00000E+00
    0.00000E+00         0.00000E+00        -0.50026E+08
 
   -0.50116E+08         0.55948E+05         0.00000E+00
    0.55948E+05        -0.50011E+08         0.00000E+00
    0.00000E+00         0.00000E+00        -0.50025E+08
 
   -0.50114E+08         0.58479E+05         0.00000E+00
    0.58479E+05        -0.50012E+08         0.00000E+00
    0.00000E+00         0.00000E+00        -0.50025E+08
 
   -0.50112E+08         0.60959E+05         0.00000E+00
    0.60959E+05        -0.50013E+08         0.00000E+00
    0.00000E+00         0.00000E+00        -0.50025E+08
 
   -0.50109E+08         0.63386E+05         0.00000E+00
    0.63386E+05        -0.50015E+08         0.00000E+00
    0.00000E+00         0.00000E+00        -0.50025E+08
 
   -0.50107E+08         0.65757E+05         0.00000E+00
    0.65757E+05        -0.50016E+08         0.00000E+00
    0.00000E+00         0.00000E+00        -0.50025E+08
 
   -0.50104E+08         0.68070E+05         0.00000E+00
    0.68070E+05        -0.50017E+08         0.00000E+00
    0.00000E+00         0.00000E+00        -0.50024E+08
 
   -0.50102E+08         0.70324E+05         0.00000E+00
    0.70324E+05        -0.50018E+08         0.00000E+00
    0.00000E+00         0.00000E+00        -0.50024E+08
 
   -0.50099E+08         0.72518E+05         0.00000E+00
    0.72518E+05        -0.50020E+08         0.00000E+00
    0.00000E+00         0.00000E+00        -0.50024E+08
 
   -0.50096E+08         0.74648E+05         0.00000E+00
    0.74648E+05        -0.50021E+08         0.00000E+00
    0.00000E+00         0.00000E+00        -0.50024E+08
 
   -0.50094E+08         0.76714E+05         0.00000E+00
    0.76714E+05        -0.50023E+08         0.00000E+00
    0.00000E+00         0.00000E+00        -0.50023E+08
 
   -0.50091E+08         0.78715E+05         0.00000E+00
    0.78715E+05        -0.50024E+08         0.00000E+00
    0.00000E+00         0.00000E+00        -0.50023E+08
 
   -0.50088E+08         0.80647E+05         0.00000E+00
    0.80647E+05        -0.50026E+08         0.00000E+00
    0.00000E+00         0.00000E+00        -0.50023E+08
 
   -0.50084E+08         0.82512E+05         0.00000E+00
    0.82512E+05        -0.50027E+08         0.00000E+00
    0.00000E+00         0.00000E+00        -0.50022E+08
 
   -0.50081E+08         0.84305E+05         0.00000E+00
    0.84305E+05        -0.50029E+08         0.00000E+00
    0.00000E+00         0.00000E+00        -0.50022E+08
 
   -0.50078E+08         0.86028E+05         0.00000E+00
    0.86028E+05        -0.50030E+08         0.00000E+00
    0.00000E+00         0.00000E+00        -0.50022E+08
 
   -0.50075E+08         0.87678E+05         0.00000E+00
    0.87678E+05        -0.50032E+08         0.00000E+00
    0.00000E+00         0.00000E+00        -0.50021E+08
 
   -0.50071E+08         0.89254E+05         0.00000E+00
    0.89254E+05        -0.50034E+08         0.00000E+00
    0.00000E+00         0.00000E+00        -0.50021E+08
 
   -0.50068E+08         0.90755E+05         0.00000E+00
    0.90755E+05        -0.50035E+08         0.00000E+00
    0.00000E+00         0.00000E+00        -0.50021E+08
 
   -0.50064E+08         0.92180E+05         0.00000E+00
    0.92180E+05        -0.50037E+08         0.00000E+00
    0.00000E+00         0.00000E+00        -0.50020E+08
 
   -0.50061E+08         0.93527E+05         0.00000E+00
    0.93527E+05        -0.50039E+08         0.00000E+00
    0.00000E+00         0.00000E+00        -0.50020E+08
 
   -0.50057E+08         0.94797E+05         0.00000E+00
    0.94797E+05        -0.50040E+08         0.00000E+00
    0.00000E+00         0.00000E+00        -0.50019E+08
 
   -0.50053E+08         0.95987E+05         0.00000E+00
    0.95987E+05        -0.50042E+08         0.00000E+00
    0.00000E+00         0.00000E+00        -0.50019E+08
 
   -0.50049E+08         0.97097E+05         0.00000E+00
    0.97097E+05        -0.50044E+08         0.00000E+00
    0.00000E+00         0.00000E+00        -0.50019E+08
 
   -0.50046E+08         0.98127E+05         0.00000E+00
    0.98127E+05        -0.50046E+08         0.00000E+00
    0.00000E+00         0.00000E+00        -0.50018E+08
 
   -0.50042E+08         0.99074E+05         0.00000E+00
    0.99074E+05        -0.50048E+08         0.00000E+00
    0.00000E+00         0.00000E+00        -0.50018E+08
 
   -0.50038E+08         0.99938E+05         0.00000E+00
    0.99938E+05        -0.50049E+08         0.00000E+00
    0.00000E+00         0.00000E+00        -0.50017E+08
 
   -0.50034E+08         0.10072E+06         0.00000E+00
    0.10072E+06        -0.50051E+08         0.00000E+00
    0.00000E+00         0.00000E+00        -0.50017E+08
 
   -0.50030E+08         0.10141E+06         0.00000E+00
    0.10141E+06        -0.50053E+08         0.00000E+00
    0.00000E+00         0.00000E+00        -0.50017E+08
 
   -0.50025E+08         0.10202E+06         0.00000E+00
    0.10202E+06        -0.50055E+08         0.00000E+00
    0.00000E+00         0.00000E+00        -0.50016E+08
 
   -0.50021E+08         0.10255E+06         0.00000E+00
    0.10255E+06        -0.50057E+08         0.00000E+00
    0.00000E+00         0.00000E+00        -0.50016E+08
 
   -0.50017E+08         0.10298E+06         0.00000E+00
    0.10298E+06        -0.50059E+08         0.00000E+00
    0.00000E+00         0.00000E+00        -0.50015E+08
 
   -0.50121E+08         0.13506E+04         0.00000E+00
    0.13506E+04        -0.50000E+08         0.00000E+00
    0.00000E+00         0.00000E+00        -0.50024E+08
 
   -0.50121E+08         0.40684E+04         0.00000E+00
    0.40684E+04        -0.50000E+08         0.00000E+00
    0.00000E+00         0.00000E+00        -0.50024E+08
 
   -0.50121E+08         0.67894E+04         0.00000E+00
    0.67894E+04        -0.50000E+08         0.00000E+00
    0.00000E+00         0.00000E+00        -0.50024E+08
 
   -0.50121E+08         0.95107E+04         0.00000E+00
    0.95107E+04        -0.50000E+08         0.00000E+00
    0.00000E+00         0.00000E+00        -0.50024E+08
 
   -0.50120E+08         0.12229E+05         0.00000E+00
    0.12229E+05        -0.50001E+08         0.00000E+00
    0.00000E+00         0.00000E+00        -0.50024E+08
 
   -0.50120E+08         0.14943E+05         0.00000E+00
    0.14943E+05        -0.50001E+08         0.00000E+00
    0.00000E+00         0.00000E+00        -0.50024E+08
 
   -0.50119E+08         0.17647E+05         0.00000E+00
    0.17647E+05        -0.50001E+08         0.00000E+00
    0.00000E+00         0.00000E+00        -0.50024E+08
 
   -0.50119E+08         0.20341E+05         0.00000E+00
    0.20341E+05        -0.50001E+08         0.00000E+00
    0.00000E+00         0.00000E+00        -0.50024E+08
 
   -0.50118E+08         0.23020E+05         0.00000E+00
    0.23020E+05        -0.50002E+08         0.00000E+00
    0.00000E+00         0.00000E+00        -0.50024E+08
 
   -0.50117E+08         0.25683E+05         0.00000E+00
    0.25683E+05        -0.50002E+08         0.00000E+00
    0.00000E+00         0.00000E+00        -0.50024E+08
 
   -0.50116E+08         0.28326E+05         0.00000E+00
    0.28326E+05        -0.50003E+08         0.00000E+00
    0.00000E+00         0.00000E+00        -0.50024E+08
 
   -0.50115E+08         0.30947E+05         0.00000E+00
    0.30947E+05        -0.50003E+08         0.00000E+00
    0.00000E+00         0.00000E+00        -0.50024E+08
 
   -0.50114E+08         0.33544E+05         0.00000E+00
    0.33544E+05        -0.50004E+08         0.00000E+00
    0.00000E+00         0.00000E+00        -0.50024E+08
 
   -0.50113E+08         0.36113E+05         0.00000E+00
    0.36113E+05        -0.50005E+08         0.00000E+00
    0.00000E+00         0.00000E+00        -0.50024E+08
 
   -0.50112E+08         0.38652E+05         0.00000E+00
    0.38652E+05        -0.50005E+08         0.00000E+00
    0.00000E+00         0.00000E+00        -0.50023E+08
 
   -0.50110E+08         0.41159E+05         0.00000E+00
    0.41159E+05        -0.50006E+08         0.00000E+00
    0.00000E+00         0.00000E+00        -0.50023E+08
 
   -0.50109E+08         0.43632E+05         0.00000E+00
    0.43632E+05        -0.50007E+08         0.00000E+00
    0.00000E+00         0.00000E+00        -0.50023E+08
 
   -0.50107E+08         0.46068E+05         0.00000E+00
    0.46068E+05        -0.50008E+08         0.00000E+00
    0.00000E+00         0.00000E+00        -0.50023E+08
 
   -0.50106E+08         0.48465E+05         0.00000E+00
    0.48465E+05        -0.50009E+08         0.00000E+00
    0.00000E+00         0.00000E+00        -0.50023E+08
 
   -0.50104E+08         0.50820E+05         0.00000E+00
    0.50820E+05        -0.50010E+08         0.00000E+00
    0.00000E+00         0.00000E+00        -0.50023E+08
 
   -0.50102E+08         0.53132E+05         0.00000E+00
    0.53132E+05        -0.50011E+08         0.00000E+00
    0.00000E+00         0.00000E+00        -0.50023E+08
 
   -0.50100E+08         0.55399E+05         0.00000E+00
    0.55399E+05        -0.50012E+08         0.00000E+00
    0.00000E+00         0.00000E+00        -0.50022E+08
 
   -0.50098E+08         0.57618E+05         0.00000E+00
    0.57618E+05        -0.50013E+08         0.00000E+00
    0.00000E+00         0.00000E+00        -0.50022E+08
 
   -0.50096E+08         0.59788E+05         0.00000E+00
    0.59788E+05        -0.50014E+08         0.00000E+00
    0.00000E+00         0.00000E+00        -0.50022E+08
 
   -0.50094E+08         0.61907E+05         0.00000E+00
    0.61907E+05        -0.50015E+08         0.00000E+00
    0.00000E+00         0.00000E+00        -0.50022E+08
 
   -0.50091E+08         0.63973E+05         0.00000E+00
    0.63973E+05        -0.50016E+08         0.00000E+00
    0.00000E+00         0.00000E+00        -0.50021E+08
 
   -0.50089E+08         0.65985E+05         0.00000E+00
    0.65985E+05        -0.50017E+08         0.00000E+00
    0.00000E+00         0.00000E+00        -0.50021E+08
 
   -0.50086E+08         0.67940E+05         0.00000E+00
    0.67940E+05        -0.50019E+08         0.00000E+00
    0.00000E+00         0.00000E+00        -0.50021E+08
 
   -0.50084E+08         0.69837E+05         0.00000E+00
    0.69837E+05        -0.50020E+08         0.00000E+00
    0.00000E+00         0.00000E+00        -0.50021E+08
 
   -0.50081E+08         0.71675E+05         0.00000E+00
    0.71675E+05        -0.50021E+08         0.00000E+00
    0.00000E+00         0.00000E+00        -0.50020E+08
 
   -0.50078E+08         0.73452E+05         0.00000E+00
    0.73452E+05        -0.50023E+08         0.00000E+00
    0.00000E+00         0.00000E+00        -0.50020E+08
 
   -0.50076E+08         0.75167E+05         0.00000E+00
    0.75167E+05        -0.50024E+08         0.00000E+00
    0.00000E+00         0.00000E+00        -0.50020E+08
 
   -0.50073E+08         0.76818E+05         0.00000E+00
    0.76818E+05        -0.50025E+08         0.00000E+00
    0.00000E+00         0.00000E+00        -0.50020E+08
 
   -0.50070E+08         0.78405E+05         0.00000E+00
    0.78405E+05        -0.50027E+08         0.00000E+00
    0.00000E+00         0.00000E+00        -0.50019E+08
 
   -0.50067E+08         0.79925E+05         0.00000E+00
    0.79925E+05        -0.50028E+08         0.00000E+00
    0.00000E+00         0.00000E+00        -0.50019E+08
 
   -0.50064E+08         0.81377E+05         0.00000E+00
    0.81377E+05        -0.50030E+08         0.00000E+00
    0.00000E+00         0.00000E+00        -0.50019E+08
 
   -0.50061E+08         0.82761E+05         0.00000E+00
    0.82761E+05        -0.50031E+08         0.00000E+00
    0.00000E+00         0.00000E+00        -0.50018E+08
 
   -0.50058E+08         0.84075E+05         0.00000E+00
    0.84075E+05        -0.50033E+08         0.00000E+00
    0.00000E+00         0.00000E+00        -0.50018E+08
 
   -0.50054E+08         0.85318E+05         0.00000E+00
    0.85318E+05        -0.50034E+08         0.00000E+00
    0.00000E+00         0.00000E+00        -0.50018E+08
 
   -0.50051E+08         0.86489E+05         0.00000E+00
    0.86489E+05        -0.50036E+08         0.00000E+00
    0.00000E+00         0.00000E+00        -0.50017E+08
 
   -0.50048E+08         0.87587E+05         0.00000E+00
    0.87587E+05        -0.50037E+08         0.00000E+00
    0.00000E+00         0.00000E+00        -0.50017E+08
 
   -0.50044E+08         0.88611E+05         0.00000E+00
    0.88611E+05        -0.50039E+08         0.00000E+00
    0.00000E+00         0.00000E+00        -0.50017E+08
 
   -0.50041E+08         0.89560E+05         0.00000E+00
    0.89560E+05        -0.50041E+08         0.00000E+00
    0.00000E+00         0.00000E+00        -0.50016E+08
 
   -0.50037E+08         0.90432E+05         0.00000E+00
    0.90432E+05        -0.50042E+08         0.00000E+00
    0.00000E+00         0.00000E+00        -0.50016E+08
 
   -0.50034E+08         0.91228E+05         0.00000E+00
    0.91228E+05        -0.50044E+08         0.00000E+00
    0.00000E+00         0.00000E+00        -0.50016E+08
 
   -0.50030E+08         0.91946E+05         0.00000E+00
    0.91946E+05        -0.50046E+08         0.00000E+00
    0.00000E+00         0.00000E+00        -0.50015E+08
 
   -0.50026E+08         0.92585E+05         0.00000E+00
    0.92585E+05        -0.50047E+08         0.00000E+00
    0.00000E+00         0.00000E+00        -0.50015E+08
 
   -0.50023E+08         0.93144E+05         0.00000E+00
    0.93144E+05        -0.50049E+08         0.00000E+00
    0.00000E+00         0.00000E+00        -0.50014E+08
 
   -0.50019E+08         0.93622E+05         0.00000E+00
    0.93622E+05        -0.50051E+08         0.00000E+00
    0.00000E+00         0.00000E+00        -0.50014E+08
 
   -0.50015E+08         0.94019E+05         0.00000E+00
    0.94019E+05        -0.50052E+08         0.00000E+00
    0.00000E+00         0.00000E+00        -0.50013E+08
 
   -0.50108E+08         0.12298E+04         0.00000E+00
    0.12298E+04        -0.50000E+08         0.00000E+00
    0.00000E+00         0.00000E+00        -0.50022E+08
 
   -0.50108E+08         0.37032E+04         0.00000E+00
    0.37032E+04        -0.50000E+08         0.00000E+00
    0.00000E+00         0.00000E+00        -0.50022E+08
 
   -0.50108E+08         0.61792E+04         0.00000E+00
    0.61792E+04        -0.50000E+08         0.00000E+00
    0.00000E+00         0.00000E+00        -0.50022E+08
 
   -0.50108E+08         0.86554E+04         0.00000E+00
    0.86554E+04        -0.50000E+08         0.00000E+00
    0.00000E+00         0.00000E+00        -0.50022E+08
 
   -0.50107E+08         0.11129E+05         0.00000E+00
    0.11129E+05        -0.50000E+08         0.00000E+00
    0.00000E+00         0.00000E+00        -0.50022E+08
 
   -0.50107E+08         0.13598E+05         0.00000E+00
    0.13598E+05        -0.50001E+08         0.00000E+00
    0.00000E+00         0.00000E+00        -0.50022E+08
 
   -0.50107E+08         0.16059E+05         0.00000E+00
    0.16059E+05        -0.50001E+08         0.00000E+00
    0.00000E+00         0.00000E+00        -0.50021E+08
 
   -0.50106E+08         0.18511E+05         0.00000E+00
    0.18511E+05        -0.50001E+08         0.00000E+00
    0.00000E+00         0.00000E+00        -0.50021E+08
 
   -0.50105E+08         0.20950E+05         0.00000E+00
    0.20950E+05        -0.50002E+08         0.00000E+00
    0.00000E+00         0.00000E+00        -0.50021E+08
 
   -0.50105E+08         0.23375E+05         0.00000E+00
    0.23375E+05        -0.50002E+08         0.00000E+00
    0.00000E+00         0.00000E+00        -0.50021E+08
 
   -0.50104E+08         0.25782E+05         0.00000E+00
    0.25782E+05        -0.50002E+08         0.00000E+00
    0.00000E+00         0.00000E+00        -0.50021E+08
 
   -0.50103E+08         0.28170E+05         0.00000E+00
    0.28170E+05        -0.50003E+08         0.00000E+00
    0.00000E+00         0.00000E+00        -0.50021E+08
 
   -0.50102E+08         0.30537E+05         0.00000E+00
    0.30537E+05        -0.50004E+08         0.00000E+00
    0.00000E+00         0.00000E+00        -0.50021E+08
 
   -0.50101E+08         0.32879E+05         0.00000E+00
    0.32879E+05        -0.50004E+08         0.00000E+00
    0.00000E+00         0.00000E+00        -0.50021E+08
 
   -0.50100E+08         0.35195E+05         0.00000E+00
    0.35195E+05        -0.50005E+08         0.00000E+00
    0.00000E+00         0.00000E+00        -0.50021E+08
 
   -0.50098E+08         0.37483E+05         0.00000E+00
    0.37483E+05        -0.50005E+08         0.00000E+00
    0.00000E+00         0.00000E+00        -0.50021E+08
 
   -0.50097E+08         0.39740E+05         0.00000E+00
    0.39740E+05        -0.50006E+08         0.00000E+00
    0.00000E+00         0.00000E+00        -0.50021E+08
 
   -0.50096E+08         0.41965E+05         0.00000E+00
    0.41965E+05        -0.50007E+08         0.00000E+00
    0.00000E+00         0.00000E+00        -0.50021E+08
 
   -0.50094E+08         0.44155E+05         0.00000E+00
    0.44155E+05        -0.50008E+08         0.00000E+00
    0.00000E+00         0.00000E+00        -0.50020E+08
 
   -0.50093E+08         0.46308E+05         0.00000E+00
    0.46308E+05        -0.50008E+08         0.00000E+00
    0.00000E+00         0.00000E+00        -0.50020E+08
 
   -0.50091E+08         0.48423E+05         0.00000E+00
    0.48423E+05        -0.50009E+08         0.00000E+00
    0.00000E+00         0.00000E+00        -0.50020E+08
 
   -0.50089E+08         0.50497E+05         0.00000E+00
    0.50497E+05        -0.50010E+08         0.00000E+00
    0.00000E+00         0.00000E+00        -0.50020E+08
 
   -0.50087E+08         0.52529E+05         0.00000E+00
    0.52529E+05        -0.50011E+08         0.00000E+00
    0.00000E+00         0.00000E+00        -0.50020E+08
 
   -0.50085E+08         0.54517E+05         0.00000E+00
    0.54517E+05        -0.50012E+08         0.00000E+00
    0.00000E+00         0.00000E+00        -0.50020E+08
 
   -0.50083E+08         0.56459E+05         0.00000E+00
    0.56459E+05        -0.50013E+08         0.00000E+00
    0.00000E+00         0.00000E+00        -0.50019E+08
 
   -0.50081E+08         0.58353E+05         0.00000E+00
    0.58353E+05        -0.50014E+08         0.00000E+00
    0.00000E+00         0.00000E+00        -0.50019E+08
 
   -0.50079E+08         0.60198E+05         0.00000E+00
    0.60198E+05        -0.50015E+08         0.00000E+00
    0.00000E+00         0.00000E+00        -0.50019E+08
 
   -0.50077E+08         0.61993E+05         0.00000E+00
    0.61993E+05        -0.50016E+08         0.00000E+00
    0.00000E+00         0.00000E+00        -0.50019E+08
 
   -0.50075E+08         0.63735E+05         0.00000E+00
    0.63735E+05        -0.50018E+08         0.00000E+00
    0.00000E+00         0.00000E+00        -0.50018E+08
 
   -0.50072E+08         0.65424E+05         0.00000E+00
    0.65424E+05        -0.50019E+08         0.00000E+00
    0.00000E+00         0.00000E+00        -0.50018E+08
 
   -0.50070E+08         0.67057E+05         0.00000E+00
    0.67057E+05        -0.50020E+08         0.00000E+00
    0.00000E+00         0.00000E+00        -0.50018E+08
 
   -0.50068E+08         0.68634E+05         0.00000E+00
    0.68634E+05        -0.50021E+08         0.00000E+00
    0.00000E+00         0.00000E+00        -0.50018E+08
 
   -0.50065E+08         0.70153E+05         0.00000E+00
    0.70153E+05        -0.50022E+08         0.00000E+00
    0.00000E+00         0.00000E+00        -0.50017E+08
 
   -0.50062E+08         0.71612E+05         0.00000E+00
    0.71612E+05        -0.50024E+08         0.00000E+00
    0.00000E+00         0.00000E+00        -0.50017E+08
 
   -0.50060E+08         0.73011E+05         0.00000E+00
    0.73011E+05        -0.50025E+08         0.00000E+00
    0.00000E+00         0.00000E+00        -0.50017E+08
 
   -0.50057E+08         0.74349E+05         0.00000E+00
    0.74349E+05        -0.50026E+08         0.00000E+00
    0.00000E+00         0.00000E+00        -0.50017E+08
 
   -0.50054E+08         0.75623E+05         0.00000E+00
    0.75623E+05        -0.50028E+08         0.00000E+00
    0.00000E+00         0.00000E+00        -0.50016E+08
 
   -0.50051E+08         0.76833E+05         0.00000E+00
    0.76833E+05        -0.50029E+08         0.00000E+00
    0.00000E+00         0.00000E+00        -0.50016E+08
 
   -0.50049E+08         0.77978E+05         0.00000E+00
    0.77978E+05        -0.50030E+08         0.00000E+00
    0.00000E+00         0.00000E+00        -0.50016E+08
 
   -0.50046E+08         0.79057E+05         0.00000E+00
    0.79057E+05        -0.50032E+08         0.00000E+00
    0.00000E+00         0.00000E+00        -0.50015E+08
 
   -0.50043E+08         0.80068E+05         0.00000E+00
    0.80068E+05        -0.50033E+08         0.00000E+00
    0.00000E+00         0.00000E+00        -0.50015E+08
 
   -0.50040E+08         0.81011E+05         0.00000E+00
    0.81011E+05        -0.50035E+08         0.00000E+00
    0.00000E+00         0.00000E+00        -0.50015E+08
 
   -0.50036E+08         0.81884E+05         0.00000E+00
    0.81884E+05        -0.50036E+08         0.00000E+00
    0.00000E+00         0.00000E+00        -0.50014E+08
 
   -0.50033E+08         0.82687E+05         0.00000E+00
    0.82687E+05        -0.50037E+08         0.00000E+00
    0.00000E+00         0.00000E+00        -0.50014E+08
 
   -0.50030E+08         0.83418E+05         0.00000E+00
    0.83418E+05        -0.50039E+08         0.00000E+00
    0.00000E+00         0.00000E+00        -0.50014E+08
 
   -0.50027E+08         0.84078E+05         0.00000E+00
    0.84078E+05        -0.50040E+08         0.00000E+00
    0.00000E+00         0.00000E+00        -0.50013E+08
 
   -0.50024E+08         0.84664E+05         0.00000E+00
    0.84664E+05        -0.50042E+08         0.00000E+00
    0.00000E+00         0.00000E+00        -0.50013E+08
 
   -0.50020E+08         0.85175E+05         0.00000E+00
    0.85175E+05        -0.50043E+08         0.00000E+00
    0.00000E+00         0.00000E+00        -0.50013E+08
 
   -0.50017E+08         0.85612E+05         0.00000E+00
    0.85612E+05        -0.50045E+08         0.00000E+00
    0.00000E+00         0.00000E+00        -0.50012E+08
 
   -0.50013E+08         0.85973E+05         0.00000E+00
    0.85973E+05        -0.50046E+08         0.00000E+00
    0.00000E+00         0.00000E+00        -0.50012E+08
 
   -0.50096E+08         0.11248E+04         0.00000E+00
    0.11248E+04        -0.50000E+08         0.00000E+00
    0.00000E+00         0.00000E+00        -0.50019E+08
 
   -0.50096E+08         0.33856E+04         0.00000E+00
    0.33856E+04        -0.50000E+08         0.00000E+00
    0.00000E+00         0.00000E+00        -0.50019E+08
 
   -0.50096E+08         0.56483E+04         0.00000E+00
    0.56483E+04        -0.50000E+08         0.00000E+00
    0.00000E+00         0.00000E+00        -0.50019E+08
 
   -0.50096E+08         0.79107E+04         0.00000E+00
    0.79107E+04        -0.50000E+08         0.00000E+00
    0.00000E+00         0.00000E+00        -0.50019E+08
 
   -0.50096E+08         0.10171E+05         0.00000E+00
    0.10171E+05        -0.50000E+08         0.00000E+00
    0.00000E+00         0.00000E+00        -0.50019E+08
 
   -0.50095E+08         0.12426E+05         0.00000E+00
    0.12426E+05        -0.50001E+08         0.00000E+00
    0.00000E+00         0.00000E+00        -0.50019E+08
 
   -0.50095E+08         0.14675E+05         0.00000E+00
    0.14675E+05        -0.50001E+08         0.00000E+00
    0.00000E+00         0.00000E+00        -0.50019E+08
 
   -0.50094E+08         0.16914E+05         0.00000E+00
    0.16914E+05        -0.50001E+08         0.00000E+00
    0.00000E+00         0.00000E+00        -0.50019E+08
 
   -0.50094E+08         0.19143E+05         0.00000E+00
    0.19143E+05        -0.50001E+08         0.00000E+00
    0.00000E+00         0.00000E+00        -0.50019E+08
 
   -0.50093E+08         0.21359E+05         0.00000E+00
    0.21359E+05        -0.50002E+08         0.00000E+00
    0.00000E+00         0.00000E+00        -0.50019E+08
 
   -0.50092E+08         0.23559E+05         0.00000E+00
    0.23559E+05        -0.50002E+08         0.00000E+00
    0.00000E+00         0.00000E+00        -0.50019E+08
 
   -0.50092E+08         0.25742E+05         0.00000E+00
    0.25742E+05        -0.50003E+08         0.00000E+00
    0.00000E+00         0.00000E+00        -0.50019E+08
 
   -0.50091E+08         0.27905E+05         0.00000E+00
    0.27905E+05        -0.50003E+08         0.00000E+00
    0.00000E+00         0.00000E+00        -0.50019E+08
 
   -0.50090E+08         0.30047E+05         0.00000E+00
    0.30047E+05        -0.50004E+08         0.00000E+00
    0.00000E+00         0.00000E+00        -0.50019E+08
 
   -0.50089E+08         0.32166E+05         0.00000E+00
    0.32166E+05        -0.50004E+08         0.00000E+00
    0.00000E+00         0.00000E+00        -0.50019E+08
 
   -0.50088E+08         0.34259E+05         0.00000E+00
    0.34259E+05        -0.50005E+08         0.00000E+00
    0.00000E+00         0.00000E+00        -0.50018E+08
 
   -0.50086E+08         0.36325E+05         0.00000E+00
    0.36325E+05        -0.50005E+08         0.00000E+00
    0.00000E+00         0.00000E+00        -0.50018E+08
 
   -0.50085E+08         0.38361E+05         0.00000E+00
    0.38361E+05        -0.50006E+08         0.00000E+00
    0.00000E+00         0.00000E+00        -0.50018E+08
 
   -0.50084E+08         0.40367E+05         0.00000E+00
    0.40367E+05        -0.50007E+08         0.00000E+00
    0.00000E+00         0.00000E+00        -0.50018E+08
 
   -0.50082E+08         0.42339E+05         0.00000E+00
    0.42339E+05        -0.50007E+08         0.00000E+00
    0.00000E+00         0.00000E+00        -0.50018E+08
 
   -0.50081E+08         0.44277E+05         0.00000E+00
    0.44277E+05        -0.50008E+08         0.00000E+00
    0.00000E+00         0.00000E+00        -0.50018E+08
 
   -0.50079E+08         0.46179E+05         0.00000E+00
    0.46179E+05        -0.50009E+08         0.00000E+00
    0.00000E+00         0.00000E+00        -0.50018E+08
 
   -0.50078E+08         0.48042E+05         0.00000E+00
    0.48042E+05        -0.50010E+08         0.00000E+00
    0.00000E+00         0.00000E+00        -0.50018E+08
 
   -0.50076E+08         0.49866E+05         0.00000E+00
    0.49866E+05        -0.50011E+08         0.00000E+00
    0.00000E+00         0.00000E+00        -0.50017E+08
 
   -0.50074E+08         0.51648E+05         0.00000E+00
    0.51648E+05        -0.50012E+08         0.00000E+00
    0.00000E+00         0.00000E+00        -0.50017E+08
 
   -0.50072E+08         0.53388E+05         0.00000E+00
    0.53388E+05        -0.50012E+08         0.00000E+00
    0.00000E+00         0.00000E+00        -0.50017E+08
 
   -0.50071E+08         0.55082E+05         0.00000E+00
    0.55082E+05        -0.50013E+08         0.00000E+00
    0.00000E+00         0.00000E+00        -0.50017E+08
 
   -0.50069E+08         0.56731E+05         0.00000E+00
    0.56731E+05        -0.50014E+08         0.00000E+00
    0.00000E+00         0.00000E+00        -0.50017E+08
 
   -0.50067E+08         0.58332E+05         0.00000E+00
    0.58332E+05        -0.50015E+08         0.00000E+00
    0.00000E+00         0.00000E+00        -0.50016E+08
 
   -0.50065E+08         0.59884E+05         0.00000E+00
    0.59884E+05        -0.50016E+08         0.00000E+00
    0.00000E+00         0.00000E+00        -0.50016E+08
 
   -0.50062E+08         0.61386E+05         0.00000E+00
    0.61386E+05        -0.50017E+08         0.00000E+00
    0.00000E+00         0.00000E+00        -0.50016E+08
 
   -0.50060E+08         0.62837E+05         0.00000E+00
    0.62837E+05        -0.50019E+08         0.00000E+00
    0.00000E+00         0.00000E+00        -0.50016E+08
 
   -0.50058E+08         0.64234E+05         0.00000E+00
    0.64234E+05        -0.50020E+08         0.00000E+00
    0.00000E+00         0.00000E+00        -0.50016E+08
 
   -0.50056E+08         0.65577E+05         0.00000E+00
    0.65577E+05        -0.50021E+08         0.00000E+00
    0.00000E+00         0.00000E+00        -0.50015E+08
 
   -0.50053E+08         0.66865E+05         0.00000E+00
    0.66865E+05        -0.50022E+08         0.00000E+00
    0.00000E+00         0.00000E+00        -0.50015E+08
 
   -0.50051E+08         0.68096E+05         0.00000E+00
    0.68096E+05        -0.50023E+08         0.00000E+00
    0.00000E+00         0.00000E+00        -0.50015E+08
 
   -0.50048E+08         0.69269E+05         0.00000E+00
    0.69269E+05        -0.50024E+08         0.00000E+00
    0.00000E+00         0.00000E+00        -0.50015E+08
 
   -0.50046E+08         0.70384E+05         0.00000E+00
    0.70384E+05        -0.50025E+08         0.00000E+00
    0.00000E+00         0.00000E+00        -0.50014E+08
 
   -0.50043E+08         0.71438E+05         0.00000E+00
    0.71438E+05        -0.50027E+08         0.00000E+00
    0.00000E+00         0.00000E+00        -0.50014E+08
 
   -0.50041E+08         0.72431E+05         0.00000E+00
    0.72431E+05        -0.50028E+08         0.00000E+00
    0.00000E+00         0.00000E+00        -0.50014E+08
 
   -0.50038E+08         0.73362E+05         0.00000E+00
    0.73362E+05        -0.50029E+08         0.00000E+00
    0.00000E+00         0.00000E+00        -0.50013E+08
 
   -0.50035E+08         0.74230E+05         0.00000E+00
    0.74230E+05        -0.50030E+08         0.00000E+00
    0.00000E+00         0.00000E+00        -0.50013E+08
 
   -0.50032E+08         0.75033E+05         0.00000E+00
    0.75033E+05        -0.50032E+08         0.00000E+00
    0.00000E+00         0.00000E+00        -0.50013E+08
 
   -0.50030E+08         0.75772E+05         0.00000E+00
    0.75772E+05        -0.50033E+08         0.00000E+00
    0.00000E+00         0.00000E+00        -0.50013E+08
 
   -0.50027E+08         0.76444E+05         0.00000E+00
    0.76444E+05        -0.50034E+08         0.00000E+00
    0.00000E+00         0.00000E+00        -0.50012E+08
 
   -0.50024E+08         0.77049E+05         0.00000E+00
    0.77049E+05        -0.50036E+08         0.00000E+00
    0.00000E+00         0.00000E+00        -0.50012E+08
 
   -0.50021E+08         0.77587E+05         0.00000E+00
    0.77587E+05        -0.50037E+08         0.00000E+00
    0.00000E+00         0.00000E+00        -0.50012E+08
 
   -0.50018E+08         0.78055E+05         0.00000E+00
    0.78055E+05        -0.50038E+08         0.00000E+00
    0.00000E+00         0.00000E+00        -0.50011E+08
 
   -0.50015E+08         0.78455E+05         0.00000E+00
    0.78455E+05        -0.50040E+08         0.00000E+00
    0.00000E+00         0.00000E+00        -0.50011E+08
 
   -0.50012E+08         0.78783E+05         0.00000E+00
    0.78783E+05        -0.50041E+08         0.00000E+00
    0.00000E+00         0.00000E+00        -0.50011E+08
 
   -0.50085E+08         0.10334E+04         0.00000E+00
    0.10334E+04        -0.50000E+08         0.00000E+00
    0.00000E+00         0.00000E+00        -0.50017E+08
 
   -0.50085E+08         0.31089E+04         0.00000E+00
    0.31089E+04        -0.50000E+08         0.00000E+00
    0.00000E+00         0.00000E+00        -0.50017E+08
 
   -0.50085E+08         0.51856E+04         0.00000E+00
    0.51856E+04        -0.50000E+08         0.00000E+00
    0.00000E+00         0.00000E+00        -0.50017E+08
 
   -0.50085E+08         0.72617E+04         0.00000E+00
    0.72617E+04        -0.50000E+08         0.00000E+00
    0.00000E+00         0.00000E+00        -0.50017E+08
 
   -0.50085E+08         0.93352E+04         0.00000E+00
    0.93352E+04        -0.50000E+08         0.00000E+00
    0.00000E+00         0.00000E+00        -0.50017E+08
 
   -0.50084E+08         0.11404E+05         0.00000E+00
    0.11404E+05        -0.50001E+08         0.00000E+00
    0.00000E+00         0.00000E+00        -0.50017E+08
 
   -0.50084E+08         0.13467E+05         0.00000E+00
    0.13467E+05        -0.50001E+08         0.00000E+00
    0.00000E+00         0.00000E+00        -0.50017E+08
 
   -0.50084E+08         0.15521E+05         0.00000E+00
    0.15521E+05        -0.50001E+08         0.00000E+00
    0.00000E+00         0.00000E+00        -0.50017E+08
 
   -0.50083E+08         0.17565E+05         0.00000E+00
    0.17565E+05        -0.50001E+08         0.00000E+00
    0.00000E+00         0.00000E+00        -0.50017E+08
 
   -0.50083E+08         0.19597E+05         0.00000E+00
    0.19597E+05        -0.50002E+08         0.00000E+00
    0.00000E+00         0.00000E+00        -0.50017E+08
 
   -0.50082E+08         0.21616E+05         0.00000E+00
    0.21616E+05        -0.50002E+08         0.00000E+00
    0.00000E+00         0.00000E+00        -0.50017E+08
 
   -0.50081E+08         0.23618E+05         0.00000E+00
    0.23618E+05        -0.50002E+08         0.00000E+00
    0.00000E+00         0.00000E+00        -0.50017E+08
 
   -0.50080E+08         0.25603E+05         0.00000E+00
    0.25603E+05        -0.50003E+08         0.00000E+00
    0.00000E+00         0.00000E+00        -0.50017E+08
 
   -0.50080E+08         0.27568E+05         0.00000E+00
    0.27568E+05        -0.50003E+08         0.00000E+00
    0.00000E+00         0.00000E+00        -0.50017E+08
 
   -0.50079E+08         0.29512E+05         0.00000E+00
    0.29512E+05        -0.50004E+08         0.00000E+00
    0.00000E+00         0.00000E+00        -0.50016E+08
 
   -0.50078E+08         0.31434E+05         0.00000E+00
    0.31434E+05        -0.50004E+08         0.00000E+00
    0.00000E+00         0.00000E+00        -0.50016E+08
 
   -0.50077E+08         0.33330E+05         0.00000E+00
    0.33330E+05        -0.50005E+08         0.00000E+00
    0.00000E+00         0.00000E+00        -0.50016E+08
 
   -0.50075E+08         0.35200E+05         0.00000E+00
    0.35200E+05        -0.50005E+08         0.00000E+00
    0.00000E+00         0.00000E+00        -0.50016E+08
 
   -0.50074E+08         0.37042E+05         0.00000E+00
    0.37042E+05        -0.50006E+08         0.00000E+00
    0.00000E+00         0.00000E+00        -0.50016E+08
 
   -0.50073E+08         0.38854E+05         0.00000E+00
    0.38854E+05        -0.50006E+08         0.00000E+00
    0.00000E+00         0.00000E+00        -0.50016E+08
 
   -0.50072E+08         0.40634E+05         0.00000E+00
    0.40634E+05        -0.50007E+08         0.00000E+00
    0.00000E+00         0.00000E+00        -0.50016E+08
 
   -0.50070E+08         0.42382E+05         0.00000E+00
    0.42382E+05        -0.50008E+08         0.00000E+00
    0.00000E+00         0.00000E+00        -0.50016E+08
 
   -0.50069E+08         0.44095E+05         0.00000E+00
    0.44095E+05        -0.50009E+08         0.00000E+00
    0.00000E+00         0.00000E+00        -0.50015E+08
 
   -0.50067E+08         0.45771E+05         0.00000E+00
    0.45771E+05        -0.50009E+08         0.00000E+00
    0.00000E+00         0.00000E+00        -0.50015E+08
 
   -0.50066E+08         0.47410E+05         0.00000E+00
    0.47410E+05        -0.50010E+08         0.00000E+00
    0.00000E+00         0.00000E+00        -0.50015E+08
 
   -0.50064E+08         0.49010E+05         0.00000E+00
    0.49010E+05        -0.50011E+08         0.00000E+00
    0.00000E+00         0.00000E+00        -0.50015E+08
 
   -0.50063E+08         0.50569E+05         0.00000E+00
    0.50569E+05        -0.50012E+08         0.00000E+00
    0.00000E+00         0.00000E+00        -0.50015E+08
 
   -0.50061E+08         0.52087E+05         0.00000E+00
    0.52087E+05        -0.50013E+08         0.00000E+00
    0.00000E+00         0.00000E+00        -0.50015E+08
 
   -0.50059E+08         0.53560E+05         0.00000E+00
    0.53560E+05        -0.50014E+08         0.00000E+00
    0.00000E+00         0.00000E+00        -0.50015E+08
 
   -0.50057E+08         0.54990E+05         0.00000E+00
    0.54990E+05        -0.50014E+08         0.00000E+00
    0.00000E+00         0.00000E+00        -0.50014E+08
 
   -0.50055E+08         0.56373E+05         0.00000E+00
    0.56373E+05        -0.50015E+08         0.00000E+00
    0.00000E+00         0.00000E+00        -0.50014E+08
 
   -0.50053E+08         0.57708E+05         0.00000E+00
    0.57708E+05        -0.50016E+08         0.00000E+00
    0.00000E+00         0.00000E+00        -0.50014E+08
 
   -0.50051E+08         0.58996E+05         0.00000E+00
    0.58996E+05        -0.50017E+08         0.00000E+00
    0.00000E+00         0.00000E+00        -0.50014E+08
 
   -0.50049E+08         0.60233E+05         0.00000E+00
    0.60233E+05        -0.50018E+08         0.00000E+00
    0.00000E+00         0.00000E+00        -0.50014E+08
 
   -0.50047E+08         0.61419E+05         0.00000E+00
    0.61419E+05        -0.50019E+08         0.00000E+00
    0.00000E+00         0.00000E+00        -0.50013E+08
 
   -0.50045E+08         0.62554E+05         0.00000E+00
    0.62554E+05        -0.50020E+08         0.00000E+00
    0.00000E+00         0.00000E+00        -0.50013E+08
 
   -0.50043E+08         0.63635E+05         0.00000E+00
    0.63635E+05        -0.50021E+08         0.00000E+00
    0.00000E+00         0.00000E+00        -0.50013E+08
 
   -0.50041E+08         0.64662E+05         0.00000E+00
    0.64662E+05        -0.50022E+08         0.00000E+00
    0.00000E+00         0.00000E+00        -0.50013E+08
 
   -0.50038E+08         0.65633E+05         0.00000E+00
    0.65633E+05        -0.50024E+08         0.00000E+00
    0.00000E+00         0.00000E+00        -0.50012E+08
 
   -0.50036E+08         0.66548E+05         0.00000E+00
    0.66548E+05        -0.50025E+08         0.00000E+00
    0.00000E+00         0.00000E+00        -0.50012E+08
 
   -0.50034E+08         0.67406E+05         0.00000E+00
    0.67406E+05        -0.50026E+08         0.00000E+00
    0.00000E+00         0.00000E+00        -0.50012E+08
 
   -0.50031E+08         0.68205E+05         0.00000E+00
    0.68205E+05        -0.50027E+08         0.00000E+00
    0.00000E+00         0.00000E+00        -0.50012E+08
 
   -0.50029E+08         0.68945E+05         0.00000E+00
    0.68945E+05        -0.50028E+08         0.00000E+00
    0.00000E+00         0.00000E+00        -0.50011E+08
 
   -0.50026E+08         0.69624E+05         0.00000E+00
    0.69624E+05        -0.50029E+08         0.00000E+00
    0.00000E+00         0.00000E+00        -0.50011E+08
 
   -0.50024E+08         0.70243E+05         0.00000E+00
    0.70243E+05        -0.50030E+08         0.00000E+00
    0.00000E+00         0.00000E+00        -0.50011E+08
 
   -0.50021E+08         0.70799E+05         0.00000E+00
    0.70799E+05        -0.50031E+08         0.00000E+00
    0.00000E+00         0.00000E+00        -0.50011E+08
 
   -0.50019E+08         0.71293E+05         0.00000E+00
    0.71293E+05        -0.50033E+08         0.00000E+00
    0.00000E+00         0.00000E+00        -0.50010E+08
 
   -0.50016E+08         0.71723E+05         0.00000E+00
    0.71723E+05        -0.50034E+08         0.00000E+00
    0.00000E+00         0.00000E+00        -0.50010E+08
 
   -0.50013E+08         0.72088E+05         0.00000E+00
    0.72088E+05        -0.50035E+08         0.00000E+00
    0.00000E+00         0.00000E+00        -0.50010E+08
 
   -0.50011E+08         0.72388E+05         0.00000E+00
    0.72388E+05        -0.50036E+08         0.00000E+00
    0.00000E+00         0.00000E+00        -0.50009E+08
 
   -0.50075E+08         0.95380E+03         0.00000E+00
    0.95380E+03        -0.50000E+08         0.00000E+00
    0.00000E+00         0.00000E+00        -0.50015E+08
 
   -0.50075E+08         0.28679E+04         0.00000E+00
    0.28679E+04        -0.50000E+08         0.00000E+00
    0.00000E+00         0.00000E+00        -0.50015E+08
 
   -0.50075E+08         0.47826E+04         0.00000E+00
    0.47826E+04        -0.50000E+08         0.00000E+00
    0.00000E+00         0.00000E+00        -0.50015E+08
 
   -0.50075E+08         0.66962E+04         0.00000E+00
    0.66962E+04        -0.50000E+08         0.00000E+00
    0.00000E+00         0.00000E+00        -0.50015E+08
 
   -0.50075E+08         0.86070E+04         0.00000E+00
    0.86070E+04        -0.50000E+08         0.00000E+00
    0.00000E+00         0.00000E+00        -0.50015E+08
 
   -0.50074E+08         0.10513E+05         0.00000E+00
    0.10513E+05        -0.50000E+08         0.00000E+00
    0.00000E+00         0.00000E+00        -0.50015E+08
 
   -0.50074E+08         0.12414E+05         0.00000E+00
    0.12414E+05        -0.50001E+08         0.00000E+00
    0.00000E+00         0.00000E+00        -0.50015E+08
 
   -0.50074E+08         0.14306E+05         0.00000E+00
    0.14306E+05        -0.50001E+08         0.00000E+00
    0.00000E+00         0.00000E+00        -0.50015E+08
 
   -0.50073E+08         0.16189E+05         0.00000E+00
    0.16189E+05        -0.50001E+08         0.00000E+00
    0.00000E+00         0.00000E+00        -0.50015E+08
 
   -0.50073E+08         0.18061E+05         0.00000E+00
    0.18061E+05        -0.50001E+08         0.00000E+00
    0.00000E+00         0.00000E+00        -0.50015E+08
 
   -0.50072E+08         0.19920E+05         0.00000E+00
    0.19920E+05        -0.50002E+08         0.00000E+00
    0.00000E+00         0.00000E+00        -0.50015E+08
 
   -0.50072E+08         0.21764E+05         0.00000E+00
    0.21764E+05        -0.50002E+08         0.00000E+00
    0.00000E+00         0.00000E+00        -0.50015E+08
 
   -0.50071E+08         0.23592E+05         0.00000E+00
    0.23592E+05        -0.50002E+08         0.00000E+00
    0.00000E+00         0.00000E+00        -0.50015E+08
 
   -0.50070E+08         0.25402E+05         0.00000E+00
    0.25402E+05        -0.50003E+08         0.00000E+00
    0.00000E+00         0.00000E+00        -0.50015E+08
 
   -0.50069E+08         0.27193E+05         0.00000E+00
    0.27193E+05        -0.50003E+08         0.00000E+00
    0.00000E+00         0.00000E+00        -0.50014E+08
 
   -0.50068E+08         0.28963E+05         0.00000E+00
    0.28963E+05        -0.50004E+08         0.00000E+00
    0.00000E+00         0.00000E+00        -0.50014E+08
 
   -0.50068E+08         0.30710E+05         0.00000E+00
    0.30710E+05        -0.50004E+08         0.00000E+00
    0.00000E+00         0.00000E+00        -0.50014E+08
 
   -0.50067E+08         0.32433E+05         0.00000E+00
    0.32433E+05        -0.50005E+08         0.00000E+00
    0.00000E+00         0.00000E+00        -0.50014E+08
 
   -0.50066E+08         0.34130E+05         0.00000E+00
    0.34130E+05        -0.50005E+08         0.00000E+00
    0.00000E+00         0.00000E+00        -0.50014E+08
 
   -0.50064E+08         0.35800E+05         0.00000E+00
    0.35800E+05        -0.50006E+08         0.00000E+00
    0.00000E+00         0.00000E+00        -0.50014E+08
 
   -0.50063E+08         0.37441E+05         0.00000E+00
    0.37441E+05        -0.50006E+08         0.00000E+00
    0.00000E+00         0.00000E+00        -0.50014E+08
 
   -0.50062E+08         0.39052E+05         0.00000E+00
    0.39052E+05        -0.50007E+08         0.00000E+00
    0.00000E+00         0.00000E+00        -0.50014E+08
 
   -0.50061E+08         0.40631E+05         0.00000E+00
    0.40631E+05        -0.50007E+08         0.00000E+00
    0.00000E+00         0.00000E+00        -0.50014E+08
 
   -0.50059E+08         0.42177E+05         0.00000E+00
    0.42177E+05        -0.50008E+08         0.00000E+00
    0.00000E+00         0.00000E+00        -0.50014E+08
 
   -0.50058E+08         0.43688E+05         0.00000E+00
    0.43688E+05        -0.50009E+08         0.00000E+00
    0.00000E+00         0.00000E+00        -0.50013E+08
 
   -0.50057E+08         0.45164E+05         0.00000E+00
    0.45164E+05        -0.50010E+08         0.00000E+00
    0.00000E+00         0.00000E+00        -0.50013E+08
 
   -0.50055E+08         0.46602E+05         0.00000E+00
    0.46602E+05        -0.50010E+08         0.00000E+00
    0.00000E+00         0.00000E+00        -0.50013E+08
 
   -0.50054E+08         0.48002E+05         0.00000E+00
    0.48002E+05        -0.50011E+08         0.00000E+00
    0.00000E+00         0.00000E+00        -0.50013E+08
 
   -0.50052E+08         0.49362E+05         0.00000E+00
    0.49362E+05        -0.50012E+08         0.00000E+00
    0.00000E+00         0.00000E+00        -0.50013E+08
 
   -0.50050E+08         0.50680E+05         0.00000E+00
    0.50680E+05        -0.50013E+08         0.00000E+00
    0.00000E+00         0.00000E+00        -0.50013E+08
 
   -0.50049E+08         0.51957E+05         0.00000E+00
    0.51957E+05        -0.50013E+08         0.00000E+00
    0.00000E+00         0.00000E+00        -0.50012E+08
 
   -0.50047E+08         0.53190E+05         0.00000E+00
    0.53190E+05        -0.50014E+08         0.00000E+00
    0.00000E+00         0.00000E+00        -0.50012E+08
 
   -0.50045E+08         0.54378E+05         0.00000E+00
    0.54378E+05        -0.50015E+08         0.00000E+00
    0.00000E+00         0.00000E+00        -0.50012E+08
 
   -0.50043E+08         0.55520E+05         0.00000E+00
    0.55520E+05        -0.50016E+08         0.00000E+00
    0.00000E+00         0.00000E+00        -0.50012E+08
 
   -0.50042E+08         0.56615E+05         0.00000E+00
    0.56615E+05        -0.50017E+08         0.00000E+00
    0.00000E+00         0.00000E+00        -0.50012E+08
 
   -0.50040E+08         0.57662E+05         0.00000E+00
    0.57662E+05        -0.50018E+08         0.00000E+00
    0.00000E+00         0.00000E+00        -0.50011E+08
 
   -0.50038E+08         0.58661E+05         0.00000E+00
    0.58661E+05        -0.50019E+08         0.00000E+00
    0.00000E+00         0.00000E+00        -0.50011E+08
 
   -0.50036E+08         0.59608E+05         0.00000E+00
    0.59608E+05        -0.50020E+08         0.00000E+00
    0.00000E+00         0.00000E+00        -0.50011E+08
 
   -0.50034E+08         0.60505E+05         0.00000E+00
    0.60505E+05        -0.50021E+08         0.00000E+00
    0.00000E+00         0.00000E+00        -0.50011E+08
 
   -0.50032E+08         0.61349E+05         0.00000E+00
    0.61349E+05        -0.50022E+08         0.00000E+00
    0.00000E+00         0.00000E+00        -0.50011E+08
 
   -0.50030E+08         0.62141E+05         0.00000E+00
    0.62141E+05        -0.50023E+08         0.00000E+00
    0.00000E+00         0.00000E+00        -0.50010E+08
 
   -0.50027E+08         0.62878E+05         0.00000E+00
    0.62878E+05        -0.50024E+08         0.00000E+00
    0.00000E+00         0.00000E+00        -0.50010E+08
 
   -0.50025E+08         0.63561E+05         0.00000E+00
    0.63561E+05        -0.50025E+08         0.00000E+00
    0.00000E+00         0.00000E+00        -0.50010E+08
 
   -0.50023E+08         0.64187E+05         0.00000E+00
    0.64187E+05        -0.50026E+08         0.00000E+00
    0.00000E+00         0.00000E+00        -0.50010E+08
 
   -0.50021E+08         0.64757E+05         0.00000E+00
    0.64757E+05        -0.50027E+08         0.00000E+00
    0.00000E+00         0.00000E+00        -0.50009E+08
 
   -0.50019E+08         0.65270E+05         0.00000E+00
    0.65270E+05        -0.50028E+08         0.00000E+00
    0.00000E+00         0.00000E+00        -0.50009E+08
 
   -0.50016E+08         0.65724E+05         0.00000E+00
    0.65724E+05        -0.50029E+08         0.00000E+00
    0.00000E+00         0.00000E+00        -0.50009E+08
 
   -0.50014E+08         0.66119E+05         0.00000E+00
    0.66119E+05        -0.50030E+08         0.00000E+00
    0.00000E+00         0.00000E+00        -0.50009E+08
 
   -0.50012E+08         0.66454E+05         0.00000E+00
    0.66454E+05        -0.50031E+08         0.00000E+00
    0.00000E+00         0.00000E+00        -0.50008E+08
 
   -0.50009E+08         0.66729E+05         0.00000E+00
    0.66729E+05        -0.50032E+08         0.00000E+00
    0.00000E+00         0.00000E+00        -0.50008E+08
 
   -0.50066E+08         0.88454E+03         0.00000E+00
    0.88454E+03        -0.50000E+08         0.00000E+00
    0.00000E+00         0.00000E+00        -0.50013E+08
 
   -0.50066E+08         0.26583E+04         0.00000E+00
    0.26583E+04        -0.50000E+08         0.00000E+00
    0.00000E+00         0.00000E+00        -0.50013E+08
 
   -0.50066E+08         0.44321E+04         0.00000E+00
    0.44321E+04        -0.50000E+08         0.00000E+00
    0.00000E+00         0.00000E+00        -0.50013E+08
 
   -0.50066E+08         0.62045E+04         0.00000E+00
    0.62045E+04        -0.50000E+08         0.00000E+00
    0.00000E+00         0.00000E+00        -0.50013E+08
 
   -0.50066E+08         0.79739E+04         0.00000E+00
    0.79739E+04        -0.50000E+08         0.00000E+00
    0.00000E+00         0.00000E+00        -0.50013E+08
 
   -0.50065E+08         0.97388E+04         0.00000E+00
    0.97388E+04        -0.50000E+08         0.00000E+00
    0.00000E+00         0.00000E+00        -0.50013E+08
 
   -0.50065E+08         0.11498E+05         0.00000E+00
    0.11498E+05        -0.50001E+08         0.00000E+00
    0.00000E+00         0.00000E+00        -0.50013E+08
 
   -0.50065E+08         0.13249E+05         0.00000E+00
    0.13249E+05        -0.50001E+08         0.00000E+00
    0.00000E+00         0.00000E+00        -0.50013E+08
 
   -0.50064E+08         0.14992E+05         0.00000E+00
    0.14992E+05        -0.50001E+08         0.00000E+00
    0.00000E+00         0.00000E+00        -0.50013E+08
 
   -0.50064E+08         0.16723E+05         0.00000E+00
    0.16723E+05        -0.50001E+08         0.00000E+00
    0.00000E+00         0.00000E+00        -0.50013E+08
 
   -0.50063E+08         0.18443E+05         0.00000E+00
    0.18443E+05        -0.50001E+08         0.00000E+00
    0.00000E+00         0.00000E+00        -0.50013E+08
 
   -0.50063E+08         0.20149E+05         0.00000E+00
    0.20149E+05        -0.50002E+08         0.00000E+00
    0.00000E+00         0.00000E+00        -0.50013E+08
 
   -0.50062E+08         0.21841E+05         0.00000E+00
    0.21841E+05        -0.50002E+08         0.00000E+00
    0.00000E+00         0.00000E+00        -0.50013E+08
 
   -0.50061E+08         0.23515E+05         0.00000E+00
    0.23515E+05        -0.50002E+08         0.00000E+00
    0.00000E+00         0.00000E+00        -0.50013E+08
 
   -0.50061E+08         0.25172E+05         0.00000E+00
    0.25172E+05        -0.50003E+08         0.00000E+00
    0.00000E+00         0.00000E+00        -0.50013E+08
 
   -0.50060E+08         0.26809E+05         0.00000E+00
    0.26809E+05        -0.50003E+08         0.00000E+00
    0.00000E+00         0.00000E+00        -0.50013E+08
 
   -0.50059E+08         0.28425E+05         0.00000E+00
    0.28425E+05        -0.50004E+08         0.00000E+00
    0.00000E+00         0.00000E+00        -0.50013E+08
 
   -0.50058E+08         0.30019E+05         0.00000E+00
    0.30019E+05        -0.50004E+08         0.00000E+00
    0.00000E+00         0.00000E+00        -0.50012E+08
 
   -0.50057E+08         0.31589E+05         0.00000E+00
    0.31589E+05        -0.50004E+08         0.00000E+00
    0.00000E+00         0.00000E+00        -0.50012E+08
 
   -0.50056E+08         0.33134E+05         0.00000E+00
    0.33134E+05        -0.50005E+08         0.00000E+00
    0.00000E+00         0.00000E+00        -0.50012E+08
 
   -0.50055E+08         0.34652E+05         0.00000E+00
    0.34652E+05        -0.50005E+08         0.00000E+00
    0.00000E+00         0.00000E+00        -0.50012E+08
 
   -0.50054E+08         0.36143E+05         0.00000E+00
    0.36143E+05        -0.50006E+08         0.00000E+00
    0.00000E+00         0.00000E+00        -0.50012E+08
 
   -0.50053E+08         0.37604E+05         0.00000E+00
    0.37604E+05        -0.50007E+08         0.00000E+00
    0.00000E+00         0.00000E+00        -0.50012E+08
 
   -0.50052E+08         0.39035E+05         0.00000E+00
    0.39035E+05        -0.50007E+08         0.00000E+00
    0.00000E+00         0.00000E+00        -0.50012E+08
 
   -0.50051E+08         0.40433E+05         0.00000E+00
    0.40433E+05        -0.50008E+08         0.00000E+00
    0.00000E+00         0.00000E+00        -0.50012E+08
 
   -0.50050E+08         0.41799E+05         0.00000E+00
    0.41799E+05        -0.50008E+08         0.00000E+00
    0.00000E+00         0.00000E+00        -0.50012E+08
 
   -0.50048E+08         0.43130E+05         0.00000E+00
    0.43130E+05        -0.50009E+08         0.00000E+00
    0.00000E+00         0.00000E+00        -0.50011E+08
 
   -0.50047E+08         0.44426E+05         0.00000E+00
    0.44426E+05        -0.50010E+08         0.00000E+00
    0.00000E+00         0.00000E+00        -0.50011E+08
 
   -0.50046E+08         0.45685E+05         0.00000E+00
    0.45685E+05        -0.50010E+08         0.00000E+00
    0.00000E+00         0.00000E+00        -0.50011E+08
 
   -0.50044E+08         0.46905E+05         0.00000E+00
    0.46905E+05        -0.50011E+08         0.00000E+00
    0.00000E+00         0.00000E+00        -0.50011E+08
 
   -0.50043E+08         0.48087E+05         0.00000E+00
    0.48087E+05        -0.50012E+08         0.00000E+00
    0.00000E+00         0.00000E+00        -0.50011E+08
 
   -0.50041E+08         0.49228E+05         0.00000E+00
    0.49228E+05        -0.50012E+08         0.00000E+00
    0.00000E+00         0.00000E+00        -0.50011E+08
 
   -0.50040E+08         0.50328E+05         0.00000E+00
    0.50328E+05        -0.50013E+08         0.00000E+00
    0.00000E+00         0.00000E+00        -0.50011E+08
 
   -0.50038E+08         0.51386E+05         0.00000E+00
    0.51386E+05        -0.50014E+08         0.00000E+00
    0.00000E+00         0.00000E+00        -0.50010E+08
 
   -0.50036E+08         0.52400E+05         0.00000E+00
    0.52400E+05        -0.50015E+08         0.00000E+00
    0.00000E+00         0.00000E+00        -0.50010E+08
 
   -0.50035E+08         0.53369E+05         0.00000E+00
    0.53369E+05        -0.50016E+08         0.00000E+00
    0.00000E+00         0.00000E+00        -0.50010E+08
 
   -0.50033E+08         0.54293E+05         0.00000E+00
    0.54293E+05        -0.50016E+08         0.00000E+00
    0.00000E+00         0.00000E+00        -0.50010E+08
 
   -0.50031E+08         0.55171E+05         0.00000E+00
    0.55171E+05        -0.50017E+08         0.00000E+00
    0.00000E+00         0.00000E+00        -0.50010E+08
 
   -0.50030E+08         0.56001E+05         0.00000E+00
    0.56001E+05        -0.50018E+08         0.00000E+00
    0.00000E+00         0.00000E+00        -0.50010E+08
 
   -0.50028E+08         0.56782E+05         0.00000E+00
    0.56782E+05        -0.50019E+08         0.00000E+00
    0.00000E+00         0.00000E+00        -0.50009E+08
 
   -0.50026E+08         0.57514E+05         0.00000E+00
    0.57514E+05        -0.50020E+08         0.00000E+00
    0.00000E+00         0.00000E+00        -0.50009E+08
 
   -0.50024E+08         0.58197E+05         0.00000E+00
    0.58197E+05        -0.50021E+08         0.00000E+00
    0.00000E+00         0.00000E+00        -0.50009E+08
 
   -0.50022E+08         0.58828E+05         0.00000E+00
    0.58828E+05        -0.50021E+08         0.00000E+00
    0.00000E+00         0.00000E+00        -0.50009E+08
 
   -0.50020E+08         0.59407E+05         0.00000E+00
    0.59407E+05        -0.50022E+08         0.00000E+00
    0.00000E+00         0.00000E+00        -0.50009E+08
 
   -0.50018E+08         0.59934E+05         0.00000E+00
    0.59934E+05        -0.50023E+08         0.00000E+00
    0.00000E+00         0.00000E+00        -0.50008E+08
 
   -0.50016E+08         0.60407E+05         0.00000E+00
    0.60407E+05        -0.50024E+08         0.00000E+00
    0.00000E+00         0.00000E+00        -0.50008E+08
 
   -0.50014E+08         0.60826E+05         0.00000E+00
    0.60826E+05        -0.50025E+08         0.00000E+00
    0.00000E+00         0.00000E+00        -0.50008E+08
 
   -0.50012E+08         0.61191E+05         0.00000E+00
    0.61191E+05        -0.50026E+08         0.00000E+00
    0.00000E+00         0.00000E+00        -0.50008E+08
 
   -0.50010E+08         0.61500E+05         0.00000E+00
    0.61500E+05        -0.50027E+08         0.00000E+00
    0.00000E+00         0.00000E+00        -0.50007E+08
 
   -0.50008E+08         0.61753E+05         0.00000E+00
    0.61753E+05        -0.50028E+08         0.00000E+00
    0.00000E+00         0.00000E+00        -0.50007E+08
 
   -0.50057E+08         0.82454E+03         0.00000E+00
    0.82454E+03        -0.50000E+08         0.00000E+00
    0.00000E+00         0.00000E+00        -0.50011E+08
 
   -0.50057E+08         0.24768E+04         0.00000E+00
    0.24768E+04        -0.50000E+08         0.00000E+00
    0.00000E+00         0.00000E+00        -0.50011E+08
 
   -0.50057E+08         0.41286E+04         0.00000E+00
    0.41286E+04        -0.50000E+08         0.00000E+00
    0.00000E+00         0.00000E+00        -0.50011E+08
 
   -0.50057E+08         0.57787E+04         0.00000E+00
    0.57787E+04        -0.50000E+08         0.00000E+00
    0.00000E+00         0.00000E+00        -0.50011E+08
 
   -0.50057E+08         0.74257E+04         0.00000E+00
    0.74257E+04        -0.50000E+08         0.00000E+00
    0.00000E+00         0.00000E+00        -0.50011E+08
 
   -0.50057E+08         0.90681E+04         0.00000E+00
    0.90681E+04        -0.50000E+08         0.00000E+00
    0.00000E+00         0.00000E+00        -0.50011E+08
 
   -0.50057E+08         0.10705E+05         0.00000E+00
    0.10705E+05        -0.50000E+08         0.00000E+00
    0.00000E+00         0.00000E+00        -0.50011E+08
 
   -0.50056E+08         0.12334E+05         0.00000E+00
    0.12334E+05        -0.50001E+08         0.00000E+00
    0.00000E+00         0.00000E+00        -0.50011E+08
 
   -0.50056E+08         0.13955E+05         0.00000E+00
    0.13955E+05        -0.50001E+08         0.00000E+00
    0.00000E+00         0.00000E+00        -0.50011E+08
 
   -0.50056E+08         0.15565E+05         0.00000E+00
    0.15565E+05        -0.50001E+08         0.00000E+00
    0.00000E+00         0.00000E+00        -0.50011E+08
 
   -0.50055E+08         0.17164E+05         0.00000E+00
    0.17164E+05        -0.50001E+08         0.00000E+00
    0.00000E+00         0.00000E+00        -0.50011E+08
 
   -0.50055E+08         0.18751E+05         0.00000E+00
    0.18751E+05        -0.50001E+08         0.00000E+00
    0.00000E+00         0.00000E+00        -0.50011E+08
 
   -0.50054E+08         0.20323E+05         0.00000E+00
    0.20323E+05        -0.50002E+08         0.00000E+00
    0.00000E+00         0.00000E+00        -0.50011E+08
 
   -0.50053E+08         0.21880E+05         0.00000E+00
    0.21880E+05        -0.50002E+08         0.00000E+00
    0.00000E+00         0.00000E+00        -0.50011E+08
 
   -0.50053E+08         0.23420E+05         0.00000E+00
    0.23420E+05        -0.50002E+08         0.00000E+00
    0.00000E+00         0.00000E+00        -0.50011E+08
 
   -0.50052E+08         0.24942E+05         0.00000E+00
    0.24942E+05        -0.50003E+08         0.00000E+00
    0.00000E+00         0.00000E+00        -0.50011E+08
 
   -0.50051E+08         0.26444E+05         0.00000E+00
    0.26444E+05        -0.50003E+08         0.00000E+00
    0.00000E+00         0.00000E+00        -0.50011E+08
 
   -0.50051E+08         0.27925E+05         0.00000E+00
    0.27925E+05        -0.50003E+08         0.00000E+00
    0.00000E+00         0.00000E+00        -0.50011E+08
 
   -0.50050E+08         0.29385E+05         0.00000E+00
    0.29385E+05        -0.50004E+08         0.00000E+00
    0.00000E+00         0.00000E+00        -0.50011E+08
 
   -0.50049E+08         0.30821E+05         0.00000E+00
    0.30821E+05        -0.50004E+08         0.00000E+00
    0.00000E+00         0.00000E+00        -0.50011E+08
 
   -0.50048E+08         0.32232E+05         0.00000E+00
    0.32232E+05        -0.50005E+08         0.00000E+00
    0.00000E+00         0.00000E+00        -0.50011E+08
 
   -0.50047E+08         0.33617E+05         0.00000E+00
    0.33617E+05        -0.50005E+08         0.00000E+00
    0.00000E+00         0.00000E+00        -0.50010E+08
 
   -0.50046E+08         0.34975E+05         0.00000E+00
    0.34975E+05        -0.50006E+08         0.00000E+00
    0.00000E+00         0.00000E+00        -0.50010E+08
 
   -0.50045E+08         0.36305E+05         0.00000E+00
    0.36305E+05        -0.50006E+08         0.00000E+00
    0.00000E+00         0.00000E+00        -0.50010E+08
 
   -0.50044E+08         0.37605E+05         0.00000E+00
    0.37605E+05        -0.50007E+08         0.00000E+00
    0.00000E+00         0.00000E+00        -0.50010E+08
 
   -0.50043E+08         0.38874E+05         0.00000E+00
    0.38874E+05        -0.50007E+08         0.00000E+00
    0.00000E+00         0.00000E+00        -0.50010E+08
 
   -0.50042E+08         0.40111E+05         0.00000E+00
    0.40111E+05        -0.50008E+08         0.00000E+00
    0.00000E+00         0.00000E+00        -0.50010E+08
 
   -0.50041E+08         0.41316E+05         0.00000E+00
    0.41316E+05        -0.50008E+08         0.00000E+00
    0.00000E+00         0.00000E+00        -0.50010E+08
 
   -0.50040E+08         0.42486E+05         0.00000E+00
    0.42486E+05        -0.50009E+08         0.00000E+00
    0.00000E+00         0.00000E+00        -0.50010E+08
 
   -0.50038E+08         0.43620E+05         0.00000E+00
    0.43620E+05        -0.50009E+08         0.00000E+00
    0.00000E+00         0.00000E+00        -0.50010E+08
 
   -0.50037E+08         0.44719E+05         0.00000E+00
    0.44719E+05        -0.50010E+08         0.00000E+00
    0.00000E+00         0.00000E+00        -0.50009E+08
 
   -0.50036E+08         0.45779E+05         0.00000E+00
    0.45779E+05        -0.50011E+08         0.00000E+00
    0.00000E+00         0.00000E+00        -0.50009E+08
 
   -0.50034E+08         0.46802E+05         0.00000E+00
    0.46802E+05        -0.50011E+08         0.00000E+00
    0.00000E+00         0.00000E+00        -0.50009E+08
 
   -0.50033E+08         0.47785E+05         0.00000E+00
    0.47785E+05        -0.50012E+08         0.00000E+00
    0.00000E+00         0.00000E+00        -0.50009E+08
 
   -0.50032E+08         0.48727E+05         0.00000E+00
    0.48727E+05        -0.50013E+08         0.00000E+00
    0.00000E+00         0.00000E+00        -0.50009E+08
 
   -0.50030E+08         0.49628E+05         0.00000E+00
    0.49628E+05        -0.50013E+08         0.00000E+00
    0.00000E+00         0.00000E+00        -0.50009E+08
 
   -0.50029E+08         0.50486E+05         0.00000E+00
    0.50486E+05        -0.50014E+08         0.00000E+00
    0.00000E+00         0.00000E+00        -0.50009E+08
 
   -0.50027E+08         0.51302E+05         0.00000E+00
    0.51302E+05        -0.50015E+08         0.00000E+00
    0.00000E+00         0.00000E+00        -0.50008E+08
 
   -0.50026E+08         0.52073E+05         0.00000E+00
    0.52073E+05        -0.50016E+08         0.00000E+00
    0.00000E+00         0.00000E+00        -0.50008E+08
 
   -0.50024E+08         0.52799E+05         0.00000E+00
    0.52799E+05        -0.50016E+08         0.00000E+00
    0.00000E+00         0.00000E+00        -0.50008E+08
 
   -0.50023E+08         0.53479E+05         0.00000E+00
    0.53479E+05        -0.50017E+08         0.00000E+00
    0.00000E+00         0.00000E+00        -0.50008E+08
 
   -0.50021E+08         0.54112E+05         0.00000E+00
    0.54112E+05        -0.50018E+08         0.00000E+00
    0.00000E+00         0.00000E+00        -0.50008E+08
 
   -0.50019E+08         0.54698E+05         0.00000E+00
    0.54698E+05        -0.50019E+08         0.00000E+00
    0.00000E+00         0.00000E+00        -0.50008E+08
 
   -0.50018E+08         0.55236E+05         0.00000E+00
    0.55236E+05        -0.50019E+08         0.00000E+00
    0.00000E+00         0.00000E+00        -0.50007E+08
 
   -0.50016E+08         0.55725E+05         0.00000E+00
    0.55725E+05        -0.50020E+08         0.00000E+00
    0.00000E+00         0.00000E+00        -0.50007E+08
 
   -0.50014E+08         0.56164E+05         0.00000E+00
    0.56164E+05        -0.50021E+08         0.00000E+00
    0.00000E+00         0.00000E+00        -0.50007E+08
 
   -0.50012E+08         0.56552E+05         0.00000E+00
    0.56552E+05        -0.50022E+08         0.00000E+00
    0.00000E+00         0.00000E+00        -0.50007E+08
 
   -0.50011E+08         0.56890E+05         0.00000E+00
    0.56890E+05        -0.50023E+08         0.00000E+00
    0.00000E+00         0.00000E+00        -0.50007E+08
 
   -0.50009E+08         0.57176E+05         0.00000E+00
    0.57176E+05        -0.50023E+08         0.00000E+00
    0.00000E+00         0.00000E+00        -0.50006E+08
 
   -0.50007E+08         0.57410E+05         0.00000E+00
    0.57410E+05        -0.50024E+08         0.00000E+00
    0.00000E+00         0.00000E+00        -0.50006E+08
 
   -0.50049E+08         0.77292E+03         0.00000E+00
    0.77292E+03        -0.50000E+08         0.00000E+00
    0.00000E+00         0.00000E+00        -0.50010E+08
 
   -0.50049E+08         0.23207E+04         0.00000E+00
    0.23207E+04        -0.50000E+08         0.00000E+00
    0.00000E+00         0.00000E+00        -0.50010E+08
 
   -0.50049E+08         0.38677E+04         0.00000E+00
    0.38677E+04        -0.50000E+08         0.00000E+00
    0.00000E+00         0.00000E+00        -0.50010E+08
 
   -0.50049E+08         0.54127E+04         0.00000E+00
    0.54127E+04        -0.50000E+08         0.00000E+00
    0.00000E+00         0.00000E+00        -0.50010E+08
 
   -0.50049E+08         0.69544E+04         0.00000E+00
    0.69544E+04        -0.50000E+08         0.00000E+00
    0.00000E+00         0.00000E+00        -0.50010E+08
 
   -0.50049E+08         0.84916E+04         0.00000E+00
    0.84916E+04        -0.50000E+08         0.00000E+00
    0.00000E+00         0.00000E+00        -0.50010E+08
 
   -0.50049E+08         0.10023E+05         0.00000E+00
    0.10023E+05        -0.50000E+08         0.00000E+00
    0.00000E+00         0.00000E+00        -0.50010E+08
 
   -0.50048E+08         0.11547E+05         0.00000E+00
    0.11547E+05        -0.50001E+08         0.00000E+00
    0.00000E+00         0.00000E+00        -0.50010E+08
 
   -0.50048E+08         0.13063E+05         0.00000E+00
    0.13063E+05        -0.50001E+08         0.00000E+00
    0.00000E+00         0.00000E+00        -0.50010E+08
 
   -0.50048E+08         0.14570E+05         0.00000E+00
    0.14570E+05        -0.50001E+08         0.00000E+00
    0.00000E+00         0.00000E+00        -0.50010E+08
 
   -0.50047E+08         0.16065E+05         0.00000E+00
    0.16065E+05        -0.50001E+08         0.00000E+00
    0.00000E+00         0.00000E+00        -0.50010E+08
 
   -0.50047E+08         0.17548E+05         0.00000E+00
    0.17548E+05        -0.50001E+08         0.00000E+00
    0.00000E+00         0.00000E+00        -0.50010E+08
 
   -0.50046E+08         0.19018E+05         0.00000E+00
    0.19018E+05        -0.50002E+08         0.00000E+00
    0.00000E+00         0.00000E+00        -0.50010E+08
 
   -0.50046E+08         0.20474E+05         0.00000E+00
    0.20474E+05        -0.50002E+08         0.00000E+00
    0.00000E+00         0.00000E+00        -0.50010E+08
 
   -0.50045E+08         0.21913E+05         0.00000E+00
    0.21913E+05        -0.50002E+08         0.00000E+00
    0.00000E+00         0.00000E+00        -0.50009E+08
 
   -0.50045E+08         0.23335E+05         0.00000E+00
    0.23335E+05        -0.50002E+08         0.00000E+00
    0.00000E+00         0.00000E+00        -0.50009E+08
 
   -0.50044E+08         0.24739E+05         0.00000E+00
    0.24739E+05        -0.50003E+08         0.00000E+00
    0.00000E+00         0.00000E+00        -0.50009E+08
 
   -0.50044E+08         0.26124E+05         0.00000E+00
    0.26124E+05        -0.50003E+08         0.00000E+00
    0.00000E+00         0.00000E+00        -0.50009E+08
 
   -0.50043E+08         0.27487E+05         0.00000E+00
    0.27487E+05        -0.50003E+08         0.00000E+00
    0.00000E+00         0.00000E+00        -0.50009E+08
 
   -0.50042E+08         0.28829E+05         0.00000E+00
    0.28829E+05        -0.50004E+08         0.00000E+00
    0.00000E+00         0.00000E+00        -0.50009E+08
 
   -0.50041E+08         0.30148E+05         0.00000E+00
    0.30148E+05        -0.50004E+08         0.00000E+00
    0.00000E+00         0.00000E+00        -0.50009E+08
 
   -0.50041E+08         0.31442E+05         0.00000E+00
    0.31442E+05        -0.50004E+08         0.00000E+00
    0.00000E+00         0.00000E+00        -0.50009E+08
 
   -0.50040E+08         0.32711E+05         0.00000E+00
    0.32711E+05        -0.50005E+08         0.00000E+00
    0.00000E+00         0.00000E+00        -0.50009E+08
 
   -0.50039E+08         0.33953E+05         0.00000E+00
    0.33953E+05        -0.50005E+08         0.00000E+00
    0.00000E+00         0.00000E+00        -0.50009E+08
 
   -0.50038E+08         0.35168E+05         0.00000E+00
    0.35168E+05        -0.50006E+08         0.00000E+00
    0.00000E+00         0.00000E+00        -0.50009E+08
 
   -0.50037E+08         0.36353E+05         0.00000E+00
    0.36353E+05        -0.50006E+08         0.00000E+00
    0.00000E+00         0.00000E+00        -0.50009E+08
 
   -0.50036E+08         0.37509E+05         0.00000E+00
    0.37509E+05        -0.50007E+08         0.00000E+00
    0.00000E+00         0.00000E+00        -0.50009E+08
 
   -0.50035E+08         0.38634E+05         0.00000E+00
    0.38634E+05        -0.50007E+08         0.00000E+00
    0.00000E+00         0.00000E+00        -0.50008E+08
 
   -0.50034E+08         0.39727E+05         0.00000E+00
    0.39727E+05        -0.50008E+08         0.00000E+00
    0.00000E+00         0.00000E+00        -0.50008E+08
 
   -0.50033E+08         0.40787E+05         0.00000E+00
    0.40787E+05        -0.50008E+08         0.00000E+00
    0.00000E+00         0.00000E+00        -0.50008E+08
 
   -0.50032E+08         0.41813E+05         0.00000E+00
    0.41813E+05        -0.50009E+08         0.00000E+00
    0.00000E+00         0.00000E+00        -0.50008E+08
 
   -0.50031E+08         0.42803E+05         0.00000E+00
    0.42803E+05        -0.50009E+08         0.00000E+00
    0.00000E+00         0.00000E+00        -0.50008E+08
 
   -0.50030E+08         0.43758E+05         0.00000E+00
    0.43758E+05        -0.50010E+08         0.00000E+00
    0.00000E+00         0.00000E+00        -0.50008E+08
 
   -0.50028E+08         0.44676E+05         0.00000E+00
    0.44676E+05        -0.50010E+08         0.00000E+00
    0.00000E+00         0.00000E+00        -0.50008E+08
 
   -0.50027E+08         0.45556E+05         0.00000E+00
    0.45556E+05        -0.50011E+08         0.00000E+00
    0.00000E+00         0.00000E+00        -0.50008E+08
 
   -0.50026E+08         0.46397E+05         0.00000E+00
    0.46397E+05        -0.50012E+08         0.00000E+00
    0.00000E+00         0.00000E+00        -0.50007E+08
 
   -0.50025E+08         0.47199E+05         0.00000E+00
    0.47199E+05        -0.50012E+08         0.00000E+00
    0.00000E+00         0.00000E+00        -0.50007E+08
 
   -0.50023E+08         0.47960E+05         0.00000E+00
    0.47960E+05        -0.50013E+08         0.00000E+00
    0.00000E+00         0.00000E+00        -0.50007E+08
 
   -0.50022E+08         0.48680E+05         0.00000E+00
    0.48680E+05        -0.50013E+08         0.00000E+00
    0.00000E+00         0.00000E+00        -0.50007E+08
 
   -0.50021E+08         0.49357E+05         0.00000E+00
    0.49357E+05        -0.50014E+08         0.00000E+00
    0.00000E+00         0.00000E+00        -0.50007E+08
 
   -0.50019E+08         0.49992E+05         0.00000E+00
    0.49992E+05        -0.50015E+08         0.00000E+00
    0.00000E+00         0.00000E+00        -0.50007E+08
 
   -0.50018E+08         0.50583E+05         0.00000E+00
    0.50583E+05        -0.50015E+08         0.00000E+00
    0.00000E+00         0.00000E+00        -0.50007E+08
 
   -0.50017E+08         0.51130E+05         0.00000E+00
    0.51130E+05        -0.50016E+08         0.00000E+00
    0.00000E+00         0.00000E+00        -0.50006E+08
 
   -0.50015E+08         0.51631E+05         0.00000E+00
    0.51631E+05        -0.50017E+08         0.00000E+00
    0.00000E+00         0.00000E+00        -0.50006E+08
 
   -0.50014E+08         0.52087E+05         0.00000E+00
    0.52087E+05        -0.50017E+08         0.00000E+00
    0.00000E+00         0.00000E+00        -0.50006E+08
 
   -0.50012E+08         0.52496E+05         0.00000E+00
    0.52496E+05        -0.50018E+08         0.00000E+00
    0.00000E+00         0.00000E+00        -0.50006E+08
 
   -0.50011E+08         0.52858E+05         0.00000E+00
    0.52858E+05        -0.50019E+08         0.00000E+00
    0.00000E+00         0.00000E+00        -0.50006E+08
 
   -0.50009E+08         0.53173E+05         0.00000E+00
    0.53173E+05        -0.50019E+08         0.00000E+00
    0.00000E+00         0.00000E+00        -0.50006E+08
 
   -0.50008E+08         0.53439E+05         0.00000E+00
    0.53439E+05        -0.50020E+08         0.00000E+00
    0.00000E+00         0.00000E+00        -0.50006E+08
 
   -0.50006E+08         0.53657E+05         0.00000E+00
    0.53657E+05        -0.50021E+08         0.00000E+00
    0.00000E+00         0.00000E+00        -0.50005E+08
 
   -0.50042E+08         0.72899E+03         0.00000E+00
    0.72899E+03        -0.50000E+08         0.00000E+00
    0.00000E+00         0.00000E+00        -0.50008E+08
 
   -0.50042E+08         0.21879E+04         0.00000E+00
    0.21879E+04        -0.50000E+08         0.00000E+00
    0.00000E+00         0.00000E+00        -0.50008E+08
 
   -0.50042E+08         0.36458E+04         0.00000E+00
    0.36458E+04        -0.50000E+08         0.00000E+00
    0.00000E+00         0.00000E+00        -0.50008E+08
 
   -0.50042E+08         0.51015E+04         0.00000E+00
    0.51015E+04        -0.50000E+08         0.00000E+00
    0.00000E+00         0.00000E+00        -0.50008E+08
 
   -0.50042E+08         0.65538E+04         0.00000E+00
    0.65538E+04        -0.50000E+08         0.00000E+00
    0.00000E+00         0.00000E+00        -0.50008E+08
 
   -0.50041E+08         0.80015E+04         0.00000E+00
    0.80015E+04        -0.50000E+08         0.00000E+00
    0.00000E+00         0.00000E+00        -0.50008E+08
 
   -0.50041E+08         0.94435E+04         0.00000E+00
    0.94435E+04        -0.50000E+08         0.00000E+00
    0.00000E+00         0.00000E+00        -0.50008E+08
 
   -0.50041E+08         0.10879E+05         0.00000E+00
    0.10879E+05        -0.50000E+08         0.00000E+00
    0.00000E+00         0.00000E+00        -0.50008E+08
 
   -0.50041E+08         0.12305E+05         0.00000E+00
    0.12305E+05        -0.50001E+08         0.00000E+00
    0.00000E+00         0.00000E+00        -0.50008E+08
 
   -0.50040E+08         0.13723E+05         0.00000E+00
    0.13723E+05        -0.50001E+08         0.00000E+00
    0.00000E+00         0.00000E+00        -0.50008E+08
 
   -0.50040E+08         0.15130E+05         0.00000E+00
    0.15130E+05        -0.50001E+08         0.00000E+00
    0.00000E+00         0.00000E+00        -0.50008E+08
 
   -0.50040E+08         0.16526E+05         0.00000E+00
    0.16526E+05        -0.50001E+08         0.00000E+00
    0.00000E+00         0.00000E+00        -0.50008E+08
 
   -0.50039E+08         0.17909E+05         0.00000E+00
    0.17909E+05        -0.50001E+08         0.00000E+00
    0.00000E+00         0.00000E+00        -0.50008E+08
 
   -0.50039E+08         0.19278E+05         0.00000E+00
    0.19278E+05        -0.50001E+08         0.00000E+00
    0.00000E+00         0.00000E+00        -0.50008E+08
 
   -0.50039E+08         0.20632E+05         0.00000E+00
    0.20632E+05        -0.50002E+08         0.00000E+00
    0.00000E+00         0.00000E+00        -0.50008E+08
 
   -0.50038E+08         0.21969E+05         0.00000E+00
    0.21969E+05        -0.50002E+08         0.00000E+00
    0.00000E+00         0.00000E+00        -0.50008E+08
 
   -0.50037E+08         0.23290E+05         0.00000E+00
    0.23290E+05        -0.50002E+08         0.00000E+00
    0.00000E+00         0.00000E+00        -0.50008E+08
 
   -0.50037E+08         0.24591E+05         0.00000E+00
    0.24591E+05        -0.50002E+08         0.00000E+00
    0.00000E+00         0.00000E+00        -0.50008E+08
 
   -0.50036E+08         0.25874E+05         0.00000E+00
    0.25874E+05        -0.50003E+08         0.00000E+00
    0.00000E+00         0.00000E+00        -0.50008E+08
 
   -0.50036E+08         0.27135E+05         0.00000E+00
    0.27135E+05        -0.50003E+08         0.00000E+00
    0.00000E+00         0.00000E+00        -0.50008E+08
 
   -0.50035E+08         0.28374E+05         0.00000E+00
    0.28374E+05        -0.50003E+08         0.00000E+00
    0.00000E+00         0.00000E+00        -0.50008E+08
 
   -0.50034E+08         0.29591E+05         0.00000E+00
    0.29591E+05        -0.50004E+08         0.00000E+00
    0.00000E+00         0.00000E+00        -0.50008E+08
 
   -0.50034E+08         0.30784E+05         0.00000E+00
    0.30784E+05        -0.50004E+08         0.00000E+00
    0.00000E+00         0.00000E+00        -0.50008E+08
 
   -0.50033E+08         0.31951E+05         0.00000E+00
    0.31951E+05        -0.50004E+08         0.00000E+00
    0.00000E+00         0.00000E+00        -0.50007E+08
 
   -0.50032E+08         0.33093E+05         0.00000E+00
    0.33093E+05        -0.50005E+08         0.00000E+00
    0.00000E+00         0.00000E+00        -0.50007E+08
 
   -0.50031E+08         0.34207E+05         0.00000E+00
    0.34207E+05        -0.50005E+08         0.00000E+00
    0.00000E+00         0.00000E+00        -0.50007E+08
 
   -0.50031E+08         0.35293E+05         0.00000E+00
    0.35293E+05        -0.50006E+08         0.00000E+00
    0.00000E+00         0.00000E+00        -0.50007E+08
 
   -0.50030E+08         0.36350E+05         0.00000E+00
    0.36350E+05        -0.50006E+08         0.00000E+00
    0.00000E+00         0.00000E+00        -0.50007E+08
 
   -0.50029E+08         0.37377E+05         0.00000E+00
    0.37377E+05        -0.50006E+08         0.00000E+00
    0.00000E+00         0.00000E+00        -0.50007E+08
 
   -0.50028E+08         0.38373E+05         0.00000E+00
    0.38373E+05        -0.50007E+08         0.00000E+00
    0.00000E+00         0.00000E+00        -0.50007E+08
 
   -0.50027E+08         0.39336E+05         0.00000E+00
    0.39336E+05        -0.50007E+08         0.00000E+00
    0.00000E+00         0.00000E+00        -0.50007E+08
 
   -0.50026E+08         0.40267E+05         0.00000E+00
    0.40267E+05        -0.50008E+08         0.00000E+00
    0.00000E+00         0.00000E+00        -0.50007E+08
 
   -0.50025E+08         0.41164E+05         0.00000E+00
    0.41164E+05        -0.50008E+08         0.00000E+00
    0.00000E+00         0.00000E+00        -0.50007E+08
 
   -0.50024E+08         0.42026E+05         0.00000E+00
    0.42026E+05        -0.50009E+08         0.00000E+00
    0.00000E+00         0.00000E+00        -0.50007E+08
 
   -0.50023E+08         0.42853E+05         0.00000E+00
    0.42853E+05        -0.50009E+08         0.00000E+00
    0.00000E+00         0.00000E+00        -0.50006E+08
 
   -0.50022E+08         0.43643E+05         0.00000E+00
    0.43643E+05        -0.50010E+08         0.00000E+00
    0.00000E+00         0.00000E+00        -0.50006E+08
 
   -0.50021E+08         0.44395E+05         0.00000E+00
    0.44395E+05        -0.50010E+08         0.00000E+00
    0.00000E+00         0.00000E+00        -0.50006E+08
 
   -0.50020E+08         0.45110E+05         0.00000E+00
    0.45110E+05        -0.50011E+08         0.00000E+00
    0.00000E+00         0.00000E+00        -0.50006E+08
 
   -0.50019E+08         0.45786E+05         0.00000E+00
    0.45786E+05        -0.50011E+08         0.00000E+00
    0.00000E+00         0.00000E+00        -0.50006E+08
 
   -0.50018E+08         0.46422E+05         0.00000E+00
    0.46422E+05        -0.50012E+08         0.00000E+00
    0.00000E+00         0.00000E+00        -0.50006E+08
 
   -0.50016E+08         0.47017E+05         0.00000E+00
    0.47017E+05        -0.50012E+08         0.00000E+00
    0.00000E+00         0.00000E+00        -0.50006E+08
 
   -0.50015E+08         0.47572E+05         0.00000E+00
    0.47572E+05        -0.50013E+08         0.00000E+00
    0.00000E+00         0.00000E+00        -0.50006E+08
 
   -0.50014E+08         0.48085E+05         0.00000E+00
    0.48085E+05        -0.50013E+08         0.00000E+00
    0.00000E+00         0.00000E+00        -0.50005E+08
 
   -0.50013E+08         0.48555E+05         0.00000E+00
    0.48555E+05        -0.50014E+08         0.00000E+00
    0.00000E+00         0.00000E+00        -0.50005E+08
 
   -0.50012E+08         0.48983E+05         0.00000E+00
    0.48983E+05        -0.50015E+08         0.00000E+00
    0.00000E+00         0.00000E+00        -0.50005E+08
 
   -0.50010E+08         0.49367E+05         0.00000E+00
    0.49367E+05        -0.50015E+08         0.00000E+00
    0.00000E+00         0.00000E+00        -0.50005E+08
 
   -0.50009E+08         0.49706E+05         0.00000E+00
    0.49706E+05        -0.50016E+08         0.00000E+00
    0.00000E+00         0.00000E+00        -0.50005E+08
 
   -0.50008E+08         0.50001E+05         0.00000E+00
    0.50001E+05        -0.50016E+08         0.00000E+00
    0.00000E+00         0.00000E+00        -0.50005E+08
 
   -0.50006E+08         0.50250E+05         0.00000E+00
    0.50250E+05        -0.50017E+08         0.00000E+00
    0.00000E+00         0.00000E+00        -0.50005E+08
 
   -0.50005E+08         0.50454E+05         0.00000E+00
    0.50454E+05        -0.50017E+08         0.00000E+00
    0.00000E+00         0.00000E+00        -0.50005E+08
 
   -0.50035E+08         0.69220E+03         0.00000E+00
    0.69220E+03        -0.50000E+08         0.00000E+00
    0.00000E+00         0.00000E+00        -0.50007E+08
 
   -0.50035E+08         0.20768E+04         0.00000E+00
    0.20768E+04        -0.50000E+08         0.00000E+00
    0.00000E+00         0.00000E+00        -0.50007E+08
 
   -0.50035E+08         0.34602E+04         0.00000E+00
    0.34602E+04        -0.50000E+08         0.00000E+00
    0.00000E+00         0.00000E+00        -0.50007E+08
 
   -0.50035E+08         0.48412E+04         0.00000E+00
    0.48412E+04        -0.50000E+08         0.00000E+00
    0.00000E+00         0.00000E+00        -0.50007E+08
 
   -0.50035E+08         0.62186E+04         0.00000E+00
    0.62186E+04        -0.50000E+08         0.00000E+00
    0.00000E+00         0.00000E+00        -0.50007E+08
 
   -0.50034E+08         0.75915E+04         0.00000E+00
    0.75915E+04        -0.50000E+08         0.00000E+00
    0.00000E+00         0.00000E+00        -0.50007E+08
 
   -0.50034E+08         0.89588E+04         0.00000E+00
    0.89588E+04        -0.50000E+08         0.00000E+00
    0.00000E+00         0.00000E+00        -0.50007E+08
 
   -0.50034E+08         0.10319E+05         0.00000E+00
    0.10319E+05        -0.50000E+08         0.00000E+00
    0.00000E+00         0.00000E+00        -0.50007E+08
 
   -0.50034E+08         0.11672E+05         0.00000E+00
    0.11672E+05        -0.50000E+08         0.00000E+00
    0.00000E+00         0.00000E+00        -0.50007E+08
 
   -0.50034E+08         0.13015E+05         0.00000E+00
    0.13015E+05        -0.50001E+08         0.00000E+00
    0.00000E+00         0.00000E+00        -0.50007E+08
 
   -0.50033E+08         0.14349E+05         0.00000E+00
    0.14349E+05        -0.50001E+08         0.00000E+00
    0.00000E+00         0.00000E+00        -0.50007E+08
 
   -0.50033E+08         0.15671E+05         0.00000E+00
    0.15671E+05        -0.50001E+08         0.00000E+00
    0.00000E+00         0.00000E+00        -0.50007E+08
 
   -0.50033E+08         0.16981E+05         0.00000E+00
    0.16981E+05        -0.50001E+08         0.00000E+00
    0.00000E+00         0.00000E+00        -0.50007E+08
 
   -0.50032E+08         0.18278E+05         0.00000E+00
    0.18278E+05        -0.50001E+08         0.00000E+00
    0.00000E+00         0.00000E+00        -0.50007E+08
 
   -0.50032E+08         0.19560E+05         0.00000E+00
    0.19560E+05        -0.50001E+08         0.00000E+00
    0.00000E+00         0.00000E+00        -0.50007E+08
 
   -0.50032E+08         0.20827E+05         0.00000E+00
    0.20827E+05        -0.50002E+08         0.00000E+00
    0.00000E+00         0.00000E+00        -0.50007E+08
 
   -0.50031E+08         0.22077E+05         0.00000E+00
    0.22077E+05        -0.50002E+08         0.00000E+00
    0.00000E+00         0.00000E+00        -0.50007E+08
 
   -0.50031E+08         0.23309E+05         0.00000E+00
    0.23309E+05        -0.50002E+08         0.00000E+00
    0.00000E+00         0.00000E+00        -0.50007E+08
 
   -0.50030E+08         0.24523E+05         0.00000E+00
    0.24523E+05        -0.50002E+08         0.00000E+00
    0.00000E+00         0.00000E+00        -0.50006E+08
 
   -0.50030E+08         0.25717E+05         0.00000E+00
    0.25717E+05        -0.50003E+08         0.00000E+00
    0.00000E+00         0.00000E+00        -0.50006E+08
 
   -0.50029E+08         0.26891E+05         0.00000E+00
    0.26891E+05        -0.50003E+08         0.00000E+00
    0.00000E+00         0.00000E+00        -0.50006E+08
 
   -0.50029E+08         0.28042E+05         0.00000E+00
    0.28042E+05        -0.50003E+08         0.00000E+00
    0.00000E+00         0.00000E+00        -0.50006E+08
 
   -0.50028E+08         0.29171E+05         0.00000E+00
    0.29171E+05        -0.50003E+08         0.00000E+00
    0.00000E+00         0.00000E+00        -0.50006E+08
 
   -0.50027E+08         0.30275E+05         0.00000E+00
    0.30275E+05        -0.50004E+08         0.00000E+00
    0.00000E+00         0.00000E+00        -0.50006E+08
 
   -0.50027E+08         0.31355E+05         0.00000E+00
    0.31355E+05        -0.50004E+08         0.00000E+00
    0.00000E+00         0.00000E+00        -0.50006E+08
 
   -0.50026E+08         0.32410E+05         0.00000E+00
    0.32410E+05        -0.50004E+08         0.00000E+00
    0.00000E+00         0.00000E+00        -0.50006E+08
 
   -0.50025E+08         0.33437E+05         0.00000E+00
    0.33437E+05        -0.50005E+08         0.00000E+00
    0.00000E+00         0.00000E+00        -0.50006E+08
 
   -0.50025E+08         0.34437E+05         0.00000E+00
    0.34437E+05        -0.50005E+08         0.00000E+00
    0.00000E+00         0.00000E+00        -0.50006E+08
 
   -0.50024E+08         0.35409E+05         0.00000E+00
    0.35409E+05        -0.50005E+08         0.00000E+00
    0.00000E+00         0.00000E+00        -0.50006E+08
 
   -0.50023E+08         0.36350E+05         0.00000E+00
    0.36350E+05        -0.50006E+08         0.00000E+00
    0.00000E+00         0.00000E+00        -0.50006E+08
 
   -0.50022E+08         0.37262E+05         0.00000E+00
    0.37262E+05        -0.50006E+08         0.00000E+00
    0.00000E+00         0.00000E+00        -0.50006E+08
 
   -0.50022E+08         0.38142E+05         0.00000E+00
    0.38142E+05        -0.50006E+08         0.00000E+00
    0.00000E+00         0.00000E+00        -0.50006E+08
 
   -0.50021E+08         0.38990E+05         0.00000E+00
    0.38990E+05        -0.50007E+08         0.00000E+00
    0.00000E+00         0.00000E+00        -0.50006E+08
 
   -0.50020E+08         0.39805E+05         0.00000E+00
    0.39805E+05        -0.50007E+08         0.00000E+00
    0.00000E+00         0.00000E+00        -0.50005E+08
 
   -0.50019E+08         0.40587E+05         0.00000E+00
    0.40587E+05        -0.50008E+08         0.00000E+00
    0.00000E+00         0.00000E+00        -0.50005E+08
 
   -0.50018E+08         0.41334E+05         0.00000E+00
    0.41334E+05        -0.50008E+08         0.00000E+00
    0.00000E+00         0.00000E+00        -0.50005E+08
 
   -0.50017E+08         0.42045E+05         0.00000E+00
    0.42045E+05        -0.50008E+08         0.00000E+00
    0.00000E+00         0.00000E+00        -0.50005E+08
 
   -0.50016E+08         0.42721E+05         0.00000E+00
    0.42721E+05        -0.50009E+08         0.00000E+00
    0.00000E+00         0.00000E+00        -0.50005E+08
 
   -0.50015E+08         0.43359E+05         0.00000E+00
    0.43359E+05        -0.50009E+08         0.00000E+00
    0.00000E+00         0.00000E+00        -0.50005E+08
 
   -0.50015E+08         0.43960E+05         0.00000E+00
    0.43960E+05        -0.50010E+08         0.00000E+00
    0.00000E+00         0.00000E+00        -0.50005E+08
 
   -0.50014E+08         0.44523E+05         0.00000E+00
    0.44523E+05        -0.50010E+08         0.00000E+00
    0.00000E+00         0.00000E+00        -0.50005E+08
 
   -0.50013E+08         0.45047E+05         0.00000E+00
    0.45047E+05        -0.50011E+08         0.00000E+00
    0.00000E+00         0.00000E+00        -0.50005E+08
 
   -0.50012E+08         0.45532E+05         0.00000E+00
    0.45532E+05        -0.50011E+08         0.00000E+00
    0.00000E+00         0.00000E+00        -0.50005E+08
 
   -0.50011E+08         0.45976E+05         0.00000E+00
    0.45976E+05        -0.50012E+08         0.00000E+00
    0.00000E+00         0.00000E+00        -0.50004E+08
 
   -0.50010E+08         0.46380E+05         0.00000E+00
    0.46380E+05        -0.50012E+08         0.00000E+00
    0.00000E+00         0.00000E+00        -0.50004E+08
 
   -0.50009E+08         0.46742E+05         0.00000E+00
    0.46742E+05        -0.50013E+08         0.00000E+00
    0.00000E+00         0.00000E+00        -0.50004E+08
 
   -0.50007E+08         0.47062E+05         0.00000E+00
    0.47062E+05        -0.50013E+08         0.00000E+00
    0.00000E+00         0.00000E+00        -0.50004E+08
 
   -0.50006E+08         0.47341E+05         0.00000E+00
    0.47341E+05        -0.50014E+08         0.00000E+00
    0.00000E+00         0.00000E+00        -0.50004E+08
 
   -0.50005E+08         0.47576E+05         0.00000E+00
    0.47576E+05        -0.50014E+08         0.00000E+00
    0.00000E+00         0.00000E+00        -0.50004E+08
 
   -0.50004E+08         0.47768E+05         0.00000E+00
    0.47768E+05        -0.50014E+08         0.00000E+00
    0.00000E+00         0.00000E+00        -0.50004E+08
 
   -0.50028E+08         0.66214E+03         0.00000E+00
    0.66214E+03        -0.50000E+08         0.00000E+00
    0.00000E+00         0.00000E+00        -0.50006E+08
 
   -0.50028E+08         0.19861E+04         0.00000E+00
    0.19861E+04        -0.50000E+08         0.00000E+00
    0.00000E+00         0.00000E+00        -0.50006E+08
 
   -0.50028E+08         0.33086E+04         0.00000E+00
    0.33086E+04        -0.50000E+08         0.00000E+00
    0.00000E+00         0.00000E+00        -0.50006E+08
 
   -0.50028E+08         0.46286E+04         0.00000E+00
    0.46286E+04        -0.50000E+08         0.00000E+00
    0.00000E+00         0.00000E+00        -0.50006E+08
 
   -0.50028E+08         0.59450E+04         0.00000E+00
    0.59450E+04        -0.50000E+08         0.00000E+00
    0.00000E+00         0.00000E+00        -0.50006E+08
 
   -0.50028E+08         0.72568E+04         0.00000E+00
    0.72568E+04        -0.50000E+08         0.00000E+00
    0.00000E+00         0.00000E+00        -0.50006E+08
 
   -0.50028E+08         0.85631E+04         0.00000E+00
    0.85631E+04        -0.50000E+08         0.00000E+00
    0.00000E+00         0.00000E+00        -0.50006E+08
 
   -0.50027E+08         0.98626E+04         0.00000E+00
    0.98626E+04        -0.50000E+08         0.00000E+00
    0.00000E+00         0.00000E+00        -0.50006E+08
 
   -0.50027E+08         0.11154E+05         0.00000E+00
    0.11154E+05        -0.50000E+08         0.00000E+00
    0.00000E+00         0.00000E+00        -0.50006E+08
 
   -0.50027E+08         0.12437E+05         0.00000E+00
    0.12437E+05        -0.50000E+08         0.00000E+00
    0.00000E+00         0.00000E+00        -0.50006E+08
 
   -0.50027E+08         0.13711E+05         0.00000E+00
    0.13711E+05        -0.50001E+08         0.00000E+00
    0.00000E+00         0.00000E+00        -0.50005E+08
 
   -0.50027E+08         0.14973E+05         0.00000E+00
    0.14973E+05        -0.50001E+08         0.00000E+00
    0.00000E+00         0.00000E+00        -0.50005E+08
 
   -0.50026E+08         0.16224E+05         0.00000E+00
    0.16224E+05        -0.50001E+08         0.00000E+00
    0.00000E+00         0.00000E+00        -0.50005E+08
 
   -0.50026E+08         0.17461E+05         0.00000E+00
    0.17461E+05        -0.50001E+08         0.00000E+00
    0.00000E+00         0.00000E+00        -0.50005E+08
 
   -0.50026E+08         0.18685E+05         0.00000E+00
    0.18685E+05        -0.50001E+08         0.00000E+00
    0.00000E+00         0.00000E+00        -0.50005E+08
 
   -0.50025E+08         0.19894E+05         0.00000E+00
    0.19894E+05        -0.50001E+08         0.00000E+00
    0.00000E+00         0.00000E+00        -0.50005E+08
 
   -0.50025E+08         0.21087E+05         0.00000E+00
    0.21087E+05        -0.50001E+08         0.00000E+00
    0.00000E+00         0.00000E+00        -0.50005E+08
 
   -0.50025E+08         0.22263E+05         0.00000E+00
    0.22263E+05        -0.50002E+08         0.00000E+00
    0.00000E+00         0.00000E+00        -0.50005E+08
 
   -0.50024E+08         0.23421E+05         0.00000E+00
    0.23421E+05        -0.50002E+08         0.00000E+00
    0.00000E+00         0.00000E+00        -0.50005E+08
 
   -0.50024E+08         0.24559E+05         0.00000E+00
    0.24559E+05        -0.50002E+08         0.00000E+00
    0.00000E+00         0.00000E+00        -0.50005E+08
 
   -0.50023E+08         0.25678E+05         0.00000E+00
    0.25678E+05        -0.50002E+08         0.00000E+00
    0.00000E+00         0.00000E+00        -0.50005E+08
 
   -0.50023E+08         0.26777E+05         0.00000E+00
    0.26777E+05        -0.50002E+08         0.00000E+00
    0.00000E+00         0.00000E+00        -0.50005E+08
 
   -0.50023E+08         0.27853E+05         0.00000E+00
    0.27853E+05        -0.50003E+08         0.00000E+00
    0.00000E+00         0.00000E+00        -0.50005E+08
 
   -0.50022E+08         0.28906E+05         0.00000E+00
    0.28906E+05        -0.50003E+08         0.00000E+00
    0.00000E+00         0.00000E+00        -0.50005E+08
 
   -0.50022E+08         0.29936E+05         0.00000E+00
    0.29936E+05        -0.50003E+08         0.00000E+00
    0.00000E+00         0.00000E+00        -0.50005E+08
 
   -0.50021E+08         0.30941E+05         0.00000E+00
    0.30941E+05        -0.50003E+08         0.00000E+00
    0.00000E+00         0.00000E+00        -0.50005E+08
 
   -0.50020E+08         0.31921E+05         0.00000E+00
    0.31921E+05        -0.50004E+08         0.00000E+00
    0.00000E+00         0.00000E+00        -0.50005E+08
 
   -0.50020E+08         0.32874E+05         0.00000E+00
    0.32874E+05        -0.50004E+08         0.00000E+00
    0.00000E+00         0.00000E+00        -0.50005E+08
 
   -0.50019E+08         0.33800E+05         0.00000E+00
    0.33800E+05        -0.50004E+08         0.00000E+00
    0.00000E+00         0.00000E+00        -0.50005E+08
 
   -0.50019E+08         0.34697E+05         0.00000E+00
    0.34697E+05        -0.50005E+08         0.00000E+00
    0.00000E+00         0.00000E+00        -0.50005E+08
 
   -0.50018E+08         0.35566E+05         0.00000E+00
    0.35566E+05        -0.50005E+08         0.00000E+00
    0.00000E+00         0.00000E+00        -0.50005E+08
 
   -0.50017E+08         0.36405E+05         0.00000E+00
    0.36405E+05        -0.50005E+08         0.00000E+00
    0.00000E+00         0.00000E+00        -0.50005E+08
 
   -0.50017E+08         0.37213E+05         0.00000E+00
    0.37213E+05        -0.50005E+08         0.00000E+00
    0.00000E+00         0.00000E+00        -0.50004E+08
 
   -0.50016E+08         0.37989E+05         0.00000E+00
    0.37989E+05        -0.50006E+08         0.00000E+00
    0.00000E+00         0.00000E+00        -0.50004E+08
 
   -0.50015E+08         0.38734E+05         0.00000E+00
    0.38734E+05        -0.50006E+08         0.00000E+00
    0.00000E+00         0.00000E+00        -0.50004E+08
 
   -0.50015E+08         0.39445E+05         0.00000E+00
    0.39445E+05        -0.50006E+08         0.00000E+00
    0.00000E+00         0.00000E+00        -0.50004E+08
 
   -0.50014E+08         0.40123E+05         0.00000E+00
    0.40123E+05        -0.50007E+08         0.00000E+00
    0.00000E+00         0.00000E+00        -0.50004E+08
 
   -0.50013E+08         0.40766E+05         0.00000E+00
    0.40766E+05        -0.50007E+08         0.00000E+00
    0.00000E+00         0.00000E+00        -0.50004E+08
 
   -0.50012E+08         0.41374E+05         0.00000E+00
    0.41374E+05        -0.50008E+08         0.00000E+00
    0.00000E+00         0.00000E+00        -0.50004E+08
 
   -0.50012E+08         0.41947E+05         0.00000E+00
    0.41947E+05        -0.50008E+08         0.00000E+00
    0.00000E+00         0.00000E+00        -0.50004E+08
 
   -0.50011E+08         0.42483E+05         0.00000E+00
    0.42483E+05        -0.50008E+08         0.00000E+00
    0.00000E+00         0.00000E+00        -0.50004E+08
 
   -0.50010E+08         0.42982E+05         0.00000E+00
    0.42982E+05        -0.50009E+08         0.00000E+00
    0.00000E+00         0.00000E+00        -0.50004E+08
 
   -0.50009E+08         0.43443E+05         0.00000E+00
    0.43443E+05        -0.50009E+08         0.00000E+00
    0.00000E+00         0.00000E+00        -0.50004E+08
 
   -0.50009E+08         0.43866E+05         0.00000E+00
    0.43866E+05        -0.50009E+08         0.00000E+00
    0.00000E+00         0.00000E+00        -0.50004E+08
 
   -0.50008E+08         0.44250E+05         0.00000E+00
    0.44250E+05        -0.50010E+08         0.00000E+00
    0.00000E+00         0.00000E+00        -0.50003E+08
 
   -0.50007E+08         0.44595E+05         0.00000E+00
    0.44595E+05        -0.50010E+08         0.00000E+00
    0.00000E+00         0.00000E+00        -0.50003E+08
 
   -0.50006E+08         0.44900E+05         0.00000E+00
    0.44900E+05        -0.50010E+08         0.00000E+00
    0.00000E+00         0.00000E+00        -0.50003E+08
 
   -0.50005E+08         0.45164E+05         0.00000E+00
    0.45164E+05        -0.50011E+08         0.00000E+00
    0.00000E+00         0.00000E+00        -0.50003E+08
 
   -0.50004E+08         0.45388E+05         0.00000E+00
    0.45388E+05        -0.50011E+08         0.00000E+00
    0.00000E+00         0.00000E+00        -0.50003E+08
 
   -0.50003E+08         0.45571E+05         0.00000E+00
    0.45571E+05        -0.50012E+08         0.00000E+00
    0.00000E+00         0.00000E+00        -0.50003E+08
 
   -0.50022E+08         0.63848E+03         0.00000E+00
    0.63848E+03        -0.50000E+08         0.00000E+00
    0.00000E+00         0.00000E+00        -0.50004E+08
 
   -0.50022E+08         0.19147E+04         0.00000E+00
    0.19147E+04        -0.50000E+08         0.00000E+00
    0.00000E+00         0.00000E+00        -0.50004E+08
 
   -0.50022E+08         0.31893E+04         0.00000E+00
    0.31893E+04        -0.50000E+08         0.00000E+00
    0.00000E+00         0.00000E+00        -0.50004E+08
 
   -0.50021E+08         0.44613E+04         0.00000E+00
    0.44613E+04        -0.50000E+08         0.00000E+00
    0.00000E+00         0.00000E+00        -0.50004E+08
 
   -0.50021E+08         0.57297E+04         0.00000E+00
    0.57297E+04        -0.50000E+08         0.00000E+00
    0.00000E+00         0.00000E+00        -0.50004E+08
 
   -0.50021E+08         0.69935E+04         0.00000E+00
    0.69935E+04        -0.50000E+08         0.00000E+00
    0.00000E+00         0.00000E+00        -0.50004E+08
 
   -0.50021E+08         0.82518E+04         0.00000E+00
    0.82518E+04        -0.50000E+08         0.00000E+00
    0.00000E+00         0.00000E+00        -0.50004E+08
 
   -0.50021E+08         0.95034E+04         0.00000E+00
    0.95034E+04        -0.50000E+08         0.00000E+00
    0.00000E+00         0.00000E+00        -0.50004E+08
 
   -0.50021E+08         0.10747E+05         0.00000E+00
    0.10747E+05        -0.50000E+08         0.00000E+00
    0.00000E+00         0.00000E+00        -0.50004E+08
 
   -0.50021E+08         0.11983E+05         0.00000E+00
    0.11983E+05        -0.50000E+08         0.00000E+00
    0.00000E+00         0.00000E+00        -0.50004E+08
 
   -0.50021E+08         0.13209E+05         0.00000E+00
    0.13209E+05        -0.50000E+08         0.00000E+00
    0.00000E+00         0.00000E+00        -0.50004E+08
 
   -0.50020E+08         0.14424E+05         0.00000E+00
    0.14424E+05        -0.50001E+08         0.00000E+00
    0.00000E+00         0.00000E+00        -0.50004E+08
 
   -0.50020E+08         0.15628E+05         0.00000E+00
    0.15628E+05        -0.50001E+08         0.00000E+00
    0.00000E+00         0.00000E+00        -0.50004E+08
 
   -0.50020E+08         0.16819E+05         0.00000E+00
    0.16819E+05        -0.50001E+08         0.00000E+00
    0.00000E+00         0.00000E+00        -0.50004E+08
 
   -0.50020E+08         0.17997E+05         0.00000E+00
    0.17997E+05        -0.50001E+08         0.00000E+00
    0.00000E+00         0.00000E+00        -0.50004E+08
 
   -0.50020E+08         0.19160E+05         0.00000E+00
    0.19160E+05        -0.50001E+08         0.00000E+00
    0.00000E+00         0.00000E+00        -0.50004E+08
 
   -0.50019E+08         0.20308E+05         0.00000E+00
    0.20308E+05        -0.50001E+08         0.00000E+00
    0.00000E+00         0.00000E+00        -0.50004E+08
 
   -0.50019E+08         0.21439E+05         0.00000E+00
    0.21439E+05        -0.50001E+08         0.00000E+00
    0.00000E+00         0.00000E+00        -0.50004E+08
 
   -0.50019E+08         0.22553E+05         0.00000E+00
    0.22553E+05        -0.50001E+08         0.00000E+00
    0.00000E+00         0.00000E+00        -0.50004E+08
 
   -0.50018E+08         0.23648E+05         0.00000E+00
    0.23648E+05        -0.50002E+08         0.00000E+00
    0.00000E+00         0.00000E+00        -0.50004E+08
 
   -0.50018E+08         0.24724E+05         0.00000E+00
    0.24724E+05        -0.50002E+08         0.00000E+00
    0.00000E+00         0.00000E+00        -0.50004E+08
 
   -0.50018E+08         0.25781E+05         0.00000E+00
    0.25781E+05        -0.50002E+08         0.00000E+00
    0.00000E+00         0.00000E+00        -0.50004E+08
 
   -0.50017E+08         0.26816E+05         0.00000E+00
    0.26816E+05        -0.50002E+08         0.00000E+00
    0.00000E+00         0.00000E+00        -0.50004E+08
 
   -0.50017E+08         0.27829E+05         0.00000E+00
    0.27829E+05        -0.50002E+08         0.00000E+00
    0.00000E+00         0.00000E+00        -0.50004E+08
 
   -0.50017E+08         0.28819E+05         0.00000E+00
    0.28819E+05        -0.50002E+08         0.00000E+00
    0.00000E+00         0.00000E+00        -0.50004E+08
 
   -0.50016E+08         0.29785E+05         0.00000E+00
    0.29785E+05        -0.50003E+08         0.00000E+00
    0.00000E+00         0.00000E+00        -0.50004E+08
 
   -0.50016E+08         0.30727E+05         0.00000E+00
    0.30727E+05        -0.50003E+08         0.00000E+00
    0.00000E+00         0.00000E+00        -0.50004E+08
 
   -0.50015E+08         0.31643E+05         0.00000E+00
    0.31643E+05        -0.50003E+08         0.00000E+00
    0.00000E+00         0.00000E+00        -0.50004E+08
 
   -0.50015E+08         0.32533E+05         0.00000E+00
    0.32533E+05        -0.50003E+08         0.00000E+00
    0.00000E+00         0.00000E+00        -0.50004E+08
 
   -0.50014E+08         0.33395E+05         0.00000E+00
    0.33395E+05        -0.50004E+08         0.00000E+00
    0.00000E+00         0.00000E+00        -0.50004E+08
 
   -0.50014E+08         0.34230E+05         0.00000E+00
    0.34230E+05        -0.50004E+08         0.00000E+00
    0.00000E+00         0.00000E+00        -0.50004E+08
 
   -0.50013E+08         0.35036E+05         0.00000E+00
    0.35036E+05        -0.50004E+08         0.00000E+00
    0.00000E+00         0.00000E+00        -0.50003E+08
 
   -0.50013E+08         0.35812E+05         0.00000E+00
    0.35812E+05        -0.50004E+08         0.00000E+00
    0.00000E+00         0.00000E+00        -0.50003E+08
 
   -0.50012E+08         0.36559E+05         0.00000E+00
    0.36559E+05        -0.50004E+08         0.00000E+00
    0.00000E+00         0.00000E+00        -0.50003E+08
 
   -0.50012E+08         0.37274E+05         0.00000E+00
    0.37274E+05        -0.50005E+08         0.00000E+00
    0.00000E+00         0.00000E+00        -0.50003E+08
 
   -0.50011E+08         0.37957E+05         0.00000E+00
    0.37957E+05        -0.50005E+08         0.00000E+00
    0.00000E+00         0.00000E+00        -0.50003E+08
 
   -0.50011E+08         0.38608E+05         0.00000E+00
    0.38608E+05        -0.50005E+08         0.00000E+00
    0.00000E+00         0.00000E+00        -0.50003E+08
 
   -0.50010E+08         0.39226E+05         0.00000E+00
    0.39226E+05        -0.50005E+08         0.00000E+00
    0.00000E+00         0.00000E+00        -0.50003E+08
 
   -0.50010E+08         0.39810E+05         0.00000E+00
    0.39810E+05        -0.50006E+08         0.00000E+00
    0.00000E+00         0.00000E+00        -0.50003E+08
 
   -0.50009E+08         0.40360E+05         0.00000E+00
    0.40360E+05        -0.50006E+08         0.00000E+00
    0.00000E+00         0.00000E+00        -0.50003E+08
 
   -0.50008E+08         0.40874E+05         0.00000E+00
    0.40874E+05        -0.50006E+08         0.00000E+00
    0.00000E+00         0.00000E+00        -0.50003E+08
 
   -0.50008E+08         0.41353E+05         0.00000E+00
    0.41353E+05        -0.50007E+08         0.00000E+00
    0.00000E+00         0.00000E+00        -0.50003E+08
 
   -0.50007E+08         0.41796E+05         0.00000E+00
    0.41796E+05        -0.50007E+08         0.00000E+00
    0.00000E+00         0.00000E+00        -0.50003E+08
 
   -0.50007E+08         0.42202E+05         0.00000E+00
    0.42202E+05        -0.50007E+08         0.00000E+00
    0.00000E+00         0.00000E+00        -0.50003E+08
 
   -0.50006E+08         0.42571E+05         0.00000E+00
    0.42571E+05        -0.50007E+08         0.00000E+00
    0.00000E+00         0.00000E+00        -0.50003E+08
 
   -0.50005E+08         0.42902E+05         0.00000E+00
    0.42902E+05        -0.50008E+08         0.00000E+00
    0.00000E+00         0.00000E+00        -0.50003E+08
 
   -0.50005E+08         0.43194E+05         0.00000E+00
    0.43194E+05        -0.50008E+08         0.00000E+00
    0.00000E+00         0.00000E+00        -0.50003E+08
 
   -0.50004E+08         0.43448E+05         0.00000E+00
    0.43448E+05        -0.50008E+08         0.00000E+00
    0.00000E+00         0.00000E+00        -0.50002E+08
 
   -0.50003E+08         0.43663E+05         0.00000E+00
    0.43663E+05        -0.50009E+08         0.00000E+00
    0.00000E+00         0.00000E+00        -0.50002E+08
 
   -0.50003E+08         0.43838E+05         0.00000E+00
    0.43838E+05        -0.50009E+08         0.00000E+00
    0.00000E+00         0.00000E+00        -0.50002E+08
 
   -0.50015E+08         0.62098E+03         0.00000E+00
    0.62098E+03        -0.50000E+08         0.00000E+00
    0.00000E+00         0.00000E+00        -0.50003E+08
 
   -0.50015E+08         0.18619E+04         0.00000E+00
    0.18619E+04        -0.50000E+08         0.00000E+00
    0.00000E+00         0.00000E+00        -0.50003E+08
 
   -0.50015E+08         0.31011E+04         0.00000E+00
    0.31011E+04        -0.50000E+08         0.00000E+00
    0.00000E+00         0.00000E+00        -0.50003E+08
 
   -0.50015E+08         0.43376E+04         0.00000E+00
    0.43376E+04        -0.50000E+08         0.00000E+00
    0.00000E+00         0.00000E+00        -0.50003E+08
 
   -0.50015E+08         0.55705E+04         0.00000E+00
    0.55705E+04        -0.50000E+08         0.00000E+00
    0.00000E+00         0.00000E+00        -0.50003E+08
 
   -0.50015E+08         0.67988E+04         0.00000E+00
    0.67988E+04        -0.50000E+08         0.00000E+00
    0.00000E+00         0.00000E+00        -0.50003E+08
 
   -0.50015E+08         0.80215E+04         0.00000E+00
    0.80215E+04        -0.50000E+08         0.00000E+00
    0.00000E+00         0.00000E+00        -0.50003E+08
 
   -0.50015E+08         0.92377E+04         0.00000E+00
    0.92377E+04        -0.50000E+08         0.00000E+00
    0.00000E+00         0.00000E+00        -0.50003E+08
 
   -0.50015E+08         0.10446E+05         0.00000E+00
    0.10446E+05        -0.50000E+08         0.00000E+00
    0.00000E+00         0.00000E+00        -0.50003E+08
 
   -0.50015E+08         0.11647E+05         0.00000E+00
    0.11647E+05        -0.50000E+08         0.00000E+00
    0.00000E+00         0.00000E+00        -0.50003E+08
 
   -0.50015E+08         0.12837E+05         0.00000E+00
    0.12837E+05        -0.50000E+08         0.00000E+00
    0.00000E+00         0.00000E+00        -0.50003E+08
 
   -0.50014E+08         0.14018E+05         0.00000E+00
    0.14018E+05        -0.50000E+08         0.00000E+00
    0.00000E+00         0.00000E+00        -0.50003E+08
 
   -0.50014E+08         0.15187E+05         0.00000E+00
    0.15187E+05        -0.50000E+08         0.00000E+00
    0.00000E+00         0.00000E+00        -0.50003E+08
 
   -0.50014E+08         0.16344E+05         0.00000E+00
    0.16344E+05        -0.50001E+08         0.00000E+00
    0.00000E+00         0.00000E+00        -0.50003E+08
 
   -0.50014E+08         0.17487E+05         0.00000E+00
    0.17487E+05        -0.50001E+08         0.00000E+00
    0.00000E+00         0.00000E+00        -0.50003E+08
 
   -0.50014E+08         0.18616E+05         0.00000E+00
    0.18616E+05        -0.50001E+08         0.00000E+00
    0.00000E+00         0.00000E+00        -0.50003E+08
 
   -0.50014E+08         0.19731E+05         0.00000E+00
    0.19731E+05        -0.50001E+08         0.00000E+00
    0.00000E+00         0.00000E+00        -0.50003E+08
 
   -0.50013E+08         0.20829E+05         0.00000E+00
    0.20829E+05        -0.50001E+08         0.00000E+00
    0.00000E+00         0.00000E+00        -0.50003E+08
 
   -0.50013E+08         0.21910E+05         0.00000E+00
    0.21910E+05        -0.50001E+08         0.00000E+00
    0.00000E+00         0.00000E+00        -0.50003E+08
 
   -0.50013E+08         0.22973E+05         0.00000E+00
    0.22973E+05        -0.50001E+08         0.00000E+00
    0.00000E+00         0.00000E+00        -0.50003E+08
 
   -0.50013E+08         0.24018E+05         0.00000E+00
    0.24018E+05        -0.50001E+08         0.00000E+00
    0.00000E+00         0.00000E+00        -0.50003E+08
 
   -0.50013E+08         0.25043E+05         0.00000E+00
    0.25043E+05        -0.50001E+08         0.00000E+00
    0.00000E+00         0.00000E+00        -0.50003E+08
 
   -0.50012E+08         0.26047E+05         0.00000E+00
    0.26047E+05        -0.50001E+08         0.00000E+00
    0.00000E+00         0.00000E+00        -0.50003E+08
 
   -0.50012E+08         0.27030E+05         0.00000E+00
    0.27030E+05        -0.50002E+08         0.00000E+00
    0.00000E+00         0.00000E+00        -0.50003E+08
 
   -0.50012E+08         0.27990E+05         0.00000E+00
    0.27990E+05        -0.50002E+08         0.00000E+00
    0.00000E+00         0.00000E+00        -0.50003E+08
 
   -0.50011E+08         0.28928E+05         0.00000E+00
    0.28928E+05        -0.50002E+08         0.00000E+00
    0.00000E+00         0.00000E+00        -0.50003E+08
 
   -0.50011E+08         0.29841E+05         0.00000E+00
    0.29841E+05        -0.50002E+08         0.00000E+00
    0.00000E+00         0.00000E+00        -0.50003E+08
 
   -0.50011E+08         0.30730E+05         0.00000E+00
    0.30730E+05        -0.50002E+08         0.00000E+00
    0.00000E+00         0.00000E+00        -0.50003E+08
 
   -0.50010E+08         0.31593E+05         0.00000E+00
    0.31593E+05        -0.50002E+08         0.00000E+00
    0.00000E+00         0.00000E+00        -0.50003E+08
 
   -0.50010E+08         0.32430E+05         0.00000E+00
    0.32430E+05        -0.50002E+08         0.00000E+00
    0.00000E+00         0.00000E+00        -0.50003E+08
 
   -0.50010E+08         0.33239E+05         0.00000E+00
    0.33239E+05        -0.50003E+08         0.00000E+00
    0.00000E+00         0.00000E+00        -0.50002E+08
 
   -0.50009E+08         0.34021E+05         0.00000E+00
    0.34021E+05        -0.50003E+08         0.00000E+00
    0.00000E+00         0.00000E+00        -0.50002E+08
 
   -0.50009E+08         0.34774E+05         0.00000E+00
    0.34774E+05        -0.50003E+08         0.00000E+00
    0.00000E+00         0.00000E+00        -0.50002E+08
 
   -0.50009E+08         0.35497E+05         0.00000E+00
    0.35497E+05        -0.50003E+08         0.00000E+00
    0.00000E+00         0.00000E+00        -0.50002E+08
 
   -0.50008E+08         0.36190E+05         0.00000E+00
    0.36190E+05        -0.50003E+08         0.00000E+00
    0.00000E+00         0.00000E+00        -0.50002E+08
 
   -0.50008E+08         0.36853E+05         0.00000E+00
    0.36853E+05        -0.50004E+08         0.00000E+00
    0.00000E+00         0.00000E+00        -0.50002E+08
 
   -0.50008E+08         0.37484E+05         0.00000E+00
    0.37484E+05        -0.50004E+08         0.00000E+00
    0.00000E+00         0.00000E+00        -0.50002E+08
 
   -0.50007E+08         0.38083E+05         0.00000E+00
    0.38083E+05        -0.50004E+08         0.00000E+00
    0.00000E+00         0.00000E+00        -0.50002E+08
 
   -0.50007E+08         0.38649E+05         0.00000E+00
    0.38649E+05        -0.50004E+08         0.00000E+00
    0.00000E+00         0.00000E+00        -0.50002E+08
 
   -0.50006E+08         0.39182E+05         0.00000E+00
    0.39182E+05        -0.50004E+08         0.00000E+00
    0.00000E+00         0.00000E+00        -0.50002E+08
 
   -0.50006E+08         0.39681E+05         0.00000E+00
    0.39681E+05        -0.50004E+08         0.00000E+00
    0.00000E+00         0.00000E+00        -0.50002E+08
 
   -0.50006E+08         0.40145E+05         0.00000E+00
    0.40145E+05        -0.50005E+08         0.00000E+00
    0.00000E+00         0.00000E+00        -0.50002E+08
 
   -0.50005E+08         0.40574E+05         0.00000E+00
    0.40574E+05        -0.50005E+08         0.00000E+00
    0.00000E+00         0.00000E+00        -0.50002E+08
 
   -0.50005E+08         0.40967E+05         0.00000E+00
    0.40967E+05        -0.50005E+08         0.00000E+00
    0.00000E+00         0.00000E+00        -0.50002E+08
 
   -0.50004E+08         0.41324E+05         0.00000E+00
    0.41324E+05        -0.50005E+08         0.00000E+00
    0.00000E+00         0.00000E+00        -0.50002E+08
 
   -0.50004E+08         0.41645E+05         0.00000E+00
    0.41645E+05        -0.50005E+08         0.00000E+00
    0.00000E+00         0.00000E+00        -0.50002E+08
 
   -0.50003E+08         0.41929E+05         0.00000E+00
    0.41929E+05        -0.50006E+08         0.00000E+00
    0.00000E+00         0.00000E+00        -0.50002E+08
 
   -0.50003E+08         0.42175E+05         0.00000E+00
    0.42175E+05        -0.50006E+08         0.00000E+00
    0.00000E+00         0.00000E+00        -0.50002E+08
 
   -0.50002E+08         0.42383E+05         0.00000E+00
    0.42383E+05        -0.50006E+08         0.00000E+00
    0.00000E+00         0.00000E+00        -0.50002E+08
 
   -0.50002E+08         0.42552E+05         0.00000E+00
    0.42552E+05        -0.50006E+08         0.00000E+00
    0.00000E+00         0.00000E+00        -0.50002E+08
 
   -0.50009E+08         0.60947E+03         0.00000E+00
    0.60947E+03        -0.50000E+08         0.00000E+00
    0.00000E+00         0.00000E+00        -0.50002E+08
 
   -0.50009E+08         0.18271E+04         0.00000E+00
    0.18271E+04        -0.50000E+08         0.00000E+00
    0.00000E+00         0.00000E+00        -0.50002E+08
 
   -0.50009E+08         0.30430E+04         0.00000E+00
    0.30430E+04        -0.50000E+08         0.00000E+00
    0.00000E+00         0.00000E+00        -0.50002E+08
 
   -0.50009E+08         0.42561E+04         0.00000E+00
    0.42561E+04        -0.50000E+08         0.00000E+00
    0.00000E+00         0.00000E+00        -0.50002E+08
 
   -0.50009E+08         0.54656E+04         0.00000E+00
    0.54656E+04        -0.50000E+08         0.00000E+00
    0.00000E+00         0.00000E+00        -0.50002E+08
 
   -0.50009E+08         0.66705E+04         0.00000E+00
    0.66705E+04        -0.50000E+08         0.00000E+00
    0.00000E+00         0.00000E+00        -0.50002E+08
 
   -0.50009E+08         0.78698E+04         0.00000E+00
    0.78698E+04        -0.50000E+08         0.00000E+00
    0.00000E+00         0.00000E+00        -0.50002E+08
 
   -0.50009E+08         0.90626E+04         0.00000E+00
    0.90626E+04        -0.50000E+08         0.00000E+00
    0.00000E+00         0.00000E+00        -0.50002E+08
 
   -0.50009E+08         0.10248E+05         0.00000E+00
    0.10248E+05        -0.50000E+08         0.00000E+00
    0.00000E+00         0.00000E+00        -0.50002E+08
 
   -0.50009E+08         0.11425E+05         0.00000E+00
    0.11425E+05        -0.50000E+08         0.00000E+00
    0.00000E+00         0.00000E+00        -0.50002E+08
 
   -0.50009E+08         0.12592E+05         0.00000E+00
    0.12592E+05        -0.50000E+08         0.00000E+00
    0.00000E+00         0.00000E+00        -0.50002E+08
 
   -0.50009E+08         0.13750E+05         0.00000E+00
    0.13750E+05        -0.50000E+08         0.00000E+00
    0.00000E+00         0.00000E+00        -0.50002E+08
 
   -0.50009E+08         0.14896E+05         0.00000E+00
    0.14896E+05        -0.50000E+08         0.00000E+00
    0.00000E+00         0.00000E+00        -0.50002E+08
 
   -0.50008E+08         0.16030E+05         0.00000E+00
    0.16030E+05        -0.50000E+08         0.00000E+00
    0.00000E+00         0.00000E+00        -0.50002E+08
 
   -0.50008E+08         0.17151E+05         0.00000E+00
    0.17151E+05        -0.50000E+08         0.00000E+00
    0.00000E+00         0.00000E+00        -0.50002E+08
 
   -0.50008E+08         0.18258E+05         0.00000E+00
    0.18258E+05        -0.50000E+08         0.00000E+00
    0.00000E+00         0.00000E+00        -0.50002E+08
 
   -0.50008E+08         0.19350E+05         0.00000E+00
    0.19350E+05        -0.50000E+08         0.00000E+00
    0.00000E+00         0.00000E+00        -0.50002E+08
 
   -0.50008E+08         0.20426E+05         0.00000E+00
    0.20426E+05        -0.50001E+08         0.00000E+00
    0.00000E+00         0.00000E+00        -0.50002E+08
 
   -0.50008E+08         0.21485E+05         0.00000E+00
    0.21485E+05        -0.50001E+08         0.00000E+00
    0.00000E+00         0.00000E+00        -0.50002E+08
 
   -0.50008E+08         0.22527E+05         0.00000E+00
    0.22527E+05        -0.50001E+08         0.00000E+00
    0.00000E+00         0.00000E+00        -0.50002E+08
 
   -0.50008E+08         0.23551E+05         0.00000E+00
    0.23551E+05        -0.50001E+08         0.00000E+00
    0.00000E+00         0.00000E+00        -0.50002E+08
 
   -0.50007E+08         0.24555E+05         0.00000E+00
    0.24555E+05        -0.50001E+08         0.00000E+00
    0.00000E+00         0.00000E+00        -0.50002E+08
 
   -0.50007E+08         0.25539E+05         0.00000E+00
    0.25539E+05        -0.50001E+08         0.00000E+00
    0.00000E+00         0.00000E+00        -0.50002E+08
 
   -0.50007E+08         0.26501E+05         0.00000E+00
    0.26501E+05        -0.50001E+08         0.00000E+00
    0.00000E+00         0.00000E+00        -0.50002E+08
 
   -0.50007E+08         0.27442E+05         0.00000E+00
    0.27442E+05        -0.50001E+08         0.00000E+00
    0.00000E+00         0.00000E+00        -0.50002E+08
 
   -0.50007E+08         0.28361E+05         0.00000E+00
    0.28361E+05        -0.50001E+08         0.00000E+00
    0.00000E+00         0.00000E+00        -0.50002E+08
 
   -0.50007E+08         0.29255E+05         0.00000E+00
    0.29255E+05        -0.50001E+08         0.00000E+00
    0.00000E+00         0.00000E+00        -0.50002E+08
 
   -0.50006E+08         0.30126E+05         0.00000E+00
    0.30126E+05        -0.50001E+08         0.00000E+00
    0.00000E+00         0.00000E+00        -0.50002E+08
 
   -0.50006E+08         0.30971E+05         0.00000E+00
    0.30971E+05        -0.50001E+08         0.00000E+00
    0.00000E+00         0.00000E+00        -0.50002E+08
 
   -0.50006E+08         0.31790E+05         0.00000E+00
    0.31790E+05        -0.50001E+08         0.00000E+00
    0.00000E+00         0.00000E+00        -0.50002E+08
 
   -0.50006E+08         0.32583E+05         0.00000E+00
    0.32583E+05        -0.50002E+08         0.00000E+00
    0.00000E+00         0.00000E+00        -0.50001E+08
 
   -0.50006E+08         0.33348E+05         0.00000E+00
    0.33348E+05        -0.50002E+08         0.00000E+00
    0.00000E+00         0.00000E+00        -0.50001E+08
 
   -0.50005E+08         0.34085E+05         0.00000E+00
    0.34085E+05        -0.50002E+08         0.00000E+00
    0.00000E+00         0.00000E+00        -0.50001E+08
 
   -0.50005E+08         0.34794E+05         0.00000E+00
    0.34794E+05        -0.50002E+08         0.00000E+00
    0.00000E+00         0.00000E+00        -0.50001E+08
 
   -0.50005E+08         0.35472E+05         0.00000E+00
    0.35472E+05        -0.50002E+08         0.00000E+00
    0.00000E+00         0.00000E+00        -0.50001E+08
 
   -0.50005E+08         0.36121E+05         0.00000E+00
    0.36121E+05        -0.50002E+08         0.00000E+00
    0.00000E+00         0.00000E+00        -0.50001E+08
 
   -0.50005E+08         0.36739E+05         0.00000E+00
    0.36739E+05        -0.50002E+08         0.00000E+00
    0.00000E+00         0.00000E+00        -0.50001E+08
 
   -0.50004E+08         0.37325E+05         0.00000E+00
    0.37325E+05        -0.50002E+08         0.00000E+00
    0.00000E+00         0.00000E+00        -0.50001E+08
 
   -0.50004E+08         0.37879E+05         0.00000E+00
    0.37879E+05        -0.50002E+08         0.00000E+00
    0.00000E+00         0.00000E+00        -0.50001E+08
 
   -0.50004E+08         0.38400E+05         0.00000E+00
    0.38400E+05        -0.50003E+08         0.00000E+00
    0.00000E+00         0.00000E+00        -0.50001E+08
 
   -0.50004E+08         0.38889E+05         0.00000E+00
    0.38889E+05        -0.50003E+08         0.00000E+00
    0.00000E+00         0.00000E+00        -0.50001E+08
 
   -0.50003E+08         0.39343E+05         0.00000E+00
    0.39343E+05        -0.50003E+08         0.00000E+00
    0.00000E+00         0.00000E+00        -0.50001E+08
 
   -0.50003E+08         0.39763E+05         0.00000E+00
    0.39763E+05        -0.50003E+08         0.00000E+00
    0.00000E+00         0.00000E+00        -0.50001E+08
 
   -0.50003E+08         0.40148E+05         0.00000E+00
    0.40148E+05        -0.50003E+08         0.00000E+00
    0.00000E+00         0.00000E+00        -0.50001E+08
 
   -0.50003E+08         0.40497E+05         0.00000E+00
    0.40497E+05        -0.50003E+08         0.00000E+00
    0.00000E+00         0.00000E+00        -0.50001E+08
 
   -0.50002E+08         0.40811E+05         0.00000E+00
    0.40811E+05        -0.50003E+08         0.00000E+00
    0.00000E+00         0.00000E+00        -0.50001E+08
 
   -0.50002E+08         0.41088E+05         0.00000E+00
    0.41088E+05        -0.50003E+08         0.00000E+00
    0.00000E+00         0.00000E+00        -0.50001E+08
 
   -0.50002E+08         0.41329E+05         0.00000E+00
    0.41329E+05        -0.50004E+08         0.00000E+00
    0.00000E+00         0.00000E+00        -0.50001E+08
 
   -0.50001E+08         0.41532E+05         0.00000E+00
    0.41532E+05        -0.50004E+08         0.00000E+00
    0.00000E+00         0.00000E+00        -0.50001E+08
 
   -0.50001E+08         0.41698E+05         0.00000E+00
    0.41698E+05        -0.50004E+08         0.00000E+00
    0.00000E+00         0.00000E+00        -0.50001E+08
 
   -0.50003E+08         0.60384E+03         0.00000E+00
    0.60384E+03        -0.50000E+08         0.00000E+00
    0.00000E+00         0.00000E+00        -0.50001E+08
 
   -0.50003E+08         0.18101E+04         0.00000E+00
    0.18101E+04        -0.50000E+08         0.00000E+00
    0.00000E+00         0.00000E+00        -0.50001E+08
 
   -0.50003E+08         0.30145E+04         0.00000E+00
    0.30145E+04        -0.50000E+08         0.00000E+00
    0.00000E+00         0.00000E+00        -0.50001E+08
 
   -0.50003E+08         0.42161E+04         0.00000E+00
    0.42161E+04        -0.50000E+08         0.00000E+00
    0.00000E+00         0.00000E+00        -0.50001E+08
 
   -0.50003E+08         0.54140E+04         0.00000E+00
    0.54140E+04        -0.50000E+08         0.00000E+00
    0.00000E+00         0.00000E+00        -0.50001E+08
 
   -0.50003E+08         0.66073E+04         0.00000E+00
    0.66073E+04        -0.50000E+08         0.00000E+00
    0.00000E+00         0.00000E+00        -0.50001E+08
 
   -0.50003E+08         0.77950E+04         0.00000E+00
    0.77950E+04        -0.50000E+08         0.00000E+00
    0.00000E+00         0.00000E+00        -0.50001E+08
 
   -0.50003E+08         0.89762E+04         0.00000E+00
    0.89762E+04        -0.50000E+08         0.00000E+00
    0.00000E+00         0.00000E+00        -0.50001E+08
 
   -0.50003E+08         0.10150E+05         0.00000E+00
    0.10150E+05        -0.50000E+08         0.00000E+00
    0.00000E+00         0.00000E+00        -0.50001E+08
 
   -0.50003E+08         0.11315E+05         0.00000E+00
    0.11315E+05        -0.50000E+08         0.00000E+00
    0.00000E+00         0.00000E+00        -0.50001E+08
 
   -0.50003E+08         0.12471E+05         0.00000E+00
    0.12471E+05        -0.50000E+08         0.00000E+00
    0.00000E+00         0.00000E+00        -0.50001E+08
 
   -0.50003E+08         0.13617E+05         0.00000E+00
    0.13617E+05        -0.50000E+08         0.00000E+00
    0.00000E+00         0.00000E+00        -0.50001E+08
 
   -0.50003E+08         0.14752E+05         0.00000E+00
    0.14752E+05        -0.50000E+08         0.00000E+00
    0.00000E+00         0.00000E+00        -0.50001E+08
 
   -0.50003E+08         0.15874E+05         0.00000E+00
    0.15874E+05        -0.50000E+08         0.00000E+00
    0.00000E+00         0.00000E+00        -0.50001E+08
 
   -0.50003E+08         0.16984E+05         0.00000E+00
    0.16984E+05        -0.50000E+08         0.00000E+00
    0.00000E+00         0.00000E+00        -0.50001E+08
 
   -0.50003E+08         0.18079E+05         0.00000E+00
    0.18079E+05        -0.50000E+08         0.00000E+00
    0.00000E+00         0.00000E+00        -0.50001E+08
 
   -0.50003E+08         0.19160E+05         0.00000E+00
    0.19160E+05        -0.50000E+08         0.00000E+00
    0.00000E+00         0.00000E+00        -0.50001E+08
 
   -0.50003E+08         0.20225E+05         0.00000E+00
    0.20225E+05        -0.50000E+08         0.00000E+00
    0.00000E+00         0.00000E+00        -0.50001E+08
 
   -0.50003E+08         0.21274E+05         0.00000E+00
    0.21274E+05        -0.50000E+08         0.00000E+00
    0.00000E+00         0.00000E+00        -0.50001E+08
 
   -0.50003E+08         0.22305E+05         0.00000E+00
    0.22305E+05        -0.50000E+08         0.00000E+00
    0.00000E+00         0.00000E+00        -0.50001E+08
 
   -0.50003E+08         0.23318E+05         0.00000E+00
    0.23318E+05        -0.50000E+08         0.00000E+00
    0.00000E+00         0.00000E+00        -0.50001E+08
 
   -0.50003E+08         0.24311E+05         0.00000E+00
    0.24311E+05        -0.50000E+08         0.00000E+00
    0.00000E+00         0.00000E+00        -0.50001E+08
 
   -0.50003E+08         0.25285E+05         0.00000E+00
    0.25285E+05        -0.50000E+08         0.00000E+00
    0.00000E+00         0.00000E+00        -0.50001E+08
 
   -0.50002E+08         0.26238E+05         0.00000E+00
    0.26238E+05        -0.50000E+08         0.00000E+00
    0.00000E+00         0.00000E+00        -0.50001E+08
 
   -0.50002E+08         0.27169E+05         0.00000E+00
    0.27169E+05        -0.50000E+08         0.00000E+00
    0.00000E+00         0.00000E+00        -0.50001E+08
 
   -0.50002E+08         0.28077E+05         0.00000E+00
    0.28077E+05        -0.50000E+08         0.00000E+00
    0.00000E+00         0.00000E+00        -0.50001E+08
 
   -0.50002E+08         0.28962E+05         0.00000E+00
    0.28962E+05        -0.50000E+08         0.00000E+00
    0.00000E+00         0.00000E+00        -0.50001E+08
 
   -0.50002E+08         0.29823E+05         0.00000E+00
    0.29823E+05        -0.50000E+08         0.00000E+00
    0.00000E+00         0.00000E+00        -0.50001E+08
 
   -0.50002E+08         0.30659E+05         0.00000E+00
    0.30659E+05        -0.50000E+08         0.00000E+00
    0.00000E+00         0.00000E+00        -0.50001E+08
 
   -0.50002E+08         0.31470E+05         0.00000E+00
    0.31470E+05        -0.50000E+08         0.00000E+00
    0.00000E+00         0.00000E+00        -0.50001E+08
 
   -0.50002E+08         0.32254E+05         0.00000E+00
    0.32254E+05        -0.50001E+08         0.00000E+00
    0.00000E+00         0.00000E+00        -0.50001E+08
 
   -0.50002E+08         0.33011E+05         0.00000E+00
    0.33011E+05        -0.50001E+08         0.00000E+00
    0.00000E+00         0.00000E+00        -0.50001E+08
 
   -0.50002E+08         0.33740E+05         0.00000E+00
    0.33740E+05        -0.50001E+08         0.00000E+00
    0.00000E+00         0.00000E+00        -0.50000E+08
 
   -0.50002E+08         0.34440E+05         0.00000E+00
    0.34440E+05        -0.50001E+08         0.00000E+00
    0.00000E+00         0.00000E+00        -0.50000E+08
 
   -0.50002E+08         0.35111E+05         0.00000E+00
    0.35111E+05        -0.50001E+08         0.00000E+00
    0.00000E+00         0.00000E+00        -0.50000E+08
 
   -0.50002E+08         0.35753E+05         0.00000E+00
    0.35753E+05        -0.50001E+08         0.00000E+00
    0.00000E+00         0.00000E+00        -0.50000E+08
 
   -0.50002E+08         0.36364E+05         0.00000E+00
    0.36364E+05        -0.50001E+08         0.00000E+00
    0.00000E+00         0.00000E+00        -0.50000E+08
 
   -0.50001E+08         0.36943E+05         0.00000E+00
    0.36943E+05        -0.50001E+08         0.00000E+00
    0.00000E+00         0.00000E+00        -0.50000E+08
 
   -0.50001E+08         0.37491E+05         0.00000E+00
    0.37491E+05        -0.50001E+08         0.00000E+00
    0.00000E+00         0.00000E+00        -0.50000E+08
 
   -0.50001E+08         0.38007E+05         0.00000E+00
    0.38007E+05        -0.50001E+08         0.00000E+00
    0.00000E+00         0.00000E+00        -0.50000E+08
 
   -0.50001E+08         0.38489E+05         0.00000E+00
    0.38489E+05        -0.50001E+08         0.00000E+00
    0.00000E+00         0.00000E+00        -0.50000E+08
 
   -0.50001E+08         0.38939E+05         0.00000E+00
    0.38939E+05        -0.50001E+08         0.00000E+00
    0.00000E+00         0.00000E+00        -0.50000E+08
 
   -0.50001E+08         0.39354E+05         0.00000E+00
    0.39354E+05        -0.50001E+08         0.00000E+00
    0.00000E+00         0.00000E+00        -0.50000E+08
 
   -0.50001E+08         0.39734E+05         0.00000E+00
    0.39734E+05        -0.50001E+08         0.00000E+00
    0.00000E+00         0.00000E+00        -0.50000E+08
 
   -0.50001E+08         0.40080E+05         0.00000E+00
    0.40080E+05        -0.50001E+08         0.00000E+00
    0.00000E+00         0.00000E+00        -0.50000E+08
 
   -0.50001E+08         0.40390E+05         0.00000E+00
    0.40390E+05        -0.50001E+08         0.00000E+00
    0.00000E+00         0.00000E+00        -0.50000E+08
 
   -0.50001E+08         0.40664E+05         0.00000E+00
    0.40664E+05        -0.50001E+08         0.00000E+00
    0.00000E+00         0.00000E+00        -0.50000E+08
 
   -0.50001E+08         0.40902E+05         0.00000E+00
    0.40902E+05        -0.50001E+08         0.00000E+00
    0.00000E+00         0.00000E+00        -0.50000E+08
 
   -0.50000E+08         0.41103E+05         0.00000E+00
    0.41103E+05        -0.50001E+08         0.00000E+00
    0.00000E+00         0.00000E+00        -0.50000E+08
 
   -0.50000E+08         0.41267E+05         0.00000E+00
    0.41267E+05        -0.50001E+08         0.00000E+00
    0.00000E+00         0.00000E+00        -0.50000E+08
 
   -0.49997E+08         0.60405E+03         0.00000E+00
    0.60405E+03        -0.50000E+08         0.00000E+00
    0.00000E+00         0.00000E+00        -0.49999E+08
 
   -0.49997E+08         0.18106E+04         0.00000E+00
    0.18106E+04        -0.50000E+08         0.00000E+00
    0.00000E+00         0.00000E+00        -0.49999E+08
 
   -0.49997E+08         0.30152E+04         0.00000E+00
    0.30152E+04        -0.50000E+08         0.00000E+00
    0.00000E+00         0.00000E+00        -0.49999E+08
 
   -0.49997E+08         0.42171E+04         0.00000E+00
    0.42171E+04        -0.50000E+08         0.00000E+00
    0.00000E+00         0.00000E+00        -0.49999E+08
 
   -0.49997E+08         0.54152E+04         0.00000E+00
    0.54152E+04        -0.50000E+08         0.00000E+00
    0.00000E+00         0.00000E+00        -0.49999E+08
 
   -0.49997E+08         0.66086E+04         0.00000E+00
    0.66086E+04        -0.50000E+08         0.00000E+00
    0.00000E+00         0.00000E+00        -0.49999E+08
 
   -0.49997E+08         0.77964E+04         0.00000E+00
    0.77964E+04        -0.50000E+08         0.00000E+00
    0.00000E+00         0.00000E+00        -0.49999E+08
 
   -0.49997E+08         0.89777E+04         0.00000E+00
    0.89777E+04        -0.50000E+08         0.00000E+00
    0.00000E+00         0.00000E+00        -0.49999E+08
 
   -0.49997E+08         0.10151E+05         0.00000E+00
    0.10151E+05        -0.50000E+08         0.00000E+00
    0.00000E+00         0.00000E+00        -0.49999E+08
 
   -0.49997E+08         0.11317E+05         0.00000E+00
    0.11317E+05        -0.50000E+08         0.00000E+00
    0.00000E+00         0.00000E+00        -0.49999E+08
 
   -0.49997E+08         0.12473E+05         0.00000E+00
    0.12473E+05        -0.50000E+08         0.00000E+00
    0.00000E+00         0.00000E+00        -0.49999E+08
 
   -0.49997E+08         0.13618E+05         0.00000E+00
    0.13618E+05        -0.50000E+08         0.00000E+00
    0.00000E+00         0.00000E+00        -0.49999E+08
 
   -0.49997E+08         0.14753E+05         0.00000E+00
    0.14753E+05        -0.50000E+08         0.00000E+00
    0.00000E+00         0.00000E+00        -0.49999E+08
 
   -0.49997E+08         0.15875E+05         0.00000E+00
    0.15875E+05        -0.50000E+08         0.00000E+00
    0.00000E+00         0.00000E+00        -0.49999E+08
 
   -0.49997E+08         0.16985E+05         0.00000E+00
    0.16985E+05        -0.50000E+08         0.00000E+00
    0.00000E+00         0.00000E+00        -0.49999E+08
 
   -0.49997E+08         0.18080E+05         0.00000E+00
    0.18080E+05        -0.50000E+08         0.00000E+00
    0.00000E+00         0.00000E+00        -0.49999E+08
 
   -0.49997E+08         0.19161E+05         0.00000E+00
    0.19161E+05        -0.50000E+08         0.00000E+00
    0.00000E+00         0.00000E+00        -0.49999E+08
 
   -0.49997E+08         0.20225E+05         0.00000E+00
    0.20225E+05        -0.50000E+08         0.00000E+00
    0.00000E+00         0.00000E+00        -0.49999E+08
 
   -0.49997E+08         0.21274E+05         0.00000E+00
    0.21274E+05        -0.50000E+08         0.00000E+00
    0.00000E+00         0.00000E+00        -0.49999E+08
 
   -0.49998E+08         0.22304E+05         0.00000E+00
    0.22304E+05        -0.50000E+08         0.00000E+00
    0.00000E+00         0.00000E+00        -0.49999E+08
 
   -0.49998E+08         0.23317E+05         0.00000E+00
    0.23317E+05        -0.50000E+08         0.00000E+00
    0.00000E+00         0.00000E+00        -0.49999E+08
 
   -0.49998E+08         0.24310E+05         0.00000E+00
    0.24310E+05        -0.50000E+08         0.00000E+00
    0.00000E+00         0.00000E+00        -0.49999E+08
 
   -0.49998E+08         0.25283E+05         0.00000E+00
    0.25283E+05        -0.50000E+08         0.00000E+00
    0.00000E+00         0.00000E+00        -0.49999E+08
 
   -0.49998E+08         0.26235E+05         0.00000E+00
    0.26235E+05        -0.50000E+08         0.00000E+00
    0.00000E+00         0.00000E+00        -0.49999E+08
 
   -0.49998E+08         0.27166E+05         0.00000E+00
    0.27166E+05        -0.50000E+08         0.00000E+00
    0.00000E+00         0.00000E+00        -0.49999E+08
 
   -0.49998E+08         0.28074E+05         0.00000E+00
    0.28074E+05        -0.50000E+08         0.00000E+00
    0.00000E+00         0.00000E+00        -0.49999E+08
 
   -0.49998E+08         0.28958E+05         0.00000E+00
    0.28958E+05        -0.50000E+08         0.00000E+00
    0.00000E+00         0.00000E+00        -0.50000E+08
 
   -0.49998E+08         0.29819E+05         0.00000E+00
    0.29819E+05        -0.50000E+08         0.00000E+00
    0.00000E+00         0.00000E+00        -0.50000E+08
 
   -0.49998E+08         0.30654E+05         0.00000E+00
    0.30654E+05        -0.50000E+08         0.00000E+00
    0.00000E+00         0.00000E+00        -0.50000E+08
 
   -0.49998E+08         0.31464E+05         0.00000E+00
    0.31464E+05        -0.50000E+08         0.00000E+00
    0.00000E+00         0.00000E+00        -0.50000E+08
 
   -0.49998E+08         0.32248E+05         0.00000E+00
    0.32248E+05        -0.49999E+08         0.00000E+00
    0.00000E+00         0.00000E+00        -0.50000E+08
 
   -0.49998E+08         0.33004E+05         0.00000E+00
    0.33004E+05        -0.49999E+08         0.00000E+00
    0.00000E+00         0.00000E+00        -0.50000E+08
 
   -0.49998E+08         0.33733E+05         0.00000E+00
    0.33733E+05        -0.49999E+08         0.00000E+00
    0.00000E+00         0.00000E+00        -0.50000E+08
 
   -0.49998E+08         0.34433E+05         0.00000E+00
    0.34433E+05        -0.49999E+08         0.00000E+00
    0.00000E+00         0.00000E+00        -0.50000E+08
 
   -0.49998E+08         0.35104E+05         0.00000E+00
    0.35104E+05        -0.49999E+08         0.00000E+00
    0.00000E+00         0.00000E+00        -0.50000E+08
 
   -0.49999E+08         0.35745E+05         0.00000E+00
    0.35745E+05        -0.49999E+08         0.00000E+00
    0.00000E+00         0.00000E+00        -0.50000E+08
 
   -0.49999E+08         0.36355E+05         0.00000E+00
    0.36355E+05        -0.49999E+08         0.00000E+00
    0.00000E+00         0.00000E+00        -0.50000E+08
 
   -0.49999E+08         0.36934E+05         0.00000E+00
    0.36934E+05        -0.49999E+08         0.00000E+00
    0.00000E+00         0.00000E+00        -0.50000E+08
 
   -0.49999E+08         0.37482E+05         0.00000E+00
    0.37482E+05        -0.49999E+08         0.00000E+00
    0.00000E+00         0.00000E+00        -0.50000E+08
 
   -0.49999E+08         0.37997E+05         0.00000E+00
    0.37997E+05        -0.49999E+08         0.00000E+00
    0.00000E+00         0.00000E+00        -0.50000E+08
 
   -0.49999E+08         0.38479E+05         0.00000E+00
    0.38479E+05        -0.49999E+08         0.00000E+00
    0.00000E+00         0.00000E+00        -0.50000E+08
 
   -0.49999E+08         0.38928E+05         0.00000E+00
    0.38928E+05        -0.49999E+08         0.00000E+00
    0.00000E+00         0.00000E+00        -0.50000E+08
 
   -0.49999E+08         0.39342E+05         0.00000E+00
    0.39342E+05        -0.49999E+08         0.00000E+00
    0.00000E+00         0.00000E+00        -0.50000E+08
 
   -0.49999E+08         0.39723E+05         0.00000E+00
    0.39723E+05        -0.49999E+08         0.00000E+00
    0.00000E+00         0.00000E+00        -0.50000E+08
 
   -0.49999E+08         0.40068E+05         0.00000E+00
    0.40068E+05        -0.49999E+08         0.00000E+00
    0.00000E+00         0.00000E+00        -0.50000E+08
 
   -0.49999E+08         0.40378E+05         0.00000E+00
    0.40378E+05        -0.49999E+08         0.00000E+00
    0.00000E+00         0.00000E+00        -0.50000E+08
 
   -0.49999E+08         0.40652E+05         0.00000E+00
    0.40652E+05        -0.49999E+08         0.00000E+00
    0.00000E+00         0.00000E+00        -0.50000E+08
 
   -0.49999E+08         0.40889E+05         0.00000E+00
    0.40889E+05        -0.49999E+08         0.00000E+00
    0.00000E+00         0.00000E+00        -0.50000E+08
 
   -0.50000E+08         0.41090E+05         0.00000E+00
    0.41090E+05        -0.49999E+08         0.00000E+00
    0.00000E+00         0.00000E+00        -0.50000E+08
 
   -0.50000E+08         0.41254E+05         0.00000E+00
    0.41254E+05        -0.49999E+08         0.00000E+00
    0.00000E+00         0.00000E+00        -0.50000E+08
 
   -0.49991E+08         0.61010E+03         0.00000E+00
    0.61010E+03        -0.50000E+08         0.00000E+00
    0.00000E+00         0.00000E+00        -0.49998E+08
 
   -0.49991E+08         0.18287E+04         0.00000E+00
    0.18287E+04        -0.50000E+08         0.00000E+00
    0.00000E+00         0.00000E+00        -0.49998E+08
 
   -0.49991E+08         0.30453E+04         0.00000E+00
    0.30453E+04        -0.50000E+08         0.00000E+00
    0.00000E+00         0.00000E+00        -0.49998E+08
 
   -0.49991E+08         0.42592E+04         0.00000E+00
    0.42592E+04        -0.50000E+08         0.00000E+00
    0.00000E+00         0.00000E+00        -0.49998E+08
 
   -0.49991E+08         0.54692E+04         0.00000E+00
    0.54692E+04        -0.50000E+08         0.00000E+00
    0.00000E+00         0.00000E+00        -0.49998E+08
 
   -0.49991E+08         0.66744E+04         0.00000E+00
    0.66744E+04        -0.50000E+08         0.00000E+00
    0.00000E+00         0.00000E+00        -0.49998E+08
 
   -0.49991E+08         0.78740E+04         0.00000E+00
    0.78740E+04        -0.50000E+08         0.00000E+00
    0.00000E+00         0.00000E+00        -0.49998E+08
 
   -0.49991E+08         0.90670E+04         0.00000E+00
    0.90670E+04        -0.50000E+08         0.00000E+00
    0.00000E+00         0.00000E+00        -0.49998E+08
 
   -0.49991E+08         0.10252E+05         0.00000E+00
    0.10252E+05        -0.50000E+08         0.00000E+00
    0.00000E+00         0.00000E+00        -0.49998E+08
 
   -0.49991E+08         0.11429E+05         0.00000E+00
    0.11429E+05        -0.50000E+08         0.00000E+00
    0.00000E+00         0.00000E+00        -0.49998E+08
 
   -0.49991E+08         0.12597E+05         0.00000E+00
    0.12597E+05        -0.50000E+08         0.00000E+00
    0.00000E+00         0.00000E+00        -0.49998E+08
 
   -0.49992E+08         0.13754E+05         0.00000E+00
    0.13754E+05        -0.50000E+08         0.00000E+00
    0.00000E+00         0.00000E+00        -0.49998E+08
 
   -0.49992E+08         0.14899E+05         0.00000E+00
    0.14899E+05        -0.50000E+08         0.00000E+00
    0.00000E+00         0.00000E+00        -0.49998E+08
 
   -0.49992E+08         0.16033E+05         0.00000E+00
    0.16033E+05        -0.50000E+08         0.00000E+00
    0.00000E+00         0.00000E+00        -0.49998E+08
 
   -0.49992E+08         0.17153E+05         0.00000E+00
    0.17153E+05        -0.50000E+08         0.00000E+00
    0.00000E+00         0.00000E+00        -0.49998E+08
 
   -0.49992E+08         0.18259E+05         0.00000E+00
    0.18259E+05        -0.50000E+08         0.00000E+00
    0.00000E+00         0.00000E+00        -0.49998E+08
 
   -0.49992E+08         0.19350E+05         0.00000E+00
    0.19350E+05        -0.50000E+08         0.00000E+00
    0.00000E+00         0.00000E+00        -0.49998E+08
 
   -0.49992E+08         0.20425E+05         0.00000E+00
    0.20425E+05        -0.49999E+08         0.00000E+00
    0.00000E+00         0.00000E+00        -0.49998E+08
 
   -0.49992E+08         0.21484E+05         0.00000E+00
    0.21484E+05        -0.49999E+08         0.00000E+00
    0.00000E+00         0.00000E+00        -0.49998E+08
 
   -0.49992E+08         0.22525E+05         0.00000E+00
    0.22525E+05        -0.49999E+08         0.00000E+00
    0.00000E+00         0.00000E+00        -0.49998E+08
 
   -0.49993E+08         0.23547E+05         0.00000E+00
    0.23547E+05        -0.49999E+08         0.00000E+00
    0.00000E+00         0.00000E+00        -0.49998E+08
 
   -0.49993E+08         0.24550E+05         0.00000E+00
    0.24550E+05        -0.49999E+08         0.00000E+00
    0.00000E+00         0.00000E+00        -0.49998E+08
 
   -0.49993E+08         0.25533E+05         0.00000E+00
    0.25533E+05        -0.49999E+08         0.00000E+00
    0.00000E+00         0.00000E+00        -0.49998E+08
 
   -0.49993E+08         0.26494E+05         0.00000E+00
    0.26494E+05        -0.49999E+08         0.00000E+00
    0.00000E+00         0.00000E+00        -0.49998E+08
 
   -0.49993E+08         0.27434E+05         0.00000E+00
    0.27434E+05        -0.49999E+08         0.00000E+00
    0.00000E+00         0.00000E+00        -0.49998E+08
 
   -0.49993E+08         0.28350E+05         0.00000E+00
    0.28350E+05        -0.49999E+08         0.00000E+00
    0.00000E+00         0.00000E+00        -0.49998E+08
 
   -0.49994E+08         0.29244E+05         0.00000E+00
    0.29244E+05        -0.49999E+08         0.00000E+00
    0.00000E+00         0.00000E+00        -0.49998E+08
 
   -0.49994E+08         0.30113E+05         0.00000E+00
    0.30113E+05        -0.49999E+08         0.00000E+00
    0.00000E+00         0.00000E+00        -0.49998E+08
 
   -0.49994E+08         0.30956E+05         0.00000E+00
    0.30956E+05        -0.49999E+08         0.00000E+00
    0.00000E+00         0.00000E+00        -0.49999E+08
 
   -0.49994E+08         0.31774E+05         0.00000E+00
    0.31774E+05        -0.49999E+08         0.00000E+00
    0.00000E+00         0.00000E+00        -0.49999E+08
 
   -0.49994E+08         0.32565E+05         0.00000E+00
    0.32565E+05        -0.49998E+08         0.00000E+00
    0.00000E+00         0.00000E+00        -0.49999E+08
 
   -0.49995E+08         0.33329E+05         0.00000E+00
    0.33329E+05        -0.49998E+08         0.00000E+00
    0.00000E+00         0.00000E+00        -0.49999E+08
 
   -0.49995E+08         0.34065E+05         0.00000E+00
    0.34065E+05        -0.49998E+08         0.00000E+00
    0.00000E+00         0.00000E+00        -0.49999E+08
 
   -0.49995E+08         0.34771E+05         0.00000E+00
    0.34771E+05        -0.49998E+08         0.00000E+00
    0.00000E+00         0.00000E+00        -0.49999E+08
 
   -0.49995E+08         0.35449E+05         0.00000E+00
    0.35449E+05        -0.49998E+08         0.00000E+00
    0.00000E+00         0.00000E+00        -0.49999E+08
 
   -0.49995E+08         0.36096E+05         0.00000E+00
    0.36096E+05        -0.49998E+08         0.00000E+00
    0.00000E+00         0.00000E+00        -0.49999E+08
 
   -0.49996E+08         0.36712E+05         0.00000E+00
    0.36712E+05        -0.49998E+08         0.00000E+00
    0.00000E+00         0.00000E+00        -0.49999E+08
 
   -0.49996E+08         0.37297E+05         0.00000E+00
    0.37297E+05        -0.49998E+08         0.00000E+00
    0.00000E+00         0.00000E+00        -0.49999E+08
 
   -0.49996E+08         0.37850E+05         0.00000E+00
    0.37850E+05        -0.49998E+08         0.00000E+00
    0.00000E+00         0.00000E+00        -0.49999E+08
 
   -0.49996E+08         0.38370E+05         0.00000E+00
    0.38370E+05        -0.49997E+08         0.00000E+00
    0.00000E+00         0.00000E+00        -0.49999E+08
 
   -0.49997E+08         0.38857E+05         0.00000E+00
    0.38857E+05        -0.49997E+08         0.00000E+00
    0.00000E+00         0.00000E+00        -0.49999E+08
 
   -0.49997E+08         0.39310E+05         0.00000E+00
    0.39310E+05        -0.49997E+08         0.00000E+00
    0.00000E+00         0.00000E+00        -0.49999E+08
 
   -0.49997E+08         0.39728E+05         0.00000E+00
    0.39728E+05        -0.49997E+08         0.00000E+00
    0.00000E+00         0.00000E+00        -0.49999E+08
 
   -0.49997E+08         0.40112E+05         0.00000E+00
    0.40112E+05        -0.49997E+08         0.00000E+00
    0.00000E+00         0.00000E+00        -0.49999E+08
 
   -0.49998E+08         0.40461E+05         0.00000E+00
    0.40461E+05        -0.49997E+08         0.00000E+00
    0.00000E+00         0.00000E+00        -0.49999E+08
 
   -0.49998E+08         0.40774E+05         0.00000E+00
    0.40774E+05        -0.49997E+08         0.00000E+00
    0.00000E+00         0.00000E+00        -0.49999E+08
 
   -0.49998E+08         0.41050E+05         0.00000E+00
    0.41050E+05        -0.49997E+08         0.00000E+00
    0.00000E+00         0.00000E+00        -0.49999E+08
 
   -0.49998E+08         0.41290E+05         0.00000E+00
    0.41290E+05        -0.49997E+08         0.00000E+00
    0.00000E+00         0.00000E+00        -0.49999E+08
 
   -0.49999E+08         0.41493E+05         0.00000E+00
    0.41493E+05        -0.49996E+08         0.00000E+00
    0.00000E+00         0.00000E+00        -0.49999E+08
 
   -0.49999E+08         0.41659E+05         0.00000E+00
    0.41659E+05        -0.49996E+08         0.00000E+00
    0.00000E+00         0.00000E+00        -0.49999E+08
 
   -0.49985E+08         0.62204E+03         0.00000E+00
    0.62204E+03        -0.50000E+08         0.00000E+00
    0.00000E+00         0.00000E+00        -0.49997E+08
 
   -0.49985E+08         0.18645E+04         0.00000E+00
    0.18645E+04        -0.50000E+08         0.00000E+00
    0.00000E+00         0.00000E+00        -0.49997E+08
 
   -0.49985E+08         0.31050E+04         0.00000E+00
    0.31050E+04        -0.50000E+08         0.00000E+00
    0.00000E+00         0.00000E+00        -0.49997E+08
 
   -0.49985E+08         0.43427E+04         0.00000E+00
    0.43427E+04        -0.50000E+08         0.00000E+00
    0.00000E+00         0.00000E+00        -0.49997E+08
 
   -0.49985E+08         0.55764E+04         0.00000E+00
    0.55764E+04        -0.50000E+08         0.00000E+00
    0.00000E+00         0.00000E+00        -0.49997E+08
 
   -0.49985E+08         0.68054E+04         0.00000E+00
    0.68054E+04        -0.50000E+08         0.00000E+00
    0.00000E+00         0.00000E+00        -0.49997E+08
 
   -0.49985E+08         0.80285E+04         0.00000E+00
    0.80285E+04        -0.50000E+08         0.00000E+00
    0.00000E+00         0.00000E+00        -0.49997E+08
 
   -0.49985E+08         0.92449E+04         0.00000E+00
    0.92449E+04        -0.50000E+08         0.00000E+00
    0.00000E+00         0.00000E+00        -0.49997E+08
 
   -0.49985E+08         0.10454E+05         0.00000E+00
    0.10454E+05        -0.50000E+08         0.00000E+00
    0.00000E+00         0.00000E+00        -0.49997E+08
 
   -0.49985E+08         0.11654E+05         0.00000E+00
    0.11654E+05        -0.50000E+08         0.00000E+00
    0.00000E+00         0.00000E+00        -0.49997E+08
 
   -0.49986E+08         0.12844E+05         0.00000E+00
    0.12844E+05        -0.50000E+08         0.00000E+00
    0.00000E+00         0.00000E+00        -0.49997E+08
 
   -0.49986E+08         0.14024E+05         0.00000E+00
    0.14024E+05        -0.50000E+08         0.00000E+00
    0.00000E+00         0.00000E+00        -0.49997E+08
 
   -0.49986E+08         0.15192E+05         0.00000E+00
    0.15192E+05        -0.50000E+08         0.00000E+00
    0.00000E+00         0.00000E+00        -0.49997E+08
 
   -0.49986E+08         0.16348E+05         0.00000E+00
    0.16348E+05        -0.49999E+08         0.00000E+00
    0.00000E+00         0.00000E+00        -0.49997E+08
 
   -0.49986E+08         0.17490E+05         0.00000E+00
    0.17490E+05        -0.49999E+08         0.00000E+00
    0.00000E+00         0.00000E+00        -0.49997E+08
 
   -0.49986E+08         0.18618E+05         0.00000E+00
    0.18618E+05        -0.49999E+08         0.00000E+00
    0.00000E+00         0.00000E+00        -0.49997E+08
 
   -0.49987E+08         0.19731E+05         0.00000E+00
    0.19731E+05        -0.49999E+08         0.00000E+00
    0.00000E+00         0.00000E+00        -0.49997E+08
 
   -0.49987E+08         0.20828E+05         0.00000E+00
    0.20828E+05        -0.49999E+08         0.00000E+00
    0.00000E+00         0.00000E+00        -0.49997E+08
 
   -0.49987E+08         0.21907E+05         0.00000E+00
    0.21907E+05        -0.49999E+08         0.00000E+00
    0.00000E+00         0.00000E+00        -0.49997E+08
 
   -0.49987E+08         0.22969E+05         0.00000E+00
    0.22969E+05        -0.49999E+08         0.00000E+00
    0.00000E+00         0.00000E+00        -0.49997E+08
 
   -0.49987E+08         0.24011E+05         0.00000E+00
    0.24011E+05        -0.49999E+08         0.00000E+00
    0.00000E+00         0.00000E+00        -0.49997E+08
 
   -0.49988E+08         0.25034E+05         0.00000E+00
    0.25034E+05        -0.49999E+08         0.00000E+00
    0.00000E+00         0.00000E+00        -0.49997E+08
 
   -0.49988E+08         0.26036E+05         0.00000E+00
    0.26036E+05        -0.49999E+08         0.00000E+00
    0.00000E+00         0.00000E+00        -0.49997E+08
 
   -0.49988E+08         0.27017E+05         0.00000E+00
    0.27017E+05        -0.49998E+08         0.00000E+00
    0.00000E+00         0.00000E+00        -0.49997E+08
 
   -0.49988E+08         0.27975E+05         0.00000E+00
    0.27975E+05        -0.49998E+08         0.00000E+00
    0.00000E+00         0.00000E+00        -0.49997E+08
 
   -0.49989E+08         0.28910E+05         0.00000E+00
    0.28910E+05        -0.49998E+08         0.00000E+00
    0.00000E+00         0.00000E+00        -0.49997E+08
 
   -0.49989E+08         0.29821E+05         0.00000E+00
    0.29821E+05        -0.49998E+08         0.00000E+00
    0.00000E+00         0.00000E+00        -0.49997E+08
 
   -0.49989E+08         0.30707E+05         0.00000E+00
    0.30707E+05        -0.49998E+08         0.00000E+00
    0.00000E+00         0.00000E+00        -0.49997E+08
 
   -0.49990E+08         0.31568E+05         0.00000E+00
    0.31568E+05        -0.49998E+08         0.00000E+00
    0.00000E+00         0.00000E+00        -0.49997E+08
 
   -0.49990E+08         0.32402E+05         0.00000E+00
    0.32402E+05        -0.49998E+08         0.00000E+00
    0.00000E+00         0.00000E+00        -0.49998E+08
 
   -0.49990E+08         0.33209E+05         0.00000E+00
    0.33209E+05        -0.49997E+08         0.00000E+00
    0.00000E+00         0.00000E+00        -0.49998E+08
 
   -0.49991E+08         0.33988E+05         0.00000E+00
    0.33988E+05        -0.49997E+08         0.00000E+00
    0.00000E+00         0.00000E+00        -0.49998E+08
 
   -0.49991E+08         0.34738E+05         0.00000E+00
    0.34738E+05        -0.49997E+08         0.00000E+00
    0.00000E+00         0.00000E+00        -0.49998E+08
 
   -0.49991E+08         0.35459E+05         0.00000E+00
    0.35459E+05        -0.49997E+08         0.00000E+00
    0.00000E+00         0.00000E+00        -0.49998E+08
 
   -0.49992E+08         0.36150E+05         0.00000E+00
    0.36150E+05        -0.49997E+08         0.00000E+00
    0.00000E+00         0.00000E+00        -0.49998E+08
 
   -0.49992E+08         0.36810E+05         0.00000E+00
    0.36810E+05        -0.49997E+08         0.00000E+00
    0.00000E+00         0.00000E+00        -0.49998E+08
 
   -0.49993E+08         0.37439E+05         0.00000E+00
    0.37439E+05        -0.49996E+08         0.00000E+00
    0.00000E+00         0.00000E+00        -0.49998E+08
 
   -0.49993E+08         0.38035E+05         0.00000E+00
    0.38035E+05        -0.49996E+08         0.00000E+00
    0.00000E+00         0.00000E+00        -0.49998E+08
 
   -0.49993E+08         0.38599E+05         0.00000E+00
    0.38599E+05        -0.49996E+08         0.00000E+00
    0.00000E+00         0.00000E+00        -0.49998E+08
 
   -0.49994E+08         0.39129E+05         0.00000E+00
    0.39129E+05        -0.49996E+08         0.00000E+00
    0.00000E+00         0.00000E+00        -0.49998E+08
 
   -0.49994E+08         0.39626E+05         0.00000E+00
    0.39626E+05        -0.49996E+08         0.00000E+00
    0.00000E+00         0.00000E+00        -0.49998E+08
 
   -0.49995E+08         0.40088E+05         0.00000E+00
    0.40088E+05        -0.49995E+08         0.00000E+00
    0.00000E+00         0.00000E+00        -0.49998E+08
 
   -0.49995E+08         0.40515E+05         0.00000E+00
    0.40515E+05        -0.49995E+08         0.00000E+00
    0.00000E+00         0.00000E+00        -0.49998E+08
 
   -0.49995E+08         0.40907E+05         0.00000E+00
    0.40907E+05        -0.49995E+08         0.00000E+00
    0.00000E+00         0.00000E+00        -0.49998E+08
 
   -0.49996E+08         0.41262E+05         0.00000E+00
    0.41262E+05        -0.49995E+08         0.00000E+00
    0.00000E+00         0.00000E+00        -0.49998E+08
 
   -0.49996E+08         0.41582E+05         0.00000E+00
    0.41582E+05        -0.49995E+08         0.00000E+00
    0.00000E+00         0.00000E+00        -0.49998E+08
 
   -0.49997E+08         0.41864E+05         0.00000E+00
    0.41864E+05        -0.49994E+08         0.00000E+00
    0.00000E+00         0.00000E+00        -0.49998E+08
 
   -0.49997E+08         0.42108E+05         0.00000E+00
    0.42108E+05        -0.49994E+08         0.00000E+00
    0.00000E+00         0.00000E+00        -0.49998E+08
 
   -0.49998E+08         0.42315E+05         0.00000E+00
    0.42315E+05        -0.49994E+08         0.00000E+00
    0.00000E+00         0.00000E+00        -0.49998E+08
 
   -0.49998E+08         0.42484E+05         0.00000E+00
    0.42484E+05        -0.49994E+08         0.00000E+00
    0.00000E+00         0.00000E+00        -0.49998E+08
 
   -0.49979E+08         0.63999E+03         0.00000E+00
    0.63999E+03        -0.50000E+08         0.00000E+00
    0.00000E+00         0.00000E+00        -0.49996E+08
 
   -0.49979E+08         0.19184E+04         0.00000E+00
    0.19184E+04        -0.50000E+08         0.00000E+00
    0.00000E+00         0.00000E+00        -0.49996E+08
 
   -0.49979E+08         0.31949E+04         0.00000E+00
    0.31949E+04        -0.50000E+08         0.00000E+00
    0.00000E+00         0.00000E+00        -0.49996E+08
 
   -0.49979E+08         0.44684E+04         0.00000E+00
    0.44684E+04        -0.50000E+08         0.00000E+00
    0.00000E+00         0.00000E+00        -0.49996E+08
 
   -0.49979E+08         0.57380E+04         0.00000E+00
    0.57380E+04        -0.50000E+08         0.00000E+00
    0.00000E+00         0.00000E+00        -0.49996E+08
 
   -0.49979E+08         0.70027E+04         0.00000E+00
    0.70027E+04        -0.50000E+08         0.00000E+00
    0.00000E+00         0.00000E+00        -0.49996E+08
 
   -0.49979E+08         0.82614E+04         0.00000E+00
    0.82614E+04        -0.50000E+08         0.00000E+00
    0.00000E+00         0.00000E+00        -0.49996E+08
 
   -0.49979E+08         0.95133E+04         0.00000E+00
    0.95133E+04        -0.50000E+08         0.00000E+00
    0.00000E+00         0.00000E+00        -0.49996E+08
 
   -0.49979E+08         0.10757E+05         0.00000E+00
    0.10757E+05        -0.50000E+08         0.00000E+00
    0.00000E+00         0.00000E+00        -0.49996E+08
 
   -0.49979E+08         0.11992E+05         0.00000E+00
    0.11992E+05        -0.50000E+08         0.00000E+00
    0.00000E+00         0.00000E+00        -0.49996E+08
 
   -0.49980E+08         0.13218E+05         0.00000E+00
    0.13218E+05        -0.50000E+08         0.00000E+00
    0.00000E+00         0.00000E+00        -0.49996E+08
 
   -0.49980E+08         0.14432E+05         0.00000E+00
    0.14432E+05        -0.49999E+08         0.00000E+00
    0.00000E+00         0.00000E+00        -0.49996E+08
 
   -0.49980E+08         0.15634E+05         0.00000E+00
    0.15634E+05        -0.49999E+08         0.00000E+00
    0.00000E+00         0.00000E+00        -0.49996E+08
 
   -0.49980E+08         0.16824E+05         0.00000E+00
    0.16824E+05        -0.49999E+08         0.00000E+00
    0.00000E+00         0.00000E+00        -0.49996E+08
 
   -0.49980E+08         0.18000E+05         0.00000E+00
    0.18000E+05        -0.49999E+08         0.00000E+00
    0.00000E+00         0.00000E+00        -0.49996E+08
 
   -0.49981E+08         0.19161E+05         0.00000E+00
    0.19161E+05        -0.49999E+08         0.00000E+00
    0.00000E+00         0.00000E+00        -0.49996E+08
 
   -0.49981E+08         0.20307E+05         0.00000E+00
    0.20307E+05        -0.49999E+08         0.00000E+00
    0.00000E+00         0.00000E+00        -0.49996E+08
 
   -0.49981E+08         0.21436E+05         0.00000E+00
    0.21436E+05        -0.49999E+08         0.00000E+00
    0.00000E+00         0.00000E+00        -0.49996E+08
 
   -0.49982E+08         0.22547E+05         0.00000E+00
    0.22547E+05        -0.49999E+08         0.00000E+00
    0.00000E+00         0.00000E+00        -0.49996E+08
 
   -0.49982E+08         0.23640E+05         0.00000E+00
    0.23640E+05        -0.49998E+08         0.00000E+00
    0.00000E+00         0.00000E+00        -0.49996E+08
 
   -0.49982E+08         0.24713E+05         0.00000E+00
    0.24713E+05        -0.49998E+08         0.00000E+00
    0.00000E+00         0.00000E+00        -0.49996E+08
 
   -0.49983E+08         0.25767E+05         0.00000E+00
    0.25767E+05        -0.49998E+08         0.00000E+00
    0.00000E+00         0.00000E+00        -0.49996E+08
 
   -0.49983E+08         0.26798E+05         0.00000E+00
    0.26798E+05        -0.49998E+08         0.00000E+00
    0.00000E+00         0.00000E+00        -0.49996E+08
 
   -0.49983E+08         0.27808E+05         0.00000E+00
    0.27808E+05        -0.49998E+08         0.00000E+00
    0.00000E+00         0.00000E+00        -0.49996E+08
 
   -0.49984E+08         0.28795E+05         0.00000E+00
    0.28795E+05        -0.49998E+08         0.00000E+00
    0.00000E+00         0.00000E+00        -0.49996E+08
 
   -0.49984E+08         0.29758E+05         0.00000E+00
    0.29758E+05        -0.49997E+08         0.00000E+00
    0.00000E+00         0.00000E+00        -0.49996E+08
 
   -0.49985E+08         0.30696E+05         0.00000E+00
    0.30696E+05        -0.49997E+08         0.00000E+00
    0.00000E+00         0.00000E+00        -0.49996E+08
 
   -0.49985E+08         0.31609E+05         0.00000E+00
    0.31609E+05        -0.49997E+08         0.00000E+00
    0.00000E+00         0.00000E+00        -0.49996E+08
 
   -0.49985E+08         0.32495E+05         0.00000E+00
    0.32495E+05        -0.49997E+08         0.00000E+00
    0.00000E+00         0.00000E+00        -0.49996E+08
 
   -0.49986E+08         0.33354E+05         0.00000E+00
    0.33354E+05        -0.49997E+08         0.00000E+00
    0.00000E+00         0.00000E+00        -0.49996E+08
 
   -0.49986E+08         0.34185E+05         0.00000E+00
    0.34185E+05        -0.49996E+08         0.00000E+00
    0.00000E+00         0.00000E+00        -0.49997E+08
 
   -0.49987E+08         0.34987E+05         0.00000E+00
    0.34987E+05        -0.49996E+08         0.00000E+00
    0.00000E+00         0.00000E+00        -0.49997E+08
 
   -0.49987E+08         0.35760E+05         0.00000E+00
    0.35760E+05        -0.49996E+08         0.00000E+00
    0.00000E+00         0.00000E+00        -0.49997E+08
 
   -0.49988E+08         0.36503E+05         0.00000E+00
    0.36503E+05        -0.49996E+08         0.00000E+00
    0.00000E+00         0.00000E+00        -0.49997E+08
 
   -0.49988E+08         0.37214E+05         0.00000E+00
    0.37214E+05        -0.49995E+08         0.00000E+00
    0.00000E+00         0.00000E+00        -0.49997E+08
 
   -0.49989E+08         0.37894E+05         0.00000E+00
    0.37894E+05        -0.49995E+08         0.00000E+00
    0.00000E+00         0.00000E+00        -0.49997E+08
 
   -0.49989E+08         0.38542E+05         0.00000E+00
    0.38542E+05        -0.49995E+08         0.00000E+00
    0.00000E+00         0.00000E+00        -0.49997E+08
 
   -0.49990E+08         0.39156E+05         0.00000E+00
    0.39156E+05        -0.49995E+08         0.00000E+00
    0.00000E+00         0.00000E+00        -0.49997E+08
 
   -0.49991E+08         0.39737E+05         0.00000E+00
    0.39737E+05        -0.49994E+08         0.00000E+00
    0.00000E+00         0.00000E+00        -0.49997E+08
 
   -0.49991E+08         0.40284E+05         0.00000E+00
    0.40284E+05        -0.49994E+08         0.00000E+00
    0.00000E+00         0.00000E+00        -0.49997E+08
 
   -0.49992E+08         0.40795E+05         0.00000E+00
    0.40795E+05        -0.49994E+08         0.00000E+00
    0.00000E+00         0.00000E+00        -0.49997E+08
 
   -0.49992E+08         0.41271E+05         0.00000E+00
    0.41271E+05        -0.49993E+08         0.00000E+00
    0.00000E+00         0.00000E+00        -0.49997E+08
 
   -0.49993E+08         0.41711E+05         0.00000E+00
    0.41711E+05        -0.49993E+08         0.00000E+00
    0.00000E+00         0.00000E+00        -0.49997E+08
 
   -0.49994E+08         0.42115E+05         0.00000E+00
    0.42115E+05        -0.49993E+08         0.00000E+00
    0.00000E+00         0.00000E+00        -0.49997E+08
 
   -0.49994E+08         0.42481E+05         0.00000E+00
    0.42481E+05        -0.49993E+08         0.00000E+00
    0.00000E+00         0.00000E+00        -0.49997E+08
 
   -0.49995E+08         0.42810E+05         0.00000E+00
    0.42810E+05        -0.49992E+08         0.00000E+00
    0.00000E+00         0.00000E+00        -0.49997E+08
 
   -0.49995E+08         0.43101E+05         0.00000E+00
    0.43101E+05        -0.49992E+08         0.00000E+00
    0.00000E+00         0.00000E+00        -0.49998E+08
 
   -0.49996E+08         0.43353E+05         0.00000E+00
    0.43353E+05        -0.49992E+08         0.00000E+00
    0.00000E+00         0.00000E+00        -0.49998E+08
 
   -0.49997E+08         0.43566E+05         0.00000E+00
    0.43566E+05        -0.49991E+08         0.00000E+00
    0.00000E+00         0.00000E+00        -0.49998E+08
 
   -0.49997E+08         0.43740E+05         0.00000E+00
    0.43740E+05        -0.49991E+08         0.00000E+00
    0.00000E+00         0.00000E+00        -0.49998E+08
 
   -0.49972E+08         0.66411E+03         0.00000E+00
    0.66411E+03        -0.50000E+08         0.00000E+00
    0.00000E+00         0.00000E+00        -0.49994E+08
 
   -0.49972E+08         0.19909E+04         0.00000E+00
    0.19909E+04        -0.50000E+08         0.00000E+00
    0.00000E+00         0.00000E+00        -0.49994E+08
 
   -0.49972E+08         0.33157E+04         0.00000E+00
    0.33157E+04        -0.50000E+08         0.00000E+00
    0.00000E+00         0.00000E+00        -0.49994E+08
 
   -0.49972E+08         0.46375E+04         0.00000E+00
    0.46375E+04        -0.50000E+08         0.00000E+00
    0.00000E+00         0.00000E+00        -0.49994E+08
 
   -0.49972E+08         0.59554E+04         0.00000E+00
    0.59554E+04        -0.50000E+08         0.00000E+00
    0.00000E+00         0.00000E+00        -0.49994E+08
 
   -0.49972E+08         0.72682E+04         0.00000E+00
    0.72682E+04        -0.50000E+08         0.00000E+00
    0.00000E+00         0.00000E+00        -0.49994E+08
 
   -0.49973E+08         0.85749E+04         0.00000E+00
    0.85749E+04        -0.50000E+08         0.00000E+00
    0.00000E+00         0.00000E+00        -0.49994E+08
 
   -0.49973E+08         0.98746E+04         0.00000E+00
    0.98746E+04        -0.50000E+08         0.00000E+00
    0.00000E+00         0.00000E+00        -0.49994E+08
 
   -0.49973E+08         0.11166E+05         0.00000E+00
    0.11166E+05        -0.50000E+08         0.00000E+00
    0.00000E+00         0.00000E+00        -0.49995E+08
 
   -0.49973E+08         0.12448E+05         0.00000E+00
    0.12448E+05        -0.50000E+08         0.00000E+00
    0.00000E+00         0.00000E+00        -0.49995E+08
 
   -0.49973E+08         0.13721E+05         0.00000E+00
    0.13721E+05        -0.49999E+08         0.00000E+00
    0.00000E+00         0.00000E+00        -0.49995E+08
 
   -0.49974E+08         0.14982E+05         0.00000E+00
    0.14982E+05        -0.49999E+08         0.00000E+00
    0.00000E+00         0.00000E+00        -0.49995E+08
 
   -0.49974E+08         0.16230E+05         0.00000E+00
    0.16230E+05        -0.49999E+08         0.00000E+00
    0.00000E+00         0.00000E+00        -0.49995E+08
 
   -0.49974E+08         0.17466E+05         0.00000E+00
    0.17466E+05        -0.49999E+08         0.00000E+00
    0.00000E+00         0.00000E+00        -0.49995E+08
 
   -0.49974E+08         0.18687E+05         0.00000E+00
    0.18687E+05        -0.49999E+08         0.00000E+00
    0.00000E+00         0.00000E+00        -0.49995E+08
 
   -0.49975E+08         0.19894E+05         0.00000E+00
    0.19894E+05        -0.49999E+08         0.00000E+00
    0.00000E+00         0.00000E+00        -0.49995E+08
 
   -0.49975E+08         0.21083E+05         0.00000E+00
    0.21083E+05        -0.49999E+08         0.00000E+00
    0.00000E+00         0.00000E+00        -0.49995E+08
 
   -0.49976E+08         0.22256E+05         0.00000E+00
    0.22256E+05        -0.49998E+08         0.00000E+00
    0.00000E+00         0.00000E+00        -0.49995E+08
 
   -0.49976E+08         0.23411E+05         0.00000E+00
    0.23411E+05        -0.49998E+08         0.00000E+00
    0.00000E+00         0.00000E+00        -0.49995E+08
 
   -0.49976E+08         0.24546E+05         0.00000E+00
    0.24546E+05        -0.49998E+08         0.00000E+00
    0.00000E+00         0.00000E+00        -0.49995E+08
 
   -0.49977E+08         0.25661E+05         0.00000E+00
    0.25661E+05        -0.49998E+08         0.00000E+00
    0.00000E+00         0.00000E+00        -0.49995E+08
 
   -0.49977E+08         0.26755E+05         0.00000E+00
    0.26755E+05        -0.49998E+08         0.00000E+00
    0.00000E+00         0.00000E+00        -0.49995E+08
 
   -0.49978E+08         0.27828E+05         0.00000E+00
    0.27828E+05        -0.49997E+08         0.00000E+00
    0.00000E+00         0.00000E+00        -0.49995E+08
 
   -0.49978E+08         0.28877E+05         0.00000E+00
    0.28877E+05        -0.49997E+08         0.00000E+00
    0.00000E+00         0.00000E+00        -0.49995E+08
 
   -0.49979E+08         0.29902E+05         0.00000E+00
    0.29902E+05        -0.49997E+08         0.00000E+00
    0.00000E+00         0.00000E+00        -0.49995E+08
 
   -0.49979E+08         0.30903E+05         0.00000E+00
    0.30903E+05        -0.49997E+08         0.00000E+00
    0.00000E+00         0.00000E+00        -0.49995E+08
 
   -0.49980E+08         0.31878E+05         0.00000E+00
    0.31878E+05        -0.49996E+08         0.00000E+00
    0.00000E+00         0.00000E+00        -0.49995E+08
 
   -0.49980E+08         0.32826E+05         0.00000E+00
    0.32826E+05        -0.49996E+08         0.00000E+00
    0.00000E+00         0.00000E+00        -0.49995E+08
 
   -0.49981E+08         0.33747E+05         0.00000E+00
    0.33747E+05        -0.49996E+08         0.00000E+00
    0.00000E+00         0.00000E+00        -0.49995E+08
 
   -0.49982E+08         0.34640E+05         0.00000E+00
    0.34640E+05        -0.49995E+08         0.00000E+00
    0.00000E+00         0.00000E+00        -0.49995E+08
 
   -0.49982E+08         0.35504E+05         0.00000E+00
    0.35504E+05        -0.49995E+08         0.00000E+00
    0.00000E+00         0.00000E+00        -0.49995E+08
 
   -0.49983E+08         0.36338E+05         0.00000E+00
    0.36338E+05        -0.49995E+08         0.00000E+00
    0.00000E+00         0.00000E+00        -0.49996E+08
 
   -0.49983E+08         0.37141E+05         0.00000E+00
    0.37141E+05        -0.49995E+08         0.00000E+00
    0.00000E+00         0.00000E+00        -0.49996E+08
 
   -0.49984E+08         0.37913E+05         0.00000E+00
    0.37913E+05        -0.49994E+08         0.00000E+00
    0.00000E+00         0.00000E+00        -0.49996E+08
 
   -0.49985E+08         0.38653E+05         0.00000E+00
    0.38653E+05        -0.49994E+08         0.00000E+00
    0.00000E+00         0.00000E+00        -0.49996E+08
 
   -0.49986E+08         0.39360E+05         0.00000E+00
    0.39360E+05        -0.49994E+08         0.00000E+00
    0.00000E+00         0.00000E+00        -0.49996E+08
 
   -0.49986E+08         0.40033E+05         0.00000E+00
    0.40033E+05        -0.49993E+08         0.00000E+00
    0.00000E+00         0.00000E+00        -0.49996E+08
 
   -0.49987E+08         0.40672E+05         0.00000E+00
    0.40672E+05        -0.49993E+08         0.00000E+00
    0.00000E+00         0.00000E+00        -0.49996E+08
 
   -0.49988E+08         0.41276E+05         0.00000E+00
    0.41276E+05        -0.49993E+08         0.00000E+00
    0.00000E+00         0.00000E+00        -0.49996E+08
 
   -0.49988E+08         0.41844E+05         0.00000E+00
    0.41844E+05        -0.49992E+08         0.00000E+00
    0.00000E+00         0.00000E+00        -0.49996E+08
 
   -0.49989E+08         0.42376E+05         0.00000E+00
    0.42376E+05        -0.49992E+08         0.00000E+00
    0.00000E+00         0.00000E+00        -0.49996E+08
 
   -0.49990E+08         0.42871E+05         0.00000E+00
    0.42871E+05        -0.49991E+08         0.00000E+00
    0.00000E+00         0.00000E+00        -0.49996E+08
 
   -0.49991E+08         0.43329E+05         0.00000E+00
    0.43329E+05        -0.49991E+08         0.00000E+00
    0.00000E+00         0.00000E+00        -0.49996E+08
 
   -0.49992E+08         0.43749E+05         0.00000E+00
    0.43749E+05        -0.49991E+08         0.00000E+00
    0.00000E+00         0.00000E+00        -0.49996E+08
 
   -0.49992E+08         0.44130E+05         0.00000E+00
    0.44130E+05        -0.49990E+08         0.00000E+00
    0.00000E+00         0.00000E+00        -0.49997E+08
 
   -0.49993E+08         0.44471E+05         0.00000E+00
    0.44471E+05        -0.49990E+08         0.00000E+00
    0.00000E+00         0.00000E+00        -0.49997E+08
 
   -0.49994E+08         0.44774E+05         0.00000E+00
    0.44774E+05        -0.49990E+08         0.00000E+00
    0.00000E+00         0.00000E+00        -0.49997E+08
 
   -0.49995E+08         0.45036E+05         0.00000E+00
    0.45036E+05        -0.49989E+08         0.00000E+00
    0.00000E+00         0.00000E+00        -0.49997E+08
 
   -0.49996E+08         0.45258E+05         0.00000E+00
    0.45258E+05        -0.49989E+08         0.00000E+00
    0.00000E+00         0.00000E+00        -0.49997E+08
 
   -0.49997E+08         0.45438E+05         0.00000E+00
    0.45438E+05        -0.49988E+08         0.00000E+00
    0.00000E+00         0.00000E+00        -0.49997E+08
 
   -0.49965E+08         0.69463E+03         0.00000E+00
    0.69463E+03        -0.50000E+08         0.00000E+00
    0.00000E+00         0.00000E+00        -0.49993E+08
 
   -0.49965E+08         0.20826E+04         0.00000E+00
    0.20826E+04        -0.50000E+08         0.00000E+00
    0.00000E+00         0.00000E+00        -0.49993E+08
 
   -0.49965E+08         0.34686E+04         0.00000E+00
    0.34686E+04        -0.50000E+08         0.00000E+00
    0.00000E+00         0.00000E+00        -0.49993E+08
 
   -0.49965E+08         0.48517E+04         0.00000E+00
    0.48517E+04        -0.50000E+08         0.00000E+00
    0.00000E+00         0.00000E+00        -0.49993E+08
 
   -0.49966E+08         0.62307E+04         0.00000E+00
    0.62307E+04        -0.50000E+08         0.00000E+00
    0.00000E+00         0.00000E+00        -0.49993E+08
 
   -0.49966E+08         0.76045E+04         0.00000E+00
    0.76045E+04        -0.50000E+08         0.00000E+00
    0.00000E+00         0.00000E+00        -0.49993E+08
 
   -0.49966E+08         0.89721E+04         0.00000E+00
    0.89721E+04        -0.50000E+08         0.00000E+00
    0.00000E+00         0.00000E+00        -0.49993E+08
 
   -0.49966E+08         0.10332E+05         0.00000E+00
    0.10332E+05        -0.50000E+08         0.00000E+00
    0.00000E+00         0.00000E+00        -0.49993E+08
 
   -0.49966E+08         0.11684E+05         0.00000E+00
    0.11684E+05        -0.50000E+08         0.00000E+00
    0.00000E+00         0.00000E+00        -0.49993E+08
 
   -0.49967E+08         0.13027E+05         0.00000E+00
    0.13027E+05        -0.49999E+08         0.00000E+00
    0.00000E+00         0.00000E+00        -0.49993E+08
 
   -0.49967E+08         0.14358E+05         0.00000E+00
    0.14358E+05        -0.49999E+08         0.00000E+00
    0.00000E+00         0.00000E+00        -0.49993E+08
 
   -0.49967E+08         0.15679E+05         0.00000E+00
    0.15679E+05        -0.49999E+08         0.00000E+00
    0.00000E+00         0.00000E+00        -0.49993E+08
 
   -0.49968E+08         0.16986E+05         0.00000E+00
    0.16986E+05        -0.49999E+08         0.00000E+00
    0.00000E+00         0.00000E+00        -0.49993E+08
 
   -0.49968E+08         0.18280E+05         0.00000E+00
    0.18280E+05        -0.49999E+08         0.00000E+00
    0.00000E+00         0.00000E+00        -0.49993E+08
 
   -0.49968E+08         0.19559E+05         0.00000E+00
    0.19559E+05        -0.49999E+08         0.00000E+00
    0.00000E+00         0.00000E+00        -0.49993E+08
 
   -0.49969E+08         0.20822E+05         0.00000E+00
    0.20822E+05        -0.49998E+08         0.00000E+00
    0.00000E+00         0.00000E+00        -0.49993E+08
 
   -0.49969E+08         0.22069E+05         0.00000E+00
    0.22069E+05        -0.49998E+08         0.00000E+00
    0.00000E+00         0.00000E+00        -0.49993E+08
 
   -0.49970E+08         0.23297E+05         0.00000E+00
    0.23297E+05        -0.49998E+08         0.00000E+00
    0.00000E+00         0.00000E+00        -0.49994E+08
 
   -0.49970E+08         0.24506E+05         0.00000E+00
    0.24506E+05        -0.49998E+08         0.00000E+00
    0.00000E+00         0.00000E+00        -0.49994E+08
 
   -0.49971E+08         0.25696E+05         0.00000E+00
    0.25696E+05        -0.49997E+08         0.00000E+00
    0.00000E+00         0.00000E+00        -0.49994E+08
 
   -0.49971E+08         0.26864E+05         0.00000E+00
    0.26864E+05        -0.49997E+08         0.00000E+00
    0.00000E+00         0.00000E+00        -0.49994E+08
 
   -0.49972E+08         0.28010E+05         0.00000E+00
    0.28010E+05        -0.49997E+08         0.00000E+00
    0.00000E+00         0.00000E+00        -0.49994E+08
 
   -0.49972E+08         0.29134E+05         0.00000E+00
    0.29134E+05        -0.49997E+08         0.00000E+00
    0.00000E+00         0.00000E+00        -0.49994E+08
 
   -0.49973E+08         0.30233E+05         0.00000E+00
    0.30233E+05        -0.49996E+08         0.00000E+00
    0.00000E+00         0.00000E+00        -0.49994E+08
 
   -0.49974E+08         0.31308E+05         0.00000E+00
    0.31308E+05        -0.49996E+08         0.00000E+00
    0.00000E+00         0.00000E+00        -0.49994E+08
 
   -0.49974E+08         0.32356E+05         0.00000E+00
    0.32356E+05        -0.49996E+08         0.00000E+00
    0.00000E+00         0.00000E+00        -0.49994E+08
 
   -0.49975E+08         0.33378E+05         0.00000E+00
    0.33378E+05        -0.49995E+08         0.00000E+00
    0.00000E+00         0.00000E+00        -0.49994E+08
 
   -0.49976E+08         0.34372E+05         0.00000E+00
    0.34372E+05        -0.49995E+08         0.00000E+00
    0.00000E+00         0.00000E+00        -0.49994E+08
 
   -0.49976E+08         0.35338E+05         0.00000E+00
    0.35338E+05        -0.49995E+08         0.00000E+00
    0.00000E+00         0.00000E+00        -0.49994E+08
 
   -0.49977E+08         0.36274E+05         0.00000E+00
    0.36274E+05        -0.49994E+08         0.00000E+00
    0.00000E+00         0.00000E+00        -0.49994E+08
 
   -0.49978E+08         0.37179E+05         0.00000E+00
    0.37179E+05        -0.49994E+08         0.00000E+00
    0.00000E+00         0.00000E+00        -0.49994E+08
 
   -0.49979E+08         0.38054E+05         0.00000E+00
    0.38054E+05        -0.49994E+08         0.00000E+00
    0.00000E+00         0.00000E+00        -0.49994E+08
 
   -0.49979E+08         0.38896E+05         0.00000E+00
    0.38896E+05        -0.49993E+08         0.00000E+00
    0.00000E+00         0.00000E+00        -0.49995E+08
 
   -0.49980E+08         0.39705E+05         0.00000E+00
    0.39705E+05        -0.49993E+08         0.00000E+00
    0.00000E+00         0.00000E+00        -0.49995E+08
 
   -0.49981E+08         0.40481E+05         0.00000E+00
    0.40481E+05        -0.49992E+08         0.00000E+00
    0.00000E+00         0.00000E+00        -0.49995E+08
 
   -0.49982E+08         0.41222E+05         0.00000E+00
    0.41222E+05        -0.49992E+08         0.00000E+00
    0.00000E+00         0.00000E+00        -0.49995E+08
 
   -0.49983E+08         0.41928E+05         0.00000E+00
    0.41928E+05        -0.49992E+08         0.00000E+00
    0.00000E+00         0.00000E+00        -0.49995E+08
 
   -0.49984E+08         0.42598E+05         0.00000E+00
    0.42598E+05        -0.49991E+08         0.00000E+00
    0.00000E+00         0.00000E+00        -0.49995E+08
 
   -0.49985E+08         0.43232E+05         0.00000E+00
    0.43232E+05        -0.49991E+08         0.00000E+00
    0.00000E+00         0.00000E+00        -0.49995E+08
 
   -0.49986E+08         0.43828E+05         0.00000E+00
    0.43828E+05        -0.49990E+08         0.00000E+00
    0.00000E+00         0.00000E+00        -0.49995E+08
 
   -0.49987E+08         0.44386E+05         0.00000E+00
    0.44386E+05        -0.49990E+08         0.00000E+00
    0.00000E+00         0.00000E+00        -0.49995E+08
 
   -0.49988E+08         0.44905E+05         0.00000E+00
    0.44905E+05        -0.49989E+08         0.00000E+00
    0.00000E+00         0.00000E+00        -0.49995E+08
 
   -0.49989E+08         0.45385E+05         0.00000E+00
    0.45385E+05        -0.49989E+08         0.00000E+00
    0.00000E+00         0.00000E+00        -0.49996E+08
 
   -0.49990E+08         0.45825E+05         0.00000E+00
    0.45825E+05        -0.49989E+08         0.00000E+00
    0.00000E+00         0.00000E+00        -0.49996E+08
 
   -0.49991E+08         0.46225E+05         0.00000E+00
    0.46225E+05        -0.49988E+08         0.00000E+00
    0.00000E+00         0.00000E+00        -0.49996E+08
 
   -0.49992E+08         0.46583E+05         0.00000E+00
    0.46583E+05        -0.49988E+08         0.00000E+00
    0.00000E+00         0.00000E+00        -0.49996E+08
 
   -0.49993E+08         0.46901E+05         0.00000E+00
    0.46901E+05        -0.49987E+08         0.00000E+00
    0.00000E+00         0.00000E+00        -0.49996E+08
 
   -0.49994E+08         0.47176E+05         0.00000E+00
    0.47176E+05        -0.49987E+08         0.00000E+00
    0.00000E+00         0.00000E+00        -0.49996E+08
 
   -0.49995E+08         0.47408E+05         0.00000E+00
    0.47408E+05        -0.49986E+08         0.00000E+00
    0.00000E+00         0.00000E+00        -0.49996E+08
 
   -0.49996E+08         0.47598E+05         0.00000E+00
    0.47598E+05        -0.49986E+08         0.00000E+00
    0.00000E+00         0.00000E+00        -0.49996E+08
 
   -0.49958E+08         0.73181E+03         0.00000E+00
    0.73181E+03        -0.50000E+08         0.00000E+00
    0.00000E+00         0.00000E+00        -0.49992E+08
 
   -0.49958E+08         0.21944E+04         0.00000E+00
    0.21944E+04        -0.50000E+08         0.00000E+00
    0.00000E+00         0.00000E+00        -0.49992E+08
 
   -0.49958E+08         0.36552E+04         0.00000E+00
    0.36552E+04        -0.50000E+08         0.00000E+00
    0.00000E+00         0.00000E+00        -0.49992E+08
 
   -0.49958E+08         0.51129E+04         0.00000E+00
    0.51129E+04        -0.50000E+08         0.00000E+00
    0.00000E+00         0.00000E+00        -0.49992E+08
 
   -0.49959E+08         0.65666E+04         0.00000E+00
    0.65666E+04        -0.50000E+08         0.00000E+00
    0.00000E+00         0.00000E+00        -0.49992E+08
 
   -0.49959E+08         0.80149E+04         0.00000E+00
    0.80149E+04        -0.50000E+08         0.00000E+00
    0.00000E+00         0.00000E+00        -0.49992E+08
 
   -0.49959E+08         0.94568E+04         0.00000E+00
    0.94568E+04        -0.50000E+08         0.00000E+00
    0.00000E+00         0.00000E+00        -0.49992E+08
 
   -0.49959E+08         0.10891E+05         0.00000E+00
    0.10891E+05        -0.50000E+08         0.00000E+00
    0.00000E+00         0.00000E+00        -0.49992E+08
 
   -0.49959E+08         0.12317E+05         0.00000E+00
    0.12317E+05        -0.49999E+08         0.00000E+00
    0.00000E+00         0.00000E+00        -0.49992E+08
 
   -0.49960E+08         0.13732E+05         0.00000E+00
    0.13732E+05        -0.49999E+08         0.00000E+00
    0.00000E+00         0.00000E+00        -0.49992E+08
 
   -0.49960E+08         0.15137E+05         0.00000E+00
    0.15137E+05        -0.49999E+08         0.00000E+00
    0.00000E+00         0.00000E+00        -0.49992E+08
 
   -0.49960E+08         0.16530E+05         0.00000E+00
    0.16530E+05        -0.49999E+08         0.00000E+00
    0.00000E+00         0.00000E+00        -0.49992E+08
 
   -0.49961E+08         0.17909E+05         0.00000E+00
    0.17909E+05        -0.49999E+08         0.00000E+00
    0.00000E+00         0.00000E+00        -0.49992E+08
 
   -0.49961E+08         0.19274E+05         0.00000E+00
    0.19274E+05        -0.49999E+08         0.00000E+00
    0.00000E+00         0.00000E+00        -0.49992E+08
 
   -0.49962E+08         0.20624E+05         0.00000E+00
    0.20624E+05        -0.49998E+08         0.00000E+00
    0.00000E+00         0.00000E+00        -0.49992E+08
 
   -0.49962E+08         0.21957E+05         0.00000E+00
    0.21957E+05        -0.49998E+08         0.00000E+00
    0.00000E+00         0.00000E+00        -0.49992E+08
 
   -0.49963E+08         0.23272E+05         0.00000E+00
    0.23272E+05        -0.49998E+08         0.00000E+00
    0.00000E+00         0.00000E+00        -0.49992E+08
 
   -0.49963E+08         0.24569E+05         0.00000E+00
    0.24569E+05        -0.49998E+08         0.00000E+00
    0.00000E+00         0.00000E+00        -0.49992E+08
 
   -0.49964E+08         0.25845E+05         0.00000E+00
    0.25845E+05        -0.49997E+08         0.00000E+00
    0.00000E+00         0.00000E+00        -0.49992E+08
 
   -0.49965E+08         0.27101E+05         0.00000E+00
    0.27101E+05        -0.49997E+08         0.00000E+00
    0.00000E+00         0.00000E+00        -0.49992E+08
 
   -0.49965E+08         0.28334E+05         0.00000E+00
    0.28334E+05        -0.49997E+08         0.00000E+00
    0.00000E+00         0.00000E+00        -0.49992E+08
 
   -0.49966E+08         0.29544E+05         0.00000E+00
    0.29544E+05        -0.49996E+08         0.00000E+00
    0.00000E+00         0.00000E+00        -0.49992E+08
 
   -0.49967E+08         0.30731E+05         0.00000E+00
    0.30731E+05        -0.49996E+08         0.00000E+00
    0.00000E+00         0.00000E+00        -0.49993E+08
 
   -0.49967E+08         0.31891E+05         0.00000E+00
    0.31891E+05        -0.49996E+08         0.00000E+00
    0.00000E+00         0.00000E+00        -0.49993E+08
 
   -0.49968E+08         0.33026E+05         0.00000E+00
    0.33026E+05        -0.49995E+08         0.00000E+00
    0.00000E+00         0.00000E+00        -0.49993E+08
 
   -0.49969E+08         0.34134E+05         0.00000E+00
    0.34134E+05        -0.49995E+08         0.00000E+00
    0.00000E+00         0.00000E+00        -0.49993E+08
 
   -0.49970E+08         0.35213E+05         0.00000E+00
    0.35213E+05        -0.49994E+08         0.00000E+00
    0.00000E+00         0.00000E+00        -0.49993E+08
 
   -0.49971E+08         0.36263E+05         0.00000E+00
    0.36263E+05        -0.49994E+08         0.00000E+00
    0.00000E+00         0.00000E+00        -0.49993E+08
 
   -0.49971E+08         0.37283E+05         0.00000E+00
    0.37283E+05        -0.49994E+08         0.00000E+00
    0.00000E+00         0.00000E+00        -0.49993E+08
 
   -0.49972E+08         0.38272E+05         0.00000E+00
    0.38272E+05        -0.49993E+08         0.00000E+00
    0.00000E+00         0.00000E+00        -0.49993E+08
 
   -0.49973E+08         0.39229E+05         0.00000E+00
    0.39229E+05        -0.49993E+08         0.00000E+00
    0.00000E+00         0.00000E+00        -0.49993E+08
 
   -0.49974E+08         0.40152E+05         0.00000E+00
    0.40152E+05        -0.49992E+08         0.00000E+00
    0.00000E+00         0.00000E+00        -0.49993E+08
 
   -0.49975E+08         0.41042E+05         0.00000E+00
    0.41042E+05        -0.49992E+08         0.00000E+00
    0.00000E+00         0.00000E+00        -0.49993E+08
 
   -0.49976E+08         0.41898E+05         0.00000E+00
    0.41898E+05        -0.49991E+08         0.00000E+00
    0.00000E+00         0.00000E+00        -0.49994E+08
 
   -0.49977E+08         0.42717E+05         0.00000E+00
    0.42717E+05        -0.49991E+08         0.00000E+00
    0.00000E+00         0.00000E+00        -0.49994E+08
 
   -0.49978E+08         0.43501E+05         0.00000E+00
    0.43501E+05        -0.49990E+08         0.00000E+00
    0.00000E+00         0.00000E+00        -0.49994E+08
 
   -0.49979E+08         0.44247E+05         0.00000E+00
    0.44247E+05        -0.49990E+08         0.00000E+00
    0.00000E+00         0.00000E+00        -0.49994E+08
 
   -0.49980E+08         0.44955E+05         0.00000E+00
    0.44955E+05        -0.49989E+08         0.00000E+00
    0.00000E+00         0.00000E+00        -0.49994E+08
 
   -0.49982E+08         0.45625E+05         0.00000E+00
    0.45625E+05        -0.49989E+08         0.00000E+00
    0.00000E+00         0.00000E+00        -0.49994E+08
 
   -0.49983E+08         0.46255E+05         0.00000E+00
    0.46255E+05        -0.49988E+08         0.00000E+00
    0.00000E+00         0.00000E+00        -0.49994E+08
 
   -0.49984E+08         0.46845E+05         0.00000E+00
    0.46845E+05        -0.49988E+08         0.00000E+00
    0.00000E+00         0.00000E+00        -0.49994E+08
 
   -0.49985E+08         0.47394E+05         0.00000E+00
    0.47394E+05        -0.49987E+08         0.00000E+00
    0.00000E+00         0.00000E+00        -0.49994E+08
 
   -0.49986E+08         0.47901E+05         0.00000E+00
    0.47901E+05        -0.49987E+08         0.00000E+00
    0.00000E+00         0.00000E+00        -0.49995E+08
 
   -0.49987E+08         0.48367E+05         0.00000E+00
    0.48367E+05        -0.49986E+08         0.00000E+00
    0.00000E+00         0.00000E+00        -0.49995E+08
 
   -0.49989E+08         0.48789E+05         0.00000E+00
    0.48789E+05        -0.49986E+08         0.00000E+00
    0.00000E+00         0.00000E+00        -0.49995E+08
 
   -0.49990E+08         0.49168E+05         0.00000E+00
    0.49168E+05        -0.49985E+08         0.00000E+00
    0.00000E+00         0.00000E+00        -0.49995E+08
 
   -0.49991E+08         0.49504E+05         0.00000E+00
    0.49504E+05        -0.49984E+08         0.00000E+00
    0.00000E+00         0.00000E+00        -0.49995E+08
 
   -0.49992E+08         0.49795E+05         0.00000E+00
    0.49795E+05        -0.49984E+08         0.00000E+00
    0.00000E+00         0.00000E+00        -0.49995E+08
 
   -0.49994E+08         0.50041E+05         0.00000E+00
    0.50041E+05        -0.49983E+08         0.00000E+00
    0.00000E+00         0.00000E+00        -0.49995E+08
 
   -0.49995E+08         0.50241E+05         0.00000E+00
    0.50241E+05        -0.49983E+08         0.00000E+00
    0.00000E+00         0.00000E+00        -0.49996E+08
 
   -0.49951E+08         0.77601E+03         0.00000E+00
    0.77601E+03        -0.50000E+08         0.00000E+00
    0.00000E+00         0.00000E+00        -0.49990E+08
 
   -0.49951E+08         0.23275E+04         0.00000E+00
    0.23275E+04        -0.50000E+08         0.00000E+00
    0.00000E+00         0.00000E+00        -0.49990E+08
 
   -0.49951E+08         0.38772E+04         0.00000E+00
    0.38772E+04        -0.50000E+08         0.00000E+00
    0.00000E+00         0.00000E+00        -0.49990E+08
 
   -0.49951E+08         0.54238E+04         0.00000E+00
    0.54238E+04        -0.50000E+08         0.00000E+00
    0.00000E+00         0.00000E+00        -0.49990E+08
 
   -0.49951E+08         0.69663E+04         0.00000E+00
    0.69663E+04        -0.50000E+08         0.00000E+00
    0.00000E+00         0.00000E+00        -0.49990E+08
 
   -0.49951E+08         0.85034E+04         0.00000E+00
    0.85034E+04        -0.50000E+08         0.00000E+00
    0.00000E+00         0.00000E+00        -0.49990E+08
 
   -0.49951E+08         0.10034E+05         0.00000E+00
    0.10034E+05        -0.50000E+08         0.00000E+00
    0.00000E+00         0.00000E+00        -0.49990E+08
 
   -0.49952E+08         0.11556E+05         0.00000E+00
    0.11556E+05        -0.49999E+08         0.00000E+00
    0.00000E+00         0.00000E+00        -0.49990E+08
 
   -0.49952E+08         0.13070E+05         0.00000E+00
    0.13070E+05        -0.49999E+08         0.00000E+00
    0.00000E+00         0.00000E+00        -0.49990E+08
 
   -0.49952E+08         0.14573E+05         0.00000E+00
    0.14573E+05        -0.49999E+08         0.00000E+00
    0.00000E+00         0.00000E+00        -0.49990E+08
 
   -0.49953E+08         0.16065E+05         0.00000E+00
    0.16065E+05        -0.49999E+08         0.00000E+00
    0.00000E+00         0.00000E+00        -0.49990E+08
 
   -0.49953E+08         0.17544E+05         0.00000E+00
    0.17544E+05        -0.49999E+08         0.00000E+00
    0.00000E+00         0.00000E+00        -0.49990E+08
 
   -0.49954E+08         0.19009E+05         0.00000E+00
    0.19009E+05        -0.49999E+08         0.00000E+00
    0.00000E+00         0.00000E+00        -0.49990E+08
 
   -0.49954E+08         0.20459E+05         0.00000E+00
    0.20459E+05        -0.49998E+08         0.00000E+00
    0.00000E+00         0.00000E+00        -0.49991E+08
 
   -0.49955E+08         0.21893E+05         0.00000E+00
    0.21893E+05        -0.49998E+08         0.00000E+00
    0.00000E+00         0.00000E+00        -0.49991E+08
 
   -0.49955E+08         0.23309E+05         0.00000E+00
    0.23309E+05        -0.49998E+08         0.00000E+00
    0.00000E+00         0.00000E+00        -0.49991E+08
 
   -0.49956E+08         0.24707E+05         0.00000E+00
    0.24707E+05        -0.49997E+08         0.00000E+00
    0.00000E+00         0.00000E+00        -0.49991E+08
 
   -0.49957E+08         0.26085E+05         0.00000E+00
    0.26085E+05        -0.49997E+08         0.00000E+00
    0.00000E+00         0.00000E+00        -0.49991E+08
 
   -0.49957E+08         0.27441E+05         0.00000E+00
    0.27441E+05        -0.49997E+08         0.00000E+00
    0.00000E+00         0.00000E+00        -0.49991E+08
 
   -0.49958E+08         0.28776E+05         0.00000E+00
    0.28776E+05        -0.49996E+08         0.00000E+00
    0.00000E+00         0.00000E+00        -0.49991E+08
 
   -0.49959E+08         0.30087E+05         0.00000E+00
    0.30087E+05        -0.49996E+08         0.00000E+00
    0.00000E+00         0.00000E+00        -0.49991E+08
 
   -0.49960E+08         0.31374E+05         0.00000E+00
    0.31374E+05        -0.49996E+08         0.00000E+00
    0.00000E+00         0.00000E+00        -0.49991E+08
 
   -0.49961E+08         0.32635E+05         0.00000E+00
    0.32635E+05        -0.49995E+08         0.00000E+00
    0.00000E+00         0.00000E+00        -0.49991E+08
 
   -0.49961E+08         0.33869E+05         0.00000E+00
    0.33869E+05        -0.49995E+08         0.00000E+00
    0.00000E+00         0.00000E+00        -0.49991E+08
 
   -0.49962E+08         0.35076E+05         0.00000E+00
    0.35076E+05        -0.49994E+08         0.00000E+00
    0.00000E+00         0.00000E+00        -0.49991E+08
 
   -0.49963E+08         0.36254E+05         0.00000E+00
    0.36254E+05        -0.49994E+08         0.00000E+00
    0.00000E+00         0.00000E+00        -0.49991E+08
 
   -0.49964E+08         0.37401E+05         0.00000E+00
    0.37401E+05        -0.49993E+08         0.00000E+00
    0.00000E+00         0.00000E+00        -0.49992E+08
 
   -0.49965E+08         0.38518E+05         0.00000E+00
    0.38518E+05        -0.49993E+08         0.00000E+00
    0.00000E+00         0.00000E+00        -0.49992E+08
 
   -0.49966E+08         0.39603E+05         0.00000E+00
    0.39603E+05        -0.49992E+08         0.00000E+00
    0.00000E+00         0.00000E+00        -0.49992E+08
 
   -0.49967E+08         0.40655E+05         0.00000E+00
    0.40655E+05        -0.49992E+08         0.00000E+00
    0.00000E+00         0.00000E+00        -0.49992E+08
 
   -0.49968E+08         0.41673E+05         0.00000E+00
    0.41673E+05        -0.49991E+08         0.00000E+00
    0.00000E+00         0.00000E+00        -0.49992E+08
 
   -0.49970E+08         0.42656E+05         0.00000E+00
    0.42656E+05        -0.49991E+08         0.00000E+00
    0.00000E+00         0.00000E+00        -0.49992E+08
 
   -0.49971E+08         0.43603E+05         0.00000E+00
    0.43603E+05        -0.49990E+08         0.00000E+00
    0.00000E+00         0.00000E+00        -0.49992E+08
 
   -0.49972E+08         0.44513E+05         0.00000E+00
    0.44513E+05        -0.49990E+08         0.00000E+00
    0.00000E+00         0.00000E+00        -0.49992E+08
 
   -0.49973E+08         0.45385E+05         0.00000E+00
    0.45385E+05        -0.49989E+08         0.00000E+00
    0.00000E+00         0.00000E+00        -0.49992E+08
 
   -0.49974E+08         0.46219E+05         0.00000E+00
    0.46219E+05        -0.49989E+08         0.00000E+00
    0.00000E+00         0.00000E+00        -0.49993E+08
 
   -0.49976E+08         0.47013E+05         0.00000E+00
    0.47013E+05        -0.49988E+08         0.00000E+00
    0.00000E+00         0.00000E+00        -0.49993E+08
 
   -0.49977E+08         0.47767E+05         0.00000E+00
    0.47767E+05        -0.49987E+08         0.00000E+00
    0.00000E+00         0.00000E+00        -0.49993E+08
 
   -0.49978E+08         0.48480E+05         0.00000E+00
    0.48480E+05        -0.49987E+08         0.00000E+00
    0.00000E+00         0.00000E+00        -0.49993E+08
 
   -0.49980E+08         0.49151E+05         0.00000E+00
    0.49151E+05        -0.49986E+08         0.00000E+00
    0.00000E+00         0.00000E+00        -0.49993E+08
 
   -0.49981E+08         0.49779E+05         0.00000E+00
    0.49779E+05        -0.49986E+08         0.00000E+00
    0.00000E+00         0.00000E+00        -0.49993E+08
 
   -0.49982E+08         0.50363E+05         0.00000E+00
    0.50363E+05        -0.49985E+08         0.00000E+00
    0.00000E+00         0.00000E+00        -0.49993E+08
 
   -0.49984E+08         0.50904E+05         0.00000E+00
    0.50904E+05        -0.49984E+08         0.00000E+00
    0.00000E+00         0.00000E+00        -0.49994E+08
 
   -0.49985E+08         0.51399E+05         0.00000E+00
    0.51399E+05        -0.49984E+08         0.00000E+00
    0.00000E+00         0.00000E+00        -0.49994E+08
 
   -0.49987E+08         0.51850E+05         0.00000E+00
    0.51850E+05        -0.49983E+08         0.00000E+00
    0.00000E+00         0.00000E+00        -0.49994E+08
 
   -0.49988E+08         0.52253E+05         0.00000E+00
    0.52253E+05        -0.49982E+08         0.00000E+00
    0.00000E+00         0.00000E+00        -0.49994E+08
 
   -0.49990E+08         0.52611E+05         0.00000E+00
    0.52611E+05        -0.49982E+08         0.00000E+00
    0.00000E+00         0.00000E+00        -0.49994E+08
 
   -0.49991E+08         0.52921E+05         0.00000E+00
    0.52921E+05        -0.49981E+08         0.00000E+00
    0.00000E+00         0.00000E+00        -0.49994E+08
 
   -0.49993E+08         0.53183E+05         0.00000E+00
    0.53183E+05        -0.49980E+08         0.00000E+00
    0.00000E+00         0.00000E+00        -0.49995E+08
 
   -0.49994E+08         0.53396E+05         0.00000E+00
    0.53396E+05        -0.49980E+08         0.00000E+00
    0.00000E+00         0.00000E+00        -0.49995E+08
 
   -0.49943E+08         0.82766E+03         0.00000E+00
    0.82766E+03        -0.50000E+08         0.00000E+00
    0.00000E+00         0.00000E+00        -0.49989E+08
 
   -0.49943E+08         0.24830E+04         0.00000E+00
    0.24830E+04        -0.50000E+08         0.00000E+00
    0.00000E+00         0.00000E+00        -0.49989E+08
 
   -0.49943E+08         0.41367E+04         0.00000E+00
    0.41367E+04        -0.50000E+08         0.00000E+00
    0.00000E+00         0.00000E+00        -0.49989E+08
 
   -0.49943E+08         0.57875E+04         0.00000E+00
    0.57875E+04        -0.50000E+08         0.00000E+00
    0.00000E+00         0.00000E+00        -0.49989E+08
 
   -0.49943E+08         0.74341E+04         0.00000E+00
    0.74341E+04        -0.50000E+08         0.00000E+00
    0.00000E+00         0.00000E+00        -0.49989E+08
 
   -0.49943E+08         0.90751E+04         0.00000E+00
    0.90751E+04        -0.50000E+08         0.00000E+00
    0.00000E+00         0.00000E+00        -0.49989E+08
 
   -0.49944E+08         0.10709E+05         0.00000E+00
    0.10709E+05        -0.50000E+08         0.00000E+00
    0.00000E+00         0.00000E+00        -0.49989E+08
 
   -0.49944E+08         0.12335E+05         0.00000E+00
    0.12335E+05        -0.49999E+08         0.00000E+00
    0.00000E+00         0.00000E+00        -0.49989E+08
 
   -0.49944E+08         0.13952E+05         0.00000E+00
    0.13952E+05        -0.49999E+08         0.00000E+00
    0.00000E+00         0.00000E+00        -0.49989E+08
 
   -0.49945E+08         0.15558E+05         0.00000E+00
    0.15558E+05        -0.49999E+08         0.00000E+00
    0.00000E+00         0.00000E+00        -0.49989E+08
 
   -0.49945E+08         0.17151E+05         0.00000E+00
    0.17151E+05        -0.49999E+08         0.00000E+00
    0.00000E+00         0.00000E+00        -0.49989E+08
 
   -0.49946E+08         0.18732E+05         0.00000E+00
    0.18732E+05        -0.49999E+08         0.00000E+00
    0.00000E+00         0.00000E+00        -0.49989E+08
 
   -0.49946E+08         0.20298E+05         0.00000E+00
    0.20298E+05        -0.49998E+08         0.00000E+00
    0.00000E+00         0.00000E+00        -0.49989E+08
 
   -0.49947E+08         0.21847E+05         0.00000E+00
    0.21847E+05        -0.49998E+08         0.00000E+00
    0.00000E+00         0.00000E+00        -0.49989E+08
 
   -0.49947E+08         0.23380E+05         0.00000E+00
    0.23380E+05        -0.49998E+08         0.00000E+00
    0.00000E+00         0.00000E+00        -0.49989E+08
 
   -0.49948E+08         0.24894E+05         0.00000E+00
    0.24894E+05        -0.49997E+08         0.00000E+00
    0.00000E+00         0.00000E+00        -0.49989E+08
 
   -0.49949E+08         0.26388E+05         0.00000E+00
    0.26388E+05        -0.49997E+08         0.00000E+00
    0.00000E+00         0.00000E+00        -0.49989E+08
 
   -0.49950E+08         0.27861E+05         0.00000E+00
    0.27861E+05        -0.49997E+08         0.00000E+00
    0.00000E+00         0.00000E+00        -0.49989E+08
 
   -0.49950E+08         0.29312E+05         0.00000E+00
    0.29312E+05        -0.49996E+08         0.00000E+00
    0.00000E+00         0.00000E+00        -0.49989E+08
 
   -0.49951E+08         0.30739E+05         0.00000E+00
    0.30739E+05        -0.49996E+08         0.00000E+00
    0.00000E+00         0.00000E+00        -0.49989E+08
 
   -0.49952E+08         0.32141E+05         0.00000E+00
    0.32141E+05        -0.49995E+08         0.00000E+00
    0.00000E+00         0.00000E+00        -0.49990E+08
 
   -0.49953E+08         0.33517E+05         0.00000E+00
    0.33517E+05        -0.49995E+08         0.00000E+00
    0.00000E+00         0.00000E+00        -0.49990E+08
 
   -0.49954E+08         0.34866E+05         0.00000E+00
    0.34866E+05        -0.49994E+08         0.00000E+00
    0.00000E+00         0.00000E+00        -0.49990E+08
 
   -0.49955E+08         0.36187E+05         0.00000E+00
    0.36187E+05        -0.49994E+08         0.00000E+00
    0.00000E+00         0.00000E+00        -0.49990E+08
 
   -0.49956E+08         0.37478E+05         0.00000E+00
    0.37478E+05        -0.49993E+08         0.00000E+00
    0.00000E+00         0.00000E+00        -0.49990E+08
 
   -0.49957E+08         0.38738E+05         0.00000E+00
    0.38738E+05        -0.49993E+08         0.00000E+00
    0.00000E+00         0.00000E+00        -0.49990E+08
 
   -0.49958E+08         0.39967E+05         0.00000E+00
    0.39967E+05        -0.49992E+08         0.00000E+00
    0.00000E+00         0.00000E+00        -0.49990E+08
 
   -0.49960E+08         0.41162E+05         0.00000E+00
    0.41162E+05        -0.49992E+08         0.00000E+00
    0.00000E+00         0.00000E+00        -0.49990E+08
 
   -0.49961E+08         0.42323E+05         0.00000E+00
    0.42323E+05        -0.49991E+08         0.00000E+00
    0.00000E+00         0.00000E+00        -0.49990E+08
 
   -0.49962E+08         0.43449E+05         0.00000E+00
    0.43449E+05        -0.49991E+08         0.00000E+00
    0.00000E+00         0.00000E+00        -0.49991E+08
 
   -0.49963E+08         0.44539E+05         0.00000E+00
    0.44539E+05        -0.49990E+08         0.00000E+00
    0.00000E+00         0.00000E+00        -0.49991E+08
 
   -0.49965E+08         0.45591E+05         0.00000E+00
    0.45591E+05        -0.49989E+08         0.00000E+00
    0.00000E+00         0.00000E+00        -0.49991E+08
 
   -0.49966E+08         0.46605E+05         0.00000E+00
    0.46605E+05        -0.49989E+08         0.00000E+00
    0.00000E+00         0.00000E+00        -0.49991E+08
 
   -0.49967E+08         0.47579E+05         0.00000E+00
    0.47579E+05        -0.49988E+08         0.00000E+00
    0.00000E+00         0.00000E+00        -0.49991E+08
 
   -0.49969E+08         0.48513E+05         0.00000E+00
    0.48513E+05        -0.49987E+08         0.00000E+00
    0.00000E+00         0.00000E+00        -0.49991E+08
 
   -0.49970E+08         0.49406E+05         0.00000E+00
    0.49406E+05        -0.49987E+08         0.00000E+00
    0.00000E+00         0.00000E+00        -0.49991E+08
 
   -0.49972E+08         0.50257E+05         0.00000E+00
    0.50257E+05        -0.49986E+08         0.00000E+00
    0.00000E+00         0.00000E+00        -0.49992E+08
 
   -0.49973E+08         0.51064E+05         0.00000E+00
    0.51064E+05        -0.49985E+08         0.00000E+00
    0.00000E+00         0.00000E+00        -0.49992E+08
 
   -0.49975E+08         0.51828E+05         0.00000E+00
    0.51828E+05        -0.49985E+08         0.00000E+00
    0.00000E+00         0.00000E+00        -0.49992E+08
 
   -0.49976E+08         0.52546E+05         0.00000E+00
    0.52546E+05        -0.49984E+08         0.00000E+00
    0.00000E+00         0.00000E+00        -0.49992E+08
 
   -0.49978E+08         0.53219E+05         0.00000E+00
    0.53219E+05        -0.49983E+08         0.00000E+00
    0.00000E+00         0.00000E+00        -0.49992E+08
 
   -0.49979E+08         0.53846E+05         0.00000E+00
    0.53846E+05        -0.49982E+08         0.00000E+00
    0.00000E+00         0.00000E+00        -0.49992E+08
 
   -0.49981E+08         0.54425E+05         0.00000E+00
    0.54425E+05        -0.49982E+08         0.00000E+00
    0.00000E+00         0.00000E+00        -0.49993E+08
 
   -0.49983E+08         0.54956E+05         0.00000E+00
    0.54956E+05        -0.49981E+08         0.00000E+00
    0.00000E+00         0.00000E+00        -0.49993E+08
 
   -0.49984E+08         0.55438E+05         0.00000E+00
    0.55438E+05        -0.49980E+08         0.00000E+00
    0.00000E+00         0.00000E+00        -0.49993E+08
 
   -0.49986E+08         0.55871E+05         0.00000E+00
    0.55871E+05        -0.49979E+08         0.00000E+00
    0.00000E+00         0.00000E+00        -0.49993E+08
 
   -0.49988E+08         0.56254E+05         0.00000E+00
    0.56254E+05        -0.49979E+08         0.00000E+00
    0.00000E+00         0.00000E+00        -0.49993E+08
 
   -0.49990E+08         0.56586E+05         0.00000E+00
    0.56586E+05        -0.49978E+08         0.00000E+00
    0.00000E+00         0.00000E+00        -0.49993E+08
 
   -0.49991E+08         0.56867E+05         0.00000E+00
    0.56867E+05        -0.49977E+08         0.00000E+00
    0.00000E+00         0.00000E+00        -0.49994E+08
 
   -0.49993E+08         0.57097E+05         0.00000E+00
    0.57097E+05        -0.49976E+08         0.00000E+00
    0.00000E+00         0.00000E+00        -0.49994E+08
 
   -0.49934E+08         0.88728E+03         0.00000E+00
    0.88728E+03        -0.50000E+08         0.00000E+00
    0.00000E+00         0.00000E+00        -0.49987E+08
 
   -0.49934E+08         0.26627E+04         0.00000E+00
    0.26627E+04        -0.50000E+08         0.00000E+00
    0.00000E+00         0.00000E+00        -0.49987E+08
 
   -0.49934E+08         0.44367E+04         0.00000E+00
    0.44367E+04        -0.50000E+08         0.00000E+00
    0.00000E+00         0.00000E+00        -0.49987E+08
 
   -0.49934E+08         0.62078E+04         0.00000E+00
    0.62078E+04        -0.50000E+08         0.00000E+00
    0.00000E+00         0.00000E+00        -0.49987E+08
 
   -0.49935E+08         0.79747E+04         0.00000E+00
    0.79747E+04        -0.50000E+08         0.00000E+00
    0.00000E+00         0.00000E+00        -0.49987E+08
 
   -0.49935E+08         0.97360E+04         0.00000E+00
    0.97360E+04        -0.50000E+08         0.00000E+00
    0.00000E+00         0.00000E+00        -0.49987E+08
 
   -0.49935E+08         0.11490E+05         0.00000E+00
    0.11490E+05        -0.49999E+08         0.00000E+00
    0.00000E+00         0.00000E+00        -0.49987E+08
 
   -0.49936E+08         0.13236E+05         0.00000E+00
    0.13236E+05        -0.49999E+08         0.00000E+00
    0.00000E+00         0.00000E+00        -0.49987E+08
 
   -0.49936E+08         0.14972E+05         0.00000E+00
    0.14972E+05        -0.49999E+08         0.00000E+00
    0.00000E+00         0.00000E+00        -0.49987E+08
 
   -0.49936E+08         0.16696E+05         0.00000E+00
    0.16696E+05        -0.49999E+08         0.00000E+00
    0.00000E+00         0.00000E+00        -0.49987E+08
 
   -0.49937E+08         0.18408E+05         0.00000E+00
    0.18408E+05        -0.49999E+08         0.00000E+00
    0.00000E+00         0.00000E+00        -0.49987E+08
 
   -0.49938E+08         0.20106E+05         0.00000E+00
    0.20106E+05        -0.49998E+08         0.00000E+00
    0.00000E+00         0.00000E+00        -0.49987E+08
 
   -0.49938E+08         0.21788E+05         0.00000E+00
    0.21788E+05        -0.49998E+08         0.00000E+00
    0.00000E+00         0.00000E+00        -0.49987E+08
 
   -0.49939E+08         0.23453E+05         0.00000E+00
    0.23453E+05        -0.49998E+08         0.00000E+00
    0.00000E+00         0.00000E+00        -0.49987E+08
 
   -0.49940E+08         0.25100E+05         0.00000E+00
    0.25100E+05        -0.49997E+08         0.00000E+00
    0.00000E+00         0.00000E+00        -0.49987E+08
 
   -0.49940E+08         0.26727E+05         0.00000E+00
    0.26727E+05        -0.49997E+08         0.00000E+00
    0.00000E+00         0.00000E+00        -0.49987E+08
 
   -0.49941E+08         0.28333E+05         0.00000E+00
    0.28333E+05        -0.49997E+08         0.00000E+00
    0.00000E+00         0.00000E+00        -0.49988E+08
 
   -0.49942E+08         0.29917E+05         0.00000E+00
    0.29917E+05        -0.49996E+08         0.00000E+00
    0.00000E+00         0.00000E+00        -0.49988E+08
 
   -0.49943E+08         0.31476E+05         0.00000E+00
    0.31476E+05        -0.49996E+08         0.00000E+00
    0.00000E+00         0.00000E+00        -0.49988E+08
 
   -0.49944E+08         0.33011E+05         0.00000E+00
    0.33011E+05        -0.49995E+08         0.00000E+00
    0.00000E+00         0.00000E+00        -0.49988E+08
 
   -0.49945E+08         0.34519E+05         0.00000E+00
    0.34519E+05        -0.49995E+08         0.00000E+00
    0.00000E+00         0.00000E+00        -0.49988E+08
 
   -0.49946E+08         0.35999E+05         0.00000E+00
    0.35999E+05        -0.49994E+08         0.00000E+00
    0.00000E+00         0.00000E+00        -0.49988E+08
 
   -0.49947E+08         0.37450E+05         0.00000E+00
    0.37450E+05        -0.49994E+08         0.00000E+00
    0.00000E+00         0.00000E+00        -0.49988E+08
 
   -0.49948E+08         0.38870E+05         0.00000E+00
    0.38870E+05        -0.49993E+08         0.00000E+00
    0.00000E+00         0.00000E+00        -0.49988E+08
 
   -0.49950E+08         0.40259E+05         0.00000E+00
    0.40259E+05        -0.49992E+08         0.00000E+00
    0.00000E+00         0.00000E+00        -0.49988E+08
 
   -0.49951E+08         0.41615E+05         0.00000E+00
    0.41615E+05        -0.49992E+08         0.00000E+00
    0.00000E+00         0.00000E+00        -0.49989E+08
 
   -0.49952E+08         0.42936E+05         0.00000E+00
    0.42936E+05        -0.49991E+08         0.00000E+00
    0.00000E+00         0.00000E+00        -0.49989E+08
 
   -0.49953E+08         0.44222E+05         0.00000E+00
    0.44222E+05        -0.49991E+08         0.00000E+00
    0.00000E+00         0.00000E+00        -0.49989E+08
 
   -0.49955E+08         0.45472E+05         0.00000E+00
    0.45472E+05        -0.49990E+08         0.00000E+00
    0.00000E+00         0.00000E+00        -0.49989E+08
 
   -0.49956E+08         0.46683E+05         0.00000E+00
    0.46683E+05        -0.49989E+08         0.00000E+00
    0.00000E+00         0.00000E+00        -0.49989E+08
 
   -0.49958E+08         0.47856E+05         0.00000E+00
    0.47856E+05        -0.49989E+08         0.00000E+00
    0.00000E+00         0.00000E+00        -0.49989E+08
 
   -0.49959E+08         0.48989E+05         0.00000E+00
    0.48989E+05        -0.49988E+08         0.00000E+00
    0.00000E+00         0.00000E+00        -0.49989E+08
 
   -0.49961E+08         0.50080E+05         0.00000E+00
    0.50080E+05        -0.49987E+08         0.00000E+00
    0.00000E+00         0.00000E+00        -0.49990E+08
 
   -0.49962E+08         0.51129E+05         0.00000E+00
    0.51129E+05        -0.49986E+08         0.00000E+00
    0.00000E+00         0.00000E+00        -0.49990E+08
 
   -0.49964E+08         0.52135E+05         0.00000E+00
    0.52135E+05        -0.49986E+08         0.00000E+00
    0.00000E+00         0.00000E+00        -0.49990E+08
 
   -0.49966E+08         0.53096E+05         0.00000E+00
    0.53096E+05        -0.49985E+08         0.00000E+00
    0.00000E+00         0.00000E+00        -0.49990E+08
 
   -0.49967E+08         0.54012E+05         0.00000E+00
    0.54012E+05        -0.49984E+08         0.00000E+00
    0.00000E+00         0.00000E+00        -0.49990E+08
 
   -0.49969E+08         0.54881E+05         0.00000E+00
    0.54881E+05        -0.49983E+08         0.00000E+00
    0.00000E+00         0.00000E+00        -0.49990E+08
 
   -0.49971E+08         0.55704E+05         0.00000E+00
    0.55704E+05        -0.49982E+08         0.00000E+00
    0.00000E+00         0.00000E+00        -0.49991E+08
 
   -0.49973E+08         0.56477E+05         0.00000E+00
    0.56477E+05        -0.49981E+08         0.00000E+00
    0.00000E+00         0.00000E+00        -0.49991E+08
 
   -0.49974E+08         0.57202E+05         0.00000E+00
    0.57202E+05        -0.49981E+08         0.00000E+00
    0.00000E+00         0.00000E+00        -0.49991E+08
 
   -0.49976E+08         0.57877E+05         0.00000E+00
    0.57877E+05        -0.49980E+08         0.00000E+00
    0.00000E+00         0.00000E+00        -0.49991E+08
 
   -0.49978E+08         0.58501E+05         0.00000E+00
    0.58501E+05        -0.49979E+08         0.00000E+00
    0.00000E+00         0.00000E+00        -0.49991E+08
 
   -0.49980E+08         0.59073E+05         0.00000E+00
    0.59073E+05        -0.49978E+08         0.00000E+00
    0.00000E+00         0.00000E+00        -0.49992E+08
 
   -0.49982E+08         0.59593E+05         0.00000E+00
    0.59593E+05        -0.49977E+08         0.00000E+00
    0.00000E+00         0.00000E+00        -0.49992E+08
 
   -0.49984E+08         0.60060E+05         0.00000E+00
    0.60060E+05        -0.49976E+08         0.00000E+00
    0.00000E+00         0.00000E+00        -0.49992E+08
 
   -0.49986E+08         0.60473E+05         0.00000E+00
    0.60473E+05        -0.49975E+08         0.00000E+00
    0.00000E+00         0.00000E+00        -0.49992E+08
 
   -0.49988E+08         0.60831E+05         0.00000E+00
    0.60831E+05        -0.49974E+08         0.00000E+00
    0.00000E+00         0.00000E+00        -0.49992E+08
 
   -0.49990E+08         0.61134E+05         0.00000E+00
    0.61134E+05        -0.49974E+08         0.00000E+00
    0.00000E+00         0.00000E+00        -0.49993E+08
 
   -0.49992E+08         0.61381E+05         0.00000E+00
    0.61381E+05        -0.49973E+08         0.00000E+00
    0.00000E+00         0.00000E+00        -0.49993E+08
 
   -0.49925E+08         0.95549E+03         0.00000E+00
    0.95549E+03        -0.50000E+08         0.00000E+00
    0.00000E+00         0.00000E+00        -0.49985E+08
 
   -0.49925E+08         0.28684E+04         0.00000E+00
    0.28684E+04        -0.50000E+08         0.00000E+00
    0.00000E+00         0.00000E+00        -0.49985E+08
 
   -0.49925E+08         0.47802E+04         0.00000E+00
    0.47802E+04        -0.50000E+08         0.00000E+00
    0.00000E+00         0.00000E+00        -0.49985E+08
 
   -0.49925E+08         0.66893E+04         0.00000E+00
    0.66893E+04        -0.50000E+08         0.00000E+00
    0.00000E+00         0.00000E+00        -0.49985E+08
 
   -0.49925E+08         0.85942E+04         0.00000E+00
    0.85942E+04        -0.50000E+08         0.00000E+00
    0.00000E+00         0.00000E+00        -0.49985E+08
 
   -0.49926E+08         0.10493E+05         0.00000E+00
    0.10493E+05        -0.50000E+08         0.00000E+00
    0.00000E+00         0.00000E+00        -0.49985E+08
 
   -0.49926E+08         0.12385E+05         0.00000E+00
    0.12385E+05        -0.49999E+08         0.00000E+00
    0.00000E+00         0.00000E+00        -0.49985E+08
 
   -0.49926E+08         0.14268E+05         0.00000E+00
    0.14268E+05        -0.49999E+08         0.00000E+00
    0.00000E+00         0.00000E+00        -0.49985E+08
 
   -0.49927E+08         0.16141E+05         0.00000E+00
    0.16141E+05        -0.49999E+08         0.00000E+00
    0.00000E+00         0.00000E+00        -0.49985E+08
 
   -0.49928E+08         0.18002E+05         0.00000E+00
    0.18002E+05        -0.49999E+08         0.00000E+00
    0.00000E+00         0.00000E+00        -0.49985E+08
 
   -0.49928E+08         0.19849E+05         0.00000E+00
    0.19849E+05        -0.49998E+08         0.00000E+00
    0.00000E+00         0.00000E+00        -0.49985E+08
 
   -0.49929E+08         0.21682E+05         0.00000E+00
    0.21682E+05        -0.49998E+08         0.00000E+00
    0.00000E+00         0.00000E+00        -0.49985E+08
 
   -0.49929E+08         0.23498E+05         0.00000E+00
    0.23498E+05        -0.49998E+08         0.00000E+00
    0.00000E+00         0.00000E+00        -0.49985E+08
 
   -0.49930E+08         0.25295E+05         0.00000E+00
    0.25295E+05        -0.49997E+08         0.00000E+00
    0.00000E+00         0.00000E+00        -0.49986E+08
 
   -0.49931E+08         0.27074E+05         0.00000E+00
    0.27074E+05        -0.49997E+08         0.00000E+00
    0.00000E+00         0.00000E+00        -0.49986E+08
 
   -0.49932E+08         0.28831E+05         0.00000E+00
    0.28831E+05        -0.49996E+08         0.00000E+00
    0.00000E+00         0.00000E+00        -0.49986E+08
 
   -0.49933E+08         0.30565E+05         0.00000E+00
    0.30565E+05        -0.49996E+08         0.00000E+00
    0.00000E+00         0.00000E+00        -0.49986E+08
 
   -0.49934E+08         0.32275E+05         0.00000E+00
    0.32275E+05        -0.49996E+08         0.00000E+00
    0.00000E+00         0.00000E+00        -0.49986E+08
 
   -0.49935E+08         0.33960E+05         0.00000E+00
    0.33960E+05        -0.49995E+08         0.00000E+00
    0.00000E+00         0.00000E+00        -0.49986E+08
 
   -0.49936E+08         0.35618E+05         0.00000E+00
    0.35618E+05        -0.49994E+08         0.00000E+00
    0.00000E+00         0.00000E+00        -0.49986E+08
 
   -0.49937E+08         0.37247E+05         0.00000E+00
    0.37247E+05        -0.49994E+08         0.00000E+00
    0.00000E+00         0.00000E+00        -0.49986E+08
 
   -0.49938E+08         0.38846E+05         0.00000E+00
    0.38846E+05        -0.49993E+08         0.00000E+00
    0.00000E+00         0.00000E+00        -0.49986E+08
 
   -0.49940E+08         0.40413E+05         0.00000E+00
    0.40413E+05        -0.49993E+08         0.00000E+00
    0.00000E+00         0.00000E+00        -0.49986E+08
 
   -0.49941E+08         0.41948E+05         0.00000E+00
    0.41948E+05        -0.49992E+08         0.00000E+00
    0.00000E+00         0.00000E+00        -0.49987E+08
 
   -0.49942E+08         0.43449E+05         0.00000E+00
    0.43449E+05        -0.49991E+08         0.00000E+00
    0.00000E+00         0.00000E+00        -0.49987E+08
 
   -0.49944E+08         0.44914E+05         0.00000E+00
    0.44914E+05        -0.49991E+08         0.00000E+00
    0.00000E+00         0.00000E+00        -0.49987E+08
 
   -0.49945E+08         0.46343E+05         0.00000E+00
    0.46343E+05        -0.49990E+08         0.00000E+00
    0.00000E+00         0.00000E+00        -0.49987E+08
 
   -0.49947E+08         0.47733E+05         0.00000E+00
    0.47733E+05        -0.49989E+08         0.00000E+00
    0.00000E+00         0.00000E+00        -0.49987E+08
 
   -0.49948E+08         0.49083E+05         0.00000E+00
    0.49083E+05        -0.49988E+08         0.00000E+00
    0.00000E+00         0.00000E+00        -0.49987E+08
 
   -0.49950E+08         0.50393E+05         0.00000E+00
    0.50393E+05        -0.49988E+08         0.00000E+00
    0.00000E+00         0.00000E+00        -0.49988E+08
 
   -0.49952E+08         0.51661E+05         0.00000E+00
    0.51661E+05        -0.49987E+08         0.00000E+00
    0.00000E+00         0.00000E+00        -0.49988E+08
 
   -0.49953E+08         0.52885E+05         0.00000E+00
    0.52885E+05        -0.49986E+08         0.00000E+00
    0.00000E+00         0.00000E+00        -0.49988E+08
 
   -0.49955E+08         0.54066E+05         0.00000E+00
    0.54066E+05        -0.49985E+08         0.00000E+00
    0.00000E+00         0.00000E+00        -0.49988E+08
 
   -0.49957E+08         0.55200E+05         0.00000E+00
    0.55200E+05        -0.49984E+08         0.00000E+00
    0.00000E+00         0.00000E+00        -0.49988E+08
 
   -0.49959E+08         0.56288E+05         0.00000E+00
    0.56288E+05        -0.49983E+08         0.00000E+00
    0.00000E+00         0.00000E+00        -0.49988E+08
 
   -0.49961E+08         0.57327E+05         0.00000E+00
    0.57327E+05        -0.49983E+08         0.00000E+00
    0.00000E+00         0.00000E+00        -0.49989E+08
 
   -0.49963E+08         0.58318E+05         0.00000E+00
    0.58318E+05        -0.49982E+08         0.00000E+00
    0.00000E+00         0.00000E+00        -0.49989E+08
 
   -0.49965E+08         0.59259E+05         0.00000E+00
    0.59259E+05        -0.49981E+08         0.00000E+00
    0.00000E+00         0.00000E+00        -0.49989E+08
 
   -0.49967E+08         0.60148E+05         0.00000E+00
    0.60148E+05        -0.49980E+08         0.00000E+00
    0.00000E+00         0.00000E+00        -0.49989E+08
 
   -0.49969E+08         0.60986E+05         0.00000E+00
    0.60986E+05        -0.49979E+08         0.00000E+00
    0.00000E+00         0.00000E+00        -0.49990E+08
 
   -0.49971E+08         0.61770E+05         0.00000E+00
    0.61770E+05        -0.49978E+08         0.00000E+00
    0.00000E+00         0.00000E+00        -0.49990E+08
 
   -0.49973E+08         0.62500E+05         0.00000E+00
    0.62500E+05        -0.49977E+08         0.00000E+00
    0.00000E+00         0.00000E+00        -0.49990E+08
 
   -0.49975E+08         0.63176E+05         0.00000E+00
    0.63176E+05        -0.49976E+08         0.00000E+00
    0.00000E+00         0.00000E+00        -0.49990E+08
 
   -0.49977E+08         0.63795E+05         0.00000E+00
    0.63795E+05        -0.49975E+08         0.00000E+00
    0.00000E+00         0.00000E+00        -0.49990E+08
 
   -0.49979E+08         0.64358E+05         0.00000E+00
    0.64358E+05        -0.49974E+08         0.00000E+00
    0.00000E+00         0.00000E+00        -0.49991E+08
 
   -0.49982E+08         0.64864E+05         0.00000E+00
    0.64864E+05        -0.49973E+08         0.00000E+00
    0.00000E+00         0.00000E+00        -0.49991E+08
 
   -0.49984E+08         0.65311E+05         0.00000E+00
    0.65311E+05        -0.49972E+08         0.00000E+00
    0.00000E+00         0.00000E+00        -0.49991E+08
 
   -0.49986E+08         0.65699E+05         0.00000E+00
    0.65699E+05        -0.49971E+08         0.00000E+00
    0.00000E+00         0.00000E+00        -0.49991E+08
 
   -0.49989E+08         0.66027E+05         0.00000E+00
    0.66027E+05        -0.49970E+08         0.00000E+00
    0.00000E+00         0.00000E+00        -0.49992E+08
 
   -0.49991E+08         0.66296E+05         0.00000E+00
    0.66296E+05        -0.49969E+08         0.00000E+00
    0.00000E+00         0.00000E+00        -0.49992E+08
 
   -0.49915E+08         0.10331E+04         0.00000E+00
    0.10331E+04        -0.50000E+08         0.00000E+00
    0.00000E+00         0.00000E+00        -0.49983E+08
 
   -0.49915E+08         0.31025E+04         0.00000E+00
    0.31025E+04        -0.50000E+08         0.00000E+00
    0.00000E+00         0.00000E+00        -0.49983E+08
 
   -0.49915E+08         0.51712E+04         0.00000E+00
    0.51712E+04        -0.50000E+08         0.00000E+00
    0.00000E+00         0.00000E+00        -0.49983E+08
 
   -0.49915E+08         0.72375E+04         0.00000E+00
    0.72375E+04        -0.50000E+08         0.00000E+00
    0.00000E+00         0.00000E+00        -0.49983E+08
 
   -0.49916E+08         0.92997E+04         0.00000E+00
    0.92997E+04        -0.50000E+08         0.00000E+00
    0.00000E+00         0.00000E+00        -0.49983E+08
 
   -0.49916E+08         0.11356E+05         0.00000E+00
    0.11356E+05        -0.50000E+08         0.00000E+00
    0.00000E+00         0.00000E+00        -0.49983E+08
 
   -0.49916E+08         0.13405E+05         0.00000E+00
    0.13405E+05        -0.49999E+08         0.00000E+00
    0.00000E+00         0.00000E+00        -0.49983E+08
 
   -0.49917E+08         0.15445E+05         0.00000E+00
    0.15445E+05        -0.49999E+08         0.00000E+00
    0.00000E+00         0.00000E+00        -0.49983E+08
 
   -0.49917E+08         0.17474E+05         0.00000E+00
    0.17474E+05        -0.49999E+08         0.00000E+00
    0.00000E+00         0.00000E+00        -0.49983E+08
 
   -0.49918E+08         0.19490E+05         0.00000E+00
    0.19490E+05        -0.49999E+08         0.00000E+00
    0.00000E+00         0.00000E+00        -0.49983E+08
 
   -0.49919E+08         0.21492E+05         0.00000E+00
    0.21492E+05        -0.49998E+08         0.00000E+00
    0.00000E+00         0.00000E+00        -0.49983E+08
 
   -0.49919E+08         0.23478E+05         0.00000E+00
    0.23478E+05        -0.49998E+08         0.00000E+00
    0.00000E+00         0.00000E+00        -0.49983E+08
 
   -0.49920E+08         0.25446E+05         0.00000E+00
    0.25446E+05        -0.49997E+08         0.00000E+00
    0.00000E+00         0.00000E+00        -0.49983E+08
 
   -0.49921E+08         0.27395E+05         0.00000E+00
    0.27395E+05        -0.49997E+08         0.00000E+00
    0.00000E+00         0.00000E+00        -0.49984E+08
 
   -0.49922E+08         0.29323E+05         0.00000E+00
    0.29323E+05        -0.49997E+08         0.00000E+00
    0.00000E+00         0.00000E+00        -0.49984E+08
 
   -0.49923E+08         0.31228E+05         0.00000E+00
    0.31228E+05        -0.49996E+08         0.00000E+00
    0.00000E+00         0.00000E+00        -0.49984E+08
 
   -0.49924E+08         0.33109E+05         0.00000E+00
    0.33109E+05        -0.49995E+08         0.00000E+00
    0.00000E+00         0.00000E+00        -0.49984E+08
 
   -0.49925E+08         0.34963E+05         0.00000E+00
    0.34963E+05        -0.49995E+08         0.00000E+00
    0.00000E+00         0.00000E+00        -0.49984E+08
 
   -0.49926E+08         0.36791E+05         0.00000E+00
    0.36791E+05        -0.49994E+08         0.00000E+00
    0.00000E+00         0.00000E+00        -0.49984E+08
 
   -0.49927E+08         0.38588E+05         0.00000E+00
    0.38588E+05        -0.49994E+08         0.00000E+00
    0.00000E+00         0.00000E+00        -0.49984E+08
 
   -0.49929E+08         0.40355E+05         0.00000E+00
    0.40355E+05        -0.49993E+08         0.00000E+00
    0.00000E+00         0.00000E+00        -0.49984E+08
 
   -0.49930E+08         0.42090E+05         0.00000E+00
    0.42090E+05        -0.49992E+08         0.00000E+00
    0.00000E+00         0.00000E+00        -0.49985E+08
 
   -0.49932E+08         0.43791E+05         0.00000E+00
    0.43791E+05        -0.49992E+08         0.00000E+00
    0.00000E+00         0.00000E+00        -0.49985E+08
 
   -0.49933E+08         0.45456E+05         0.00000E+00
    0.45456E+05        -0.49991E+08         0.00000E+00
    0.00000E+00         0.00000E+00        -0.49985E+08
 
   -0.49935E+08         0.47084E+05         0.00000E+00
    0.47084E+05        -0.49990E+08         0.00000E+00
    0.00000E+00         0.00000E+00        -0.49985E+08
 
   -0.49936E+08         0.48674E+05         0.00000E+00
    0.48674E+05        -0.49989E+08         0.00000E+00
    0.00000E+00         0.00000E+00        -0.49985E+08
 
   -0.49938E+08         0.50224E+05         0.00000E+00
    0.50224E+05        -0.49989E+08         0.00000E+00
    0.00000E+00         0.00000E+00        -0.49985E+08
 
   -0.49940E+08         0.51732E+05         0.00000E+00
    0.51732E+05        -0.49988E+08         0.00000E+00
    0.00000E+00         0.00000E+00        -0.49985E+08
 
   -0.49941E+08         0.53198E+05         0.00000E+00
    0.53198E+05        -0.49987E+08         0.00000E+00
    0.00000E+00         0.00000E+00        -0.49986E+08
 
   -0.49943E+08         0.54619E+05         0.00000E+00
    0.54619E+05        -0.49986E+08         0.00000E+00
    0.00000E+00         0.00000E+00        -0.49986E+08
 
   -0.49945E+08         0.55995E+05         0.00000E+00
    0.55995E+05        -0.49985E+08         0.00000E+00
    0.00000E+00         0.00000E+00        -0.49986E+08
 
   -0.49947E+08         0.57324E+05         0.00000E+00
    0.57324E+05        -0.49984E+08         0.00000E+00
    0.00000E+00         0.00000E+00        -0.49986E+08
 
   -0.49949E+08         0.58605E+05         0.00000E+00
    0.58605E+05        -0.49983E+08         0.00000E+00
    0.00000E+00         0.00000E+00        -0.49986E+08
 
   -0.49951E+08         0.59836E+05         0.00000E+00
    0.59836E+05        -0.49982E+08         0.00000E+00
    0.00000E+00         0.00000E+00        -0.49987E+08
 
   -0.49953E+08         0.61017E+05         0.00000E+00
    0.61017E+05        -0.49981E+08         0.00000E+00
    0.00000E+00         0.00000E+00        -0.49987E+08
 
   -0.49955E+08         0.62146E+05         0.00000E+00
    0.62146E+05        -0.49980E+08         0.00000E+00
    0.00000E+00         0.00000E+00        -0.49987E+08
 
   -0.49958E+08         0.63222E+05         0.00000E+00
    0.63222E+05        -0.49979E+08         0.00000E+00
    0.00000E+00         0.00000E+00        -0.49987E+08
 
   -0.49960E+08         0.64243E+05         0.00000E+00
    0.64243E+05        -0.49978E+08         0.00000E+00
    0.00000E+00         0.00000E+00        -0.49988E+08
 
   -0.49962E+08         0.65209E+05         0.00000E+00
    0.65209E+05        -0.49977E+08         0.00000E+00
    0.00000E+00         0.00000E+00        -0.49988E+08
 
   -0.49964E+08         0.66118E+05         0.00000E+00
    0.66118E+05        -0.49976E+08         0.00000E+00
    0.00000E+00         0.00000E+00        -0.49988E+08
 
   -0.49967E+08         0.66970E+05         0.00000E+00
    0.66970E+05        -0.49975E+08         0.00000E+00
    0.00000E+00         0.00000E+00        -0.49988E+08
 
   -0.49969E+08         0.67764E+05         0.00000E+00
    0.67764E+05        -0.49974E+08         0.00000E+00
    0.00000E+00         0.00000E+00        -0.49989E+08
 
   -0.49972E+08         0.68498E+05         0.00000E+00
    0.68498E+05        -0.49973E+08         0.00000E+00
    0.00000E+00         0.00000E+00        -0.49989E+08
 
   -0.49974E+08         0.69171E+05         0.00000E+00
    0.69171E+05        -0.49971E+08         0.00000E+00
    0.00000E+00         0.00000E+00        -0.49989E+08
 
   -0.49977E+08         0.69783E+05         0.00000E+00
    0.69783E+05        -0.49970E+08         0.00000E+00
    0.00000E+00         0.00000E+00        -0.49989E+08
 
   -0.49979E+08         0.70333E+05         0.00000E+00
    0.70333E+05        -0.49969E+08         0.00000E+00
    0.00000E+00         0.00000E+00        -0.49990E+08
 
   -0.49982E+08         0.70819E+05         0.00000E+00
    0.70819E+05        -0.49968E+08         0.00000E+00
    0.00000E+00         0.00000E+00        -0.49990E+08
 
   -0.49984E+08         0.71242E+05         0.00000E+00
    0.71242E+05        -0.49967E+08         0.00000E+00
    0.00000E+00         0.00000E+00        -0.49990E+08
 
   -0.49987E+08         0.71599E+05         0.00000E+00
    0.71599E+05        -0.49966E+08         0.00000E+00
    0.00000E+00         0.00000E+00        -0.49991E+08
 
   -0.49990E+08         0.71891E+05         0.00000E+00
    0.71891E+05        -0.49964E+08         0.00000E+00
    0.00000E+00         0.00000E+00        -0.49991E+08
 
   -0.49904E+08         0.11209E+04         0.00000E+00
    0.11209E+04        -0.50000E+08         0.00000E+00
    0.00000E+00         0.00000E+00        -0.49981E+08
 
   -0.49904E+08         0.33678E+04         0.00000E+00
    0.33678E+04        -0.50000E+08         0.00000E+00
    0.00000E+00         0.00000E+00        -0.49981E+08
 
   -0.49904E+08         0.56146E+04         0.00000E+00
    0.56146E+04        -0.50000E+08         0.00000E+00
    0.00000E+00         0.00000E+00        -0.49981E+08
 
   -0.49904E+08         0.78592E+04         0.00000E+00
    0.78592E+04        -0.50000E+08         0.00000E+00
    0.00000E+00         0.00000E+00        -0.49981E+08
 
   -0.49905E+08         0.10100E+05         0.00000E+00
    0.10100E+05        -0.50000E+08         0.00000E+00
    0.00000E+00         0.00000E+00        -0.49981E+08
 
   -0.49905E+08         0.12335E+05         0.00000E+00
    0.12335E+05        -0.49999E+08         0.00000E+00
    0.00000E+00         0.00000E+00        -0.49981E+08
 
   -0.49906E+08         0.14562E+05         0.00000E+00
    0.14562E+05        -0.49999E+08         0.00000E+00
    0.00000E+00         0.00000E+00        -0.49981E+08
 
   -0.49906E+08         0.16780E+05         0.00000E+00
    0.16780E+05        -0.49999E+08         0.00000E+00
    0.00000E+00         0.00000E+00        -0.49981E+08
 
   -0.49907E+08         0.18986E+05         0.00000E+00
    0.18986E+05        -0.49999E+08         0.00000E+00
    0.00000E+00         0.00000E+00        -0.49981E+08
 
   -0.49907E+08         0.21178E+05         0.00000E+00
    0.21178E+05        -0.49998E+08         0.00000E+00
    0.00000E+00         0.00000E+00        -0.49981E+08
 
   -0.49908E+08         0.23356E+05         0.00000E+00
    0.23356E+05        -0.49998E+08         0.00000E+00
    0.00000E+00         0.00000E+00        -0.49981E+08
 
   -0.49909E+08         0.25516E+05         0.00000E+00
    0.25516E+05        -0.49998E+08         0.00000E+00
    0.00000E+00         0.00000E+00        -0.49981E+08
 
   -0.49910E+08         0.27657E+05         0.00000E+00
    0.27657E+05        -0.49997E+08         0.00000E+00
    0.00000E+00         0.00000E+00        -0.49981E+08
 
   -0.49911E+08         0.29778E+05         0.00000E+00
    0.29778E+05        -0.49997E+08         0.00000E+00
    0.00000E+00         0.00000E+00        -0.49981E+08
 
   -0.49912E+08         0.31875E+05         0.00000E+00
    0.31875E+05        -0.49996E+08         0.00000E+00
    0.00000E+00         0.00000E+00        -0.49982E+08
 
   -0.49913E+08         0.33948E+05         0.00000E+00
    0.33948E+05        -0.49995E+08         0.00000E+00
    0.00000E+00         0.00000E+00        -0.49982E+08
 
   -0.49914E+08         0.35995E+05         0.00000E+00
    0.35995E+05        -0.49995E+08         0.00000E+00
    0.00000E+00         0.00000E+00        -0.49982E+08
 
   -0.49915E+08         0.38013E+05         0.00000E+00
    0.38013E+05        -0.49994E+08         0.00000E+00
    0.00000E+00         0.00000E+00        -0.49982E+08
 
   -0.49917E+08         0.40002E+05         0.00000E+00
    0.40002E+05        -0.49994E+08         0.00000E+00
    0.00000E+00         0.00000E+00        -0.49982E+08
 
   -0.49918E+08         0.41959E+05         0.00000E+00
    0.41959E+05        -0.49993E+08         0.00000E+00
    0.00000E+00         0.00000E+00        -0.49982E+08
 
   -0.49920E+08         0.43882E+05         0.00000E+00
    0.43882E+05        -0.49992E+08         0.00000E+00
    0.00000E+00         0.00000E+00        -0.49982E+08
 
   -0.49921E+08         0.45770E+05         0.00000E+00
    0.45770E+05        -0.49991E+08         0.00000E+00
    0.00000E+00         0.00000E+00        -0.49983E+08
 
   -0.49923E+08         0.47621E+05         0.00000E+00
    0.47621E+05        -0.49991E+08         0.00000E+00
    0.00000E+00         0.00000E+00        -0.49983E+08
 
   -0.49925E+08         0.49434E+05         0.00000E+00
    0.49434E+05        -0.49990E+08         0.00000E+00
    0.00000E+00         0.00000E+00        -0.49983E+08
 
   -0.49926E+08         0.51206E+05         0.00000E+00
    0.51206E+05        -0.49989E+08         0.00000E+00
    0.00000E+00         0.00000E+00        -0.49983E+08
 
   -0.49928E+08         0.52937E+05         0.00000E+00
    0.52937E+05        -0.49988E+08         0.00000E+00
    0.00000E+00         0.00000E+00        -0.49983E+08
 
   -0.49930E+08         0.54624E+05         0.00000E+00
    0.54624E+05        -0.49987E+08         0.00000E+00
    0.00000E+00         0.00000E+00        -0.49983E+08
 
   -0.49932E+08         0.56266E+05         0.00000E+00
    0.56266E+05        -0.49986E+08         0.00000E+00
    0.00000E+00         0.00000E+00        -0.49984E+08
 
   -0.49934E+08         0.57861E+05         0.00000E+00
    0.57861E+05        -0.49985E+08         0.00000E+00
    0.00000E+00         0.00000E+00        -0.49984E+08
 
   -0.49936E+08         0.59409E+05         0.00000E+00
    0.59409E+05        -0.49984E+08         0.00000E+00
    0.00000E+00         0.00000E+00        -0.49984E+08
 
   -0.49938E+08         0.60907E+05         0.00000E+00
    0.60907E+05        -0.49983E+08         0.00000E+00
    0.00000E+00         0.00000E+00        -0.49984E+08
 
   -0.49940E+08         0.62353E+05         0.00000E+00
    0.62353E+05        -0.49982E+08         0.00000E+00
    0.00000E+00         0.00000E+00        -0.49984E+08
 
   -0.49943E+08         0.63748E+05         0.00000E+00
    0.63748E+05        -0.49981E+08         0.00000E+00
    0.00000E+00         0.00000E+00        -0.49985E+08
 
   -0.49945E+08         0.65089E+05         0.00000E+00
    0.65089E+05        -0.49980E+08         0.00000E+00
    0.00000E+00         0.00000E+00        -0.49985E+08
 
   -0.49947E+08         0.66374E+05         0.00000E+00
    0.66374E+05        -0.49979E+08         0.00000E+00
    0.00000E+00         0.00000E+00        -0.49985E+08
 
   -0.49950E+08         0.67603E+05         0.00000E+00
    0.67603E+05        -0.49978E+08         0.00000E+00
    0.00000E+00         0.00000E+00        -0.49985E+08
 
   -0.49952E+08         0.68775E+05         0.00000E+00
    0.68775E+05        -0.49976E+08         0.00000E+00
    0.00000E+00         0.00000E+00        -0.49986E+08
 
   -0.49955E+08         0.69887E+05         0.00000E+00
    0.69887E+05        -0.49975E+08         0.00000E+00
    0.00000E+00         0.00000E+00        -0.49986E+08
 
   -0.49957E+08         0.70940E+05         0.00000E+00
    0.70940E+05        -0.49974E+08         0.00000E+00
    0.00000E+00         0.00000E+00        -0.49986E+08
 
   -0.49960E+08         0.71930E+05         0.00000E+00
    0.71930E+05        -0.49973E+08         0.00000E+00
    0.00000E+00         0.00000E+00        -0.49987E+08
 
   -0.49963E+08         0.72859E+05         0.00000E+00
    0.72859E+05        -0.49972E+08         0.00000E+00
    0.00000E+00         0.00000E+00        -0.49987E+08
 
   -0.49965E+08         0.73723E+05         0.00000E+00
    0.73723E+05        -0.49970E+08         0.00000E+00
    0.00000E+00         0.00000E+00        -0.49987E+08
 
   -0.49968E+08         0.74523E+05         0.00000E+00
    0.74523E+05        -0.49969E+08         0.00000E+00
    0.00000E+00         0.00000E+00        -0.49987E+08
 
   -0.49971E+08         0.75257E+05         0.00000E+00
    0.75257E+05        -0.49968E+08         0.00000E+00
    0.00000E+00         0.00000E+00        -0.49988E+08
 
   -0.49974E+08         0.75925E+05         0.00000E+00
    0.75925E+05        -0.49966E+08         0.00000E+00
    0.00000E+00         0.00000E+00        -0.49988E+08
 
   -0.49976E+08         0.76524E+05         0.00000E+00
    0.76524E+05        -0.49965E+08         0.00000E+00
    0.00000E+00         0.00000E+00        -0.49988E+08
 
   -0.49979E+08         0.77055E+05         0.00000E+00
    0.77055E+05        -0.49964E+08         0.00000E+00
    0.00000E+00         0.00000E+00        -0.49989E+08
 
   -0.49982E+08         0.77516E+05         0.00000E+00
    0.77516E+05        -0.49962E+08         0.00000E+00
    0.00000E+00         0.00000E+00        -0.49989E+08
 
   -0.49985E+08         0.77907E+05         0.00000E+00
    0.77907E+05        -0.49961E+08         0.00000E+00
    0.00000E+00         0.00000E+00        -0.49989E+08
 
   -0.49988E+08         0.78227E+05         0.00000E+00
    0.78227E+05        -0.49960E+08         0.00000E+00
    0.00000E+00         0.00000E+00        -0.49990E+08
 
   -0.49892E+08         0.12202E+04         0.00000E+00
    0.12202E+04        -0.50000E+08         0.00000E+00
    0.00000E+00         0.00000E+00        -0.49978E+08
 
   -0.49892E+08         0.36679E+04         0.00000E+00
    0.36679E+04        -0.50000E+08         0.00000E+00
    0.00000E+00         0.00000E+00        -0.49978E+08
 
   -0.49893E+08         0.61161E+04         0.00000E+00
    0.61161E+04        -0.50000E+08         0.00000E+00
    0.00000E+00         0.00000E+00        -0.49978E+08
 
   -0.49893E+08         0.85626E+04         0.00000E+00
    0.85626E+04        -0.50000E+08         0.00000E+00
    0.00000E+00         0.00000E+00        -0.49979E+08
 
   -0.49893E+08         0.11005E+05         0.00000E+00
    0.11005E+05        -0.50000E+08         0.00000E+00
    0.00000E+00         0.00000E+00        -0.49979E+08
 
   -0.49893E+08         0.13442E+05         0.00000E+00
    0.13442E+05        -0.49999E+08         0.00000E+00
    0.00000E+00         0.00000E+00        -0.49979E+08
 
   -0.49894E+08         0.15871E+05         0.00000E+00
    0.15871E+05        -0.49999E+08         0.00000E+00
    0.00000E+00         0.00000E+00        -0.49979E+08
 
   -0.49895E+08         0.18290E+05         0.00000E+00
    0.18290E+05        -0.49999E+08         0.00000E+00
    0.00000E+00         0.00000E+00        -0.49979E+08
 
   -0.49895E+08         0.20697E+05         0.00000E+00
    0.20697E+05        -0.49998E+08         0.00000E+00
    0.00000E+00         0.00000E+00        -0.49979E+08
 
   -0.49896E+08         0.23089E+05         0.00000E+00
    0.23089E+05        -0.49998E+08         0.00000E+00
    0.00000E+00         0.00000E+00        -0.49979E+08
 
   -0.49897E+08         0.25465E+05         0.00000E+00
    0.25465E+05        -0.49998E+08         0.00000E+00
    0.00000E+00         0.00000E+00        -0.49979E+08
 
   -0.49898E+08         0.27823E+05         0.00000E+00
    0.27823E+05        -0.49997E+08         0.00000E+00
    0.00000E+00         0.00000E+00        -0.49979E+08
 
   -0.49899E+08         0.30160E+05         0.00000E+00
    0.30160E+05        -0.49997E+08         0.00000E+00
    0.00000E+00         0.00000E+00        -0.49979E+08
 
   -0.49900E+08         0.32474E+05         0.00000E+00
    0.32474E+05        -0.49996E+08         0.00000E+00
    0.00000E+00         0.00000E+00        -0.49979E+08
 
   -0.49901E+08         0.34763E+05         0.00000E+00
    0.34763E+05        -0.49996E+08         0.00000E+00
    0.00000E+00         0.00000E+00        -0.49979E+08
 
   -0.49902E+08         0.37026E+05         0.00000E+00
    0.37026E+05        -0.49995E+08         0.00000E+00
    0.00000E+00         0.00000E+00        -0.49979E+08
 
   -0.49904E+08         0.39260E+05         0.00000E+00
    0.39260E+05        -0.49994E+08         0.00000E+00
    0.00000E+00         0.00000E+00        -0.49980E+08
 
   -0.49905E+08         0.41463E+05         0.00000E+00
    0.41463E+05        -0.49994E+08         0.00000E+00
    0.00000E+00         0.00000E+00        -0.49980E+08
 
   -0.49906E+08         0.43634E+05         0.00000E+00
    0.43634E+05        -0.49993E+08         0.00000E+00
    0.00000E+00         0.00000E+00        -0.49980E+08
 
   -0.49908E+08         0.45770E+05         0.00000E+00
    0.45770E+05        -0.49992E+08         0.00000E+00
    0.00000E+00         0.00000E+00        -0.49980E+08
 
   -0.49910E+08         0.47869E+05         0.00000E+00
    0.47869E+05        -0.49991E+08         0.00000E+00
    0.00000E+00         0.00000E+00        -0.49980E+08
 
   -0.49911E+08         0.49930E+05         0.00000E+00
    0.49930E+05        -0.49990E+08         0.00000E+00
    0.00000E+00         0.00000E+00        -0.49980E+08
 
   -0.49913E+08         0.51950E+05         0.00000E+00
    0.51950E+05        -0.49989E+08         0.00000E+00
    0.00000E+00         0.00000E+00        -0.49981E+08
 
   -0.49915E+08         0.53929E+05         0.00000E+00
    0.53929E+05        -0.49988E+08         0.00000E+00
    0.00000E+00         0.00000E+00        -0.49981E+08
 
   -0.49917E+08         0.55863E+05         0.00000E+00
    0.55863E+05        -0.49987E+08         0.00000E+00
    0.00000E+00         0.00000E+00        -0.49981E+08
 
   -0.49919E+08         0.57752E+05         0.00000E+00
    0.57752E+05        -0.49986E+08         0.00000E+00
    0.00000E+00         0.00000E+00        -0.49981E+08
 
   -0.49921E+08         0.59593E+05         0.00000E+00
    0.59593E+05        -0.49985E+08         0.00000E+00
    0.00000E+00         0.00000E+00        -0.49981E+08
 
   -0.49923E+08         0.61385E+05         0.00000E+00
    0.61385E+05        -0.49984E+08         0.00000E+00
    0.00000E+00         0.00000E+00        -0.49982E+08
 
   -0.49926E+08         0.63127E+05         0.00000E+00
    0.63127E+05        -0.49983E+08         0.00000E+00
    0.00000E+00         0.00000E+00        -0.49982E+08
 
   -0.49928E+08         0.64815E+05         0.00000E+00
    0.64815E+05        -0.49982E+08         0.00000E+00
    0.00000E+00         0.00000E+00        -0.49982E+08
 
   -0.49930E+08         0.66450E+05         0.00000E+00
    0.66450E+05        -0.49981E+08         0.00000E+00
    0.00000E+00         0.00000E+00        -0.49982E+08
 
   -0.49933E+08         0.68029E+05         0.00000E+00
    0.68029E+05        -0.49980E+08         0.00000E+00
    0.00000E+00         0.00000E+00        -0.49983E+08
 
   -0.49935E+08         0.69551E+05         0.00000E+00
    0.69551E+05        -0.49979E+08         0.00000E+00
    0.00000E+00         0.00000E+00        -0.49983E+08
 
   -0.49938E+08         0.71014E+05         0.00000E+00
    0.71014E+05        -0.49977E+08         0.00000E+00
    0.00000E+00         0.00000E+00        -0.49983E+08
 
   -0.49941E+08         0.72417E+05         0.00000E+00
    0.72417E+05        -0.49976E+08         0.00000E+00
    0.00000E+00         0.00000E+00        -0.49983E+08
 
   -0.49943E+08         0.73759E+05         0.00000E+00
    0.73759E+05        -0.49975E+08         0.00000E+00
    0.00000E+00         0.00000E+00        -0.49984E+08
 
   -0.49946E+08         0.75038E+05         0.00000E+00
    0.75038E+05        -0.49973E+08         0.00000E+00
    0.00000E+00         0.00000E+00        -0.49984E+08
 
   -0.49949E+08         0.76252E+05         0.00000E+00
    0.76252E+05        -0.49972E+08         0.00000E+00
    0.00000E+00         0.00000E+00        -0.49984E+08
 
   -0.49952E+08         0.77401E+05         0.00000E+00
    0.77401E+05        -0.49971E+08         0.00000E+00
    0.00000E+00         0.00000E+00        -0.49985E+08
 
   -0.49955E+08         0.78482E+05         0.00000E+00
    0.78482E+05        -0.49969E+08         0.00000E+00
    0.00000E+00         0.00000E+00        -0.49985E+08
 
   -0.49958E+08         0.79496E+05         0.00000E+00
    0.79496E+05        -0.49968E+08         0.00000E+00
    0.00000E+00         0.00000E+00        -0.49985E+08
 
   -0.49961E+08         0.80441E+05         0.00000E+00
    0.80441E+05        -0.49967E+08         0.00000E+00
    0.00000E+00         0.00000E+00        -0.49985E+08
 
   -0.49964E+08         0.81314E+05         0.00000E+00
    0.81314E+05        -0.49965E+08         0.00000E+00
    0.00000E+00         0.00000E+00        -0.49986E+08
 
   -0.49967E+08         0.82117E+05         0.00000E+00
    0.82117E+05        -0.49964E+08         0.00000E+00
    0.00000E+00         0.00000E+00        -0.49986E+08
 
   -0.49970E+08         0.82846E+05         0.00000E+00
    0.82846E+05        -0.49962E+08         0.00000E+00
    0.00000E+00         0.00000E+00        -0.49986E+08
 
   -0.49974E+08         0.83502E+05         0.00000E+00
    0.83502E+05        -0.49961E+08         0.00000E+00
    0.00000E+00         0.00000E+00        -0.49987E+08
 
   -0.49977E+08         0.84083E+05         0.00000E+00
    0.84083E+05        -0.49959E+08         0.00000E+00
    0.00000E+00         0.00000E+00        -0.49987E+08
 
   -0.49980E+08         0.84588E+05         0.00000E+00
    0.84588E+05        -0.49958E+08         0.00000E+00
    0.00000E+00         0.00000E+00        -0.49988E+08
 
   -0.49983E+08         0.85016E+05         0.00000E+00
    0.85016E+05        -0.49956E+08         0.00000E+00
    0.00000E+00         0.00000E+00        -0.49988E+08
 
   -0.49987E+08         0.85367E+05         0.00000E+00
    0.85367E+05        -0.49955E+08         0.00000E+00
    0.00000E+00         0.00000E+00        -0.49988E+08
 
   -0.49880E+08         0.13323E+04         0.00000E+00
    0.13323E+04        -0.50000E+08         0.00000E+00
    0.00000E+00         0.00000E+00        -0.49976E+08
 
   -0.49880E+08         0.40070E+04         0.00000E+00
    0.40070E+04        -0.50000E+08         0.00000E+00
    0.00000E+00         0.00000E+00        -0.49976E+08
 
   -0.49880E+08         0.66830E+04         0.00000E+00
    0.66830E+04        -0.50000E+08         0.00000E+00
    0.00000E+00         0.00000E+00        -0.49976E+08
 
   -0.49880E+08         0.93578E+04         0.00000E+00
    0.93578E+04        -0.50000E+08         0.00000E+00
    0.00000E+00         0.00000E+00        -0.49976E+08
 
   -0.49880E+08         0.12029E+05         0.00000E+00
    0.12029E+05        -0.50000E+08         0.00000E+00
    0.00000E+00         0.00000E+00        -0.49976E+08
 
   -0.49881E+08         0.14694E+05         0.00000E+00
    0.14694E+05        -0.49999E+08         0.00000E+00
    0.00000E+00         0.00000E+00        -0.49976E+08
 
   -0.49881E+08         0.17352E+05         0.00000E+00
    0.17352E+05        -0.49999E+08         0.00000E+00
    0.00000E+00         0.00000E+00        -0.49976E+08
 
   -0.49882E+08         0.19998E+05         0.00000E+00
    0.19998E+05        -0.49999E+08         0.00000E+00
    0.00000E+00         0.00000E+00        -0.49976E+08
 
   -0.49883E+08         0.22631E+05         0.00000E+00
    0.22631E+05        -0.49998E+08         0.00000E+00
    0.00000E+00         0.00000E+00        -0.49976E+08
 
   -0.49883E+08         0.25249E+05         0.00000E+00
    0.25249E+05        -0.49998E+08         0.00000E+00
    0.00000E+00         0.00000E+00        -0.49976E+08
 
   -0.49884E+08         0.27849E+05         0.00000E+00
    0.27849E+05        -0.49997E+08         0.00000E+00
    0.00000E+00         0.00000E+00        -0.49976E+08
 
   -0.49885E+08         0.30429E+05         0.00000E+00
    0.30429E+05        -0.49997E+08         0.00000E+00
    0.00000E+00         0.00000E+00        -0.49976E+08
 
   -0.49887E+08         0.32987E+05         0.00000E+00
    0.32987E+05        -0.49996E+08         0.00000E+00
    0.00000E+00         0.00000E+00        -0.49977E+08
 
   -0.49888E+08         0.35520E+05         0.00000E+00
    0.35520E+05        -0.49996E+08         0.00000E+00
    0.00000E+00         0.00000E+00        -0.49977E+08
 
   -0.49889E+08         0.38025E+05         0.00000E+00
    0.38025E+05        -0.49995E+08         0.00000E+00
    0.00000E+00         0.00000E+00        -0.49977E+08
 
   -0.49890E+08         0.40502E+05         0.00000E+00
    0.40502E+05        -0.49994E+08         0.00000E+00
    0.00000E+00         0.00000E+00        -0.49977E+08
 
   -0.49892E+08         0.42947E+05         0.00000E+00
    0.42947E+05        -0.49993E+08         0.00000E+00
    0.00000E+00         0.00000E+00        -0.49977E+08
 
   -0.49894E+08         0.45358E+05         0.00000E+00
    0.45358E+05        -0.49993E+08         0.00000E+00
    0.00000E+00         0.00000E+00        -0.49977E+08
 
   -0.49895E+08         0.47733E+05         0.00000E+00
    0.47733E+05        -0.49992E+08         0.00000E+00
    0.00000E+00         0.00000E+00        -0.49977E+08
 
   -0.49897E+08         0.50070E+05         0.00000E+00
    0.50070E+05        -0.49991E+08         0.00000E+00
    0.00000E+00         0.00000E+00        -0.49978E+08
 
   -0.49899E+08         0.52367E+05         0.00000E+00
    0.52367E+05        -0.49990E+08         0.00000E+00
    0.00000E+00         0.00000E+00        -0.49978E+08
 
   -0.49901E+08         0.54622E+05         0.00000E+00
    0.54622E+05        -0.49989E+08         0.00000E+00
    0.00000E+00         0.00000E+00        -0.49978E+08
 
   -0.49903E+08         0.56832E+05         0.00000E+00
    0.56832E+05        -0.49988E+08         0.00000E+00
    0.00000E+00         0.00000E+00        -0.49978E+08
 
   -0.49905E+08         0.58996E+05         0.00000E+00
    0.58996E+05        -0.49987E+08         0.00000E+00
    0.00000E+00         0.00000E+00        -0.49978E+08
 
   -0.49907E+08         0.61112E+05         0.00000E+00
    0.61112E+05        -0.49986E+08         0.00000E+00
    0.00000E+00         0.00000E+00        -0.49979E+08
 
   -0.49909E+08         0.63178E+05         0.00000E+00
    0.63178E+05        -0.49985E+08         0.00000E+00
    0.00000E+00         0.00000E+00        -0.49979E+08
 
   -0.49912E+08         0.65192E+05         0.00000E+00
    0.65192E+05        -0.49984E+08         0.00000E+00
    0.00000E+00         0.00000E+00        -0.49979E+08
 
   -0.49914E+08         0.67151E+05         0.00000E+00
    0.67151E+05        -0.49982E+08         0.00000E+00
    0.00000E+00         0.00000E+00        -0.49979E+08
 
   -0.49917E+08         0.69055E+05         0.00000E+00
    0.69055E+05        -0.49981E+08         0.00000E+00
    0.00000E+00         0.00000E+00        -0.49980E+08
 
   -0.49919E+08         0.70902E+05         0.00000E+00
    0.70902E+05        -0.49980E+08         0.00000E+00
    0.00000E+00         0.00000E+00        -0.49980E+08
 
   -0.49922E+08         0.72689E+05         0.00000E+00
    0.72689E+05        -0.49979E+08         0.00000E+00
    0.00000E+00         0.00000E+00        -0.49980E+08
 
   -0.49925E+08         0.74415E+05         0.00000E+00
    0.74415E+05        -0.49977E+08         0.00000E+00
    0.00000E+00         0.00000E+00        -0.49980E+08
 
   -0.49928E+08         0.76079E+05         0.00000E+00
    0.76079E+05        -0.49976E+08         0.00000E+00
    0.00000E+00         0.00000E+00        -0.49981E+08
 
   -0.49931E+08         0.77678E+05         0.00000E+00
    0.77678E+05        -0.49974E+08         0.00000E+00
    0.00000E+00         0.00000E+00        -0.49981E+08
 
   -0.49934E+08         0.79212E+05         0.00000E+00
    0.79212E+05        -0.49973E+08         0.00000E+00
    0.00000E+00         0.00000E+00        -0.49981E+08
 
   -0.49937E+08         0.80679E+05         0.00000E+00
    0.80679E+05        -0.49972E+08         0.00000E+00
    0.00000E+00         0.00000E+00        -0.49982E+08
 
   -0.49940E+08         0.82077E+05         0.00000E+00
    0.82077E+05        -0.49970E+08         0.00000E+00
    0.00000E+00         0.00000E+00        -0.49982E+08
 
   -0.49943E+08         0.83404E+05         0.00000E+00
    0.83404E+05        -0.49969E+08         0.00000E+00
    0.00000E+00         0.00000E+00        -0.49982E+08
 
   -0.49946E+08         0.84660E+05         0.00000E+00
    0.84660E+05        -0.49967E+08         0.00000E+00
    0.00000E+00         0.00000E+00        -0.49983E+08
 
   -0.49949E+08         0.85843E+05         0.00000E+00
    0.85843E+05        -0.49965E+08         0.00000E+00
    0.00000E+00         0.00000E+00        -0.49983E+08
 
   -0.49953E+08         0.86952E+05         0.00000E+00
    0.86952E+05        -0.49964E+08         0.00000E+00
    0.00000E+00         0.00000E+00        -0.49983E+08
 
   -0.49956E+08         0.87985E+05         0.00000E+00
    0.87985E+05        -0.49962E+08         0.00000E+00
    0.00000E+00         0.00000E+00        -0.49984E+08
 
   -0.49960E+08         0.88941E+05         0.00000E+00
    0.88941E+05        -0.49961E+08         0.00000E+00
    0.00000E+00         0.00000E+00        -0.49984E+08
 
   -0.49963E+08         0.89819E+05         0.00000E+00
    0.89819E+05        -0.49959E+08         0.00000E+00
    0.00000E+00         0.00000E+00        -0.49984E+08
 
   -0.49967E+08         0.90618E+05         0.00000E+00
    0.90618E+05        -0.49957E+08         0.00000E+00
    0.00000E+00         0.00000E+00        -0.49985E+08
 
   -0.49970E+08         0.91336E+05         0.00000E+00
    0.91336E+05        -0.49956E+08         0.00000E+00
    0.00000E+00         0.00000E+00        -0.49985E+08
 
   -0.49974E+08         0.91973E+05         0.00000E+00
    0.91973E+05        -0.49954E+08         0.00000E+00
    0.00000E+00         0.00000E+00        -0.49986E+08
 
   -0.49978E+08         0.92527E+05         0.00000E+00
    0.92527E+05        -0.49952E+08         0.00000E+00
    0.00000E+00         0.00000E+00        -0.49986E+08
 
   -0.49981E+08         0.92998E+05         0.00000E+00
    0.92998E+05        -0.49951E+08         0.00000E+00
    0.00000E+00         0.00000E+00        -0.49986E+08
 
   -0.49985E+08         0.93384E+05         0.00000E+00
    0.93384E+05        -0.49949E+08         0.00000E+00
    0.00000E+00         0.00000E+00        -0.49987E+08
 
   -0.49866E+08         0.14591E+04         0.00000E+00
    0.14591E+04        -0.50000E+08         0.00000E+00
    0.00000E+00         0.00000E+00        -0.49973E+08
 
   -0.49866E+08         0.43905E+04         0.00000E+00
    0.43905E+04        -0.50000E+08         0.00000E+00
    0.00000E+00         0.00000E+00        -0.49973E+08
 
   -0.49866E+08         0.73240E+04         0.00000E+00
    0.73240E+04        -0.50000E+08         0.00000E+00
    0.00000E+00         0.00000E+00        -0.49973E+08
 
   -0.49866E+08         0.10257E+05         0.00000E+00
    0.10257E+05        -0.50000E+08         0.00000E+00
    0.00000E+00         0.00000E+00        -0.49973E+08
 
   -0.49866E+08         0.13187E+05         0.00000E+00
    0.13187E+05        -0.49999E+08         0.00000E+00
    0.00000E+00         0.00000E+00        -0.49973E+08
 
   -0.49867E+08         0.16110E+05         0.00000E+00
    0.16110E+05        -0.49999E+08         0.00000E+00
    0.00000E+00         0.00000E+00        -0.49973E+08
 
   -0.49867E+08         0.19025E+05         0.00000E+00
    0.19025E+05        -0.49999E+08         0.00000E+00
    0.00000E+00         0.00000E+00        -0.49973E+08
 
   -0.49868E+08         0.21929E+05         0.00000E+00
    0.21929E+05        -0.49998E+08         0.00000E+00
    0.00000E+00         0.00000E+00        -0.49973E+08
 
   -0.49869E+08         0.24818E+05         0.00000E+00
    0.24818E+05        -0.49998E+08         0.00000E+00
    0.00000E+00         0.00000E+00        -0.49973E+08
 
   -0.49870E+08         0.27690E+05         0.00000E+00
    0.27690E+05        -0.49998E+08         0.00000E+00
    0.00000E+00         0.00000E+00        -0.49973E+08
 
   -0.49871E+08         0.30543E+05         0.00000E+00
    0.30543E+05        -0.49997E+08         0.00000E+00
    0.00000E+00         0.00000E+00        -0.49974E+08
 
   -0.49872E+08         0.33374E+05         0.00000E+00
    0.33374E+05        -0.49996E+08         0.00000E+00
    0.00000E+00         0.00000E+00        -0.49974E+08
 
   -0.49873E+08         0.36180E+05         0.00000E+00
    0.36180E+05        -0.49996E+08         0.00000E+00
    0.00000E+00         0.00000E+00        -0.49974E+08
 
   -0.49875E+08         0.38959E+05         0.00000E+00
    0.38959E+05        -0.49995E+08         0.00000E+00
    0.00000E+00         0.00000E+00        -0.49974E+08
 
   -0.49876E+08         0.41708E+05         0.00000E+00
    0.41708E+05        -0.49994E+08         0.00000E+00
    0.00000E+00         0.00000E+00        -0.49974E+08
 
   -0.49878E+08         0.44425E+05         0.00000E+00
    0.44425E+05        -0.49993E+08         0.00000E+00
    0.00000E+00         0.00000E+00        -0.49974E+08
 
   -0.49879E+08         0.47106E+05         0.00000E+00
    0.47106E+05        -0.49993E+08         0.00000E+00
    0.00000E+00         0.00000E+00        -0.49974E+08
 
   -0.49881E+08         0.49750E+05         0.00000E+00
    0.49750E+05        -0.49992E+08         0.00000E+00
    0.00000E+00         0.00000E+00        -0.49975E+08
 
   -0.49883E+08         0.52355E+05         0.00000E+00
    0.52355E+05        -0.49991E+08         0.00000E+00
    0.00000E+00         0.00000E+00        -0.49975E+08
 
   -0.49885E+08         0.54917E+05         0.00000E+00
    0.54917E+05        -0.49990E+08         0.00000E+00
    0.00000E+00         0.00000E+00        -0.49975E+08
 
   -0.49887E+08         0.57435E+05         0.00000E+00
    0.57435E+05        -0.49989E+08         0.00000E+00
    0.00000E+00         0.00000E+00        -0.49975E+08
 
   -0.49889E+08         0.59907E+05         0.00000E+00
    0.59907E+05        -0.49988E+08         0.00000E+00
    0.00000E+00         0.00000E+00        -0.49975E+08
 
   -0.49891E+08         0.62329E+05         0.00000E+00
    0.62329E+05        -0.49986E+08         0.00000E+00
    0.00000E+00         0.00000E+00        -0.49976E+08
 
   -0.49894E+08         0.64700E+05         0.00000E+00
    0.64700E+05        -0.49985E+08         0.00000E+00
    0.00000E+00         0.00000E+00        -0.49976E+08
 
   -0.49896E+08         0.67018E+05         0.00000E+00
    0.67018E+05        -0.49984E+08         0.00000E+00
    0.00000E+00         0.00000E+00        -0.49976E+08
 
   -0.49899E+08         0.69281E+05         0.00000E+00
    0.69281E+05        -0.49983E+08         0.00000E+00
    0.00000E+00         0.00000E+00        -0.49976E+08
 
   -0.49901E+08         0.71486E+05         0.00000E+00
    0.71486E+05        -0.49981E+08         0.00000E+00
    0.00000E+00         0.00000E+00        -0.49977E+08
 
   -0.49904E+08         0.73632E+05         0.00000E+00
    0.73632E+05        -0.49980E+08         0.00000E+00
    0.00000E+00         0.00000E+00        -0.49977E+08
 
   -0.49907E+08         0.75717E+05         0.00000E+00
    0.75717E+05        -0.49979E+08         0.00000E+00
    0.00000E+00         0.00000E+00        -0.49977E+08
 
   -0.49910E+08         0.77738E+05         0.00000E+00
    0.77738E+05        -0.49977E+08         0.00000E+00
    0.00000E+00         0.00000E+00        -0.49977E+08
 
   -0.49913E+08         0.79694E+05         0.00000E+00
    0.79694E+05        -0.49976E+08         0.00000E+00
    0.00000E+00         0.00000E+00        -0.49978E+08
 
   -0.49916E+08         0.81584E+05         0.00000E+00
    0.81584E+05        -0.49974E+08         0.00000E+00
    0.00000E+00         0.00000E+00        -0.49978E+08
 
   -0.49919E+08         0.83404E+05         0.00000E+00
    0.83404E+05        -0.49973E+08         0.00000E+00
    0.00000E+00         0.00000E+00        -0.49978E+08
 
   -0.49922E+08         0.85155E+05         0.00000E+00
    0.85155E+05        -0.49971E+08         0.00000E+00
    0.00000E+00         0.00000E+00        -0.49979E+08
 
   -0.49926E+08         0.86833E+05         0.00000E+00
    0.86833E+05        -0.49970E+08         0.00000E+00
    0.00000E+00         0.00000E+00        -0.49979E+08
 
   -0.49929E+08         0.88438E+05         0.00000E+00
    0.88438E+05        -0.49968E+08         0.00000E+00
    0.00000E+00         0.00000E+00        -0.49979E+08
 
   -0.49933E+08         0.89967E+05         0.00000E+00
    0.89967E+05        -0.49966E+08         0.00000E+00
    0.00000E+00         0.00000E+00        -0.49980E+08
 
   -0.49936E+08         0.91420E+05         0.00000E+00
    0.91420E+05        -0.49965E+08         0.00000E+00
    0.00000E+00         0.00000E+00        -0.49980E+08
 
   -0.49940E+08         0.92794E+05         0.00000E+00
    0.92794E+05        -0.49963E+08         0.00000E+00
    0.00000E+00         0.00000E+00        -0.49981E+08
 
   -0.49943E+08         0.94088E+05         0.00000E+00
    0.94088E+05        -0.49961E+08         0.00000E+00
    0.00000E+00         0.00000E+00        -0.49981E+08
 
   -0.49947E+08         0.95302E+05         0.00000E+00
    0.95302E+05        -0.49959E+08         0.00000E+00
    0.00000E+00         0.00000E+00        -0.49981E+08
 
   -0.49951E+08         0.96433E+05         0.00000E+00
    0.96433E+05        -0.49958E+08         0.00000E+00
    0.00000E+00         0.00000E+00        -0.49982E+08
 
   -0.49955E+08         0.97480E+05         0.00000E+00
    0.97480E+05        -0.49956E+08         0.00000E+00
    0.00000E+00         0.00000E+00        -0.49982E+08
 
   -0.49959E+08         0.98442E+05         0.00000E+00
    0.98442E+05        -0.49954E+08         0.00000E+00
    0.00000E+00         0.00000E+00        -0.49983E+08
 
   -0.49963E+08         0.99317E+05         0.00000E+00
    0.99317E+05        -0.49952E+08         0.00000E+00
    0.00000E+00         0.00000E+00        -0.49983E+08
 
   -0.49967E+08         0.10011E+06         0.00000E+00
    0.10011E+06        -0.49950E+08         0.00000E+00
    0.00000E+00         0.00000E+00        -0.49983E+08
 
   -0.49971E+08         0.10080E+06         0.00000E+00
    0.10080E+06        -0.49949E+08         0.00000E+00
    0.00000E+00         0.00000E+00        -0.49984E+08
 
   -0.49975E+08         0.10141E+06         0.00000E+00
    0.10141E+06        -0.49947E+08         0.00000E+00
    0.00000E+00         0.00000E+00        -0.49984E+08
 
   -0.49979E+08         0.10193E+06         0.00000E+00
    0.10193E+06        -0.49945E+08         0.00000E+00
    0.00000E+00         0.00000E+00        -0.49985E+08
 
   -0.49983E+08         0.10236E+06         0.00000E+00
    0.10236E+06        -0.49943E+08         0.00000E+00
    0.00000E+00         0.00000E+00        -0.49985E+08
 
   -0.49850E+08         0.16027E+04         0.00000E+00
    0.16027E+04        -0.50000E+08         0.00000E+00
    0.00000E+00         0.00000E+00        -0.49970E+08
 
   -0.49850E+08         0.48248E+04         0.00000E+00
    0.48248E+04        -0.50000E+08         0.00000E+00
    0.00000E+00         0.00000E+00        -0.49970E+08
 
   -0.49850E+08         0.80500E+04         0.00000E+00
    0.80500E+04        -0.50000E+08         0.00000E+00
    0.00000E+00         0.00000E+00        -0.49970E+08
 
   -0.49851E+08         0.11275E+05         0.00000E+00
    0.11275E+05        -0.50000E+08         0.00000E+00
    0.00000E+00         0.00000E+00        -0.49970E+08
 
   -0.49851E+08         0.14497E+05         0.00000E+00
    0.14497E+05        -0.49999E+08         0.00000E+00
    0.00000E+00         0.00000E+00        -0.49970E+08
 
   -0.49852E+08         0.17713E+05         0.00000E+00
    0.17713E+05        -0.49999E+08         0.00000E+00
    0.00000E+00         0.00000E+00        -0.49970E+08
 
   -0.49852E+08         0.20920E+05         0.00000E+00
    0.20920E+05        -0.49999E+08         0.00000E+00
    0.00000E+00         0.00000E+00        -0.49970E+08
 
   -0.49853E+08         0.24114E+05         0.00000E+00
    0.24114E+05        -0.49998E+08         0.00000E+00
    0.00000E+00         0.00000E+00        -0.49970E+08
 
   -0.49854E+08         0.27292E+05         0.00000E+00
    0.27292E+05        -0.49998E+08         0.00000E+00
    0.00000E+00         0.00000E+00        -0.49970E+08
 
   -0.49855E+08         0.30452E+05         0.00000E+00
    0.30452E+05        -0.49997E+08         0.00000E+00
    0.00000E+00         0.00000E+00        -0.49970E+08
 
   -0.49856E+08         0.33590E+05         0.00000E+00
    0.33590E+05        -0.49997E+08         0.00000E+00
    0.00000E+00         0.00000E+00        -0.49971E+08
 
   -0.49857E+08         0.36703E+05         0.00000E+00
    0.36703E+05        -0.49996E+08         0.00000E+00
    0.00000E+00         0.00000E+00        -0.49971E+08
 
   -0.49859E+08         0.39789E+05         0.00000E+00
    0.39789E+05        -0.49995E+08         0.00000E+00
    0.00000E+00         0.00000E+00        -0.49971E+08
 
   -0.49860E+08         0.42844E+05         0.00000E+00
    0.42844E+05        -0.49994E+08         0.00000E+00
    0.00000E+00         0.00000E+00        -0.49971E+08
 
   -0.49862E+08         0.45866E+05         0.00000E+00
    0.45866E+05        -0.49994E+08         0.00000E+00
    0.00000E+00         0.00000E+00        -0.49971E+08
 
   -0.49863E+08         0.48852E+05         0.00000E+00
    0.48852E+05        -0.49993E+08         0.00000E+00
    0.00000E+00         0.00000E+00        -0.49971E+08
 
   -0.49865E+08         0.51799E+05         0.00000E+00
    0.51799E+05        -0.49992E+08         0.00000E+00
    0.00000E+00         0.00000E+00        -0.49971E+08
 
   -0.49867E+08         0.54704E+05         0.00000E+00
    0.54704E+05        -0.49991E+08         0.00000E+00
    0.00000E+00         0.00000E+00        -0.49972E+08
 
   -0.49869E+08         0.57565E+05         0.00000E+00
    0.57565E+05        -0.49990E+08         0.00000E+00
    0.00000E+00         0.00000E+00        -0.49972E+08
 
   -0.49872E+08         0.60379E+05         0.00000E+00
    0.60379E+05        -0.49988E+08         0.00000E+00
    0.00000E+00         0.00000E+00        -0.49972E+08
 
   -0.49874E+08         0.63143E+05         0.00000E+00
    0.63143E+05        -0.49987E+08         0.00000E+00
    0.00000E+00         0.00000E+00        -0.49972E+08
 
   -0.49876E+08         0.65856E+05         0.00000E+00
    0.65856E+05        -0.49986E+08         0.00000E+00
    0.00000E+00         0.00000E+00        -0.49972E+08
 
   -0.49879E+08         0.68514E+05         0.00000E+00
    0.68514E+05        -0.49985E+08         0.00000E+00
    0.00000E+00         0.00000E+00        -0.49973E+08
 
   -0.49881E+08         0.71115E+05         0.00000E+00
    0.71115E+05        -0.49983E+08         0.00000E+00
    0.00000E+00         0.00000E+00        -0.49973E+08
 
   -0.49884E+08         0.73658E+05         0.00000E+00
    0.73658E+05        -0.49982E+08         0.00000E+00
    0.00000E+00         0.00000E+00        -0.49973E+08
 
   -0.49887E+08         0.76138E+05         0.00000E+00
    0.76138E+05        -0.49981E+08         0.00000E+00
    0.00000E+00         0.00000E+00        -0.49974E+08
 
   -0.49890E+08         0.78556E+05         0.00000E+00
    0.78556E+05        -0.49979E+08         0.00000E+00
    0.00000E+00         0.00000E+00        -0.49974E+08
 
   -0.49893E+08         0.80907E+05         0.00000E+00
    0.80907E+05        -0.49978E+08         0.00000E+00
    0.00000E+00         0.00000E+00        -0.49974E+08
 
   -0.49896E+08         0.83191E+05         0.00000E+00
    0.83191E+05        -0.49976E+08         0.00000E+00
    0.00000E+00         0.00000E+00        -0.49974E+08
 
   -0.49899E+08         0.85406E+05         0.00000E+00
    0.85406E+05        -0.49974E+08         0.00000E+00
    0.00000E+00         0.00000E+00        -0.49975E+08
 
   -0.49903E+08         0.87548E+05         0.00000E+00
    0.87548E+05        -0.49973E+08         0.00000E+00
    0.00000E+00         0.00000E+00        -0.49975E+08
 
   -0.49906E+08         0.89617E+05         0.00000E+00
    0.89617E+05        -0.49971E+08         0.00000E+00
    0.00000E+00         0.00000E+00        -0.49975E+08
 
   -0.49910E+08         0.91610E+05         0.00000E+00
    0.91610E+05        -0.49969E+08         0.00000E+00
    0.00000E+00         0.00000E+00        -0.49976E+08
 
   -0.49913E+08         0.93526E+05         0.00000E+00
    0.93526E+05        -0.49968E+08         0.00000E+00
    0.00000E+00         0.00000E+00        -0.49976E+08
 
   -0.49917E+08         0.95362E+05         0.00000E+00
    0.95362E+05        -0.49966E+08         0.00000E+00
    0.00000E+00         0.00000E+00        -0.49977E+08
 
   -0.49921E+08         0.97118E+05         0.00000E+00
    0.97118E+05        -0.49964E+08         0.00000E+00
    0.00000E+00         0.00000E+00        -0.49977E+08
 
   -0.49925E+08         0.98792E+05         0.00000E+00
    0.98792E+05        -0.49962E+08         0.00000E+00
    0.00000E+00         0.00000E+00        -0.49977E+08
 
   -0.49929E+08         0.10038E+06         0.00000E+00
    0.10038E+06        -0.49960E+08         0.00000E+00
    0.00000E+00         0.00000E+00        -0.49978E+08
 
   -0.49933E+08         0.10189E+06         0.00000E+00
    0.10189E+06        -0.49958E+08         0.00000E+00
    0.00000E+00         0.00000E+00        -0.49978E+08
 
   -0.49937E+08         0.10330E+06         0.00000E+00
    0.10330E+06        -0.49956E+08         0.00000E+00
    0.00000E+00         0.00000E+00        -0.49979E+08
 
   -0.49941E+08         0.10463E+06         0.00000E+00
    0.10463E+06        -0.49954E+08         0.00000E+00
    0.00000E+00         0.00000E+00        -0.49979E+08
 
   -0.49945E+08         0.10587E+06         0.00000E+00
    0.10587E+06        -0.49952E+08         0.00000E+00
    0.00000E+00         0.00000E+00        -0.49980E+08
 
   -0.49950E+08         0.10702E+06         0.00000E+00
    0.10702E+06        -0.49950E+08         0.00000E+00
    0.00000E+00         0.00000E+00        -0.49980E+08
 
   -0.49954E+08         0.10807E+06         0.00000E+00
    0.10807E+06        -0.49948E+08         0.00000E+00
    0.00000E+00         0.00000E+00        -0.49980E+08
 
   -0.49958E+08         0.10903E+06         0.00000E+00
    0.10903E+06        -0.49946E+08         0.00000E+00
    0.00000E+00         0.00000E+00        -0.49981E+08
 
   -0.49963E+08         0.10989E+06         0.00000E+00
    0.10989E+06        -0.49944E+08         0.00000E+00
    0.00000E+00         0.00000E+00        -0.49981E+08
 
   -0.49967E+08         0.11066E+06         0.00000E+00
    0.11066E+06        -0.49942E+08         0.00000E+00
    0.00000E+00         0.00000E+00        -0.49982E+08
 
   -0.49972E+08         0.11133E+06         0.00000E+00
    0.11133E+06        -0.49940E+08         0.00000E+00
    0.00000E+00         0.00000E+00        -0.49982E+08
 
   -0.49977E+08         0.11190E+06         0.00000E+00
    0.11190E+06        -0.49938E+08         0.00000E+00
    0.00000E+00         0.00000E+00        -0.49983E+08
 
   -0.49981E+08         0.11237E+06         0.00000E+00
    0.11237E+06        -0.49936E+08         0.00000E+00
    0.00000E+00         0.00000E+00        -0.49983E+08
 
   -0.49833E+08         0.17658E+04         0.00000E+00
    0.17658E+04        -0.50000E+08         0.00000E+00
    0.00000E+00         0.00000E+00        -0.49967E+08
 
   -0.49833E+08         0.53181E+04         0.00000E+00
    0.53181E+04        -0.50000E+08         0.00000E+00
    0.00000E+00         0.00000E+00        -0.49967E+08
 
   -0.49833E+08         0.88745E+04         0.00000E+00
    0.88745E+04        -0.50000E+08         0.00000E+00
    0.00000E+00         0.00000E+00        -0.49967E+08
 
   -0.49834E+08         0.12431E+05         0.00000E+00
    0.12431E+05        -0.50000E+08         0.00000E+00
    0.00000E+00         0.00000E+00        -0.49967E+08
 
   -0.49834E+08         0.15985E+05         0.00000E+00
    0.15985E+05        -0.49999E+08         0.00000E+00
    0.00000E+00         0.00000E+00        -0.49967E+08
 
   -0.49835E+08         0.19532E+05         0.00000E+00
    0.19532E+05        -0.49999E+08         0.00000E+00
    0.00000E+00         0.00000E+00        -0.49967E+08
 
   -0.49835E+08         0.23069E+05         0.00000E+00
    0.23069E+05        -0.49999E+08         0.00000E+00
    0.00000E+00         0.00000E+00        -0.49967E+08
 
   -0.49836E+08         0.26591E+05         0.00000E+00
    0.26591E+05        -0.49998E+08         0.00000E+00
    0.00000E+00         0.00000E+00        -0.49967E+08
 
   -0.49837E+08         0.30096E+05         0.00000E+00
    0.30096E+05        -0.49997E+08         0.00000E+00
    0.00000E+00         0.00000E+00        -0.49967E+08
 
   -0.49838E+08         0.33580E+05         0.00000E+00
    0.33580E+05        -0.49997E+08         0.00000E+00
    0.00000E+00         0.00000E+00        -0.49967E+08
 
   -0.49840E+08         0.37039E+05         0.00000E+00
    0.37039E+05        -0.49996E+08         0.00000E+00
    0.00000E+00         0.00000E+00        -0.49967E+08
 
   -0.49841E+08         0.40471E+05         0.00000E+00
    0.40471E+05        -0.49995E+08         0.00000E+00
    0.00000E+00         0.00000E+00        -0.49967E+08
 
   -0.49842E+08         0.43871E+05         0.00000E+00
    0.43871E+05        -0.49995E+08         0.00000E+00
    0.00000E+00         0.00000E+00        -0.49967E+08
 
   -0.49844E+08         0.47237E+05         0.00000E+00
    0.47237E+05        -0.49994E+08         0.00000E+00
    0.00000E+00         0.00000E+00        -0.49968E+08
 
   -0.49846E+08         0.50566E+05         0.00000E+00
    0.50566E+05        -0.49993E+08         0.00000E+00
    0.00000E+00         0.00000E+00        -0.49968E+08
 
   -0.49848E+08         0.53853E+05         0.00000E+00
    0.53853E+05        -0.49992E+08         0.00000E+00
    0.00000E+00         0.00000E+00        -0.49968E+08
 
   -0.49850E+08         0.57097E+05         0.00000E+00
    0.57097E+05        -0.49991E+08         0.00000E+00
    0.00000E+00         0.00000E+00        -0.49968E+08
 
   -0.49852E+08         0.60293E+05         0.00000E+00
    0.60293E+05        -0.49989E+08         0.00000E+00
    0.00000E+00         0.00000E+00        -0.49968E+08
 
   -0.49854E+08         0.63440E+05         0.00000E+00
    0.63440E+05        -0.49988E+08         0.00000E+00
    0.00000E+00         0.00000E+00        -0.49969E+08
 
   -0.49857E+08         0.66534E+05         0.00000E+00
    0.66534E+05        -0.49987E+08         0.00000E+00
    0.00000E+00         0.00000E+00        -0.49969E+08
 
   -0.49859E+08         0.69572E+05         0.00000E+00
    0.69572E+05        -0.49986E+08         0.00000E+00
    0.00000E+00         0.00000E+00        -0.49969E+08
 
   -0.49862E+08         0.72552E+05         0.00000E+00
    0.72552E+05        -0.49984E+08         0.00000E+00
    0.00000E+00         0.00000E+00        -0.49969E+08
 
   -0.49865E+08         0.75472E+05         0.00000E+00
    0.75472E+05        -0.49983E+08         0.00000E+00
    0.00000E+00         0.00000E+00        -0.49970E+08
 
   -0.49868E+08         0.78327E+05         0.00000E+00
    0.78327E+05        -0.49981E+08         0.00000E+00
    0.00000E+00         0.00000E+00        -0.49970E+08
 
   -0.49871E+08         0.81117E+05         0.00000E+00
    0.81117E+05        -0.49980E+08         0.00000E+00
    0.00000E+00         0.00000E+00        -0.49970E+08
 
   -0.49874E+08         0.83839E+05         0.00000E+00
    0.83839E+05        -0.49978E+08         0.00000E+00
    0.00000E+00         0.00000E+00        -0.49970E+08
 
   -0.49878E+08         0.86490E+05         0.00000E+00
    0.86490E+05        -0.49976E+08         0.00000E+00
    0.00000E+00         0.00000E+00        -0.49971E+08
 
   -0.49881E+08         0.89068E+05         0.00000E+00
    0.89068E+05        -0.49975E+08         0.00000E+00
    0.00000E+00         0.00000E+00        -0.49971E+08
 
   -0.49884E+08         0.91570E+05         0.00000E+00
    0.91570E+05        -0.49973E+08         0.00000E+00
    0.00000E+00         0.00000E+00        -0.49971E+08
 
   -0.49888E+08         0.93996E+05         0.00000E+00
    0.93996E+05        -0.49971E+08         0.00000E+00
    0.00000E+00         0.00000E+00        -0.49972E+08
 
   -0.49892E+08         0.96342E+05         0.00000E+00
    0.96342E+05        -0.49969E+08         0.00000E+00
    0.00000E+00         0.00000E+00        -0.49972E+08
 
   -0.49896E+08         0.98606E+05         0.00000E+00
    0.98606E+05        -0.49967E+08         0.00000E+00
    0.00000E+00         0.00000E+00        -0.49973E+08
 
   -0.49900E+08         0.10079E+06         0.00000E+00
    0.10079E+06        -0.49966E+08         0.00000E+00
    0.00000E+00         0.00000E+00        -0.49973E+08
 
   -0.49904E+08         0.10288E+06         0.00000E+00
    0.10288E+06        -0.49964E+08         0.00000E+00
    0.00000E+00         0.00000E+00        -0.49973E+08
 
   -0.49908E+08         0.10489E+06         0.00000E+00
    0.10489E+06        -0.49962E+08         0.00000E+00
    0.00000E+00         0.00000E+00        -0.49974E+08
 
   -0.49912E+08         0.10681E+06         0.00000E+00
    0.10681E+06        -0.49960E+08         0.00000E+00
    0.00000E+00         0.00000E+00        -0.49974E+08
 
   -0.49916E+08         0.10864E+06         0.00000E+00
    0.10864E+06        -0.49957E+08         0.00000E+00
    0.00000E+00         0.00000E+00        -0.49975E+08
 
   -0.49921E+08         0.11038E+06         0.00000E+00
    0.11038E+06        -0.49955E+08         0.00000E+00
    0.00000E+00         0.00000E+00        -0.49975E+08
 
   -0.49925E+08         0.11203E+06         0.00000E+00
    0.11203E+06        -0.49953E+08         0.00000E+00
    0.00000E+00         0.00000E+00        -0.49976E+08
 
   -0.49930E+08         0.11358E+06         0.00000E+00
    0.11358E+06        -0.49951E+08         0.00000E+00
    0.00000E+00         0.00000E+00        -0.49976E+08
 
   -0.49934E+08         0.11503E+06         0.00000E+00
    0.11503E+06        -0.49949E+08         0.00000E+00
    0.00000E+00         0.00000E+00        -0.49977E+08
 
   -0.49939E+08         0.11638E+06         0.00000E+00
    0.11638E+06        -0.49947E+08         0.00000E+00
    0.00000E+00         0.00000E+00        -0.49977E+08
 
   -0.49944E+08         0.11764E+06         0.00000E+00
    0.11764E+06        -0.49944E+08         0.00000E+00
    0.00000E+00         0.00000E+00        -0.49978E+08
 
   -0.49949E+08         0.11879E+06         0.00000E+00
    0.11879E+06        -0.49942E+08         0.00000E+00
    0.00000E+00         0.00000E+00        -0.49978E+08
 
   -0.49954E+08         0.11984E+06         0.00000E+00
    0.11984E+06        -0.49940E+08         0.00000E+00
    0.00000E+00         0.00000E+00        -0.49979E+08
 
   -0.49959E+08         0.12079E+06         0.00000E+00
    0.12079E+06        -0.49938E+08         0.00000E+00
    0.00000E+00         0.00000E+00        -0.49979E+08
 
   -0.49964E+08         0.12163E+06         0.00000E+00
    0.12163E+06        -0.49935E+08         0.00000E+00
    0.00000E+00         0.00000E+00        -0.49980E+08
 
   -0.49969E+08         0.12237E+06         0.00000E+00
    0.12237E+06        -0.49933E+08         0.00000E+00
    0.00000E+00         0.00000E+00        -0.49980E+08
 
   -0.49974E+08         0.12300E+06         0.00000E+00
    0.12300E+06        -0.49931E+08         0.00000E+00
    0.00000E+00         0.00000E+00        -0.49981E+08
 
   -0.49979E+08         0.12352E+06         0.00000E+00
    0.12352E+06        -0.49928E+08         0.00000E+00
    0.00000E+00         0.00000E+00        -0.49982E+08
 
   -0.49815E+08         0.19520E+04         0.00000E+00
    0.19520E+04        -0.50000E+08         0.00000E+00
    0.00000E+00         0.00000E+00        -0.49963E+08
 
   -0.49815E+08         0.58806E+04         0.00000E+00
    0.58806E+04        -0.50000E+08         0.00000E+00
    0.00000E+00         0.00000E+00        -0.49963E+08
 
   -0.49815E+08         0.98143E+04         0.00000E+00
    0.98143E+04        -0.50000E+08         0.00000E+00
    0.00000E+00         0.00000E+00        -0.49963E+08
 
   -0.49815E+08         0.13749E+05         0.00000E+00
    0.13749E+05        -0.50000E+08         0.00000E+00
    0.00000E+00         0.00000E+00        -0.49963E+08
 
   -0.49815E+08         0.17679E+05         0.00000E+00
    0.17679E+05        -0.49999E+08         0.00000E+00
    0.00000E+00         0.00000E+00        -0.49963E+08
 
   -0.49816E+08         0.21602E+05         0.00000E+00
    0.21602E+05        -0.49999E+08         0.00000E+00
    0.00000E+00         0.00000E+00        -0.49963E+08
 
   -0.49817E+08         0.25513E+05         0.00000E+00
    0.25513E+05        -0.49998E+08         0.00000E+00
    0.00000E+00         0.00000E+00        -0.49963E+08
 
   -0.49818E+08         0.29408E+05         0.00000E+00
    0.29408E+05        -0.49998E+08         0.00000E+00
    0.00000E+00         0.00000E+00        -0.49963E+08
 
   -0.49819E+08         0.33282E+05         0.00000E+00
    0.33282E+05        -0.49997E+08         0.00000E+00
    0.00000E+00         0.00000E+00        -0.49963E+08
 
   -0.49820E+08         0.37133E+05         0.00000E+00
    0.37133E+05        -0.49996E+08         0.00000E+00
    0.00000E+00         0.00000E+00        -0.49963E+08
 
   -0.49821E+08         0.40955E+05         0.00000E+00
    0.40955E+05        -0.49996E+08         0.00000E+00
    0.00000E+00         0.00000E+00        -0.49963E+08
 
   -0.49823E+08         0.44745E+05         0.00000E+00
    0.44745E+05        -0.49995E+08         0.00000E+00
    0.00000E+00         0.00000E+00        -0.49964E+08
 
   -0.49825E+08         0.48499E+05         0.00000E+00
    0.48499E+05        -0.49994E+08         0.00000E+00
    0.00000E+00         0.00000E+00        -0.49964E+08
 
   -0.49827E+08         0.52214E+05         0.00000E+00
    0.52214E+05        -0.49993E+08         0.00000E+00
    0.00000E+00         0.00000E+00        -0.49964E+08
 
   -0.49829E+08         0.55885E+05         0.00000E+00
    0.55885E+05        -0.49992E+08         0.00000E+00
    0.00000E+00         0.00000E+00        -0.49964E+08
 
   -0.49831E+08         0.59510E+05         0.00000E+00
    0.59510E+05        -0.49991E+08         0.00000E+00
    0.00000E+00         0.00000E+00        -0.49964E+08
 
   -0.49833E+08         0.63085E+05         0.00000E+00
    0.63085E+05        -0.49989E+08         0.00000E+00
    0.00000E+00         0.00000E+00        -0.49964E+08
 
   -0.49835E+08         0.66606E+05         0.00000E+00
    0.66606E+05        -0.49988E+08         0.00000E+00
    0.00000E+00         0.00000E+00        -0.49965E+08
 
   -0.49838E+08         0.70071E+05         0.00000E+00
    0.70071E+05        -0.49987E+08         0.00000E+00
    0.00000E+00         0.00000E+00        -0.49965E+08
 
   -0.49841E+08         0.73476E+05         0.00000E+00
    0.73476E+05        -0.49985E+08         0.00000E+00
    0.00000E+00         0.00000E+00        -0.49965E+08
 
   -0.49844E+08         0.76817E+05         0.00000E+00
    0.76817E+05        -0.49984E+08         0.00000E+00
    0.00000E+00         0.00000E+00        -0.49965E+08
 
   -0.49847E+08         0.80094E+05         0.00000E+00
    0.80094E+05        -0.49982E+08         0.00000E+00
    0.00000E+00         0.00000E+00        -0.49966E+08
 
   -0.49850E+08         0.83301E+05         0.00000E+00
    0.83301E+05        -0.49980E+08         0.00000E+00
    0.00000E+00         0.00000E+00        -0.49966E+08
 
   -0.49853E+08         0.86437E+05         0.00000E+00
    0.86437E+05        -0.49979E+08         0.00000E+00
    0.00000E+00         0.00000E+00        -0.49966E+08
 
   -0.49857E+08         0.89499E+05         0.00000E+00
    0.89499E+05        -0.49977E+08         0.00000E+00
    0.00000E+00         0.00000E+00        -0.49967E+08
 
   -0.49860E+08         0.92484E+05         0.00000E+00
    0.92484E+05        -0.49975E+08         0.00000E+00
    0.00000E+00         0.00000E+00        -0.49967E+08
 
   -0.49864E+08         0.95391E+05         0.00000E+00
    0.95391E+05        -0.49973E+08         0.00000E+00
    0.00000E+00         0.00000E+00        -0.49967E+08
 
   -0.49868E+08         0.98216E+05         0.00000E+00
    0.98216E+05        -0.49971E+08         0.00000E+00
    0.00000E+00         0.00000E+00        -0.49968E+08
 
   -0.49872E+08         0.10096E+06         0.00000E+00
    0.10096E+06        -0.49969E+08         0.00000E+00
    0.00000E+00         0.00000E+00        -0.49968E+08
 
   -0.49876E+08         0.10361E+06         0.00000E+00
    0.10361E+06        -0.49967E+08         0.00000E+00
    0.00000E+00         0.00000E+00        -0.49969E+08
 
   -0.49880E+08         0.10618E+06         0.00000E+00
    0.10618E+06        -0.49965E+08         0.00000E+00
    0.00000E+00         0.00000E+00        -0.49969E+08
 
   -0.49884E+08         0.10866E+06         0.00000E+00
    0.10866E+06        -0.49963E+08         0.00000E+00
    0.00000E+00         0.00000E+00        -0.49969E+08
 
   -0.49888E+08         0.11104E+06         0.00000E+00
    0.11104E+06        -0.49961E+08         0.00000E+00
    0.00000E+00         0.00000E+00        -0.49970E+08
 
   -0.49893E+08         0.11333E+06         0.00000E+00
    0.11333E+06        -0.49959E+08         0.00000E+00
    0.00000E+00         0.00000E+00        -0.49970E+08
 
   -0.49897E+08         0.11553E+06         0.00000E+00
    0.11553E+06        -0.49957E+08         0.00000E+00
    0.00000E+00         0.00000E+00        -0.49971E+08
 
   -0.49902E+08         0.11763E+06         0.00000E+00
    0.11763E+06        -0.49954E+08         0.00000E+00
    0.00000E+00         0.00000E+00        -0.49971E+08
 
   -0.49907E+08         0.11962E+06         0.00000E+00
    0.11962E+06        -0.49952E+08         0.00000E+00
    0.00000E+00         0.00000E+00        -0.49972E+08
 
   -0.49912E+08         0.12152E+06         0.00000E+00
    0.12152E+06        -0.49950E+08         0.00000E+00
    0.00000E+00         0.00000E+00        -0.49972E+08
 
   -0.49917E+08         0.12332E+06         0.00000E+00
    0.12332E+06        -0.49947E+08         0.00000E+00
    0.00000E+00         0.00000E+00        -0.49973E+08
 
   -0.49922E+08         0.12501E+06         0.00000E+00
    0.12501E+06        -0.49945E+08         0.00000E+00
    0.00000E+00         0.00000E+00        -0.49973E+08
 
   -0.49927E+08         0.12659E+06         0.00000E+00
    0.12659E+06        -0.49943E+08         0.00000E+00
    0.00000E+00         0.00000E+00        -0.49974E+08
 
   -0.49932E+08         0.12807E+06         0.00000E+00
    0.12807E+06        -0.49940E+08         0.00000E+00
    0.00000E+00         0.00000E+00        -0.49974E+08
 
   -0.49937E+08         0.12944E+06         0.00000E+00
    0.12944E+06        -0.49938E+08         0.00000E+00
    0.00000E+00         0.00000E+00        -0.49975E+08
 
   -0.49943E+08         0.13071E+06         0.00000E+00
    0.13071E+06        -0.49935E+08         0.00000E+00
    0.00000E+00         0.00000E+00        -0.49976E+08
 
   -0.49948E+08         0.13186E+06         0.00000E+00
    0.13186E+06        -0.49933E+08         0.00000E+00
    0.00000E+00         0.00000E+00        -0.49976E+08
 
   -0.49954E+08         0.13289E+06         0.00000E+00
    0.13289E+06        -0.49930E+08         0.00000E+00
    0.00000E+00         0.00000E+00        -0.49977E+08
 
   -0.49959E+08         0.13382E+06         0.00000E+00
    0.13382E+06        -0.49928E+08         0.00000E+00
    0.00000E+00         0.00000E+00        -0.49977E+08
 
   -0.49965E+08         0.13462E+06         0.00000E+00
    0.13462E+06        -0.49925E+08         0.00000E+00
    0.00000E+00         0.00000E+00        -0.49978E+08
 
   -0.49971E+08         0.13532E+06         0.00000E+00
    0.13532E+06        -0.49922E+08         0.00000E+00
    0.00000E+00         0.00000E+00        -0.49979E+08
 
   -0.49977E+08         0.13589E+06         0.00000E+00
    0.13589E+06        -0.49920E+08         0.00000E+00
    0.00000E+00         0.00000E+00        -0.49979E+08
 
   -0.49794E+08         0.21655E+04         0.00000E+00
    0.21655E+04        -0.50000E+08         0.00000E+00
    0.00000E+00         0.00000E+00        -0.49959E+08
 
   -0.49794E+08         0.65249E+04         0.00000E+00
    0.65249E+04        -0.50000E+08         0.00000E+00
    0.00000E+00         0.00000E+00        -0.49959E+08
 
   -0.49794E+08         0.10890E+05         0.00000E+00
    0.10890E+05        -0.50000E+08         0.00000E+00
    0.00000E+00         0.00000E+00        -0.49959E+08
 
   -0.49794E+08         0.15255E+05         0.00000E+00
    0.15255E+05        -0.49999E+08         0.00000E+00
    0.00000E+00         0.00000E+00        -0.49959E+08
 
   -0.49795E+08         0.19616E+05         0.00000E+00
    0.19616E+05        -0.49999E+08         0.00000E+00
    0.00000E+00         0.00000E+00        -0.49959E+08
 
   -0.49795E+08         0.23967E+05         0.00000E+00
    0.23967E+05        -0.49999E+08         0.00000E+00
    0.00000E+00         0.00000E+00        -0.49959E+08
 
   -0.49796E+08         0.28304E+05         0.00000E+00
    0.28304E+05        -0.49998E+08         0.00000E+00
    0.00000E+00         0.00000E+00        -0.49959E+08
 
   -0.49797E+08         0.32621E+05         0.00000E+00
    0.32621E+05        -0.49997E+08         0.00000E+00
    0.00000E+00         0.00000E+00        -0.49959E+08
 
   -0.49798E+08         0.36915E+05         0.00000E+00
    0.36915E+05        -0.49997E+08         0.00000E+00
    0.00000E+00         0.00000E+00        -0.49959E+08
 
   -0.49800E+08         0.41179E+05         0.00000E+00
    0.41179E+05        -0.49996E+08         0.00000E+00
    0.00000E+00         0.00000E+00        -0.49959E+08
 
   -0.49801E+08         0.45411E+05         0.00000E+00
    0.45411E+05        -0.49995E+08         0.00000E+00
    0.00000E+00         0.00000E+00        -0.49959E+08
 
   -0.49803E+08         0.49605E+05         0.00000E+00
    0.49605E+05        -0.49994E+08         0.00000E+00
    0.00000E+00         0.00000E+00        -0.49959E+08
 
   -0.49805E+08         0.53757E+05         0.00000E+00
    0.53757E+05        -0.49993E+08         0.00000E+00
    0.00000E+00         0.00000E+00        -0.49960E+08
 
   -0.49807E+08         0.57863E+05         0.00000E+00
    0.57863E+05        -0.49992E+08         0.00000E+00
    0.00000E+00         0.00000E+00        -0.49960E+08
 
   -0.49809E+08         0.61919E+05         0.00000E+00
    0.61919E+05        -0.49991E+08         0.00000E+00
    0.00000E+00         0.00000E+00        -0.49960E+08
 
   -0.49812E+08         0.65921E+05         0.00000E+00
    0.65921E+05        -0.49989E+08         0.00000E+00
    0.00000E+00         0.00000E+00        -0.49960E+08
 
   -0.49814E+08         0.69865E+05         0.00000E+00
    0.69865E+05        -0.49988E+08         0.00000E+00
    0.00000E+00         0.00000E+00        -0.49960E+08
 
   -0.49817E+08         0.73747E+05         0.00000E+00
    0.73747E+05        -0.49986E+08         0.00000E+00
    0.00000E+00         0.00000E+00        -0.49961E+08
 
   -0.49820E+08         0.77565E+05         0.00000E+00
    0.77565E+05        -0.49985E+08         0.00000E+00
    0.00000E+00         0.00000E+00        -0.49961E+08
 
   -0.49823E+08         0.81313E+05         0.00000E+00
    0.81313E+05        -0.49983E+08         0.00000E+00
    0.00000E+00         0.00000E+00        -0.49961E+08
 
   -0.49826E+08         0.84990E+05         0.00000E+00
    0.84990E+05        -0.49981E+08         0.00000E+00
    0.00000E+00         0.00000E+00        -0.49962E+08
 
   -0.49830E+08         0.88592E+05         0.00000E+00
    0.88592E+05        -0.49980E+08         0.00000E+00
    0.00000E+00         0.00000E+00        -0.49962E+08
 
   -0.49833E+08         0.92116E+05         0.00000E+00
    0.92116E+05        -0.49978E+08         0.00000E+00
    0.00000E+00         0.00000E+00        -0.49962E+08
 
   -0.49837E+08         0.95560E+05         0.00000E+00
    0.95560E+05        -0.49976E+08         0.00000E+00
    0.00000E+00         0.00000E+00        -0.49963E+08
 
   -0.49841E+08         0.98919E+05         0.00000E+00
    0.98919E+05        -0.49974E+08         0.00000E+00
    0.00000E+00         0.00000E+00        -0.49963E+08
 
   -0.49845E+08         0.10219E+06         0.00000E+00
    0.10219E+06        -0.49972E+08         0.00000E+00
    0.00000E+00         0.00000E+00        -0.49963E+08
 
   -0.49849E+08         0.10538E+06         0.00000E+00
    0.10538E+06        -0.49970E+08         0.00000E+00
    0.00000E+00         0.00000E+00        -0.49964E+08
 
   -0.49853E+08         0.10847E+06         0.00000E+00
    0.10847E+06        -0.49968E+08         0.00000E+00
    0.00000E+00         0.00000E+00        -0.49964E+08
 
   -0.49857E+08         0.11147E+06         0.00000E+00
    0.11147E+06        -0.49965E+08         0.00000E+00
    0.00000E+00         0.00000E+00        -0.49965E+08
 
   -0.49862E+08         0.11437E+06         0.00000E+00
    0.11437E+06        -0.49963E+08         0.00000E+00
    0.00000E+00         0.00000E+00        -0.49965E+08
 
   -0.49867E+08         0.11718E+06         0.00000E+00
    0.11718E+06        -0.49961E+08         0.00000E+00
    0.00000E+00         0.00000E+00        -0.49965E+08
 
   -0.49871E+08         0.11988E+06         0.00000E+00
    0.11988E+06        -0.49959E+08         0.00000E+00
    0.00000E+00         0.00000E+00        -0.49966E+08
 
   -0.49876E+08         0.12248E+06         0.00000E+00
    0.12248E+06        -0.49956E+08         0.00000E+00
    0.00000E+00         0.00000E+00        -0.49966E+08
 
   -0.49881E+08         0.12498E+06         0.00000E+00
    0.12498E+06        -0.49954E+08         0.00000E+00
    0.00000E+00         0.00000E+00        -0.49967E+08
 
   -0.49886E+08         0.12738E+06         0.00000E+00
    0.12738E+06        -0.49951E+08         0.00000E+00
    0.00000E+00         0.00000E+00        -0.49967E+08
 
   -0.49891E+08         0.12966E+06         0.00000E+00
    0.12966E+06        -0.49949E+08         0.00000E+00
    0.00000E+00         0.00000E+00        -0.49968E+08
 
   -0.49897E+08         0.13184E+06         0.00000E+00
    0.13184E+06        -0.49946E+08         0.00000E+00
    0.00000E+00         0.00000E+00        -0.49969E+08
 
   -0.49902E+08         0.13391E+06         0.00000E+00
    0.13391E+06        -0.49944E+08         0.00000E+00
    0.00000E+00         0.00000E+00        -0.49969E+08
 
   -0.49908E+08         0.13586E+06         0.00000E+00
    0.13586E+06        -0.49941E+08         0.00000E+00
    0.00000E+00         0.00000E+00        -0.49970E+08
 
   -0.49913E+08         0.13771E+06         0.00000E+00
    0.13771E+06        -0.49938E+08         0.00000E+00
    0.00000E+00         0.00000E+00        -0.49970E+08
 
   -0.49919E+08         0.13943E+06         0.00000E+00
    0.13943E+06        -0.49936E+08         0.00000E+00
    0.00000E+00         0.00000E+00        -0.49971E+08
 
   -0.49925E+08         0.14104E+06         0.00000E+00
    0.14104E+06        -0.49933E+08         0.00000E+00
    0.00000E+00         0.00000E+00        -0.49972E+08
 
   -0.49931E+08         0.14254E+06         0.00000E+00
    0.14254E+06        -0.49930E+08         0.00000E+00
    0.00000E+00         0.00000E+00        -0.49972E+08
 
   -0.49937E+08         0.14391E+06         0.00000E+00
    0.14391E+06        -0.49927E+08         0.00000E+00
    0.00000E+00         0.00000E+00        -0.49973E+08
 
   -0.49943E+08         0.14517E+06         0.00000E+00
    0.14517E+06        -0.49925E+08         0.00000E+00
    0.00000E+00         0.00000E+00        -0.49973E+08
 
   -0.49949E+08         0.14630E+06         0.00000E+00
    0.14630E+06        -0.49922E+08         0.00000E+00
    0.00000E+00         0.00000E+00        -0.49974E+08
 
   -0.49955E+08         0.14731E+06         0.00000E+00
    0.14731E+06        -0.49919E+08         0.00000E+00
    0.00000E+00         0.00000E+00        -0.49975E+08
 
   -0.49961E+08         0.14820E+06         0.00000E+00
    0.14820E+06        -0.49916E+08         0.00000E+00
    0.00000E+00         0.00000E+00        -0.49975E+08
 
   -0.49968E+08         0.14896E+06         0.00000E+00
    0.14896E+06        -0.49913E+08         0.00000E+00
    0.00000E+00         0.00000E+00        -0.49976E+08
 
   -0.49974E+08         0.14959E+06         0.00000E+00
    0.14959E+06        -0.49910E+08         0.00000E+00
    0.00000E+00         0.00000E+00        -0.49977E+08
 
   -0.49771E+08         0.24118E+04         0.00000E+00
    0.24118E+04        -0.50000E+08         0.00000E+00
    0.00000E+00         0.00000E+00        -0.49954E+08
 
   -0.49771E+08         0.72667E+04         0.00000E+00
    0.72667E+04        -0.50000E+08         0.00000E+00
    0.00000E+00         0.00000E+00        -0.49954E+08
 
   -0.49771E+08         0.12127E+05         0.00000E+00
    0.12127E+05        -0.50000E+08         0.00000E+00
    0.00000E+00         0.00000E+00        -0.49954E+08
 
   -0.49771E+08         0.16986E+05         0.00000E+00
    0.16986E+05        -0.49999E+08         0.00000E+00
    0.00000E+00         0.00000E+00        -0.49954E+08
 
   -0.49772E+08         0.21839E+05         0.00000E+00
    0.21839E+05        -0.49999E+08         0.00000E+00
    0.00000E+00         0.00000E+00        -0.49954E+08
 
   -0.49772E+08         0.26680E+05         0.00000E+00
    0.26680E+05        -0.49998E+08         0.00000E+00
    0.00000E+00         0.00000E+00        -0.49954E+08
 
   -0.49773E+08         0.31502E+05         0.00000E+00
    0.31502E+05        -0.49998E+08         0.00000E+00
    0.00000E+00         0.00000E+00        -0.49954E+08
 
   -0.49775E+08         0.36300E+05         0.00000E+00
    0.36300E+05        -0.49997E+08         0.00000E+00
    0.00000E+00         0.00000E+00        -0.49954E+08
 
   -0.49776E+08         0.41069E+05         0.00000E+00
    0.41069E+05        -0.49996E+08         0.00000E+00
    0.00000E+00         0.00000E+00        -0.49954E+08
 
   -0.49777E+08         0.45803E+05         0.00000E+00
    0.45803E+05        -0.49995E+08         0.00000E+00
    0.00000E+00         0.00000E+00        -0.49955E+08
 
   -0.49779E+08         0.50498E+05         0.00000E+00
    0.50498E+05        -0.49994E+08         0.00000E+00
    0.00000E+00         0.00000E+00        -0.49955E+08
 
   -0.49781E+08         0.55147E+05         0.00000E+00
    0.55147E+05        -0.49993E+08         0.00000E+00
    0.00000E+00         0.00000E+00        -0.49955E+08
 
   -0.49783E+08         0.59747E+05         0.00000E+00
    0.59747E+05        -0.49992E+08         0.00000E+00
    0.00000E+00         0.00000E+00        -0.49955E+08
 
   -0.49786E+08         0.64292E+05         0.00000E+00
    0.64292E+05        -0.49991E+08         0.00000E+00
    0.00000E+00         0.00000E+00        -0.49955E+08
 
   -0.49788E+08         0.68778E+05         0.00000E+00
    0.68778E+05        -0.49989E+08         0.00000E+00
    0.00000E+00         0.00000E+00        -0.49955E+08
 
   -0.49791E+08         0.73201E+05         0.00000E+00
    0.73201E+05        -0.49988E+08         0.00000E+00
    0.00000E+00         0.00000E+00        -0.49956E+08
 
   -0.49794E+08         0.77556E+05         0.00000E+00
    0.77556E+05        -0.49986E+08         0.00000E+00
    0.00000E+00         0.00000E+00        -0.49956E+08
 
   -0.49797E+08         0.81839E+05         0.00000E+00
    0.81839E+05        -0.49984E+08         0.00000E+00
    0.00000E+00         0.00000E+00        -0.49956E+08
 
   -0.49800E+08         0.86047E+05         0.00000E+00
    0.86047E+05        -0.49983E+08         0.00000E+00
    0.00000E+00         0.00000E+00        -0.49957E+08
 
   -0.49804E+08         0.90175E+05         0.00000E+00
    0.90175E+05        -0.49981E+08         0.00000E+00
    0.00000E+00         0.00000E+00        -0.49957E+08
 
   -0.49807E+08         0.94221E+05         0.00000E+00
    0.94221E+05        -0.49979E+08         0.00000E+00
    0.00000E+00         0.00000E+00        -0.49957E+08
 
   -0.49811E+08         0.98180E+05         0.00000E+00
    0.98180E+05        -0.49977E+08         0.00000E+00
    0.00000E+00         0.00000E+00        -0.49958E+08
 
   -0.49815E+08         0.10205E+06         0.00000E+00
    0.10205E+06        -0.49975E+08         0.00000E+00
    0.00000E+00         0.00000E+00        -0.49958E+08
 
   -0.49819E+08         0.10583E+06         0.00000E+00
    0.10583E+06        -0.49973E+08         0.00000E+00
    0.00000E+00         0.00000E+00        -0.49958E+08
 
   -0.49823E+08         0.10951E+06         0.00000E+00
    0.10951E+06        -0.49970E+08         0.00000E+00
    0.00000E+00         0.00000E+00        -0.49959E+08
 
   -0.49828E+08         0.11309E+06         0.00000E+00
    0.11309E+06        -0.49968E+08         0.00000E+00
    0.00000E+00         0.00000E+00        -0.49959E+08
 
   -0.49832E+08         0.11658E+06         0.00000E+00
    0.11658E+06        -0.49966E+08         0.00000E+00
    0.00000E+00         0.00000E+00        -0.49960E+08
 
   -0.49837E+08         0.11996E+06         0.00000E+00
    0.11996E+06        -0.49963E+08         0.00000E+00
    0.00000E+00         0.00000E+00        -0.49960E+08
 
   -0.49842E+08         0.12323E+06         0.00000E+00
    0.12323E+06        -0.49961E+08         0.00000E+00
    0.00000E+00         0.00000E+00        -0.49961E+08
 
   -0.49847E+08         0.12640E+06         0.00000E+00
    0.12640E+06        -0.49958E+08         0.00000E+00
    0.00000E+00         0.00000E+00        -0.49961E+08
 
   -0.49852E+08         0.12946E+06         0.00000E+00
    0.12946E+06        -0.49956E+08         0.00000E+00
    0.00000E+00         0.00000E+00        -0.49962E+08
 
   -0.49857E+08         0.13241E+06         0.00000E+00
    0.13241E+06        -0.49953E+08         0.00000E+00
    0.00000E+00         0.00000E+00        -0.49962E+08
 
   -0.49863E+08         0.13524E+06         0.00000E+00
    0.13524E+06        -0.49951E+08         0.00000E+00
    0.00000E+00         0.00000E+00        -0.49963E+08
 
   -0.49868E+08         0.13796E+06         0.00000E+00
    0.13796E+06        -0.49948E+08         0.00000E+00
    0.00000E+00         0.00000E+00        -0.49963E+08
 
   -0.49874E+08         0.14056E+06         0.00000E+00
    0.14056E+06        -0.49945E+08         0.00000E+00
    0.00000E+00         0.00000E+00        -0.49964E+08
 
   -0.49880E+08         0.14305E+06         0.00000E+00
    0.14305E+06        -0.49942E+08         0.00000E+00
    0.00000E+00         0.00000E+00        -0.49964E+08
 
   -0.49886E+08         0.14541E+06         0.00000E+00
    0.14541E+06        -0.49939E+08         0.00000E+00
    0.00000E+00         0.00000E+00        -0.49965E+08
 
   -0.49892E+08         0.14766E+06         0.00000E+00
    0.14766E+06        -0.49937E+08         0.00000E+00
    0.00000E+00         0.00000E+00        -0.49966E+08
 
   -0.49898E+08         0.14978E+06         0.00000E+00
    0.14978E+06        -0.49934E+08         0.00000E+00
    0.00000E+00         0.00000E+00        -0.49966E+08
 
   -0.49904E+08         0.15178E+06         0.00000E+00
    0.15178E+06        -0.49931E+08         0.00000E+00
    0.00000E+00         0.00000E+00        -0.49967E+08
 
   -0.49910E+08         0.15365E+06         0.00000E+00
    0.15365E+06        -0.49928E+08         0.00000E+00
    0.00000E+00         0.00000E+00        -0.49968E+08
 
   -0.49917E+08         0.15540E+06         0.00000E+00
    0.15540E+06        -0.49925E+08         0.00000E+00
    0.00000E+00         0.00000E+00        -0.49968E+08
 
   -0.49923E+08         0.15702E+06         0.00000E+00
    0.15702E+06        -0.49922E+08         0.00000E+00
    0.00000E+00         0.00000E+00        -0.49969E+08
 
   -0.49930E+08         0.15851E+06         0.00000E+00
    0.15851E+06        -0.49919E+08         0.00000E+00
    0.00000E+00         0.00000E+00        -0.49970E+08
 
   -0.49936E+08         0.15988E+06         0.00000E+00
    0.15988E+06        -0.49916E+08         0.00000E+00
    0.00000E+00         0.00000E+00        -0.49970E+08
 
   -0.49943E+08         0.16111E+06         0.00000E+00
    0.16111E+06        -0.49912E+08         0.00000E+00
    0.00000E+00         0.00000E+00        -0.49971E+08
 
   -0.49950E+08         0.16221E+06         0.00000E+00
    0.16221E+06        -0.49909E+08         0.00000E+00
    0.00000E+00         0.00000E+00        -0.49972E+08
 
   -0.49957E+08         0.16318E+06         0.00000E+00
    0.16318E+06        -0.49906E+08         0.00000E+00
    0.00000E+00         0.00000E+00        -0.49973E+08
 
   -0.49964E+08         0.16402E+06         0.00000E+00
    0.16402E+06        -0.49903E+08         0.00000E+00
    0.00000E+00         0.00000E+00        -0.49973E+08
 
   -0.49971E+08         0.16472E+06         0.00000E+00
    0.16472E+06        -0.49900E+08         0.00000E+00
    0.00000E+00         0.00000E+00        -0.49974E+08
 
   -0.49745E+08         0.26978E+04         0.00000E+00
    0.26978E+04        -0.50000E+08         0.00000E+00
    0.00000E+00         0.00000E+00        -0.49949E+08
 
   -0.49745E+08         0.81252E+04         0.00000E+00
    0.81252E+04        -0.50000E+08         0.00000E+00
    0.00000E+00         0.00000E+00        -0.49949E+08
 
   -0.49745E+08         0.13557E+05         0.00000E+00
    0.13557E+05        -0.50000E+08         0.00000E+00
    0.00000E+00         0.00000E+00        -0.49949E+08
 
   -0.49746E+08         0.18985E+05         0.00000E+00
    0.18985E+05        -0.49999E+08         0.00000E+00
    0.00000E+00         0.00000E+00        -0.49949E+08
 
   -0.49746E+08         0.24403E+05         0.00000E+00
    0.24403E+05        -0.49999E+08         0.00000E+00
    0.00000E+00         0.00000E+00        -0.49949E+08
 
   -0.49747E+08         0.29805E+05         0.00000E+00
    0.29805E+05        -0.49998E+08         0.00000E+00
    0.00000E+00         0.00000E+00        -0.49949E+08
 
   -0.49748E+08         0.35182E+05         0.00000E+00
    0.35182E+05        -0.49997E+08         0.00000E+00
    0.00000E+00         0.00000E+00        -0.49949E+08
 
   -0.49749E+08         0.40529E+05         0.00000E+00
    0.40529E+05        -0.49997E+08         0.00000E+00
    0.00000E+00         0.00000E+00        -0.49949E+08
 
   -0.49751E+08         0.45839E+05         0.00000E+00
    0.45839E+05        -0.49996E+08         0.00000E+00
    0.00000E+00         0.00000E+00        -0.49949E+08
 
   -0.49753E+08         0.51106E+05         0.00000E+00
    0.51106E+05        -0.49995E+08         0.00000E+00
    0.00000E+00         0.00000E+00        -0.49949E+08
 
   -0.49755E+08         0.56324E+05         0.00000E+00
    0.56324E+05        -0.49993E+08         0.00000E+00
    0.00000E+00         0.00000E+00        -0.49950E+08
 
   -0.49757E+08         0.61487E+05         0.00000E+00
    0.61487E+05        -0.49992E+08         0.00000E+00
    0.00000E+00         0.00000E+00        -0.49950E+08
 
   -0.49759E+08         0.66590E+05         0.00000E+00
    0.66590E+05        -0.49991E+08         0.00000E+00
    0.00000E+00         0.00000E+00        -0.49950E+08
 
   -0.49762E+08         0.71628E+05         0.00000E+00
    0.71628E+05        -0.49989E+08         0.00000E+00
    0.00000E+00         0.00000E+00        -0.49950E+08
 
   -0.49765E+08         0.76595E+05         0.00000E+00
    0.76595E+05        -0.49988E+08         0.00000E+00
    0.00000E+00         0.00000E+00        -0.49950E+08
 
   -0.49768E+08         0.81487E+05         0.00000E+00
    0.81487E+05        -0.49986E+08         0.00000E+00
    0.00000E+00         0.00000E+00        -0.49951E+08
 
   -0.49771E+08         0.86298E+05         0.00000E+00
    0.86298E+05        -0.49984E+08         0.00000E+00
    0.00000E+00         0.00000E+00        -0.49951E+08
 
   -0.49775E+08         0.91025E+05         0.00000E+00
    0.91025E+05        -0.49982E+08         0.00000E+00
    0.00000E+00         0.00000E+00        -0.49951E+08
 
   -0.49778E+08         0.95664E+05         0.00000E+00
    0.95664E+05        -0.49980E+08         0.00000E+00
    0.00000E+00         0.00000E+00        -0.49952E+08
 
   -0.49782E+08         0.10021E+06         0.00000E+00
    0.10021E+06        -0.49978E+08         0.00000E+00
    0.00000E+00         0.00000E+00        -0.49952E+08
 
   -0.49786E+08         0.10466E+06         0.00000E+00
    0.10466E+06        -0.49976E+08         0.00000E+00
    0.00000E+00         0.00000E+00        -0.49952E+08
 
   -0.49791E+08         0.10901E+06         0.00000E+00
    0.10901E+06        -0.49974E+08         0.00000E+00
    0.00000E+00         0.00000E+00        -0.49953E+08
 
   -0.49795E+08         0.11325E+06         0.00000E+00
    0.11325E+06        -0.49971E+08         0.00000E+00
    0.00000E+00         0.00000E+00        -0.49953E+08
 
   -0.49800E+08         0.11739E+06         0.00000E+00
    0.11739E+06        -0.49969E+08         0.00000E+00
    0.00000E+00         0.00000E+00        -0.49954E+08
 
   -0.49804E+08         0.12142E+06         0.00000E+00
    0.12142E+06        -0.49966E+08         0.00000E+00
    0.00000E+00         0.00000E+00        -0.49954E+08
 
   -0.49809E+08         0.12534E+06         0.00000E+00
    0.12534E+06        -0.49964E+08         0.00000E+00
    0.00000E+00         0.00000E+00        -0.49955E+08
 
   -0.49814E+08         0.12915E+06         0.00000E+00
    0.12915E+06        -0.49961E+08         0.00000E+00
    0.00000E+00         0.00000E+00        -0.49955E+08
 
   -0.49820E+08         0.13283E+06         0.00000E+00
    0.13283E+06        -0.49958E+08         0.00000E+00
    0.00000E+00         0.00000E+00        -0.49956E+08
 
   -0.49825E+08         0.13640E+06         0.00000E+00
    0.13640E+06        -0.49956E+08         0.00000E+00
    0.00000E+00         0.00000E+00        -0.49956E+08
 
   -0.49831E+08         0.13985E+06         0.00000E+00
    0.13985E+06        -0.49953E+08         0.00000E+00
    0.00000E+00         0.00000E+00        -0.49957E+08
 
   -0.49836E+08         0.14318E+06         0.00000E+00
    0.14318E+06        -0.49950E+08         0.00000E+00
    0.00000E+00         0.00000E+00        -0.49957E+08
 
   -0.49842E+08         0.14638E+06         0.00000E+00
    0.14638E+06        -0.49947E+08         0.00000E+00
    0.00000E+00         0.00000E+00        -0.49958E+08
 
   -0.49848E+08         0.14945E+06         0.00000E+00
    0.14945E+06        -0.49944E+08         0.00000E+00
    0.00000E+00         0.00000E+00        -0.49958E+08
 
   -0.49855E+08         0.15240E+06         0.00000E+00
    0.15240E+06        -0.49941E+08         0.00000E+00
    0.00000E+00         0.00000E+00        -0.49959E+08
 
   -0.49861E+08         0.15522E+06         0.00000E+00
    0.15522E+06        -0.49938E+08         0.00000E+00
    0.00000E+00         0.00000E+00        -0.49960E+08
 
   -0.49867E+08         0.15791E+06         0.00000E+00
    0.15791E+06        -0.49935E+08         0.00000E+00
    0.00000E+00         0.00000E+00        -0.49960E+08
 
   -0.49874E+08         0.16046E+06         0.00000E+00
    0.16046E+06        -0.49932E+08         0.00000E+00
    0.00000E+00         0.00000E+00        -0.49961E+08
 
   -0.49880E+08         0.16289E+06         0.00000E+00
    0.16289E+06        -0.49929E+08         0.00000E+00
    0.00000E+00         0.00000E+00        -0.49962E+08
 
   -0.49887E+08         0.16518E+06         0.00000E+00
    0.16518E+06        -0.49925E+08         0.00000E+00
    0.00000E+00         0.00000E+00        -0.49962E+08
 
   -0.49894E+08         0.16734E+06         0.00000E+00
    0.16734E+06        -0.49922E+08         0.00000E+00
    0.00000E+00         0.00000E+00        -0.49963E+08
 
   -0.49901E+08         0.16936E+06         0.00000E+00
    0.16936E+06        -0.49919E+08         0.00000E+00
    0.00000E+00         0.00000E+00        -0.49964E+08
 
   -0.49908E+08         0.17125E+06         0.00000E+00
    0.17125E+06        -0.49915E+08         0.00000E+00
    0.00000E+00         0.00000E+00        -0.49965E+08
 
   -0.49915E+08         0.17300E+06         0.00000E+00
    0.17300E+06        -0.49912E+08         0.00000E+00
    0.00000E+00         0.00000E+00        -0.49965E+08
 
   -0.49922E+08         0.17462E+06         0.00000E+00
    0.17462E+06        -0.49909E+08         0.00000E+00
    0.00000E+00         0.00000E+00        -0.49966E+08
 
   -0.49930E+08         0.17609E+06         0.00000E+00
    0.17609E+06        -0.49905E+08         0.00000E+00
    0.00000E+00         0.00000E+00        -0.49967E+08
 
   -0.49937E+08         0.17743E+06         0.00000E+00
    0.17743E+06        -0.49902E+08         0.00000E+00
    0.00000E+00         0.00000E+00        -0.49968E+08
 
   -0.49945E+08         0.17862E+06         0.00000E+00
    0.17862E+06        -0.49899E+08         0.00000E+00
    0.00000E+00         0.00000E+00        -0.49969E+08
 
   -0.49952E+08         0.17968E+06         0.00000E+00
    0.17968E+06        -0.49895E+08         0.00000E+00
    0.00000E+00         0.00000E+00        -0.49969E+08
 
   -0.49960E+08         0.18059E+06         0.00000E+00
    0.18059E+06        -0.49892E+08         0.00000E+00
    0.00000E+00         0.00000E+00        -0.49970E+08
 
   -0.49968E+08         0.18136E+06         0.00000E+00
    0.18136E+06        -0.49888E+08         0.00000E+00
    0.00000E+00         0.00000E+00        -0.49971E+08
 
   -0.49717E+08         0.30317E+04         0.00000E+00
    0.30317E+04        -0.50000E+08         0.00000E+00
    0.00000E+00         0.00000E+00        -0.49943E+08
 
   -0.49716E+08         0.91243E+04         0.00000E+00
    0.91243E+04        -0.50000E+08         0.00000E+00
    0.00000E+00         0.00000E+00        -0.49943E+08
 
   -0.49716E+08         0.15218E+05         0.00000E+00
    0.15218E+05        -0.50000E+08         0.00000E+00
    0.00000E+00         0.00000E+00        -0.49943E+08
 
   -0.49717E+08         0.21304E+05         0.00000E+00
    0.21304E+05        -0.49999E+08         0.00000E+00
    0.00000E+00         0.00000E+00        -0.49943E+08
 
   -0.49717E+08         0.27374E+05         0.00000E+00
    0.27374E+05        -0.49999E+08         0.00000E+00
    0.00000E+00         0.00000E+00        -0.49943E+08
 
   -0.49718E+08         0.33420E+05         0.00000E+00
    0.33420E+05        -0.49998E+08         0.00000E+00
    0.00000E+00         0.00000E+00        -0.49943E+08
 
   -0.49720E+08         0.39433E+05         0.00000E+00
    0.39433E+05        -0.49997E+08         0.00000E+00
    0.00000E+00         0.00000E+00        -0.49943E+08
 
   -0.49721E+08         0.45407E+05         0.00000E+00
    0.45407E+05        -0.49996E+08         0.00000E+00
    0.00000E+00         0.00000E+00        -0.49943E+08
 
   -0.49723E+08         0.51334E+05         0.00000E+00
    0.51334E+05        -0.49995E+08         0.00000E+00
    0.00000E+00         0.00000E+00        -0.49944E+08
 
   -0.49725E+08         0.57206E+05         0.00000E+00
    0.57206E+05        -0.49994E+08         0.00000E+00
    0.00000E+00         0.00000E+00        -0.49944E+08
 
   -0.49727E+08         0.63018E+05         0.00000E+00
    0.63018E+05        -0.49992E+08         0.00000E+00
    0.00000E+00         0.00000E+00        -0.49944E+08
 
   -0.49730E+08         0.68761E+05         0.00000E+00
    0.68761E+05        -0.49991E+08         0.00000E+00
    0.00000E+00         0.00000E+00        -0.49944E+08
 
   -0.49732E+08         0.74431E+05         0.00000E+00
    0.74431E+05        -0.49989E+08         0.00000E+00
    0.00000E+00         0.00000E+00        -0.49944E+08
 
   -0.49735E+08         0.80021E+05         0.00000E+00
    0.80021E+05        -0.49987E+08         0.00000E+00
    0.00000E+00         0.00000E+00        -0.49945E+08
 
   -0.49739E+08         0.85525E+05         0.00000E+00
    0.85525E+05        -0.49986E+08         0.00000E+00
    0.00000E+00         0.00000E+00        -0.49945E+08
 
   -0.49742E+08         0.90938E+05         0.00000E+00
    0.90938E+05        -0.49984E+08         0.00000E+00
    0.00000E+00         0.00000E+00        -0.49945E+08
 
   -0.49746E+08         0.96256E+05         0.00000E+00
    0.96256E+05        -0.49982E+08         0.00000E+00
    0.00000E+00         0.00000E+00        -0.49946E+08
 
   -0.49750E+08         0.10147E+06         0.00000E+00
    0.10147E+06        -0.49979E+08         0.00000E+00
    0.00000E+00         0.00000E+00        -0.49946E+08
 
   -0.49754E+08         0.10658E+06         0.00000E+00
    0.10658E+06        -0.49977E+08         0.00000E+00
    0.00000E+00         0.00000E+00        -0.49946E+08
 
   -0.49759E+08         0.11159E+06         0.00000E+00
    0.11159E+06        -0.49975E+08         0.00000E+00
    0.00000E+00         0.00000E+00        -0.49947E+08
 
   -0.49763E+08         0.11648E+06         0.00000E+00
    0.11648E+06        -0.49972E+08         0.00000E+00
    0.00000E+00         0.00000E+00        -0.49947E+08
 
   -0.49768E+08         0.12125E+06         0.00000E+00
    0.12125E+06        -0.49970E+08         0.00000E+00
    0.00000E+00         0.00000E+00        -0.49948E+08
 
   -0.49773E+08         0.12590E+06         0.00000E+00
    0.12590E+06        -0.49967E+08         0.00000E+00
    0.00000E+00         0.00000E+00        -0.49948E+08
 
   -0.49778E+08         0.13043E+06         0.00000E+00
    0.13043E+06        -0.49964E+08         0.00000E+00
    0.00000E+00         0.00000E+00        -0.49949E+08
 
   -0.49784E+08         0.13483E+06         0.00000E+00
    0.13483E+06        -0.49962E+08         0.00000E+00
    0.00000E+00         0.00000E+00        -0.49949E+08
 
   -0.49789E+08         0.13911E+06         0.00000E+00
    0.13911E+06        -0.49959E+08         0.00000E+00
    0.00000E+00         0.00000E+00        -0.49950E+08
 
   -0.49795E+08         0.14325E+06         0.00000E+00
    0.14325E+06        -0.49956E+08         0.00000E+00
    0.00000E+00         0.00000E+00        -0.49950E+08
 
   -0.49801E+08         0.14726E+06         0.00000E+00
    0.14726E+06        -0.49953E+08         0.00000E+00
    0.00000E+00         0.00000E+00        -0.49951E+08
 
   -0.49807E+08         0.15114E+06         0.00000E+00
    0.15114E+06        -0.49950E+08         0.00000E+00
    0.00000E+00         0.00000E+00        -0.49951E+08
 
   -0.49813E+08         0.15487E+06         0.00000E+00
    0.15487E+06        -0.49946E+08         0.00000E+00
    0.00000E+00         0.00000E+00        -0.49952E+08
 
   -0.49820E+08         0.15848E+06         0.00000E+00
    0.15848E+06        -0.49943E+08         0.00000E+00
    0.00000E+00         0.00000E+00        -0.49953E+08
 
   -0.49826E+08         0.16194E+06         0.00000E+00
    0.16194E+06        -0.49940E+08         0.00000E+00
    0.00000E+00         0.00000E+00        -0.49953E+08
 
   -0.49833E+08         0.16526E+06         0.00000E+00
    0.16526E+06        -0.49937E+08         0.00000E+00
    0.00000E+00         0.00000E+00        -0.49954E+08
 
   -0.49840E+08         0.16844E+06         0.00000E+00
    0.16844E+06        -0.49933E+08         0.00000E+00
    0.00000E+00         0.00000E+00        -0.49955E+08
 
   -0.49846E+08         0.17148E+06         0.00000E+00
    0.17148E+06        -0.49930E+08         0.00000E+00
    0.00000E+00         0.00000E+00        -0.49955E+08
 
   -0.49854E+08         0.17437E+06         0.00000E+00
    0.17437E+06        -0.49926E+08         0.00000E+00
    0.00000E+00         0.00000E+00        -0.49956E+08
 
   -0.49861E+08         0.17712E+06         0.00000E+00
    0.17712E+06        -0.49923E+08         0.00000E+00
    0.00000E+00         0.00000E+00        -0.49957E+08
 
   -0.49868E+08         0.17973E+06         0.00000E+00
    0.17973E+06        -0.49919E+08         0.00000E+00
    0.00000E+00         0.00000E+00        -0.49958E+08
 
   -0.49875E+08         0.18219E+06         0.00000E+00
    0.18219E+06        -0.49916E+08         0.00000E+00
    0.00000E+00         0.00000E+00        -0.49958E+08
 
   -0.49883E+08         0.18451E+06         0.00000E+00
    0.18451E+06        -0.49912E+08         0.00000E+00
    0.00000E+00         0.00000E+00        -0.49959E+08
 
   -0.49891E+08         0.18668E+06         0.00000E+00
    0.18668E+06        -0.49909E+08         0.00000E+00
    0.00000E+00         0.00000E+00        -0.49960E+08
 
   -0.49898E+08         0.18870E+06         0.00000E+00
    0.18870E+06        -0.49905E+08         0.00000E+00
    0.00000E+00         0.00000E+00        -0.49961E+08
 
   -0.49906E+08         0.19058E+06         0.00000E+00
    0.19058E+06        -0.49901E+08         0.00000E+00
    0.00000E+00         0.00000E+00        -0.49962E+08
 
   -0.49914E+08         0.19231E+06         0.00000E+00
    0.19231E+06        -0.49898E+08         0.00000E+00
    0.00000E+00         0.00000E+00        -0.49962E+08
 
   -0.49922E+08         0.19390E+06         0.00000E+00
    0.19390E+06        -0.49894E+08         0.00000E+00
    0.00000E+00         0.00000E+00        -0.49963E+08
 
   -0.49931E+08         0.19534E+06         0.00000E+00
    0.19534E+06        -0.49890E+08         0.00000E+00
    0.00000E+00         0.00000E+00        -0.49964E+08
 
   -0.49939E+08         0.19663E+06         0.00000E+00
    0.19663E+06        -0.49886E+08         0.00000E+00
    0.00000E+00         0.00000E+00        -0.49965E+08
 
   -0.49947E+08         0.19777E+06         0.00000E+00
    0.19777E+06        -0.49883E+08         0.00000E+00
    0.00000E+00         0.00000E+00        -0.49966E+08
 
   -0.49956E+08         0.19876E+06         0.00000E+00
    0.19876E+06        -0.49879E+08         0.00000E+00
    0.00000E+00         0.00000E+00        -0.49967E+08
 
   -0.49964E+08         0.19960E+06         0.00000E+00
    0.19960E+06        -0.49875E+08         0.00000E+00
    0.00000E+00         0.00000E+00        -0.49968E+08
 
   -0.49684E+08         0.34239E+04         0.00000E+00
    0.34239E+04        -0.50000E+08         0.00000E+00
    0.00000E+00         0.00000E+00        -0.49937E+08
 
   -0.49684E+08         0.10293E+05         0.00000E+00
    0.10293E+05        -0.50000E+08         0.00000E+00
    0.00000E+00         0.00000E+00        -0.49937E+08
 
   -0.49684E+08         0.17157E+05         0.00000E+00
    0.17157E+05        -0.50000E+08         0.00000E+00
    0.00000E+00         0.00000E+00        -0.49937E+08
 
   -0.49685E+08         0.24006E+05         0.00000E+00
    0.24006E+05        -0.49999E+08         0.00000E+00
    0.00000E+00         0.00000E+00        -0.49937E+08
 
   -0.49685E+08         0.30830E+05         0.00000E+00
    0.30830E+05        -0.49998E+08         0.00000E+00
    0.00000E+00         0.00000E+00        -0.49937E+08
 
   -0.49686E+08         0.37619E+05         0.00000E+00
    0.37619E+05        -0.49998E+08         0.00000E+00
    0.00000E+00         0.00000E+00        -0.49937E+08
 
   -0.49688E+08         0.44364E+05         0.00000E+00
    0.44364E+05        -0.49997E+08         0.00000E+00
    0.00000E+00         0.00000E+00        -0.49937E+08
 
   -0.49690E+08         0.51056E+05         0.00000E+00
    0.51056E+05        -0.49995E+08         0.00000E+00
    0.00000E+00         0.00000E+00        -0.49937E+08
 
   -0.49692E+08         0.57687E+05         0.00000E+00
    0.57687E+05        -0.49994E+08         0.00000E+00
    0.00000E+00         0.00000E+00        -0.49937E+08
 
   -0.49694E+08         0.64247E+05         0.00000E+00
    0.64247E+05        -0.49993E+08         0.00000E+00
    0.00000E+00         0.00000E+00        -0.49937E+08
 
   -0.49697E+08         0.70731E+05         0.00000E+00
    0.70731E+05        -0.49991E+08         0.00000E+00
    0.00000E+00         0.00000E+00        -0.49938E+08
 
   -0.49700E+08         0.77129E+05         0.00000E+00
    0.77129E+05        -0.49989E+08         0.00000E+00
    0.00000E+00         0.00000E+00        -0.49938E+08
 
   -0.49703E+08         0.83436E+05         0.00000E+00
    0.83436E+05        -0.49988E+08         0.00000E+00
    0.00000E+00         0.00000E+00        -0.49938E+08
 
   -0.49706E+08         0.89644E+05         0.00000E+00
    0.89644E+05        -0.49986E+08         0.00000E+00
    0.00000E+00         0.00000E+00        -0.49938E+08
 
   -0.49710E+08         0.95747E+05         0.00000E+00
    0.95747E+05        -0.49983E+08         0.00000E+00
    0.00000E+00         0.00000E+00        -0.49939E+08
 
   -0.49714E+08         0.10174E+06         0.00000E+00
    0.10174E+06        -0.49981E+08         0.00000E+00
    0.00000E+00         0.00000E+00        -0.49939E+08
 
   -0.49718E+08         0.10762E+06         0.00000E+00
    0.10762E+06        -0.49979E+08         0.00000E+00
    0.00000E+00         0.00000E+00        -0.49939E+08
 
   -0.49723E+08         0.11337E+06         0.00000E+00
    0.11337E+06        -0.49976E+08         0.00000E+00
    0.00000E+00         0.00000E+00        -0.49940E+08
 
   -0.49728E+08         0.11900E+06         0.00000E+00
    0.11900E+06        -0.49974E+08         0.00000E+00
    0.00000E+00         0.00000E+00        -0.49940E+08
 
   -0.49733E+08         0.12450E+06         0.00000E+00
    0.12450E+06        -0.49971E+08         0.00000E+00
    0.00000E+00         0.00000E+00        -0.49941E+08
 
   -0.49738E+08         0.12987E+06         0.00000E+00
    0.12987E+06        -0.49968E+08         0.00000E+00
    0.00000E+00         0.00000E+00        -0.49941E+08
 
   -0.49743E+08         0.13509E+06         0.00000E+00
    0.13509E+06        -0.49965E+08         0.00000E+00
    0.00000E+00         0.00000E+00        -0.49942E+08
 
   -0.49749E+08         0.14018E+06         0.00000E+00
    0.14018E+06        -0.49962E+08         0.00000E+00
    0.00000E+00         0.00000E+00        -0.49942E+08
 
   -0.49755E+08         0.14512E+06         0.00000E+00
    0.14512E+06        -0.49959E+08         0.00000E+00
    0.00000E+00         0.00000E+00        -0.49943E+08
 
   -0.49761E+08         0.14992E+06         0.00000E+00
    0.14992E+06        -0.49956E+08         0.00000E+00
    0.00000E+00         0.00000E+00        -0.49943E+08
 
   -0.49767E+08         0.15457E+06         0.00000E+00
    0.15457E+06        -0.49953E+08         0.00000E+00
    0.00000E+00         0.00000E+00        -0.49944E+08
 
   -0.49774E+08         0.15907E+06         0.00000E+00
    0.15907E+06        -0.49949E+08         0.00000E+00
    0.00000E+00         0.00000E+00        -0.49945E+08
 
   -0.49780E+08         0.16341E+06         0.00000E+00
    0.16341E+06        -0.49946E+08         0.00000E+00
    0.00000E+00         0.00000E+00        -0.49945E+08
 
   -0.49787E+08         0.16761E+06         0.00000E+00
    0.16761E+06        -0.49943E+08         0.00000E+00
    0.00000E+00         0.00000E+00        -0.49946E+08
 
   -0.49794E+08         0.17164E+06         0.00000E+00
    0.17164E+06        -0.49939E+08         0.00000E+00
    0.00000E+00         0.00000E+00        -0.49947E+08
 
   -0.49801E+08         0.17552E+06         0.00000E+00
    0.17552E+06        -0.49936E+08         0.00000E+00
    0.00000E+00         0.00000E+00        -0.49947E+08
 
   -0.49808E+08         0.17925E+06         0.00000E+00
    0.17925E+06        -0.49932E+08         0.00000E+00
    0.00000E+00         0.00000E+00        -0.49948E+08
 
   -0.49816E+08         0.18282E+06         0.00000E+00
    0.18282E+06        -0.49928E+08         0.00000E+00
    0.00000E+00         0.00000E+00        -0.49949E+08
 
   -0.49823E+08         0.18623E+06         0.00000E+00
    0.18623E+06        -0.49925E+08         0.00000E+00
    0.00000E+00         0.00000E+00        -0.49950E+08
 
   -0.49831E+08         0.18948E+06         0.00000E+00
    0.18948E+06        -0.49921E+08         0.00000E+00
    0.00000E+00         0.00000E+00        -0.49950E+08
 
   -0.49839E+08         0.19258E+06         0.00000E+00
    0.19258E+06        -0.49917E+08         0.00000E+00
    0.00000E+00         0.00000E+00        -0.49951E+08
 
   -0.49847E+08         0.19551E+06         0.00000E+00
    0.19551E+06        -0.49913E+08         0.00000E+00
    0.00000E+00         0.00000E+00        -0.49952E+08
 
   -0.49855E+08         0.19830E+06         0.00000E+00
    0.19830E+06        -0.49909E+08         0.00000E+00
    0.00000E+00         0.00000E+00        -0.49953E+08
 
   -0.49863E+08         0.20092E+06         0.00000E+00
    0.20092E+06        -0.49905E+08         0.00000E+00
    0.00000E+00         0.00000E+00        -0.49954E+08
 
   -0.49871E+08         0.20339E+06         0.00000E+00
    0.20339E+06        -0.49901E+08         0.00000E+00
    0.00000E+00         0.00000E+00        -0.49955E+08
 
   -0.49880E+08         0.20570E+06         0.00000E+00
    0.20570E+06        -0.49897E+08         0.00000E+00
    0.00000E+00         0.00000E+00        -0.49955E+08
 
   -0.49888E+08         0.20785E+06         0.00000E+00
    0.20785E+06        -0.49893E+08         0.00000E+00
    0.00000E+00         0.00000E+00        -0.49956E+08
 
   -0.49897E+08         0.20985E+06         0.00000E+00
    0.20985E+06        -0.49889E+08         0.00000E+00
    0.00000E+00         0.00000E+00        -0.49957E+08
 
   -0.49906E+08         0.21170E+06         0.00000E+00
    0.21170E+06        -0.49885E+08         0.00000E+00
    0.00000E+00         0.00000E+00        -0.49958E+08
 
   -0.49915E+08         0.21339E+06         0.00000E+00
    0.21339E+06        -0.49881E+08         0.00000E+00
    0.00000E+00         0.00000E+00        -0.49959E+08
 
   -0.49923E+08         0.21492E+06         0.00000E+00
    0.21492E+06        -0.49877E+08         0.00000E+00
    0.00000E+00         0.00000E+00        -0.49960E+08
 
   -0.49932E+08         0.21630E+06         0.00000E+00
    0.21630E+06        -0.49873E+08         0.00000E+00
    0.00000E+00         0.00000E+00        -0.49961E+08
 
   -0.49942E+08         0.21753E+06         0.00000E+00
    0.21753E+06        -0.49869E+08         0.00000E+00
    0.00000E+00         0.00000E+00        -0.49962E+08
 
   -0.49951E+08         0.21860E+06         0.00000E+00
    0.21860E+06        -0.49865E+08         0.00000E+00
    0.00000E+00         0.00000E+00        -0.49963E+08
 
   -0.49960E+08         0.21952E+06         0.00000E+00
    0.21952E+06        -0.49861E+08         0.00000E+00
    0.00000E+00         0.00000E+00        -0.49964E+08
 
   -0.49648E+08         0.38869E+04         0.00000E+00
    0.38869E+04        -0.50000E+08         0.00000E+00
    0.00000E+00         0.00000E+00        -0.49930E+08
 
   -0.49647E+08         0.11665E+05         0.00000E+00
    0.11665E+05        -0.50000E+08         0.00000E+00
    0.00000E+00         0.00000E+00        -0.49929E+08
 
   -0.49648E+08         0.19429E+05         0.00000E+00
    0.19429E+05        -0.49999E+08         0.00000E+00
    0.00000E+00         0.00000E+00        -0.49929E+08
 
   -0.49648E+08         0.27166E+05         0.00000E+00
    0.27166E+05        -0.49999E+08         0.00000E+00
    0.00000E+00         0.00000E+00        -0.49929E+08
 
   -0.49649E+08         0.34864E+05         0.00000E+00
    0.34864E+05        -0.49998E+08         0.00000E+00
    0.00000E+00         0.00000E+00        -0.49929E+08
 
   -0.49651E+08         0.42512E+05         0.00000E+00
    0.42512E+05        -0.49997E+08         0.00000E+00
    0.00000E+00         0.00000E+00        -0.49930E+08
 
   -0.49652E+08         0.50100E+05         0.00000E+00
    0.50100E+05        -0.49996E+08         0.00000E+00
    0.00000E+00         0.00000E+00        -0.49930E+08
 
   -0.49654E+08         0.57616E+05         0.00000E+00
    0.57616E+05        -0.49995E+08         0.00000E+00
    0.00000E+00         0.00000E+00        -0.49930E+08
 
   -0.49657E+08         0.65051E+05         0.00000E+00
    0.65051E+05        -0.49993E+08         0.00000E+00
    0.00000E+00         0.00000E+00        -0.49930E+08
 
   -0.49659E+08         0.72395E+05         0.00000E+00
    0.72395E+05        -0.49991E+08         0.00000E+00
    0.00000E+00         0.00000E+00        -0.49930E+08
 
   -0.49663E+08         0.79640E+05         0.00000E+00
    0.79640E+05        -0.49990E+08         0.00000E+00
    0.00000E+00         0.00000E+00        -0.49930E+08
 
   -0.49666E+08         0.86778E+05         0.00000E+00
    0.86778E+05        -0.49988E+08         0.00000E+00
    0.00000E+00         0.00000E+00        -0.49931E+08
 
   -0.49670E+08         0.93800E+05         0.00000E+00
    0.93800E+05        -0.49985E+08         0.00000E+00
    0.00000E+00         0.00000E+00        -0.49931E+08
 
   -0.49674E+08         0.10070E+06         0.00000E+00
    0.10070E+06        -0.49983E+08         0.00000E+00
    0.00000E+00         0.00000E+00        -0.49931E+08
 
   -0.49678E+08         0.10747E+06         0.00000E+00
    0.10747E+06        -0.49981E+08         0.00000E+00
    0.00000E+00         0.00000E+00        -0.49932E+08
 
   -0.49683E+08         0.11410E+06         0.00000E+00
    0.11410E+06        -0.49978E+08         0.00000E+00
    0.00000E+00         0.00000E+00        -0.49932E+08
 
   -0.49688E+08         0.12060E+06         0.00000E+00
    0.12060E+06        -0.49975E+08         0.00000E+00
    0.00000E+00         0.00000E+00        -0.49933E+08
 
   -0.49693E+08         0.12694E+06         0.00000E+00
    0.12694E+06        -0.49973E+08         0.00000E+00
    0.00000E+00         0.00000E+00        -0.49933E+08
 
   -0.49698E+08         0.13313E+06         0.00000E+00
    0.13313E+06        -0.49970E+08         0.00000E+00
    0.00000E+00         0.00000E+00        -0.49934E+08
 
   -0.49704E+08         0.13917E+06         0.00000E+00
    0.13917E+06        -0.49967E+08         0.00000E+00
    0.00000E+00         0.00000E+00        -0.49934E+08
 
   -0.49710E+08         0.14505E+06         0.00000E+00
    0.14505E+06        -0.49963E+08         0.00000E+00
    0.00000E+00         0.00000E+00        -0.49935E+08
 
   -0.49716E+08         0.15077E+06         0.00000E+00
    0.15077E+06        -0.49960E+08         0.00000E+00
    0.00000E+00         0.00000E+00        -0.49935E+08
 
   -0.49723E+08         0.15631E+06         0.00000E+00
    0.15631E+06        -0.49957E+08         0.00000E+00
    0.00000E+00         0.00000E+00        -0.49936E+08
 
   -0.49729E+08         0.16169E+06         0.00000E+00
    0.16169E+06        -0.49953E+08         0.00000E+00
    0.00000E+00         0.00000E+00        -0.49937E+08
 
   -0.49736E+08         0.16690E+06         0.00000E+00
    0.16690E+06        -0.49950E+08         0.00000E+00
    0.00000E+00         0.00000E+00        -0.49937E+08
 
   -0.49743E+08         0.17194E+06         0.00000E+00
    0.17194E+06        -0.49946E+08         0.00000E+00
    0.00000E+00         0.00000E+00        -0.49938E+08
 
   -0.49751E+08         0.17680E+06         0.00000E+00
    0.17680E+06        -0.49942E+08         0.00000E+00
    0.00000E+00         0.00000E+00        -0.49939E+08
 
   -0.49758E+08         0.18149E+06         0.00000E+00
    0.18149E+06        -0.49939E+08         0.00000E+00
    0.00000E+00         0.00000E+00        -0.49939E+08
 
   -0.49766E+08         0.18600E+06         0.00000E+00
    0.18600E+06        -0.49935E+08         0.00000E+00
    0.00000E+00         0.00000E+00        -0.49940E+08
 
   -0.49774E+08         0.19033E+06         0.00000E+00
    0.19033E+06        -0.49931E+08         0.00000E+00
    0.00000E+00         0.00000E+00        -0.49941E+08
 
   -0.49781E+08         0.19449E+06         0.00000E+00
    0.19449E+06        -0.49927E+08         0.00000E+00
    0.00000E+00         0.00000E+00        -0.49942E+08
 
   -0.49790E+08         0.19848E+06         0.00000E+00
    0.19848E+06        -0.49923E+08         0.00000E+00
    0.00000E+00         0.00000E+00        -0.49942E+08
 
   -0.49798E+08         0.20228E+06         0.00000E+00
    0.20228E+06        -0.49919E+08         0.00000E+00
    0.00000E+00         0.00000E+00        -0.49943E+08
 
   -0.49806E+08         0.20591E+06         0.00000E+00
    0.20591E+06        -0.49915E+08         0.00000E+00
    0.00000E+00         0.00000E+00        -0.49944E+08
 
   -0.49815E+08         0.20937E+06         0.00000E+00
    0.20937E+06        -0.49910E+08         0.00000E+00
    0.00000E+00         0.00000E+00        -0.49945E+08
 
   -0.49823E+08         0.21266E+06         0.00000E+00
    0.21266E+06        -0.49906E+08         0.00000E+00
    0.00000E+00         0.00000E+00        -0.49946E+08
 
   -0.49832E+08         0.21577E+06         0.00000E+00
    0.21577E+06        -0.49902E+08         0.00000E+00
    0.00000E+00         0.00000E+00        -0.49947E+08
 
   -0.49841E+08         0.21871E+06         0.00000E+00
    0.21871E+06        -0.49898E+08         0.00000E+00
    0.00000E+00         0.00000E+00        -0.49948E+08
 
   -0.49850E+08         0.22148E+06         0.00000E+00
    0.22148E+06        -0.49893E+08         0.00000E+00
    0.00000E+00         0.00000E+00        -0.49949E+08
 
   -0.49859E+08         0.22408E+06         0.00000E+00
    0.22408E+06        -0.49889E+08         0.00000E+00
    0.00000E+00         0.00000E+00        -0.49950E+08
 
   -0.49868E+08         0.22652E+06         0.00000E+00
    0.22652E+06        -0.49885E+08         0.00000E+00
    0.00000E+00         0.00000E+00        -0.49951E+08
 
   -0.49878E+08         0.22879E+06         0.00000E+00
    0.22879E+06        -0.49880E+08         0.00000E+00
    0.00000E+00         0.00000E+00        -0.49952E+08
 
   -0.49887E+08         0.23090E+06         0.00000E+00
    0.23090E+06        -0.49876E+08         0.00000E+00
    0.00000E+00         0.00000E+00        -0.49953E+08
 
   -0.49897E+08         0.23284E+06         0.00000E+00
    0.23284E+06        -0.49872E+08         0.00000E+00
    0.00000E+00         0.00000E+00        -0.49954E+08
 
   -0.49906E+08         0.23462E+06         0.00000E+00
    0.23462E+06        -0.49867E+08         0.00000E+00
    0.00000E+00         0.00000E+00        -0.49955E+08
 
   -0.49916E+08         0.23624E+06         0.00000E+00
    0.23624E+06        -0.49863E+08         0.00000E+00
    0.00000E+00         0.00000E+00        -0.49956E+08
 
   -0.49926E+08         0.23771E+06         0.00000E+00
    0.23771E+06        -0.49858E+08         0.00000E+00
    0.00000E+00         0.00000E+00        -0.49957E+08
 
   -0.49936E+08         0.23901E+06         0.00000E+00
    0.23901E+06        -0.49854E+08         0.00000E+00
    0.00000E+00         0.00000E+00        -0.49958E+08
 
   -0.49946E+08         0.24016E+06         0.00000E+00
    0.24016E+06        -0.49849E+08         0.00000E+00
    0.00000E+00         0.00000E+00        -0.49959E+08
 
   -0.49956E+08         0.24115E+06         0.00000E+00
    0.24115E+06        -0.49845E+08         0.00000E+00
    0.00000E+00         0.00000E+00        -0.49960E+08
 
   -0.49606E+08         0.44358E+04         0.00000E+00
    0.44358E+04        -0.50000E+08         0.00000E+00
    0.00000E+00         0.00000E+00        -0.49921E+08
 
   -0.49606E+08         0.13283E+05         0.00000E+00
    0.13283E+05        -0.50000E+08         0.00000E+00
    0.00000E+00         0.00000E+00        -0.49921E+08
 
   -0.49606E+08         0.22101E+05         0.00000E+00
    0.22101E+05        -0.49999E+08         0.00000E+00
    0.00000E+00         0.00000E+00        -0.49921E+08
 
   -0.49607E+08         0.30873E+05         0.00000E+00
    0.30873E+05        -0.49999E+08         0.00000E+00
    0.00000E+00         0.00000E+00        -0.49921E+08
 
   -0.49608E+08         0.39588E+05         0.00000E+00
    0.39588E+05        -0.49998E+08         0.00000E+00
    0.00000E+00         0.00000E+00        -0.49921E+08
 
   -0.49610E+08         0.48230E+05         0.00000E+00
    0.48230E+05        -0.49997E+08         0.00000E+00
    0.00000E+00         0.00000E+00        -0.49921E+08
 
   -0.49612E+08         0.56788E+05         0.00000E+00
    0.56788E+05        -0.49995E+08         0.00000E+00
    0.00000E+00         0.00000E+00        -0.49921E+08
 
   -0.49615E+08         0.65250E+05         0.00000E+00
    0.65250E+05        -0.49994E+08         0.00000E+00
    0.00000E+00         0.00000E+00        -0.49922E+08
 
   -0.49618E+08         0.73604E+05         0.00000E+00
    0.73604E+05        -0.49992E+08         0.00000E+00
    0.00000E+00         0.00000E+00        -0.49922E+08
 
   -0.49621E+08         0.81840E+05         0.00000E+00
    0.81840E+05        -0.49990E+08         0.00000E+00
    0.00000E+00         0.00000E+00        -0.49922E+08
 
   -0.49625E+08         0.89948E+05         0.00000E+00
    0.89948E+05        -0.49988E+08         0.00000E+00
    0.00000E+00         0.00000E+00        -0.49922E+08
 
   -0.49629E+08         0.97918E+05         0.00000E+00
    0.97918E+05        -0.49986E+08         0.00000E+00
    0.00000E+00         0.00000E+00        -0.49923E+08
 
   -0.49633E+08         0.10574E+06         0.00000E+00
    0.10574E+06        -0.49983E+08         0.00000E+00
    0.00000E+00         0.00000E+00        -0.49923E+08
 
   -0.49638E+08         0.11341E+06         0.00000E+00
    0.11341E+06        -0.49980E+08         0.00000E+00
    0.00000E+00         0.00000E+00        -0.49924E+08
 
   -0.49643E+08         0.12092E+06         0.00000E+00
    0.12092E+06        -0.49978E+08         0.00000E+00
    0.00000E+00         0.00000E+00        -0.49924E+08
 
   -0.49648E+08         0.12826E+06         0.00000E+00
    0.12826E+06        -0.49975E+08         0.00000E+00
    0.00000E+00         0.00000E+00        -0.49925E+08
 
   -0.49654E+08         0.13543E+06         0.00000E+00
    0.13543E+06        -0.49972E+08         0.00000E+00
    0.00000E+00         0.00000E+00        -0.49925E+08
 
   -0.49660E+08         0.14242E+06         0.00000E+00
    0.14242E+06        -0.49968E+08         0.00000E+00
    0.00000E+00         0.00000E+00        -0.49926E+08
 
   -0.49666E+08         0.14922E+06         0.00000E+00
    0.14922E+06        -0.49965E+08         0.00000E+00
    0.00000E+00         0.00000E+00        -0.49926E+08
 
   -0.49673E+08         0.15584E+06         0.00000E+00
    0.15584E+06        -0.49961E+08         0.00000E+00
    0.00000E+00         0.00000E+00        -0.49927E+08
 
   -0.49680E+08         0.16227E+06         0.00000E+00
    0.16227E+06        -0.49958E+08         0.00000E+00
    0.00000E+00         0.00000E+00        -0.49928E+08
 
   -0.49687E+08         0.16850E+06         0.00000E+00
    0.16850E+06        -0.49954E+08         0.00000E+00
    0.00000E+00         0.00000E+00        -0.49928E+08
 
   -0.49694E+08         0.17453E+06         0.00000E+00
    0.17453E+06        -0.49950E+08         0.00000E+00
    0.00000E+00         0.00000E+00        -0.49929E+08
 
   -0.49702E+08         0.18036E+06         0.00000E+00
    0.18036E+06        -0.49946E+08         0.00000E+00
    0.00000E+00         0.00000E+00        -0.49930E+08
 
   -0.49710E+08         0.18600E+06         0.00000E+00
    0.18600E+06        -0.49942E+08         0.00000E+00
    0.00000E+00         0.00000E+00        -0.49930E+08
 
   -0.49718E+08         0.19143E+06         0.00000E+00
    0.19143E+06        -0.49938E+08         0.00000E+00
    0.00000E+00         0.00000E+00        -0.49931E+08
 
   -0.49726E+08         0.19666E+06         0.00000E+00
    0.19666E+06        -0.49934E+08         0.00000E+00
    0.00000E+00         0.00000E+00        -0.49932E+08
 
   -0.49734E+08         0.20169E+06         0.00000E+00
    0.20169E+06        -0.49930E+08         0.00000E+00
    0.00000E+00         0.00000E+00        -0.49933E+08
 
   -0.49743E+08         0.20651E+06         0.00000E+00
    0.20651E+06        -0.49926E+08         0.00000E+00
    0.00000E+00         0.00000E+00        -0.49934E+08
 
   -0.49752E+08         0.21114E+06         0.00000E+00
    0.21114E+06        -0.49921E+08         0.00000E+00
    0.00000E+00         0.00000E+00        -0.49935E+08
 
   -0.49761E+08         0.21556E+06         0.00000E+00
    0.21556E+06        -0.49917E+08         0.00000E+00
    0.00000E+00         0.00000E+00        -0.49935E+08
 
   -0.49770E+08         0.21979E+06         0.00000E+00
    0.21979E+06        -0.49912E+08         0.00000E+00
    0.00000E+00         0.00000E+00        -0.49936E+08
 
   -0.49779E+08         0.22381E+06         0.00000E+00
    0.22381E+06        -0.49908E+08         0.00000E+00
    0.00000E+00         0.00000E+00        -0.49937E+08
 
   -0.49788E+08         0.22765E+06         0.00000E+00
    0.22765E+06        -0.49903E+08         0.00000E+00
    0.00000E+00         0.00000E+00        -0.49938E+08
 
   -0.49797E+08         0.23129E+06         0.00000E+00
    0.23129E+06        -0.49899E+08         0.00000E+00
    0.00000E+00         0.00000E+00        -0.49939E+08
 
   -0.49807E+08         0.23474E+06         0.00000E+00
    0.23474E+06        -0.49894E+08         0.00000E+00
    0.00000E+00         0.00000E+00        -0.49940E+08
 
   -0.49817E+08         0.23800E+06         0.00000E+00
    0.23800E+06        -0.49890E+08         0.00000E+00
    0.00000E+00         0.00000E+00        -0.49941E+08
 
   -0.49826E+08         0.24107E+06         0.00000E+00
    0.24107E+06        -0.49885E+08         0.00000E+00
    0.00000E+00         0.00000E+00        -0.49942E+08
 
   -0.49836E+08         0.24396E+06         0.00000E+00
    0.24396E+06        -0.49880E+08         0.00000E+00
    0.00000E+00         0.00000E+00        -0.49943E+08
 
   -0.49846E+08         0.24668E+06         0.00000E+00
    0.24668E+06        -0.49875E+08         0.00000E+00
    0.00000E+00         0.00000E+00        -0.49944E+08
 
   -0.49856E+08         0.24921E+06         0.00000E+00
    0.24921E+06        -0.49871E+08         0.00000E+00
    0.00000E+00         0.00000E+00        -0.49945E+08
 
   -0.49867E+08         0.25157E+06         0.00000E+00
    0.25157E+06        -0.49866E+08         0.00000E+00
    0.00000E+00         0.00000E+00        -0.49947E+08
 
   -0.49877E+08         0.25376E+06         0.00000E+00
    0.25376E+06        -0.49861E+08         0.00000E+00
    0.00000E+00         0.00000E+00        -0.49948E+08
 
   -0.49887E+08         0.25578E+06         0.00000E+00
    0.25578E+06        -0.49856E+08         0.00000E+00
    0.00000E+00         0.00000E+00        -0.49949E+08
 
   -0.49898E+08         0.25764E+06         0.00000E+00
    0.25764E+06        -0.49852E+08         0.00000E+00
    0.00000E+00         0.00000E+00        -0.49950E+08
 
   -0.49908E+08         0.25933E+06         0.00000E+00
    0.25933E+06        -0.49847E+08         0.00000E+00
    0.00000E+00         0.00000E+00        -0.49951E+08
 
   -0.49919E+08         0.26086E+06         0.00000E+00
    0.26086E+06        -0.49842E+08         0.00000E+00
    0.00000E+00         0.00000E+00        -0.49952E+08
 
   -0.49929E+08         0.26223E+06         0.00000E+00
    0.26223E+06        -0.49837E+08         0.00000E+00
    0.00000E+00         0.00000E+00        -0.49953E+08
 
   -0.49940E+08         0.26345E+06         0.00000E+00
    0.26345E+06        -0.49832E+08         0.00000E+00
    0.00000E+00         0.00000E+00        -0.49955E+08
 
   -0.49951E+08         0.26451E+06         0.00000E+00
    0.26451E+06        -0.49828E+08         0.00000E+00
    0.00000E+00         0.00000E+00        -0.49956E+08
 
   -0.49559E+08         0.50884E+04         0.00000E+00
    0.50884E+04        -0.50000E+08         0.00000E+00
    0.00000E+00         0.00000E+00        -0.49912E+08
 
   -0.49559E+08         0.15195E+05         0.00000E+00
    0.15195E+05        -0.50000E+08         0.00000E+00
    0.00000E+00         0.00000E+00        -0.49912E+08
 
   -0.49559E+08         0.25248E+05         0.00000E+00
    0.25248E+05        -0.49999E+08         0.00000E+00
    0.00000E+00         0.00000E+00        -0.49912E+08
 
   -0.49560E+08         0.35231E+05         0.00000E+00
    0.35231E+05        -0.49998E+08         0.00000E+00
    0.00000E+00         0.00000E+00        -0.49912E+08
 
   -0.49562E+08         0.45126E+05         0.00000E+00
    0.45126E+05        -0.49997E+08         0.00000E+00
    0.00000E+00         0.00000E+00        -0.49912E+08
 
   -0.49564E+08         0.54920E+05         0.00000E+00
    0.54920E+05        -0.49996E+08         0.00000E+00
    0.00000E+00         0.00000E+00        -0.49912E+08
 
   -0.49567E+08         0.64597E+05         0.00000E+00
    0.64597E+05        -0.49994E+08         0.00000E+00
    0.00000E+00         0.00000E+00        -0.49912E+08
 
   -0.49570E+08         0.74144E+05         0.00000E+00
    0.74144E+05        -0.49993E+08         0.00000E+00
    0.00000E+00         0.00000E+00        -0.49913E+08
 
   -0.49574E+08         0.83548E+05         0.00000E+00
    0.83548E+05        -0.49991E+08         0.00000E+00
    0.00000E+00         0.00000E+00        -0.49913E+08
 
   -0.49578E+08         0.92797E+05         0.00000E+00
    0.92797E+05        -0.49988E+08         0.00000E+00
    0.00000E+00         0.00000E+00        -0.49913E+08
 
   -0.49582E+08         0.10188E+06         0.00000E+00
    0.10188E+06        -0.49986E+08         0.00000E+00
    0.00000E+00         0.00000E+00        -0.49914E+08
 
   -0.49587E+08         0.11079E+06         0.00000E+00
    0.11079E+06        -0.49983E+08         0.00000E+00
    0.00000E+00         0.00000E+00        -0.49914E+08
 
   -0.49592E+08         0.11951E+06         0.00000E+00
    0.11951E+06        -0.49980E+08         0.00000E+00
    0.00000E+00         0.00000E+00        -0.49914E+08
 
   -0.49598E+08         0.12804E+06         0.00000E+00
    0.12804E+06        -0.49977E+08         0.00000E+00
    0.00000E+00         0.00000E+00        -0.49915E+08
 
   -0.49604E+08         0.13636E+06         0.00000E+00
    0.13636E+06        -0.49974E+08         0.00000E+00
    0.00000E+00         0.00000E+00        -0.49916E+08
 
   -0.49610E+08         0.14448E+06         0.00000E+00
    0.14448E+06        -0.49971E+08         0.00000E+00
    0.00000E+00         0.00000E+00        -0.49916E+08
 
   -0.49617E+08         0.15239E+06         0.00000E+00
    0.15239E+06        -0.49967E+08         0.00000E+00
    0.00000E+00         0.00000E+00        -0.49917E+08
 
   -0.49624E+08         0.16007E+06         0.00000E+00
    0.16007E+06        -0.49963E+08         0.00000E+00
    0.00000E+00         0.00000E+00        -0.49917E+08
 
   -0.49631E+08         0.16753E+06         0.00000E+00
    0.16753E+06        -0.49960E+08         0.00000E+00
    0.00000E+00         0.00000E+00        -0.49918E+08
 
   -0.49639E+08         0.17476E+06         0.00000E+00
    0.17476E+06        -0.49956E+08         0.00000E+00
    0.00000E+00         0.00000E+00        -0.49919E+08
 
   -0.49647E+08         0.18177E+06         0.00000E+00
    0.18177E+06        -0.49952E+08         0.00000E+00
    0.00000E+00         0.00000E+00        -0.49920E+08
 
   -0.49655E+08         0.18854E+06         0.00000E+00
    0.18854E+06        -0.49947E+08         0.00000E+00
    0.00000E+00         0.00000E+00        -0.49920E+08
 
   -0.49663E+08         0.19507E+06         0.00000E+00
    0.19507E+06        -0.49943E+08         0.00000E+00
    0.00000E+00         0.00000E+00        -0.49921E+08
 
   -0.49672E+08         0.20137E+06         0.00000E+00
    0.20137E+06        -0.49939E+08         0.00000E+00
    0.00000E+00         0.00000E+00        -0.49922E+08
 
   -0.49681E+08         0.20743E+06         0.00000E+00
    0.20743E+06        -0.49934E+08         0.00000E+00
    0.00000E+00         0.00000E+00        -0.49923E+08
 
   -0.49690E+08         0.21326E+06         0.00000E+00
    0.21326E+06        -0.49930E+08         0.00000E+00
    0.00000E+00         0.00000E+00        -0.49924E+08
 
   -0.49699E+08         0.21885E+06         0.00000E+00
    0.21885E+06        -0.49925E+08         0.00000E+00
    0.00000E+00         0.00000E+00        -0.49925E+08
 
   -0.49709E+08         0.22421E+06         0.00000E+00
    0.22421E+06        -0.49920E+08         0.00000E+00
    0.00000E+00         0.00000E+00        -0.49926E+08
 
   -0.49719E+08         0.22933E+06         0.00000E+00
    0.22933E+06        -0.49915E+08         0.00000E+00
    0.00000E+00         0.00000E+00        -0.49927E+08
 
   -0.49728E+08         0.23423E+06         0.00000E+00
    0.23423E+06        -0.49911E+08         0.00000E+00
    0.00000E+00         0.00000E+00        -0.49928E+08
 
   -0.49738E+08         0.23889E+06         0.00000E+00
    0.23889E+06        -0.49906E+08         0.00000E+00
    0.00000E+00         0.00000E+00        -0.49929E+08
 
   -0.49748E+08         0.24333E+06         0.00000E+00
    0.24333E+06        -0.49901E+08         0.00000E+00
    0.00000E+00         0.00000E+00        -0.49930E+08
 
   -0.49759E+08         0.24755E+06         0.00000E+00
    0.24755E+06        -0.49896E+08         0.00000E+00
    0.00000E+00         0.00000E+00        -0.49931E+08
 
   -0.49769E+08         0.25156E+06         0.00000E+00
    0.25156E+06        -0.49891E+08         0.00000E+00
    0.00000E+00         0.00000E+00        -0.49932E+08
 
   -0.49779E+08         0.25534E+06         0.00000E+00
    0.25534E+06        -0.49886E+08         0.00000E+00
    0.00000E+00         0.00000E+00        -0.49933E+08
 
   -0.49790E+08         0.25892E+06         0.00000E+00
    0.25892E+06        -0.49881E+08         0.00000E+00
    0.00000E+00         0.00000E+00        -0.49934E+08
 
   -0.49801E+08         0.26230E+06         0.00000E+00
    0.26230E+06        -0.49876E+08         0.00000E+00
    0.00000E+00         0.00000E+00        -0.49935E+08
 
   -0.49811E+08         0.26547E+06         0.00000E+00
    0.26547E+06        -0.49871E+08         0.00000E+00
    0.00000E+00         0.00000E+00        -0.49936E+08
 
   -0.49822E+08         0.26844E+06         0.00000E+00
    0.26844E+06        -0.49865E+08         0.00000E+00
    0.00000E+00         0.00000E+00        -0.49938E+08
 
   -0.49833E+08         0.27123E+06         0.00000E+00
    0.27123E+06        -0.49860E+08         0.00000E+00
    0.00000E+00         0.00000E+00        -0.49939E+08
 
   -0.49844E+08         0.27383E+06         0.00000E+00
    0.27383E+06        -0.49855E+08         0.00000E+00
    0.00000E+00         0.00000E+00        -0.49940E+08
 
   -0.49855E+08         0.27624E+06         0.00000E+00
    0.27624E+06        -0.49850E+08         0.00000E+00
    0.00000E+00         0.00000E+00        -0.49941E+08
 
   -0.49866E+08         0.27848E+06         0.00000E+00
    0.27848E+06        -0.49845E+08         0.00000E+00
    0.00000E+00         0.00000E+00        -0.49942E+08
 
   -0.49877E+08         0.28054E+06         0.00000E+00
    0.28054E+06        -0.49840E+08         0.00000E+00
    0.00000E+00         0.00000E+00        -0.49943E+08
 
   -0.49889E+08         0.28244E+06         0.00000E+00
    0.28244E+06        -0.49835E+08         0.00000E+00
    0.00000E+00         0.00000E+00        -0.49945E+08
 
   -0.49900E+08         0.28418E+06         0.00000E+00
    0.28418E+06        -0.49830E+08         0.00000E+00
    0.00000E+00         0.00000E+00        -0.49946E+08
 
   -0.49911E+08         0.28575E+06         0.00000E+00
    0.28575E+06        -0.49824E+08         0.00000E+00
    0.00000E+00         0.00000E+00        -0.49947E+08
 
   -0.49923E+08         0.28717E+06         0.00000E+00
    0.28717E+06        -0.49819E+08         0.00000E+00
    0.00000E+00         0.00000E+00        -0.49948E+08
 
   -0.49934E+08         0.28844E+06         0.00000E+00
    0.28844E+06        -0.49814E+08         0.00000E+00
    0.00000E+00         0.00000E+00        -0.49950E+08
 
   -0.49946E+08         0.28956E+06         0.00000E+00
    0.28956E+06        -0.49809E+08         0.00000E+00
    0.00000E+00         0.00000E+00        -0.49951E+08
 
   -0.49504E+08         0.58653E+04         0.00000E+00
    0.58653E+04        -0.50000E+08         0.00000E+00
    0.00000E+00         0.00000E+00        -0.49901E+08
 
   -0.49505E+08         0.17455E+05         0.00000E+00
    0.17455E+05        -0.50000E+08         0.00000E+00
    0.00000E+00         0.00000E+00        -0.49901E+08
 
   -0.49506E+08         0.28958E+05         0.00000E+00
    0.28958E+05        -0.49999E+08         0.00000E+00
    0.00000E+00         0.00000E+00        -0.49901E+08
 
   -0.49507E+08         0.40353E+05         0.00000E+00
    0.40353E+05        -0.49998E+08         0.00000E+00
    0.00000E+00         0.00000E+00        -0.49901E+08
 
   -0.49510E+08         0.51622E+05         0.00000E+00
    0.51622E+05        -0.49997E+08         0.00000E+00
    0.00000E+00         0.00000E+00        -0.49901E+08
 
   -0.49512E+08         0.62748E+05         0.00000E+00
    0.62748E+05        -0.49995E+08         0.00000E+00
    0.00000E+00         0.00000E+00        -0.49902E+08
 
   -0.49516E+08         0.73713E+05         0.00000E+00
    0.73713E+05        -0.49993E+08         0.00000E+00
    0.00000E+00         0.00000E+00        -0.49902E+08
 
   -0.49520E+08         0.84503E+05         0.00000E+00
    0.84503E+05        -0.49991E+08         0.00000E+00
    0.00000E+00         0.00000E+00        -0.49902E+08
 
   -0.49524E+08         0.95103E+05         0.00000E+00
    0.95103E+05        -0.49989E+08         0.00000E+00
    0.00000E+00         0.00000E+00        -0.49903E+08
 
   -0.49529E+08         0.10550E+06         0.00000E+00
    0.10550E+06        -0.49986E+08         0.00000E+00
    0.00000E+00         0.00000E+00        -0.49903E+08
 
   -0.49534E+08         0.11568E+06         0.00000E+00
    0.11568E+06        -0.49984E+08         0.00000E+00
    0.00000E+00         0.00000E+00        -0.49904E+08
 
   -0.49540E+08         0.12564E+06         0.00000E+00
    0.12564E+06        -0.49980E+08         0.00000E+00
    0.00000E+00         0.00000E+00        -0.49904E+08
 
   -0.49547E+08         0.13536E+06         0.00000E+00
    0.13536E+06        -0.49977E+08         0.00000E+00
    0.00000E+00         0.00000E+00        -0.49905E+08
 
   -0.49553E+08         0.14484E+06         0.00000E+00
    0.14484E+06        -0.49974E+08         0.00000E+00
    0.00000E+00         0.00000E+00        -0.49905E+08
 
   -0.49561E+08         0.15406E+06         0.00000E+00
    0.15406E+06        -0.49970E+08         0.00000E+00
    0.00000E+00         0.00000E+00        -0.49906E+08
 
   -0.49568E+08         0.16303E+06         0.00000E+00
    0.16303E+06        -0.49966E+08         0.00000E+00
    0.00000E+00         0.00000E+00        -0.49907E+08
 
   -0.49576E+08         0.17173E+06         0.00000E+00
    0.17173E+06        -0.49962E+08         0.00000E+00
    0.00000E+00         0.00000E+00        -0.49908E+08
 
   -0.49584E+08         0.18017E+06         0.00000E+00
    0.18017E+06        -0.49958E+08         0.00000E+00
    0.00000E+00         0.00000E+00        -0.49908E+08
 
   -0.49593E+08         0.18833E+06         0.00000E+00
    0.18833E+06        -0.49953E+08         0.00000E+00
    0.00000E+00         0.00000E+00        -0.49909E+08
 
   -0.49602E+08         0.19621E+06         0.00000E+00
    0.19621E+06        -0.49949E+08         0.00000E+00
    0.00000E+00         0.00000E+00        -0.49910E+08
 
   -0.49611E+08         0.20381E+06         0.00000E+00
    0.20381E+06        -0.49944E+08         0.00000E+00
    0.00000E+00         0.00000E+00        -0.49911E+08
 
   -0.49620E+08         0.21114E+06         0.00000E+00
    0.21114E+06        -0.49940E+08         0.00000E+00
    0.00000E+00         0.00000E+00        -0.49912E+08
 
   -0.49630E+08         0.21819E+06         0.00000E+00
    0.21819E+06        -0.49935E+08         0.00000E+00
    0.00000E+00         0.00000E+00        -0.49913E+08
 
   -0.49640E+08         0.22495E+06         0.00000E+00
    0.22495E+06        -0.49930E+08         0.00000E+00
    0.00000E+00         0.00000E+00        -0.49914E+08
 
   -0.49650E+08         0.23144E+06         0.00000E+00
    0.23144E+06        -0.49925E+08         0.00000E+00
    0.00000E+00         0.00000E+00        -0.49915E+08
 
   -0.49661E+08         0.23765E+06         0.00000E+00
    0.23765E+06        -0.49920E+08         0.00000E+00
    0.00000E+00         0.00000E+00        -0.49916E+08
 
   -0.49671E+08         0.24358E+06         0.00000E+00
    0.24358E+06        -0.49914E+08         0.00000E+00
    0.00000E+00         0.00000E+00        -0.49917E+08
 
   -0.49682E+08         0.24925E+06         0.00000E+00
    0.24925E+06        -0.49909E+08         0.00000E+00
    0.00000E+00         0.00000E+00        -0.49918E+08
 
   -0.49693E+08         0.25464E+06         0.00000E+00
    0.25464E+06        -0.49904E+08         0.00000E+00
    0.00000E+00         0.00000E+00        -0.49919E+08
 
   -0.49704E+08         0.25977E+06         0.00000E+00
    0.25977E+06        -0.49899E+08         0.00000E+00
    0.00000E+00         0.00000E+00        -0.49920E+08
 
   -0.49715E+08         0.26464E+06         0.00000E+00
    0.26464E+06        -0.49893E+08         0.00000E+00
    0.00000E+00         0.00000E+00        -0.49922E+08
 
   -0.49726E+08         0.26926E+06         0.00000E+00
    0.26926E+06        -0.49888E+08         0.00000E+00
    0.00000E+00         0.00000E+00        -0.49923E+08
 
   -0.49738E+08         0.27363E+06         0.00000E+00
    0.27363E+06        -0.49882E+08         0.00000E+00
    0.00000E+00         0.00000E+00        -0.49924E+08
 
   -0.49749E+08         0.27775E+06         0.00000E+00
    0.27775E+06        -0.49877E+08         0.00000E+00
    0.00000E+00         0.00000E+00        -0.49925E+08
 
   -0.49761E+08         0.28164E+06         0.00000E+00
    0.28164E+06        -0.49871E+08         0.00000E+00
    0.00000E+00         0.00000E+00        -0.49926E+08
 
   -0.49772E+08         0.28530E+06         0.00000E+00
    0.28530E+06        -0.49866E+08         0.00000E+00
    0.00000E+00         0.00000E+00        -0.49928E+08
 
   -0.49784E+08         0.28873E+06         0.00000E+00
    0.28873E+06        -0.49860E+08         0.00000E+00
    0.00000E+00         0.00000E+00        -0.49929E+08
 
   -0.49796E+08         0.29195E+06         0.00000E+00
    0.29195E+06        -0.49855E+08         0.00000E+00
    0.00000E+00         0.00000E+00        -0.49930E+08
 
   -0.49808E+08         0.29495E+06         0.00000E+00
    0.29495E+06        -0.49849E+08         0.00000E+00
    0.00000E+00         0.00000E+00        -0.49931E+08
 
   -0.49820E+08         0.29776E+06         0.00000E+00
    0.29776E+06        -0.49844E+08         0.00000E+00
    0.00000E+00         0.00000E+00        -0.49933E+08
 
   -0.49831E+08         0.30036E+06         0.00000E+00
    0.30036E+06        -0.49838E+08         0.00000E+00
    0.00000E+00         0.00000E+00        -0.49934E+08
 
   -0.49843E+08         0.30278E+06         0.00000E+00
    0.30278E+06        -0.49833E+08         0.00000E+00
    0.00000E+00         0.00000E+00        -0.49935E+08
 
   -0.49855E+08         0.30502E+06         0.00000E+00
    0.30502E+06        -0.49827E+08         0.00000E+00
    0.00000E+00         0.00000E+00        -0.49937E+08
 
   -0.49867E+08         0.30708E+06         0.00000E+00
    0.30708E+06        -0.49822E+08         0.00000E+00
    0.00000E+00         0.00000E+00        -0.49938E+08
 
   -0.49879E+08         0.30898E+06         0.00000E+00
    0.30898E+06        -0.49816E+08         0.00000E+00
    0.00000E+00         0.00000E+00        -0.49939E+08
 
   -0.49892E+08         0.31072E+06         0.00000E+00
    0.31072E+06        -0.49811E+08         0.00000E+00
    0.00000E+00         0.00000E+00        -0.49941E+08
 
   -0.49904E+08         0.31230E+06         0.00000E+00
    0.31230E+06        -0.49805E+08         0.00000E+00
    0.00000E+00         0.00000E+00        -0.49942E+08
 
   -0.49916E+08         0.31374E+06         0.00000E+00
    0.31374E+06        -0.49800E+08         0.00000E+00
    0.00000E+00         0.00000E+00        -0.49943E+08
 
   -0.49928E+08         0.31503E+06         0.00000E+00
    0.31503E+06        -0.49795E+08         0.00000E+00
    0.00000E+00         0.00000E+00        -0.49945E+08
 
   -0.49940E+08         0.31619E+06         0.00000E+00
    0.31619E+06        -0.49789E+08         0.00000E+00
    0.00000E+00         0.00000E+00        -0.49946E+08
 
   -0.49442E+08         0.67898E+04         0.00000E+00
    0.67898E+04        -0.50000E+08         0.00000E+00
    0.00000E+00         0.00000E+00        -0.49888E+08
 
   -0.49443E+08         0.20126E+05         0.00000E+00
    0.20126E+05        -0.50000E+08         0.00000E+00
    0.00000E+00         0.00000E+00        -0.49889E+08
 
   -0.49444E+08         0.33327E+05         0.00000E+00
    0.33327E+05        -0.49999E+08         0.00000E+00
    0.00000E+00         0.00000E+00        -0.49889E+08
 
   -0.49447E+08         0.46368E+05         0.00000E+00
    0.46368E+05        -0.49998E+08         0.00000E+00
    0.00000E+00         0.00000E+00        -0.49889E+08
 
   -0.49450E+08         0.59230E+05         0.00000E+00
    0.59230E+05        -0.49996E+08         0.00000E+00
    0.00000E+00         0.00000E+00        -0.49889E+08
 
   -0.49453E+08         0.71892E+05         0.00000E+00
    0.71892E+05        -0.49995E+08         0.00000E+00
    0.00000E+00         0.00000E+00        -0.49890E+08
 
   -0.49458E+08         0.84337E+05         0.00000E+00
    0.84337E+05        -0.49992E+08         0.00000E+00
    0.00000E+00         0.00000E+00        -0.49890E+08
 
   -0.49463E+08         0.96546E+05         0.00000E+00
    0.96546E+05        -0.49990E+08         0.00000E+00
    0.00000E+00         0.00000E+00        -0.49891E+08
 
   -0.49468E+08         0.10850E+06         0.00000E+00
    0.10850E+06        -0.49987E+08         0.00000E+00
    0.00000E+00         0.00000E+00        -0.49891E+08
 
   -0.49474E+08         0.12020E+06         0.00000E+00
    0.12020E+06        -0.49984E+08         0.00000E+00
    0.00000E+00         0.00000E+00        -0.49892E+08
 
   -0.49481E+08         0.13162E+06         0.00000E+00
    0.13162E+06        -0.49981E+08         0.00000E+00
    0.00000E+00         0.00000E+00        -0.49892E+08
 
   -0.49488E+08         0.14274E+06         0.00000E+00
    0.14274E+06        -0.49977E+08         0.00000E+00
    0.00000E+00         0.00000E+00        -0.49893E+08
 
   -0.49496E+08         0.15357E+06         0.00000E+00
    0.15357E+06        -0.49974E+08         0.00000E+00
    0.00000E+00         0.00000E+00        -0.49894E+08
 
   -0.49504E+08         0.16409E+06         0.00000E+00
    0.16409E+06        -0.49970E+08         0.00000E+00
    0.00000E+00         0.00000E+00        -0.49895E+08
 
   -0.49513E+08         0.17430E+06         0.00000E+00
    0.17430E+06        -0.49965E+08         0.00000E+00
    0.00000E+00         0.00000E+00        -0.49896E+08
 
   -0.49522E+08         0.18419E+06         0.00000E+00
    0.18419E+06        -0.49961E+08         0.00000E+00
    0.00000E+00         0.00000E+00        -0.49897E+08
 
   -0.49531E+08         0.19375E+06         0.00000E+00
    0.19375E+06        -0.49956E+08         0.00000E+00
    0.00000E+00         0.00000E+00        -0.49897E+08
 
   -0.49541E+08         0.20298E+06         0.00000E+00
    0.20298E+06        -0.49951E+08         0.00000E+00
    0.00000E+00         0.00000E+00        -0.49898E+08
 
   -0.49551E+08         0.21187E+06         0.00000E+00
    0.21187E+06        -0.49947E+08         0.00000E+00
    0.00000E+00         0.00000E+00        -0.49900E+08
 
   -0.49561E+08         0.22043E+06         0.00000E+00
    0.22043E+06        -0.49941E+08         0.00000E+00
    0.00000E+00         0.00000E+00        -0.49901E+08
 
   -0.49572E+08         0.22866E+06         0.00000E+00
    0.22866E+06        -0.49936E+08         0.00000E+00
    0.00000E+00         0.00000E+00        -0.49902E+08
 
   -0.49583E+08         0.23655E+06         0.00000E+00
    0.23655E+06        -0.49931E+08         0.00000E+00
    0.00000E+00         0.00000E+00        -0.49903E+08
 
   -0.49594E+08         0.24411E+06         0.00000E+00
    0.24411E+06        -0.49926E+08         0.00000E+00
    0.00000E+00         0.00000E+00        -0.49904E+08
 
   -0.49606E+08         0.25133E+06         0.00000E+00
    0.25133E+06        -0.49920E+08         0.00000E+00
    0.00000E+00         0.00000E+00        -0.49905E+08
 
   -0.49618E+08         0.25822E+06         0.00000E+00
    0.25822E+06        -0.49914E+08         0.00000E+00
    0.00000E+00         0.00000E+00        -0.49906E+08
 
   -0.49629E+08         0.26479E+06         0.00000E+00
    0.26479E+06        -0.49909E+08         0.00000E+00
    0.00000E+00         0.00000E+00        -0.49908E+08
 
   -0.49641E+08         0.27104E+06         0.00000E+00
    0.27104E+06        -0.49903E+08         0.00000E+00
    0.00000E+00         0.00000E+00        -0.49909E+08
 
   -0.49654E+08         0.27697E+06         0.00000E+00
    0.27697E+06        -0.49897E+08         0.00000E+00
    0.00000E+00         0.00000E+00        -0.49910E+08
 
   -0.49666E+08         0.28260E+06         0.00000E+00
    0.28260E+06        -0.49891E+08         0.00000E+00
    0.00000E+00         0.00000E+00        -0.49911E+08
 
   -0.49678E+08         0.28791E+06         0.00000E+00
    0.28791E+06        -0.49885E+08         0.00000E+00
    0.00000E+00         0.00000E+00        -0.49913E+08
 
   -0.49691E+08         0.29294E+06         0.00000E+00
    0.29294E+06        -0.49879E+08         0.00000E+00
    0.00000E+00         0.00000E+00        -0.49914E+08
 
   -0.49704E+08         0.29767E+06         0.00000E+00
    0.29767E+06        -0.49874E+08         0.00000E+00
    0.00000E+00         0.00000E+00        -0.49915E+08
 
   -0.49716E+08         0.30213E+06         0.00000E+00
    0.30213E+06        -0.49868E+08         0.00000E+00
    0.00000E+00         0.00000E+00        -0.49917E+08
 
   -0.49729E+08         0.30631E+06         0.00000E+00
    0.30631E+06        -0.49862E+08         0.00000E+00
    0.00000E+00         0.00000E+00        -0.49918E+08
 
   -0.49742E+08         0.31023E+06         0.00000E+00
    0.31023E+06        -0.49856E+08         0.00000E+00
    0.00000E+00         0.00000E+00        -0.49919E+08
 
   -0.49755E+08         0.31390E+06         0.00000E+00
    0.31390E+06        -0.49850E+08         0.00000E+00
    0.00000E+00         0.00000E+00        -0.49921E+08
 
   -0.49767E+08         0.31732E+06         0.00000E+00
    0.31732E+06        -0.49844E+08         0.00000E+00
    0.00000E+00         0.00000E+00        -0.49922E+08
 
   -0.49780E+08         0.32051E+06         0.00000E+00
    0.32051E+06        -0.49838E+08         0.00000E+00
    0.00000E+00         0.00000E+00        -0.49924E+08
 
   -0.49793E+08         0.32347E+06         0.00000E+00
    0.32347E+06        -0.49832E+08         0.00000E+00
    0.00000E+00         0.00000E+00        -0.49925E+08
 
   -0.49806E+08         0.32622E+06         0.00000E+00
    0.32622E+06        -0.49826E+08         0.00000E+00
    0.00000E+00         0.00000E+00        -0.49926E+08
 
   -0.49819E+08         0.32877E+06         0.00000E+00
    0.32877E+06        -0.49820E+08         0.00000E+00
    0.00000E+00         0.00000E+00        -0.49928E+08
 
   -0.49832E+08         0.33113E+06         0.00000E+00
    0.33113E+06        -0.49814E+08         0.00000E+00
    0.00000E+00         0.00000E+00        -0.49929E+08
 
   -0.49845E+08         0.33330E+06         0.00000E+00
    0.33330E+06        -0.49809E+08         0.00000E+00
    0.00000E+00         0.00000E+00        -0.49931E+08
 
   -0.49858E+08         0.33530E+06         0.00000E+00
    0.33530E+06        -0.49803E+08         0.00000E+00
    0.00000E+00         0.00000E+00        -0.49932E+08
 
   -0.49870E+08         0.33714E+06         0.00000E+00
    0.33714E+06        -0.49797E+08         0.00000E+00
    0.00000E+00         0.00000E+00        -0.49933E+08
 
   -0.49883E+08         0.33883E+06         0.00000E+00
    0.33883E+06        -0.49791E+08         0.00000E+00
    0.00000E+00         0.00000E+00        -0.49935E+08
 
   -0.49896E+08         0.34037E+06         0.00000E+00
    0.34037E+06        -0.49785E+08         0.00000E+00
    0.00000E+00         0.00000E+00        -0.49936E+08
 
   -0.49909E+08         0.34179E+06         0.00000E+00
    0.34179E+06        -0.49780E+08         0.00000E+00
    0.00000E+00         0.00000E+00        -0.49938E+08
 
   -0.49922E+08         0.34307E+06         0.00000E+00
    0.34307E+06        -0.49774E+08         0.00000E+00
    0.00000E+00         0.00000E+00        -0.49939E+08
 
   -0.49935E+08         0.34424E+06         0.00000E+00
    0.34424E+06        -0.49768E+08         0.00000E+00
    0.00000E+00         0.00000E+00        -0.49941E+08
 
   -0.49370E+08         0.78876E+04         0.00000E+00
    0.78876E+04        -0.50000E+08         0.00000E+00
    0.00000E+00         0.00000E+00        -0.49874E+08
 
   -0.49372E+08         0.23273E+05         0.00000E+00
    0.23273E+05        -0.50000E+08         0.00000E+00
    0.00000E+00         0.00000E+00        -0.49874E+08
 
   -0.49374E+08         0.38455E+05         0.00000E+00
    0.38455E+05        -0.49999E+08         0.00000E+00
    0.00000E+00         0.00000E+00        -0.49875E+08
 
   -0.49377E+08         0.53409E+05         0.00000E+00
    0.53409E+05        -0.49997E+08         0.00000E+00
    0.00000E+00         0.00000E+00        -0.49875E+08
 
   -0.49382E+08         0.68111E+05         0.00000E+00
    0.68111E+05        -0.49996E+08         0.00000E+00
    0.00000E+00         0.00000E+00        -0.49875E+08
 
   -0.49386E+08         0.82538E+05         0.00000E+00
    0.82538E+05        -0.49994E+08         0.00000E+00
    0.00000E+00         0.00000E+00        -0.49876E+08
 
   -0.49392E+08         0.96672E+05         0.00000E+00
    0.96672E+05        -0.49991E+08         0.00000E+00
    0.00000E+00         0.00000E+00        -0.49877E+08
 
   -0.49398E+08         0.11049E+06         0.00000E+00
    0.11049E+06        -0.49988E+08         0.00000E+00
    0.00000E+00         0.00000E+00        -0.49877E+08
 
   -0.49405E+08         0.12399E+06         0.00000E+00
    0.12399E+06        -0.49985E+08         0.00000E+00
    0.00000E+00         0.00000E+00        -0.49878E+08
 
   -0.49413E+08         0.13714E+06         0.00000E+00
    0.13714E+06        -0.49982E+08         0.00000E+00
    0.00000E+00         0.00000E+00        -0.49879E+08
 
   -0.49421E+08         0.14993E+06         0.00000E+00
    0.14993E+06        -0.49978E+08         0.00000E+00
    0.00000E+00         0.00000E+00        -0.49880E+08
 
   -0.49430E+08         0.16235E+06         0.00000E+00
    0.16235E+06        -0.49974E+08         0.00000E+00
    0.00000E+00         0.00000E+00        -0.49881E+08
 
   -0.49440E+08         0.17440E+06         0.00000E+00
    0.17440E+06        -0.49969E+08         0.00000E+00
    0.00000E+00         0.00000E+00        -0.49882E+08
 
   -0.49450E+08         0.18607E+06         0.00000E+00
    0.18607E+06        -0.49965E+08         0.00000E+00
    0.00000E+00         0.00000E+00        -0.49883E+08
 
   -0.49460E+08         0.19734E+06         0.00000E+00
    0.19734E+06        -0.49960E+08         0.00000E+00
    0.00000E+00         0.00000E+00        -0.49884E+08
 
   -0.49471E+08         0.20821E+06         0.00000E+00
    0.20821E+06        -0.49955E+08         0.00000E+00
    0.00000E+00         0.00000E+00        -0.49885E+08
 
   -0.49482E+08         0.21868E+06         0.00000E+00
    0.21868E+06        -0.49950E+08         0.00000E+00
    0.00000E+00         0.00000E+00        -0.49886E+08
 
   -0.49494E+08         0.22875E+06         0.00000E+00
    0.22875E+06        -0.49944E+08         0.00000E+00
    0.00000E+00         0.00000E+00        -0.49888E+08
 
   -0.49506E+08         0.23841E+06         0.00000E+00
    0.23841E+06        -0.49939E+08         0.00000E+00
    0.00000E+00         0.00000E+00        -0.49889E+08
 
   -0.49518E+08         0.24766E+06         0.00000E+00
    0.24766E+06        -0.49933E+08         0.00000E+00
    0.00000E+00         0.00000E+00        -0.49890E+08
 
   -0.49530E+08         0.25652E+06         0.00000E+00
    0.25652E+06        -0.49927E+08         0.00000E+00
    0.00000E+00         0.00000E+00        -0.49892E+08
 
   -0.49543E+08         0.26497E+06         0.00000E+00
    0.26497E+06        -0.49921E+08         0.00000E+00
    0.00000E+00         0.00000E+00        -0.49893E+08
 
   -0.49556E+08         0.27302E+06         0.00000E+00
    0.27302E+06        -0.49915E+08         0.00000E+00
    0.00000E+00         0.00000E+00        -0.49894E+08
 
   -0.49570E+08         0.28068E+06         0.00000E+00
    0.28068E+06        -0.49909E+08         0.00000E+00
    0.00000E+00         0.00000E+00        -0.49896E+08
 
   -0.49583E+08         0.28795E+06         0.00000E+00
    0.28795E+06        -0.49903E+08         0.00000E+00
    0.00000E+00         0.00000E+00        -0.49897E+08
 
   -0.49597E+08         0.29484E+06         0.00000E+00
    0.29484E+06        -0.49897E+08         0.00000E+00
    0.00000E+00         0.00000E+00        -0.49899E+08
 
   -0.49610E+08         0.30135E+06         0.00000E+00
    0.30135E+06        -0.49890E+08         0.00000E+00
    0.00000E+00         0.00000E+00        -0.49900E+08
 
   -0.49624E+08         0.30750E+06         0.00000E+00
    0.30750E+06        -0.49884E+08         0.00000E+00
    0.00000E+00         0.00000E+00        -0.49902E+08
 
   -0.49638E+08         0.31329E+06         0.00000E+00
    0.31329E+06        -0.49878E+08         0.00000E+00
    0.00000E+00         0.00000E+00        -0.49903E+08
 
   -0.49652E+08         0.31873E+06         0.00000E+00
    0.31873E+06        -0.49871E+08         0.00000E+00
    0.00000E+00         0.00000E+00        -0.49905E+08
 
   -0.49666E+08         0.32383E+06         0.00000E+00
    0.32383E+06        -0.49865E+08         0.00000E+00
    0.00000E+00         0.00000E+00        -0.49906E+08
 
   -0.49680E+08         0.32861E+06         0.00000E+00
    0.32861E+06        -0.49858E+08         0.00000E+00
    0.00000E+00         0.00000E+00        -0.49908E+08
 
   -0.49695E+08         0.33307E+06         0.00000E+00
    0.33307E+06        -0.49852E+08         0.00000E+00
    0.00000E+00         0.00000E+00        -0.49909E+08
 
   -0.49709E+08         0.33723E+06         0.00000E+00
    0.33723E+06        -0.49845E+08         0.00000E+00
    0.00000E+00         0.00000E+00        -0.49911E+08
 
   -0.49723E+08         0.34110E+06         0.00000E+00
    0.34110E+06        -0.49839E+08         0.00000E+00
    0.00000E+00         0.00000E+00        -0.49912E+08
 
   -0.49737E+08         0.34469E+06         0.00000E+00
    0.34469E+06        -0.49833E+08         0.00000E+00
    0.00000E+00         0.00000E+00        -0.49914E+08
 
   -0.49751E+08         0.34801E+06         0.00000E+00
    0.34801E+06        -0.49826E+08         0.00000E+00
    0.00000E+00         0.00000E+00        -0.49915E+08
 
   -0.49765E+08         0.35109E+06         0.00000E+00
    0.35109E+06        -0.49820E+08         0.00000E+00
    0.00000E+00         0.00000E+00        -0.49917E+08
 
   -0.49779E+08         0.35392E+06         0.00000E+00
    0.35392E+06        -0.49814E+08         0.00000E+00
    0.00000E+00         0.00000E+00        -0.49919E+08
 
   -0.49793E+08         0.35654E+06         0.00000E+00
    0.35654E+06        -0.49807E+08         0.00000E+00
    0.00000E+00         0.00000E+00        -0.49920E+08
 
   -0.49807E+08         0.35894E+06         0.00000E+00
    0.35894E+06        -0.49801E+08         0.00000E+00
    0.00000E+00         0.00000E+00        -0.49922E+08
 
   -0.49821E+08         0.36115E+06         0.00000E+00
    0.36115E+06        -0.49795E+08         0.00000E+00
    0.00000E+00         0.00000E+00        -0.49923E+08
 
   -0.49835E+08         0.36317E+06         0.00000E+00
    0.36317E+06        -0.49789E+08         0.00000E+00
    0.00000E+00         0.00000E+00        -0.49925E+08
 
   -0.49848E+08         0.36503E+06         0.00000E+00
    0.36503E+06        -0.49783E+08         0.00000E+00
    0.00000E+00         0.00000E+00        -0.49926E+08
 
   -0.49862E+08         0.36674E+06         0.00000E+00
    0.36674E+06        -0.49777E+08         0.00000E+00
    0.00000E+00         0.00000E+00        -0.49928E+08
 
   -0.49876E+08         0.36831E+06         0.00000E+00
    0.36831E+06        -0.49771E+08         0.00000E+00
    0.00000E+00         0.00000E+00        -0.49929E+08
 
   -0.49889E+08         0.36975E+06         0.00000E+00
    0.36975E+06        -0.49765E+08         0.00000E+00
    0.00000E+00         0.00000E+00        -0.49931E+08
 
   -0.49902E+08         0.37108E+06         0.00000E+00
    0.37108E+06        -0.49759E+08         0.00000E+00
    0.00000E+00         0.00000E+00        -0.49932E+08
 
   -0.49916E+08         0.37230E+06         0.00000E+00
    0.37230E+06        -0.49753E+08         0.00000E+00
    0.00000E+00         0.00000E+00        -0.49934E+08
 
   -0.49929E+08         0.37345E+06         0.00000E+00
    0.37345E+06        -0.49747E+08         0.00000E+00
    0.00000E+00         0.00000E+00        -0.49935E+08
 
   -0.49287E+08         0.91853E+04         0.00000E+00
    0.91853E+04        -0.50000E+08         0.00000E+00
    0.00000E+00         0.00000E+00        -0.49857E+08
 
   -0.49289E+08         0.26962E+05         0.00000E+00
    0.26962E+05        -0.50000E+08         0.00000E+00
    0.00000E+00         0.00000E+00        -0.49858E+08
 
   -0.49293E+08         0.44445E+05         0.00000E+00
    0.44445E+05        -0.49999E+08         0.00000E+00
    0.00000E+00         0.00000E+00        -0.49858E+08
 
   -0.49298E+08         0.61607E+05         0.00000E+00
    0.61607E+05        -0.49997E+08         0.00000E+00
    0.00000E+00         0.00000E+00        -0.49859E+08
 
   -0.49304E+08         0.78420E+05         0.00000E+00
    0.78420E+05        -0.49995E+08         0.00000E+00
    0.00000E+00         0.00000E+00        -0.49860E+08
 
   -0.49310E+08         0.94863E+05         0.00000E+00
    0.94863E+05        -0.49993E+08         0.00000E+00
    0.00000E+00         0.00000E+00        -0.49861E+08
 
   -0.49318E+08         0.11091E+06         0.00000E+00
    0.11091E+06        -0.49990E+08         0.00000E+00
    0.00000E+00         0.00000E+00        -0.49861E+08
 
   -0.49326E+08         0.12655E+06         0.00000E+00
    0.12655E+06        -0.49986E+08         0.00000E+00
    0.00000E+00         0.00000E+00        -0.49862E+08
 
   -0.49335E+08         0.14176E+06         0.00000E+00
    0.14176E+06        -0.49983E+08         0.00000E+00
    0.00000E+00         0.00000E+00        -0.49864E+08
 
   -0.49344E+08         0.15653E+06         0.00000E+00
    0.15653E+06        -0.49979E+08         0.00000E+00
    0.00000E+00         0.00000E+00        -0.49865E+08
 
   -0.49355E+08         0.17085E+06         0.00000E+00
    0.17085E+06        -0.49975E+08         0.00000E+00
    0.00000E+00         0.00000E+00        -0.49866E+08
 
   -0.49366E+08         0.18470E+06         0.00000E+00
    0.18470E+06        -0.49970E+08         0.00000E+00
    0.00000E+00         0.00000E+00        -0.49867E+08
 
   -0.49377E+08         0.19807E+06         0.00000E+00
    0.19807E+06        -0.49965E+08         0.00000E+00
    0.00000E+00         0.00000E+00        -0.49868E+08
 
   -0.49389E+08         0.21097E+06         0.00000E+00
    0.21097E+06        -0.49960E+08         0.00000E+00
    0.00000E+00         0.00000E+00        -0.49870E+08
 
   -0.49402E+08         0.22338E+06         0.00000E+00
    0.22338E+06        -0.49954E+08         0.00000E+00
    0.00000E+00         0.00000E+00        -0.49871E+08
 
   -0.49415E+08         0.23530E+06         0.00000E+00
    0.23530E+06        -0.49949E+08         0.00000E+00
    0.00000E+00         0.00000E+00        -0.49873E+08
 
   -0.49428E+08         0.24672E+06         0.00000E+00
    0.24672E+06        -0.49943E+08         0.00000E+00
    0.00000E+00         0.00000E+00        -0.49874E+08
 
   -0.49442E+08         0.25766E+06         0.00000E+00
    0.25766E+06        -0.49937E+08         0.00000E+00
    0.00000E+00         0.00000E+00        -0.49876E+08
 
   -0.49456E+08         0.26810E+06         0.00000E+00
    0.26810E+06        -0.49931E+08         0.00000E+00
    0.00000E+00         0.00000E+00        -0.49877E+08
 
   -0.49471E+08         0.27806E+06         0.00000E+00
    0.27806E+06        -0.49924E+08         0.00000E+00
    0.00000E+00         0.00000E+00        -0.49879E+08
 
   -0.49486E+08         0.28753E+06         0.00000E+00
    0.28753E+06        -0.49918E+08         0.00000E+00
    0.00000E+00         0.00000E+00        -0.49881E+08
 
   -0.49501E+08         0.29652E+06         0.00000E+00
    0.29652E+06        -0.49911E+08         0.00000E+00
    0.00000E+00         0.00000E+00        -0.49882E+08
 
   -0.49516E+08         0.30504E+06         0.00000E+00
    0.30504E+06        -0.49905E+08         0.00000E+00
    0.00000E+00         0.00000E+00        -0.49884E+08
 
   -0.49531E+08         0.31310E+06         0.00000E+00
    0.31310E+06        -0.49898E+08         0.00000E+00
    0.00000E+00         0.00000E+00        -0.49886E+08
 
   -0.49547E+08         0.32070E+06         0.00000E+00
    0.32070E+06        -0.49891E+08         0.00000E+00
    0.00000E+00         0.00000E+00        -0.49888E+08
 
   -0.49563E+08         0.32785E+06         0.00000E+00
    0.32785E+06        -0.49884E+08         0.00000E+00
    0.00000E+00         0.00000E+00        -0.49889E+08
 
   -0.49578E+08         0.33456E+06         0.00000E+00
    0.33456E+06        -0.49877E+08         0.00000E+00
    0.00000E+00         0.00000E+00        -0.49891E+08
 
   -0.49594E+08         0.34086E+06         0.00000E+00
    0.34086E+06        -0.49870E+08         0.00000E+00
    0.00000E+00         0.00000E+00        -0.49893E+08
 
   -0.49610E+08         0.34674E+06         0.00000E+00
    0.34674E+06        -0.49863E+08         0.00000E+00
    0.00000E+00         0.00000E+00        -0.49895E+08
 
   -0.49626E+08         0.35222E+06         0.00000E+00
    0.35222E+06        -0.49856E+08         0.00000E+00
    0.00000E+00         0.00000E+00        -0.49896E+08
 
   -0.49642E+08         0.35731E+06         0.00000E+00
    0.35731E+06        -0.49849E+08         0.00000E+00
    0.00000E+00         0.00000E+00        -0.49898E+08
 
   -0.49658E+08         0.36204E+06         0.00000E+00
    0.36204E+06        -0.49842E+08         0.00000E+00
    0.00000E+00         0.00000E+00        -0.49900E+08
 
   -0.49673E+08         0.36641E+06         0.00000E+00
    0.36641E+06        -0.49836E+08         0.00000E+00
    0.00000E+00         0.00000E+00        -0.49902E+08
 
   -0.49689E+08         0.37045E+06         0.00000E+00
    0.37045E+06        -0.49829E+08         0.00000E+00
    0.00000E+00         0.00000E+00        -0.49904E+08
 
   -0.49705E+08         0.37416E+06         0.00000E+00
    0.37416E+06        -0.49822E+08         0.00000E+00
    0.00000E+00         0.00000E+00        -0.49905E+08
 
   -0.49720E+08         0.37757E+06         0.00000E+00
    0.37757E+06        -0.49815E+08         0.00000E+00
    0.00000E+00         0.00000E+00        -0.49907E+08
 
   -0.49736E+08         0.38069E+06         0.00000E+00
    0.38069E+06        -0.49808E+08         0.00000E+00
    0.00000E+00         0.00000E+00        -0.49909E+08
 
   -0.49751E+08         0.38354E+06         0.00000E+00
    0.38354E+06        -0.49802E+08         0.00000E+00
    0.00000E+00         0.00000E+00        -0.49911E+08
 
   -0.49766E+08         0.38614E+06         0.00000E+00
    0.38614E+06        -0.49795E+08         0.00000E+00
    0.00000E+00         0.00000E+00        -0.49912E+08
 
   -0.49781E+08         0.38850E+06         0.00000E+00
    0.38850E+06        -0.49788E+08         0.00000E+00
    0.00000E+00         0.00000E+00        -0.49914E+08
 
   -0.49796E+08         0.39065E+06         0.00000E+00
    0.39065E+06        -0.49782E+08         0.00000E+00
    0.00000E+00         0.00000E+00        -0.49916E+08
 
   -0.49811E+08         0.39261E+06         0.00000E+00
    0.39261E+06        -0.49775E+08         0.00000E+00
    0.00000E+00         0.00000E+00        -0.49917E+08
 
   -0.49825E+08         0.39438E+06         0.00000E+00
    0.39438E+06        -0.49769E+08         0.00000E+00
    0.00000E+00         0.00000E+00        -0.49919E+08
 
   -0.49840E+08         0.39600E+06         0.00000E+00
    0.39600E+06        -0.49763E+08         0.00000E+00
    0.00000E+00         0.00000E+00        -0.49921E+08
 
   -0.49854E+08         0.39748E+06         0.00000E+00
    0.39748E+06        -0.49756E+08         0.00000E+00
    0.00000E+00         0.00000E+00        -0.49922E+08
 
   -0.49868E+08         0.39884E+06         0.00000E+00
    0.39884E+06        -0.49750E+08         0.00000E+00
    0.00000E+00         0.00000E+00        -0.49924E+08
 
   -0.49882E+08         0.40010E+06         0.00000E+00
    0.40010E+06        -0.49744E+08         0.00000E+00
    0.00000E+00         0.00000E+00        -0.49925E+08
 
   -0.49896E+08         0.40127E+06         0.00000E+00
    0.40127E+06        -0.49738E+08         0.00000E+00
    0.00000E+00         0.00000E+00        -0.49927E+08
 
   -0.49910E+08         0.40237E+06         0.00000E+00
    0.40237E+06        -0.49732E+08         0.00000E+00
    0.00000E+00         0.00000E+00        -0.49928E+08
 
   -0.49924E+08         0.40343E+06         0.00000E+00
    0.40343E+06        -0.49726E+08         0.00000E+00
    0.00000E+00         0.00000E+00        -0.49930E+08
 
   -0.49190E+08         0.10709E+05         0.00000E+00
    0.10709E+05        -0.50000E+08         0.00000E+00
    0.00000E+00         0.00000E+00        -0.49838E+08
 
   -0.49195E+08         0.31257E+05         0.00000E+00
    0.31257E+05        -0.50000E+08         0.00000E+00
    0.00000E+00         0.00000E+00        -0.49839E+08
 
   -0.49200E+08         0.51389E+05         0.00000E+00
    0.51389E+05        -0.49998E+08         0.00000E+00
    0.00000E+00         0.00000E+00        -0.49840E+08
 
   -0.49207E+08         0.71077E+05         0.00000E+00
    0.71077E+05        -0.49997E+08         0.00000E+00
    0.00000E+00         0.00000E+00        -0.49841E+08
 
   -0.49215E+08         0.90293E+05         0.00000E+00
    0.90293E+05        -0.49994E+08         0.00000E+00
    0.00000E+00         0.00000E+00        -0.49842E+08
 
   -0.49223E+08         0.10901E+06         0.00000E+00
    0.10901E+06        -0.49991E+08         0.00000E+00
    0.00000E+00         0.00000E+00        -0.49843E+08
 
   -0.49233E+08         0.12722E+06         0.00000E+00
    0.12722E+06        -0.49988E+08         0.00000E+00
    0.00000E+00         0.00000E+00        -0.49844E+08
 
   -0.49244E+08         0.14489E+06         0.00000E+00
    0.14489E+06        -0.49984E+08         0.00000E+00
    0.00000E+00         0.00000E+00        -0.49846E+08
 
   -0.49255E+08         0.16200E+06         0.00000E+00
    0.16200E+06        -0.49980E+08         0.00000E+00
    0.00000E+00         0.00000E+00        -0.49847E+08
 
   -0.49267E+08         0.17856E+06         0.00000E+00
    0.17856E+06        -0.49976E+08         0.00000E+00
    0.00000E+00         0.00000E+00        -0.49849E+08
 
   -0.49280E+08         0.19453E+06         0.00000E+00
    0.19453E+06        -0.49971E+08         0.00000E+00
    0.00000E+00         0.00000E+00        -0.49850E+08
 
   -0.49294E+08         0.20993E+06         0.00000E+00
    0.20993E+06        -0.49966E+08         0.00000E+00
    0.00000E+00         0.00000E+00        -0.49852E+08
 
   -0.49308E+08         0.22473E+06         0.00000E+00
    0.22473E+06        -0.49960E+08         0.00000E+00
    0.00000E+00         0.00000E+00        -0.49854E+08
 
   -0.49323E+08         0.23893E+06         0.00000E+00
    0.23893E+06        -0.49955E+08         0.00000E+00
    0.00000E+00         0.00000E+00        -0.49855E+08
 
   -0.49338E+08         0.25254E+06         0.00000E+00
    0.25254E+06        -0.49948E+08         0.00000E+00
    0.00000E+00         0.00000E+00        -0.49857E+08
 
   -0.49354E+08         0.26555E+06         0.00000E+00
    0.26555E+06        -0.49942E+08         0.00000E+00
    0.00000E+00         0.00000E+00        -0.49859E+08
 
   -0.49370E+08         0.27796E+06         0.00000E+00
    0.27796E+06        -0.49936E+08         0.00000E+00
    0.00000E+00         0.00000E+00        -0.49861E+08
 
   -0.49387E+08         0.28978E+06         0.00000E+00
    0.28978E+06        -0.49929E+08         0.00000E+00
    0.00000E+00         0.00000E+00        -0.49863E+08
 
   -0.49404E+08         0.30101E+06         0.00000E+00
    0.30101E+06        -0.49922E+08         0.00000E+00
    0.00000E+00         0.00000E+00        -0.49865E+08
 
   -0.49421E+08         0.31165E+06         0.00000E+00
    0.31165E+06        -0.49915E+08         0.00000E+00
    0.00000E+00         0.00000E+00        -0.49867E+08
 
   -0.49438E+08         0.32172E+06         0.00000E+00
    0.32172E+06        -0.49908E+08         0.00000E+00
    0.00000E+00         0.00000E+00        -0.49869E+08
 
   -0.49456E+08         0.33122E+06         0.00000E+00
    0.33122E+06        -0.49901E+08         0.00000E+00
    0.00000E+00         0.00000E+00        -0.49871E+08
 
   -0.49473E+08         0.34016E+06         0.00000E+00
    0.34016E+06        -0.49894E+08         0.00000E+00
    0.00000E+00         0.00000E+00        -0.49873E+08
 
   -0.49491E+08         0.34855E+06         0.00000E+00
    0.34855E+06        -0.49886E+08         0.00000E+00
    0.00000E+00         0.00000E+00        -0.49876E+08
 
   -0.49509E+08         0.35642E+06         0.00000E+00
    0.35642E+06        -0.49879E+08         0.00000E+00
    0.00000E+00         0.00000E+00        -0.49878E+08
 
   -0.49527E+08         0.36376E+06         0.00000E+00
    0.36376E+06        -0.49871E+08         0.00000E+00
    0.00000E+00         0.00000E+00        -0.49880E+08
 
   -0.49545E+08         0.37060E+06         0.00000E+00
    0.37060E+06        -0.49864E+08         0.00000E+00
    0.00000E+00         0.00000E+00        -0.49882E+08
 
   -0.49564E+08         0.37694E+06         0.00000E+00
    0.37694E+06        -0.49856E+08         0.00000E+00
    0.00000E+00         0.00000E+00        -0.49884E+08
 
   -0.49582E+08         0.38282E+06         0.00000E+00
    0.38282E+06        -0.49849E+08         0.00000E+00
    0.00000E+00         0.00000E+00        -0.49886E+08
 
   -0.49600E+08         0.38824E+06         0.00000E+00
    0.38824E+06        -0.49842E+08         0.00000E+00
    0.00000E+00         0.00000E+00        -0.49888E+08
 
   -0.49617E+08         0.39323E+06         0.00000E+00
    0.39323E+06        -0.49834E+08         0.00000E+00
    0.00000E+00         0.00000E+00        -0.49890E+08
 
   -0.49635E+08         0.39779E+06         0.00000E+00
    0.39779E+06        -0.49827E+08         0.00000E+00
    0.00000E+00         0.00000E+00        -0.49892E+08
 
   -0.49653E+08         0.40196E+06         0.00000E+00
    0.40196E+06        -0.49819E+08         0.00000E+00
    0.00000E+00         0.00000E+00        -0.49894E+08
 
   -0.49670E+08         0.40576E+06         0.00000E+00
    0.40576E+06        -0.49812E+08         0.00000E+00
    0.00000E+00         0.00000E+00        -0.49896E+08
 
   -0.49688E+08         0.40920E+06         0.00000E+00
    0.40920E+06        -0.49805E+08         0.00000E+00
    0.00000E+00         0.00000E+00        -0.49898E+08
 
   -0.49705E+08         0.41230E+06         0.00000E+00
    0.41230E+06        -0.49798E+08         0.00000E+00
    0.00000E+00         0.00000E+00        -0.49900E+08
 
   -0.49721E+08         0.41509E+06         0.00000E+00
    0.41509E+06        -0.49791E+08         0.00000E+00
    0.00000E+00         0.00000E+00        -0.49902E+08
 
   -0.49738E+08         0.41759E+06         0.00000E+00
    0.41759E+06        -0.49784E+08         0.00000E+00
    0.00000E+00         0.00000E+00        -0.49904E+08
 
   -0.49755E+08         0.41983E+06         0.00000E+00
    0.41983E+06        -0.49777E+08         0.00000E+00
    0.00000E+00         0.00000E+00        -0.49906E+08
 
   -0.49771E+08         0.42182E+06         0.00000E+00
    0.42182E+06        -0.49770E+08         0.00000E+00
    0.00000E+00         0.00000E+00        -0.49908E+08
 
   -0.49787E+08         0.42360E+06         0.00000E+00
    0.42360E+06        -0.49763E+08         0.00000E+00
    0.00000E+00         0.00000E+00        -0.49910E+08
 
   -0.49802E+08         0.42518E+06         0.00000E+00
    0.42518E+06        -0.49757E+08         0.00000E+00
    0.00000E+00         0.00000E+00        -0.49912E+08
 
   -0.49818E+08         0.42659E+06         0.00000E+00
    0.42659E+06        -0.49750E+08         0.00000E+00
    0.00000E+00         0.00000E+00        -0.49914E+08
 
   -0.49833E+08         0.42785E+06         0.00000E+00
    0.42785E+06        -0.49744E+08         0.00000E+00
    0.00000E+00         0.00000E+00        -0.49915E+08
 
   -0.49848E+08         0.42899E+06         0.00000E+00
    0.42899E+06        -0.49737E+08         0.00000E+00
    0.00000E+00         0.00000E+00        -0.49917E+08
 
   -0.49863E+08         0.43003E+06         0.00000E+00
    0.43003E+06        -0.49731E+08         0.00000E+00
    0.00000E+00         0.00000E+00        -0.49919E+08
 
   -0.49877E+08         0.43100E+06         0.00000E+00
    0.43100E+06        -0.49725E+08         0.00000E+00
    0.00000E+00         0.00000E+00        -0.49920E+08
 
   -0.49891E+08         0.43192E+06         0.00000E+00
    0.43192E+06        -0.49718E+08         0.00000E+00
    0.00000E+00         0.00000E+00        -0.49922E+08
 
   -0.49905E+08         0.43281E+06         0.00000E+00
    0.43281E+06        -0.49712E+08         0.00000E+00
    0.00000E+00         0.00000E+00        -0.49924E+08
 
   -0.49919E+08         0.43370E+06         0.00000E+00
    0.43370E+06        -0.49706E+08         0.00000E+00
    0.00000E+00         0.00000E+00        -0.49925E+08
 
   -0.49078E+08         0.12481E+05         0.00000E+00
    0.12481E+05        -0.50000E+08         0.00000E+00
    0.00000E+00         0.00000E+00        -0.49816E+08
 
   -0.49085E+08         0.36205E+05         0.00000E+00
    0.36205E+05        -0.49999E+08         0.00000E+00
    0.00000E+00         0.00000E+00        -0.49817E+08
 
   -0.49093E+08         0.59355E+05         0.00000E+00
    0.59355E+05        -0.49998E+08         0.00000E+00
    0.00000E+00         0.00000E+00        -0.49818E+08
 
   -0.49103E+08         0.81901E+05         0.00000E+00
    0.81901E+05        -0.49996E+08         0.00000E+00
    0.00000E+00         0.00000E+00        -0.49820E+08
 
   -0.49113E+08         0.10382E+06         0.00000E+00
    0.10382E+06        -0.49993E+08         0.00000E+00
    0.00000E+00         0.00000E+00        -0.49821E+08
 
   -0.49125E+08         0.12508E+06         0.00000E+00
    0.12508E+06        -0.49990E+08         0.00000E+00
    0.00000E+00         0.00000E+00        -0.49823E+08
 
   -0.49138E+08         0.14567E+06         0.00000E+00
    0.14567E+06        -0.49987E+08         0.00000E+00
    0.00000E+00         0.00000E+00        -0.49825E+08
 
   -0.49151E+08         0.16557E+06         0.00000E+00
    0.16557E+06        -0.49982E+08         0.00000E+00
    0.00000E+00         0.00000E+00        -0.49827E+08
 
   -0.49166E+08         0.18477E+06         0.00000E+00
    0.18477E+06        -0.49978E+08         0.00000E+00
    0.00000E+00         0.00000E+00        -0.49829E+08
 
   -0.49181E+08         0.20325E+06         0.00000E+00
    0.20325E+06        -0.49973E+08         0.00000E+00
    0.00000E+00         0.00000E+00        -0.49831E+08
 
   -0.49198E+08         0.22102E+06         0.00000E+00
    0.22102E+06        -0.49967E+08         0.00000E+00
    0.00000E+00         0.00000E+00        -0.49833E+08
 
   -0.49214E+08         0.23806E+06         0.00000E+00
    0.23806E+06        -0.49962E+08         0.00000E+00
    0.00000E+00         0.00000E+00        -0.49835E+08
 
   -0.49232E+08         0.25436E+06         0.00000E+00
    0.25436E+06        -0.49956E+08         0.00000E+00
    0.00000E+00         0.00000E+00        -0.49838E+08
 
   -0.49250E+08         0.26994E+06         0.00000E+00
    0.26994E+06        -0.49949E+08         0.00000E+00
    0.00000E+00         0.00000E+00        -0.49840E+08
 
   -0.49269E+08         0.28479E+06         0.00000E+00
    0.28479E+06        -0.49943E+08         0.00000E+00
    0.00000E+00         0.00000E+00        -0.49842E+08
 
   -0.49288E+08         0.29891E+06         0.00000E+00
    0.29891E+06        -0.49936E+08         0.00000E+00
    0.00000E+00         0.00000E+00        -0.49845E+08
 
   -0.49307E+08         0.31231E+06         0.00000E+00
    0.31231E+06        -0.49929E+08         0.00000E+00
    0.00000E+00         0.00000E+00        -0.49847E+08
 
   -0.49327E+08         0.32500E+06         0.00000E+00
    0.32500E+06        -0.49921E+08         0.00000E+00
    0.00000E+00         0.00000E+00        -0.49850E+08
 
   -0.49347E+08         0.33699E+06         0.00000E+00
    0.33699E+06        -0.49914E+08         0.00000E+00
    0.00000E+00         0.00000E+00        -0.49852E+08
 
   -0.49367E+08         0.34829E+06         0.00000E+00
    0.34829E+06        -0.49906E+08         0.00000E+00
    0.00000E+00         0.00000E+00        -0.49855E+08
 
   -0.49388E+08         0.35890E+06         0.00000E+00
    0.35890E+06        -0.49899E+08         0.00000E+00
    0.00000E+00         0.00000E+00        -0.49857E+08
 
   -0.49409E+08         0.36885E+06         0.00000E+00
    0.36885E+06        -0.49891E+08         0.00000E+00
    0.00000E+00         0.00000E+00        -0.49860E+08
 
   -0.49429E+08         0.37815E+06         0.00000E+00
    0.37815E+06        -0.49883E+08         0.00000E+00
    0.00000E+00         0.00000E+00        -0.49862E+08
 
   -0.49450E+08         0.38681E+06         0.00000E+00
    0.38681E+06        -0.49875E+08         0.00000E+00
    0.00000E+00         0.00000E+00        -0.49865E+08
 
   -0.49471E+08         0.39485E+06         0.00000E+00
    0.39485E+06        -0.49867E+08         0.00000E+00
    0.00000E+00         0.00000E+00        -0.49868E+08
 
   -0.49492E+08         0.40230E+06         0.00000E+00
    0.40230E+06        -0.49859E+08         0.00000E+00
    0.00000E+00         0.00000E+00        -0.49870E+08
 
   -0.49512E+08         0.40916E+06         0.00000E+00
    0.40916E+06        -0.49851E+08         0.00000E+00
    0.00000E+00         0.00000E+00        -0.49873E+08
 
   -0.49533E+08         0.41547E+06         0.00000E+00
    0.41547E+06        -0.49843E+08         0.00000E+00
    0.00000E+00         0.00000E+00        -0.49875E+08
 
   -0.49554E+08         0.42123E+06         0.00000E+00
    0.42123E+06        -0.49836E+08         0.00000E+00
    0.00000E+00         0.00000E+00        -0.49878E+08
 
   -0.49574E+08         0.42648E+06         0.00000E+00
    0.42648E+06        -0.49828E+08         0.00000E+00
    0.00000E+00         0.00000E+00        -0.49880E+08
 
   -0.49594E+08         0.43124E+06         0.00000E+00
    0.43124E+06        -0.49820E+08         0.00000E+00
    0.00000E+00         0.00000E+00        -0.49883E+08
 
   -0.49614E+08         0.43553E+06         0.00000E+00
    0.43553E+06        -0.49812E+08         0.00000E+00
    0.00000E+00         0.00000E+00        -0.49885E+08
 
   -0.49634E+08         0.43938E+06         0.00000E+00
    0.43938E+06        -0.49804E+08         0.00000E+00
    0.00000E+00         0.00000E+00        -0.49888E+08
 
   -0.49653E+08         0.44280E+06         0.00000E+00
    0.44280E+06        -0.49797E+08         0.00000E+00
    0.00000E+00         0.00000E+00        -0.49890E+08
 
   -0.49672E+08         0.44584E+06         0.00000E+00
    0.44584E+06        -0.49789E+08         0.00000E+00
    0.00000E+00         0.00000E+00        -0.49892E+08
 
   -0.49691E+08         0.44851E+06         0.00000E+00
    0.44851E+06        -0.49782E+08         0.00000E+00
    0.00000E+00         0.00000E+00        -0.49895E+08
 
   -0.49709E+08         0.45084E+06         0.00000E+00
    0.45084E+06        -0.49775E+08         0.00000E+00
    0.00000E+00         0.00000E+00        -0.49897E+08
 
   -0.49727E+08         0.45286E+06         0.00000E+00
    0.45286E+06        -0.49767E+08         0.00000E+00
    0.00000E+00         0.00000E+00        -0.49899E+08
 
   -0.49745E+08         0.45460E+06         0.00000E+00
    0.45460E+06        -0.49760E+08         0.00000E+00
    0.00000E+00         0.00000E+00        -0.49901E+08
 
   -0.49762E+08         0.45609E+06         0.00000E+00
    0.45609E+06        -0.49753E+08         0.00000E+00
    0.00000E+00         0.00000E+00        -0.49903E+08
 
   -0.49779E+08         0.45735E+06         0.00000E+00
    0.45735E+06        -0.49747E+08         0.00000E+00
    0.00000E+00         0.00000E+00        -0.49905E+08
 
   -0.49796E+08         0.45842E+06         0.00000E+00
    0.45842E+06        -0.49740E+08         0.00000E+00
    0.00000E+00         0.00000E+00        -0.49907E+08
 
   -0.49812E+08         0.45933E+06         0.00000E+00
    0.45933E+06        -0.49733E+08         0.00000E+00
    0.00000E+00         0.00000E+00        -0.49909E+08
 
   -0.49828E+08         0.46010E+06         0.00000E+00
    0.46010E+06        -0.49727E+08         0.00000E+00
    0.00000E+00         0.00000E+00        -0.49911E+08
 
   -0.49843E+08         0.46077E+06         0.00000E+00
    0.46077E+06        -0.49720E+08         0.00000E+00
    0.00000E+00         0.00000E+00        -0.49913E+08
 
   -0.49859E+08         0.46136E+06         0.00000E+00
    0.46136E+06        -0.49714E+08         0.00000E+00
    0.00000E+00         0.00000E+00        -0.49915E+08
 
   -0.49873E+08         0.46192E+06         0.00000E+00
    0.46192E+06        -0.49708E+08         0.00000E+00
    0.00000E+00         0.00000E+00        -0.49916E+08
 
   -0.49887E+08         0.46247E+06         0.00000E+00
    0.46247E+06        -0.49702E+08         0.00000E+00
    0.00000E+00         0.00000E+00        -0.49918E+08
 
   -0.49901E+08         0.46303E+06         0.00000E+00
    0.46303E+06        -0.49696E+08         0.00000E+00
    0.00000E+00         0.00000E+00        -0.49919E+08
 
   -0.49915E+08         0.46365E+06         0.00000E+00
    0.46365E+06        -0.49690E+08         0.00000E+00
    0.00000E+00         0.00000E+00        -0.49921E+08
 
   -0.48949E+08         0.14517E+05         0.00000E+00
    0.14517E+05        -0.50000E+08         0.00000E+00
    0.00000E+00         0.00000E+00        -0.49790E+08
 
   -0.48959E+08         0.41831E+05         0.00000E+00
    0.41831E+05        -0.49999E+08         0.00000E+00
    0.00000E+00         0.00000E+00        -0.49792E+08
 
   -0.48971E+08         0.68366E+05         0.00000E+00
    0.68366E+05        -0.49998E+08         0.00000E+00
    0.00000E+00         0.00000E+00        -0.49794E+08
 
   -0.48984E+08         0.94096E+05         0.00000E+00
    0.94096E+05        -0.49996E+08         0.00000E+00
    0.00000E+00         0.00000E+00        -0.49796E+08
 
   -0.48998E+08         0.11900E+06         0.00000E+00
    0.11900E+06        -0.49993E+08         0.00000E+00
    0.00000E+00         0.00000E+00        -0.49798E+08
 
   -0.49014E+08         0.14305E+06         0.00000E+00
    0.14305E+06        -0.49989E+08         0.00000E+00
    0.00000E+00         0.00000E+00        -0.49801E+08
 
   -0.49030E+08         0.16624E+06         0.00000E+00
    0.16624E+06        -0.49985E+08         0.00000E+00
    0.00000E+00         0.00000E+00        -0.49803E+08
 
   -0.49048E+08         0.18855E+06         0.00000E+00
    0.18855E+06        -0.49980E+08         0.00000E+00
    0.00000E+00         0.00000E+00        -0.49806E+08
 
   -0.49067E+08         0.20997E+06         0.00000E+00
    0.20997E+06        -0.49975E+08         0.00000E+00
    0.00000E+00         0.00000E+00        -0.49808E+08
 
   -0.49086E+08         0.23050E+06         0.00000E+00
    0.23050E+06        -0.49970E+08         0.00000E+00
    0.00000E+00         0.00000E+00        -0.49811E+08
 
   -0.49106E+08         0.25014E+06         0.00000E+00
    0.25014E+06        -0.49964E+08         0.00000E+00
    0.00000E+00         0.00000E+00        -0.49814E+08
 
   -0.49127E+08         0.26889E+06         0.00000E+00
    0.26889E+06        -0.49958E+08         0.00000E+00
    0.00000E+00         0.00000E+00        -0.49817E+08
 
   -0.49149E+08         0.28675E+06         0.00000E+00
    0.28675E+06        -0.49951E+08         0.00000E+00
    0.00000E+00         0.00000E+00        -0.49820E+08
 
   -0.49171E+08         0.30372E+06         0.00000E+00
    0.30372E+06        -0.49944E+08         0.00000E+00
    0.00000E+00         0.00000E+00        -0.49823E+08
 
   -0.49193E+08         0.31981E+06         0.00000E+00
    0.31981E+06        -0.49937E+08         0.00000E+00
    0.00000E+00         0.00000E+00        -0.49826E+08
 
   -0.49216E+08         0.33503E+06         0.00000E+00
    0.33503E+06        -0.49930E+08         0.00000E+00
    0.00000E+00         0.00000E+00        -0.49829E+08
 
   -0.49240E+08         0.34940E+06         0.00000E+00
    0.34940E+06        -0.49922E+08         0.00000E+00
    0.00000E+00         0.00000E+00        -0.49832E+08
 
   -0.49263E+08         0.36293E+06         0.00000E+00
    0.36293E+06        -0.49914E+08         0.00000E+00
    0.00000E+00         0.00000E+00        -0.49836E+08
 
   -0.49287E+08         0.37563E+06         0.00000E+00
    0.37563E+06        -0.49907E+08         0.00000E+00
    0.00000E+00         0.00000E+00        -0.49839E+08
 
   -0.49311E+08         0.38751E+06         0.00000E+00
    0.38751E+06        -0.49899E+08         0.00000E+00
    0.00000E+00         0.00000E+00        -0.49842E+08
 
   -0.49335E+08         0.39861E+06         0.00000E+00
    0.39861E+06        -0.49890E+08         0.00000E+00
    0.00000E+00         0.00000E+00        -0.49845E+08
 
   -0.49360E+08         0.40893E+06         0.00000E+00
    0.40893E+06        -0.49882E+08         0.00000E+00
    0.00000E+00         0.00000E+00        -0.49848E+08
 
   -0.49384E+08         0.41849E+06         0.00000E+00
    0.41849E+06        -0.49874E+08         0.00000E+00
    0.00000E+00         0.00000E+00        -0.49852E+08
 
   -0.49408E+08         0.42733E+06         0.00000E+00
    0.42733E+06        -0.49866E+08         0.00000E+00
    0.00000E+00         0.00000E+00        -0.49855E+08
 
   -0.49432E+08         0.43546E+06         0.00000E+00
    0.43546E+06        -0.49858E+08         0.00000E+00
    0.00000E+00         0.00000E+00        -0.49858E+08
 
   -0.49456E+08         0.44290E+06         0.00000E+00
    0.44290E+06        -0.49849E+08         0.00000E+00
    0.00000E+00         0.00000E+00        -0.49861E+08
 
   -0.49480E+08         0.44969E+06         0.00000E+00
    0.44969E+06        -0.49841E+08         0.00000E+00
    0.00000E+00         0.00000E+00        -0.49864E+08
 
   -0.49503E+08         0.45584E+06         0.00000E+00
    0.45584E+06        -0.49833E+08         0.00000E+00
    0.00000E+00         0.00000E+00        -0.49867E+08
 
   -0.49527E+08         0.46139E+06         0.00000E+00
    0.46139E+06        -0.49825E+08         0.00000E+00
    0.00000E+00         0.00000E+00        -0.49870E+08
 
   -0.49550E+08         0.46636E+06         0.00000E+00
    0.46636E+06        -0.49816E+08         0.00000E+00
    0.00000E+00         0.00000E+00        -0.49873E+08
 
   -0.49572E+08         0.47078E+06         0.00000E+00
    0.47078E+06        -0.49808E+08         0.00000E+00
    0.00000E+00         0.00000E+00        -0.49876E+08
 
   -0.49595E+08         0.47467E+06         0.00000E+00
    0.47467E+06        -0.49800E+08         0.00000E+00
    0.00000E+00         0.00000E+00        -0.49879E+08
 
   -0.49617E+08         0.47807E+06         0.00000E+00
    0.47807E+06        -0.49793E+08         0.00000E+00
    0.00000E+00         0.00000E+00        -0.49882E+08
 
   -0.49638E+08         0.48101E+06         0.00000E+00
    0.48101E+06        -0.49785E+08         0.00000E+00
    0.00000E+00         0.00000E+00        -0.49885E+08
 
   -0.49659E+08         0.48352E+06         0.00000E+00
    0.48352E+06        -0.49777E+08         0.00000E+00
    0.00000E+00         0.00000E+00        -0.49887E+08
 
   -0.49680E+08         0.48563E+06         0.00000E+00
    0.48563E+06        -0.49770E+08         0.00000E+00
    0.00000E+00         0.00000E+00        -0.49890E+08
 
   -0.49700E+08         0.48737E+06         0.00000E+00
    0.48737E+06        -0.49762E+08         0.00000E+00
    0.00000E+00         0.00000E+00        -0.49892E+08
 
   -0.49719E+08         0.48878E+06         0.00000E+00
    0.48878E+06        -0.49755E+08         0.00000E+00
    0.00000E+00         0.00000E+00        -0.49895E+08
 
   -0.49739E+08         0.48989E+06         0.00000E+00
    0.48989E+06        -0.49748E+08         0.00000E+00
    0.00000E+00         0.00000E+00        -0.49897E+08
 
   -0.49757E+08         0.49073E+06         0.00000E+00
    0.49073E+06        -0.49741E+08         0.00000E+00
    0.00000E+00         0.00000E+00        -0.49900E+08
 
   -0.49775E+08         0.49134E+06         0.00000E+00
    0.49134E+06        -0.49734E+08         0.00000E+00
    0.00000E+00         0.00000E+00        -0.49902E+08
 
   -0.49793E+08         0.49176E+06         0.00000E+00
    0.49176E+06        -0.49727E+08         0.00000E+00
    0.00000E+00         0.00000E+00        -0.49904E+08
 
   -0.49810E+08         0.49202E+06         0.00000E+00
    0.49202E+06        -0.49721E+08         0.00000E+00
    0.00000E+00         0.00000E+00        -0.49906E+08
 
   -0.49826E+08         0.49216E+06         0.00000E+00
    0.49216E+06        -0.49714E+08         0.00000E+00
    0.00000E+00         0.00000E+00        -0.49908E+08
 
   -0.49842E+08         0.49221E+06         0.00000E+00
    0.49221E+06        -0.49708E+08         0.00000E+00
    0.00000E+00         0.00000E+00        -0.49910E+08
 
   -0.49857E+08         0.49222E+06         0.00000E+00
    0.49222E+06        -0.49702E+08         0.00000E+00
    0.00000E+00         0.00000E+00        -0.49912E+08
 
   -0.49872E+08         0.49222E+06         0.00000E+00
    0.49222E+06        -0.49696E+08         0.00000E+00
    0.00000E+00         0.00000E+00        -0.49913E+08
 
   -0.49886E+08         0.49226E+06         0.00000E+00
    0.49226E+06        -0.49690E+08         0.00000E+00
    0.00000E+00         0.00000E+00        -0.49915E+08
 
   -0.49899E+08         0.49236E+06         0.00000E+00
    0.49236E+06        -0.49684E+08         0.00000E+00
    0.00000E+00         0.00000E+00        -0.49917E+08
 
   -0.49912E+08         0.49258E+06         0.00000E+00
    0.49258E+06        -0.49679E+08         0.00000E+00
    0.00000E+00         0.00000E+00        -0.49918E+08
 
   -0.48801E+08         0.16817E+05         0.00000E+00
    0.16817E+05        -0.50000E+08         0.00000E+00
    0.00000E+00         0.00000E+00        -0.49760E+08
 
   -0.48815E+08         0.48113E+05         0.00000E+00
    0.48113E+05        -0.49999E+08         0.00000E+00
    0.00000E+00         0.00000E+00        -0.49763E+08
 
   -0.48832E+08         0.78373E+05         0.00000E+00
    0.78373E+05        -0.49998E+08         0.00000E+00
    0.00000E+00         0.00000E+00        -0.49766E+08
 
   -0.48849E+08         0.10758E+06         0.00000E+00
    0.10758E+06        -0.49995E+08         0.00000E+00
    0.00000E+00         0.00000E+00        -0.49769E+08
 
   -0.48868E+08         0.13570E+06         0.00000E+00
    0.13570E+06        -0.49992E+08         0.00000E+00
    0.00000E+00         0.00000E+00        -0.49772E+08
 
   -0.48889E+08         0.16274E+06         0.00000E+00
    0.16274E+06        -0.49988E+08         0.00000E+00
    0.00000E+00         0.00000E+00        -0.49775E+08
 
   -0.48910E+08         0.18868E+06         0.00000E+00
    0.18868E+06        -0.49984E+08         0.00000E+00
    0.00000E+00         0.00000E+00        -0.49779E+08
 
   -0.48933E+08         0.21353E+06         0.00000E+00
    0.21353E+06        -0.49979E+08         0.00000E+00
    0.00000E+00         0.00000E+00        -0.49782E+08
 
   -0.48956E+08         0.23727E+06         0.00000E+00
    0.23727E+06        -0.49973E+08         0.00000E+00
    0.00000E+00         0.00000E+00        -0.49786E+08
 
   -0.48980E+08         0.25991E+06         0.00000E+00
    0.25991E+06        -0.49967E+08         0.00000E+00
    0.00000E+00         0.00000E+00        -0.49790E+08
 
   -0.49006E+08         0.28146E+06         0.00000E+00
    0.28146E+06        -0.49961E+08         0.00000E+00
    0.00000E+00         0.00000E+00        -0.49793E+08
 
   -0.49031E+08         0.30192E+06         0.00000E+00
    0.30192E+06        -0.49955E+08         0.00000E+00
    0.00000E+00         0.00000E+00        -0.49797E+08
 
   -0.49058E+08         0.32131E+06         0.00000E+00
    0.32131E+06        -0.49948E+08         0.00000E+00
    0.00000E+00         0.00000E+00        -0.49801E+08
 
   -0.49085E+08         0.33964E+06         0.00000E+00
    0.33964E+06        -0.49940E+08         0.00000E+00
    0.00000E+00         0.00000E+00        -0.49805E+08
 
   -0.49112E+08         0.35693E+06         0.00000E+00
    0.35693E+06        -0.49933E+08         0.00000E+00
    0.00000E+00         0.00000E+00        -0.49809E+08
 
   -0.49140E+08         0.37320E+06         0.00000E+00
    0.37320E+06        -0.49925E+08         0.00000E+00
    0.00000E+00         0.00000E+00        -0.49813E+08
 
   -0.49168E+08         0.38846E+06         0.00000E+00
    0.38846E+06        -0.49917E+08         0.00000E+00
    0.00000E+00         0.00000E+00        -0.49817E+08
 
   -0.49196E+08         0.40274E+06         0.00000E+00
    0.40274E+06        -0.49909E+08         0.00000E+00
    0.00000E+00         0.00000E+00        -0.49821E+08
 
   -0.49224E+08         0.41605E+06         0.00000E+00
    0.41605E+06        -0.49901E+08         0.00000E+00
    0.00000E+00         0.00000E+00        -0.49825E+08
 
   -0.49253E+08         0.42844E+06         0.00000E+00
    0.42844E+06        -0.49893E+08         0.00000E+00
    0.00000E+00         0.00000E+00        -0.49829E+08
 
   -0.49281E+08         0.43991E+06         0.00000E+00
    0.43991E+06        -0.49885E+08         0.00000E+00
    0.00000E+00         0.00000E+00        -0.49833E+08
 
   -0.49309E+08         0.45050E+06         0.00000E+00
    0.45050E+06        -0.49876E+08         0.00000E+00
    0.00000E+00         0.00000E+00        -0.49837E+08
 
   -0.49337E+08         0.46024E+06         0.00000E+00
    0.46024E+06        -0.49868E+08         0.00000E+00
    0.00000E+00         0.00000E+00        -0.49841E+08
 
   -0.49365E+08         0.46915E+06         0.00000E+00
    0.46915E+06        -0.49860E+08         0.00000E+00
    0.00000E+00         0.00000E+00        -0.49845E+08
 
   -0.49393E+08         0.47726E+06         0.00000E+00
    0.47726E+06        -0.49851E+08         0.00000E+00
    0.00000E+00         0.00000E+00        -0.49849E+08
 
   -0.49421E+08         0.48460E+06         0.00000E+00
    0.48460E+06        -0.49843E+08         0.00000E+00
    0.00000E+00         0.00000E+00        -0.49853E+08
 
   -0.49448E+08         0.49121E+06         0.00000E+00
    0.49121E+06        -0.49834E+08         0.00000E+00
    0.00000E+00         0.00000E+00        -0.49856E+08
 
   -0.49475E+08         0.49711E+06         0.00000E+00
    0.49711E+06        -0.49826E+08         0.00000E+00
    0.00000E+00         0.00000E+00        -0.49860E+08
 
   -0.49501E+08         0.50234E+06         0.00000E+00
    0.50234E+06        -0.49818E+08         0.00000E+00
    0.00000E+00         0.00000E+00        -0.49864E+08
 
   -0.49527E+08         0.50692E+06         0.00000E+00
    0.50692E+06        -0.49810E+08         0.00000E+00
    0.00000E+00         0.00000E+00        -0.49867E+08
 
   -0.49553E+08         0.51090E+06         0.00000E+00
    0.51090E+06        -0.49802E+08         0.00000E+00
    0.00000E+00         0.00000E+00        -0.49871E+08
 
   -0.49578E+08         0.51430E+06         0.00000E+00
    0.51430E+06        -0.49794E+08         0.00000E+00
    0.00000E+00         0.00000E+00        -0.49874E+08
 
   -0.49602E+08         0.51716E+06         0.00000E+00
    0.51716E+06        -0.49786E+08         0.00000E+00
    0.00000E+00         0.00000E+00        -0.49878E+08
 
   -0.49626E+08         0.51952E+06         0.00000E+00
    0.51952E+06        -0.49778E+08         0.00000E+00
    0.00000E+00         0.00000E+00        -0.49881E+08
 
   -0.49649E+08         0.52140E+06         0.00000E+00
    0.52140E+06        -0.49771E+08         0.00000E+00
    0.00000E+00         0.00000E+00        -0.49884E+08
 
   -0.49672E+08         0.52285E+06         0.00000E+00
    0.52285E+06        -0.49763E+08         0.00000E+00
    0.00000E+00         0.00000E+00        -0.49887E+08
 
   -0.49694E+08         0.52390E+06         0.00000E+00
    0.52390E+06        -0.49756E+08         0.00000E+00
    0.00000E+00         0.00000E+00        -0.49890E+08
 
   -0.49715E+08         0.52459E+06         0.00000E+00
    0.52459E+06        -0.49749E+08         0.00000E+00
    0.00000E+00         0.00000E+00        -0.49893E+08
 
   -0.49735E+08         0.52495E+06         0.00000E+00
    0.52495E+06        -0.49742E+08         0.00000E+00
    0.00000E+00         0.00000E+00        -0.49895E+08
 
   -0.49755E+08         0.52503E+06         0.00000E+00
    0.52503E+06        -0.49735E+08         0.00000E+00
    0.00000E+00         0.00000E+00        -0.49898E+08
 
   -0.49774E+08         0.52487E+06         0.00000E+00
    0.52487E+06        -0.49728E+08         0.00000E+00
    0.00000E+00         0.00000E+00        -0.49901E+08
 
   -0.49793E+08         0.52451E+06         0.00000E+00
    0.52451E+06        -0.49722E+08         0.00000E+00
    0.00000E+00         0.00000E+00        -0.49903E+08
 
   -0.49810E+08         0.52399E+06         0.00000E+00
    0.52399E+06        -0.49715E+08         0.00000E+00
    0.00000E+00         0.00000E+00        -0.49905E+08
 
   -0.49827E+08         0.52336E+06         0.00000E+00
    0.52336E+06        -0.49709E+08         0.00000E+00
    0.00000E+00         0.00000E+00        -0.49907E+08
 
   -0.49843E+08         0.52265E+06         0.00000E+00
    0.52265E+06        -0.49703E+08         0.00000E+00
    0.00000E+00         0.00000E+00        -0.49909E+08
 
   -0.49859E+08         0.52192E+06         0.00000E+00
    0.52192E+06        -0.49697E+08         0.00000E+00
    0.00000E+00         0.00000E+00        -0.49911E+08
 
   -0.49873E+08         0.52121E+06         0.00000E+00
    0.52121E+06        -0.49692E+08         0.00000E+00
    0.00000E+00         0.00000E+00        -0.49913E+08
 
   -0.49887E+08         0.52057E+06         0.00000E+00
    0.52057E+06        -0.49686E+08         0.00000E+00
    0.00000E+00         0.00000E+00        -0.49915E+08
 
   -0.49900E+08         0.52005E+06         0.00000E+00
    0.52005E+06        -0.49681E+08         0.00000E+00
    0.00000E+00         0.00000E+00        -0.49916E+08
 
   -0.49912E+08         0.51970E+06         0.00000E+00
    0.51970E+06        -0.49675E+08         0.00000E+00
    0.00000E+00         0.00000E+00        -0.49918E+08
 
   -0.48631E+08         0.19361E+05         0.00000E+00
    0.19361E+05        -0.50000E+08         0.00000E+00
    0.00000E+00         0.00000E+00        -0.49726E+08
 
   -0.48651E+08         0.54967E+05         0.00000E+00
    0.54967E+05        -0.49999E+08         0.00000E+00
    0.00000E+00         0.00000E+00        -0.49730E+08
 
   -0.48673E+08         0.89218E+05         0.00000E+00
    0.89218E+05        -0.49997E+08         0.00000E+00
    0.00000E+00         0.00000E+00        -0.49734E+08
 
   -0.48697E+08         0.12210E+06         0.00000E+00
    0.12210E+06        -0.49995E+08         0.00000E+00
    0.00000E+00         0.00000E+00        -0.49738E+08
 
   -0.48722E+08         0.15361E+06         0.00000E+00
    0.15361E+06        -0.49991E+08         0.00000E+00
    0.00000E+00         0.00000E+00        -0.49743E+08
 
   -0.48749E+08         0.18375E+06         0.00000E+00
    0.18375E+06        -0.49987E+08         0.00000E+00
    0.00000E+00         0.00000E+00        -0.49747E+08
 
   -0.48776E+08         0.21251E+06         0.00000E+00
    0.21251E+06        -0.49983E+08         0.00000E+00
    0.00000E+00         0.00000E+00        -0.49752E+08
 
   -0.48805E+08         0.23991E+06         0.00000E+00
    0.23991E+06        -0.49978E+08         0.00000E+00
    0.00000E+00         0.00000E+00        -0.49757E+08
 
   -0.48835E+08         0.26596E+06         0.00000E+00
    0.26596E+06        -0.49972E+08         0.00000E+00
    0.00000E+00         0.00000E+00        -0.49761E+08
 
   -0.48865E+08         0.29068E+06         0.00000E+00
    0.29068E+06        -0.49966E+08         0.00000E+00
    0.00000E+00         0.00000E+00        -0.49766E+08
 
   -0.48896E+08         0.31407E+06         0.00000E+00
    0.31407E+06        -0.49960E+08         0.00000E+00
    0.00000E+00         0.00000E+00        -0.49771E+08
 
   -0.48928E+08         0.33617E+06         0.00000E+00
    0.33617E+06        -0.49953E+08         0.00000E+00
    0.00000E+00         0.00000E+00        -0.49776E+08
 
   -0.48960E+08         0.35700E+06         0.00000E+00
    0.35700E+06        -0.49946E+08         0.00000E+00
    0.00000E+00         0.00000E+00        -0.49781E+08
 
   -0.48993E+08         0.37657E+06         0.00000E+00
    0.37657E+06        -0.49939E+08         0.00000E+00
    0.00000E+00         0.00000E+00        -0.49786E+08
 
   -0.49026E+08         0.39494E+06         0.00000E+00
    0.39494E+06        -0.49931E+08         0.00000E+00
    0.00000E+00         0.00000E+00        -0.49791E+08
 
   -0.49059E+08         0.41211E+06         0.00000E+00
    0.41211E+06        -0.49923E+08         0.00000E+00
    0.00000E+00         0.00000E+00        -0.49796E+08
 
   -0.49092E+08         0.42812E+06         0.00000E+00
    0.42812E+06        -0.49916E+08         0.00000E+00
    0.00000E+00         0.00000E+00        -0.49802E+08
 
   -0.49125E+08         0.44302E+06         0.00000E+00
    0.44302E+06        -0.49908E+08         0.00000E+00
    0.00000E+00         0.00000E+00        -0.49807E+08
 
   -0.49159E+08         0.45682E+06         0.00000E+00
    0.45682E+06        -0.49900E+08         0.00000E+00
    0.00000E+00         0.00000E+00        -0.49812E+08
 
   -0.49192E+08         0.46956E+06         0.00000E+00
    0.46956E+06        -0.49892E+08         0.00000E+00
    0.00000E+00         0.00000E+00        -0.49817E+08
 
   -0.49225E+08         0.48129E+06         0.00000E+00
    0.48129E+06        -0.49883E+08         0.00000E+00
    0.00000E+00         0.00000E+00        -0.49822E+08
 
   -0.49258E+08         0.49202E+06         0.00000E+00
    0.49202E+06        -0.49875E+08         0.00000E+00
    0.00000E+00         0.00000E+00        -0.49827E+08
 
   -0.49291E+08         0.50181E+06         0.00000E+00
    0.50181E+06        -0.49867E+08         0.00000E+00
    0.00000E+00         0.00000E+00        -0.49832E+08
 
   -0.49323E+08         0.51068E+06         0.00000E+00
    0.51068E+06        -0.49859E+08         0.00000E+00
    0.00000E+00         0.00000E+00        -0.49836E+08
 
   -0.49355E+08         0.51868E+06         0.00000E+00
    0.51868E+06        -0.49851E+08         0.00000E+00
    0.00000E+00         0.00000E+00        -0.49841E+08
 
   -0.49386E+08         0.52583E+06         0.00000E+00
    0.52583E+06        -0.49843E+08         0.00000E+00
    0.00000E+00         0.00000E+00        -0.49846E+08
 
   -0.49417E+08         0.53218E+06         0.00000E+00
    0.53218E+06        -0.49835E+08         0.00000E+00
    0.00000E+00         0.00000E+00        -0.49850E+08
 
   -0.49448E+08         0.53775E+06         0.00000E+00
    0.53775E+06        -0.49827E+08         0.00000E+00
    0.00000E+00         0.00000E+00        -0.49855E+08
 
   -0.49477E+08         0.54260E+06         0.00000E+00
    0.54260E+06        -0.49819E+08         0.00000E+00
    0.00000E+00         0.00000E+00        -0.49859E+08
 
   -0.49507E+08         0.54675E+06         0.00000E+00
    0.54675E+06        -0.49811E+08         0.00000E+00
    0.00000E+00         0.00000E+00        -0.49864E+08
 
   -0.49535E+08         0.55023E+06         0.00000E+00
    0.55023E+06        -0.49803E+08         0.00000E+00
    0.00000E+00         0.00000E+00        -0.49868E+08
 
   -0.49563E+08         0.55310E+06         0.00000E+00
    0.55310E+06        -0.49796E+08         0.00000E+00
    0.00000E+00         0.00000E+00        -0.49872E+08
 
   -0.49590E+08         0.55538E+06         0.00000E+00
    0.55538E+06        -0.49788E+08         0.00000E+00
    0.00000E+00         0.00000E+00        -0.49876E+08
 
   -0.49617E+08         0.55710E+06         0.00000E+00
    0.55710E+06        -0.49781E+08         0.00000E+00
    0.00000E+00         0.00000E+00        -0.49879E+08
 
   -0.49642E+08         0.55832E+06         0.00000E+00
    0.55832E+06        -0.49774E+08         0.00000E+00
    0.00000E+00         0.00000E+00        -0.49883E+08
 
   -0.49667E+08         0.55907E+06         0.00000E+00
    0.55907E+06        -0.49766E+08         0.00000E+00
    0.00000E+00         0.00000E+00        -0.49887E+08
 
   -0.49691E+08         0.55938E+06         0.00000E+00
    0.55938E+06        -0.49759E+08         0.00000E+00
    0.00000E+00         0.00000E+00        -0.49890E+08
 
   -0.49714E+08         0.55930E+06         0.00000E+00
    0.55930E+06        -0.49753E+08         0.00000E+00
    0.00000E+00         0.00000E+00        -0.49893E+08
 
   -0.49736E+08         0.55887E+06         0.00000E+00
    0.55887E+06        -0.49746E+08         0.00000E+00
    0.00000E+00         0.00000E+00        -0.49896E+08
 
   -0.49757E+08         0.55813E+06         0.00000E+00
    0.55813E+06        -0.49739E+08         0.00000E+00
    0.00000E+00         0.00000E+00        -0.49899E+08
 
   -0.49778E+08         0.55712E+06         0.00000E+00
    0.55712E+06        -0.49733E+08         0.00000E+00
    0.00000E+00         0.00000E+00        -0.49902E+08
 
   -0.49797E+08         0.55590E+06         0.00000E+00
    0.55590E+06        -0.49727E+08         0.00000E+00
    0.00000E+00         0.00000E+00        -0.49905E+08
 
   -0.49815E+08         0.55450E+06         0.00000E+00
    0.55450E+06        -0.49721E+08         0.00000E+00
    0.00000E+00         0.00000E+00        -0.49907E+08
 
   -0.49833E+08         0.55298E+06         0.00000E+00
    0.55298E+06        -0.49715E+08         0.00000E+00
    0.00000E+00         0.00000E+00        -0.49910E+08
 
   -0.49849E+08         0.55139E+06         0.00000E+00
    0.55139E+06        -0.49709E+08         0.00000E+00
    0.00000E+00         0.00000E+00        -0.49912E+08
 
   -0.49864E+08         0.54977E+06         0.00000E+00
    0.54977E+06        -0.49704E+08         0.00000E+00
    0.00000E+00         0.00000E+00        -0.49914E+08
 
   -0.49878E+08         0.54819E+06         0.00000E+00
    0.54819E+06        -0.49699E+08         0.00000E+00
    0.00000E+00         0.00000E+00        -0.49915E+08
 
   -0.49892E+08         0.54671E+06         0.00000E+00
    0.54671E+06        -0.49694E+08         0.00000E+00
    0.00000E+00         0.00000E+00        -0.49917E+08
 
   -0.49904E+08         0.54537E+06         0.00000E+00
    0.54537E+06        -0.49689E+08         0.00000E+00
    0.00000E+00         0.00000E+00        -0.49919E+08
 
   -0.49915E+08         0.54424E+06         0.00000E+00
    0.54424E+06        -0.49684E+08         0.00000E+00
    0.00000E+00         0.00000E+00        -0.49920E+08
 
   -0.48438E+08         0.22098E+05         0.00000E+00
    0.22098E+05        -0.50000E+08         0.00000E+00
    0.00000E+00         0.00000E+00        -0.49688E+08
 
   -0.48466E+08         0.62215E+05         0.00000E+00
    0.62215E+05        -0.49999E+08         0.00000E+00
    0.00000E+00         0.00000E+00        -0.49693E+08
 
   -0.48496E+08         0.10059E+06         0.00000E+00
    0.10059E+06        -0.49997E+08         0.00000E+00
    0.00000E+00         0.00000E+00        -0.49699E+08
 
   -0.48527E+08         0.13722E+06         0.00000E+00
    0.13722E+06        -0.49995E+08         0.00000E+00
    0.00000E+00         0.00000E+00        -0.49704E+08
 
   -0.48560E+08         0.17212E+06         0.00000E+00
    0.17212E+06        -0.49991E+08         0.00000E+00
    0.00000E+00         0.00000E+00        -0.49710E+08
 
   -0.48594E+08         0.20532E+06         0.00000E+00
    0.20532E+06        -0.49987E+08         0.00000E+00
    0.00000E+00         0.00000E+00        -0.49716E+08
 
   -0.48629E+08         0.23682E+06         0.00000E+00
    0.23682E+06        -0.49983E+08         0.00000E+00
    0.00000E+00         0.00000E+00        -0.49722E+08
 
   -0.48666E+08         0.26666E+06         0.00000E+00
    0.26666E+06        -0.49977E+08         0.00000E+00
    0.00000E+00         0.00000E+00        -0.49729E+08
 
   -0.48703E+08         0.29486E+06         0.00000E+00
    0.29486E+06        -0.49972E+08         0.00000E+00
    0.00000E+00         0.00000E+00        -0.49735E+08
 
   -0.48740E+08         0.32147E+06         0.00000E+00
    0.32147E+06        -0.49966E+08         0.00000E+00
    0.00000E+00         0.00000E+00        -0.49741E+08
 
   -0.48779E+08         0.34651E+06         0.00000E+00
    0.34651E+06        -0.49960E+08         0.00000E+00
    0.00000E+00         0.00000E+00        -0.49748E+08
 
   -0.48817E+08         0.37002E+06         0.00000E+00
    0.37002E+06        -0.49953E+08         0.00000E+00
    0.00000E+00         0.00000E+00        -0.49754E+08
 
   -0.48856E+08         0.39205E+06         0.00000E+00
    0.39205E+06        -0.49947E+08         0.00000E+00
    0.00000E+00         0.00000E+00        -0.49761E+08
 
   -0.48895E+08         0.41265E+06         0.00000E+00
    0.41265E+06        -0.49940E+08         0.00000E+00
    0.00000E+00         0.00000E+00        -0.49767E+08
 
   -0.48935E+08         0.43184E+06         0.00000E+00
    0.43184E+06        -0.49933E+08         0.00000E+00
    0.00000E+00         0.00000E+00        -0.49773E+08
 
   -0.48974E+08         0.44969E+06         0.00000E+00
    0.44969E+06        -0.49926E+08         0.00000E+00
    0.00000E+00         0.00000E+00        -0.49780E+08
 
   -0.49014E+08         0.46624E+06         0.00000E+00
    0.46624E+06        -0.49918E+08         0.00000E+00
    0.00000E+00         0.00000E+00        -0.49786E+08
 
   -0.49053E+08         0.48153E+06         0.00000E+00
    0.48153E+06        -0.49911E+08         0.00000E+00
    0.00000E+00         0.00000E+00        -0.49793E+08
 
   -0.49092E+08         0.49561E+06         0.00000E+00
    0.49561E+06        -0.49904E+08         0.00000E+00
    0.00000E+00         0.00000E+00        -0.49799E+08
 
   -0.49130E+08         0.50853E+06         0.00000E+00
    0.50853E+06        -0.49896E+08         0.00000E+00
    0.00000E+00         0.00000E+00        -0.49805E+08
 
   -0.49169E+08         0.52034E+06         0.00000E+00
    0.52034E+06        -0.49889E+08         0.00000E+00
    0.00000E+00         0.00000E+00        -0.49812E+08
 
   -0.49207E+08         0.53108E+06         0.00000E+00
    0.53108E+06        -0.49882E+08         0.00000E+00
    0.00000E+00         0.00000E+00        -0.49818E+08
 
   -0.49244E+08         0.54079E+06         0.00000E+00
    0.54079E+06        -0.49874E+08         0.00000E+00
    0.00000E+00         0.00000E+00        -0.49824E+08
 
   -0.49281E+08         0.54953E+06         0.00000E+00
    0.54953E+06        -0.49867E+08         0.00000E+00
    0.00000E+00         0.00000E+00        -0.49830E+08
 
   -0.49317E+08         0.55732E+06         0.00000E+00
    0.55732E+06        -0.49860E+08         0.00000E+00
    0.00000E+00         0.00000E+00        -0.49835E+08
 
   -0.49353E+08         0.56423E+06         0.00000E+00
    0.56423E+06        -0.49852E+08         0.00000E+00
    0.00000E+00         0.00000E+00        -0.49841E+08
 
   -0.49388E+08         0.57028E+06         0.00000E+00
    0.57028E+06        -0.49845E+08         0.00000E+00
    0.00000E+00         0.00000E+00        -0.49847E+08
 
   -0.49422E+08         0.57552E+06         0.00000E+00
    0.57552E+06        -0.49838E+08         0.00000E+00
    0.00000E+00         0.00000E+00        -0.49852E+08
 
   -0.49456E+08         0.57999E+06         0.00000E+00
    0.57999E+06        -0.49831E+08         0.00000E+00
    0.00000E+00         0.00000E+00        -0.49857E+08
 
   -0.49489E+08         0.58372E+06         0.00000E+00
    0.58372E+06        -0.49824E+08         0.00000E+00
    0.00000E+00         0.00000E+00        -0.49863E+08
 
   -0.49520E+08         0.58676E+06         0.00000E+00
    0.58676E+06        -0.49817E+08         0.00000E+00
    0.00000E+00         0.00000E+00        -0.49868E+08
 
   -0.49551E+08         0.58914E+06         0.00000E+00
    0.58914E+06        -0.49810E+08         0.00000E+00
    0.00000E+00         0.00000E+00        -0.49872E+08
 
   -0.49582E+08         0.59090E+06         0.00000E+00
    0.59090E+06        -0.49804E+08         0.00000E+00
    0.00000E+00         0.00000E+00        -0.49877E+08
 
   -0.49611E+08         0.59208E+06         0.00000E+00
    0.59208E+06        -0.49797E+08         0.00000E+00
    0.00000E+00         0.00000E+00        -0.49882E+08
 
   -0.49639E+08         0.59271E+06         0.00000E+00
    0.59271E+06        -0.49791E+08         0.00000E+00
    0.00000E+00         0.00000E+00        -0.49886E+08
 
   -0.49666E+08         0.59283E+06         0.00000E+00
    0.59283E+06        -0.49784E+08         0.00000E+00
    0.00000E+00         0.00000E+00        -0.49890E+08
 
   -0.49692E+08         0.59248E+06         0.00000E+00
    0.59248E+06        -0.49778E+08         0.00000E+00
    0.00000E+00         0.00000E+00        -0.49894E+08
 
   -0.49717E+08         0.59169E+06         0.00000E+00
    0.59169E+06        -0.49772E+08         0.00000E+00
    0.00000E+00         0.00000E+00        -0.49898E+08
 
   -0.49741E+08         0.59052E+06         0.00000E+00
    0.59052E+06        -0.49765E+08         0.00000E+00
    0.00000E+00         0.00000E+00        -0.49901E+08
 
   -0.49764E+08         0.58900E+06         0.00000E+00
    0.58900E+06        -0.49760E+08         0.00000E+00
    0.00000E+00         0.00000E+00        -0.49905E+08
 
   -0.49785E+08         0.58718E+06         0.00000E+00
    0.58718E+06        -0.49754E+08         0.00000E+00
    0.00000E+00         0.00000E+00        -0.49908E+08
 
   -0.49806E+08         0.58509E+06         0.00000E+00
    0.58509E+06        -0.49748E+08         0.00000E+00
    0.00000E+00         0.00000E+00        -0.49911E+08
 
   -0.49825E+08         0.58280E+06         0.00000E+00
    0.58280E+06        -0.49743E+08         0.00000E+00
    0.00000E+00         0.00000E+00        -0.49913E+08
 
   -0.49843E+08         0.58035E+06         0.00000E+00
    0.58035E+06        -0.49737E+08         0.00000E+00
    0.00000E+00         0.00000E+00        -0.49916E+08
 
   -0.49859E+08         0.57779E+06         0.00000E+00
    0.57779E+06        -0.49732E+08         0.00000E+00
    0.00000E+00         0.00000E+00        -0.49918E+08
 
   -0.49874E+08         0.57519E+06         0.00000E+00
    0.57519E+06        -0.49727E+08         0.00000E+00
    0.00000E+00         0.00000E+00        -0.49920E+08
 
   -0.49888E+08         0.57260E+06         0.00000E+00
    0.57260E+06        -0.49723E+08         0.00000E+00
    0.00000E+00         0.00000E+00        -0.49922E+08
 
   -0.49901E+08         0.57010E+06         0.00000E+00
    0.57010E+06        -0.49718E+08         0.00000E+00
    0.00000E+00         0.00000E+00        -0.49924E+08
 
   -0.49912E+08         0.56774E+06         0.00000E+00
    0.56774E+06        -0.49714E+08         0.00000E+00
    0.00000E+00         0.00000E+00        -0.49925E+08
 
   -0.49922E+08         0.56560E+06         0.00000E+00
    0.56560E+06        -0.49710E+08         0.00000E+00
    0.00000E+00         0.00000E+00        -0.49926E+08
 
   -0.48221E+08         0.24932E+05         0.00000E+00
    0.24932E+05        -0.50000E+08         0.00000E+00
    0.00000E+00         0.00000E+00        -0.49644E+08
 
   -0.48259E+08         0.69554E+05         0.00000E+00
    0.69554E+05        -0.49999E+08         0.00000E+00
    0.00000E+00         0.00000E+00        -0.49652E+08
 
   -0.48299E+08         0.11196E+06         0.00000E+00
    0.11196E+06        -0.49997E+08         0.00000E+00
    0.00000E+00         0.00000E+00        -0.49659E+08
 
   -0.48340E+08         0.15219E+06         0.00000E+00
    0.15219E+06        -0.49995E+08         0.00000E+00
    0.00000E+00         0.00000E+00        -0.49667E+08
 
   -0.48382E+08         0.19028E+06         0.00000E+00
    0.19028E+06        -0.49991E+08         0.00000E+00
    0.00000E+00         0.00000E+00        -0.49675E+08
 
   -0.48426E+08         0.22626E+06         0.00000E+00
    0.22626E+06        -0.49988E+08         0.00000E+00
    0.00000E+00         0.00000E+00        -0.49683E+08
 
   -0.48470E+08         0.26019E+06         0.00000E+00
    0.26019E+06        -0.49983E+08         0.00000E+00
    0.00000E+00         0.00000E+00        -0.49691E+08
 
   -0.48515E+08         0.29212E+06         0.00000E+00
    0.29212E+06        -0.49979E+08         0.00000E+00
    0.00000E+00         0.00000E+00        -0.49699E+08
 
   -0.48561E+08         0.32211E+06         0.00000E+00
    0.32211E+06        -0.49974E+08         0.00000E+00
    0.00000E+00         0.00000E+00        -0.49707E+08
 
   -0.48608E+08         0.35020E+06         0.00000E+00
    0.35020E+06        -0.49968E+08         0.00000E+00
    0.00000E+00         0.00000E+00        -0.49715E+08
 
   -0.48654E+08         0.37648E+06         0.00000E+00
    0.37648E+06        -0.49963E+08         0.00000E+00
    0.00000E+00         0.00000E+00        -0.49723E+08
 
   -0.48701E+08         0.40100E+06         0.00000E+00
    0.40100E+06        -0.49957E+08         0.00000E+00
    0.00000E+00         0.00000E+00        -0.49732E+08
 
   -0.48748E+08         0.42382E+06         0.00000E+00
    0.42382E+06        -0.49952E+08         0.00000E+00
    0.00000E+00         0.00000E+00        -0.49740E+08
 
   -0.48794E+08         0.44502E+06         0.00000E+00
    0.44502E+06        -0.49946E+08         0.00000E+00
    0.00000E+00         0.00000E+00        -0.49748E+08
 
   -0.48841E+08         0.46466E+06         0.00000E+00
    0.46466E+06        -0.49940E+08         0.00000E+00
    0.00000E+00         0.00000E+00        -0.49756E+08
 
   -0.48887E+08         0.48281E+06         0.00000E+00
    0.48281E+06        -0.49934E+08         0.00000E+00
    0.00000E+00         0.00000E+00        -0.49764E+08
 
   -0.48933E+08         0.49954E+06         0.00000E+00
    0.49954E+06        -0.49928E+08         0.00000E+00
    0.00000E+00         0.00000E+00        -0.49772E+08
 
   -0.48979E+08         0.51491E+06         0.00000E+00
    0.51491E+06        -0.49922E+08         0.00000E+00
    0.00000E+00         0.00000E+00        -0.49780E+08
 
   -0.49024E+08         0.52899E+06         0.00000E+00
    0.52899E+06        -0.49916E+08         0.00000E+00
    0.00000E+00         0.00000E+00        -0.49788E+08
 
   -0.49069E+08         0.54183E+06         0.00000E+00
    0.54183E+06        -0.49910E+08         0.00000E+00
    0.00000E+00         0.00000E+00        -0.49796E+08
 
   -0.49113E+08         0.55351E+06         0.00000E+00
    0.55351E+06        -0.49905E+08         0.00000E+00
    0.00000E+00         0.00000E+00        -0.49803E+08
 
   -0.49156E+08         0.56409E+06         0.00000E+00
    0.56409E+06        -0.49899E+08         0.00000E+00
    0.00000E+00         0.00000E+00        -0.49811E+08
 
   -0.49198E+08         0.57360E+06         0.00000E+00
    0.57360E+06        -0.49893E+08         0.00000E+00
    0.00000E+00         0.00000E+00        -0.49818E+08
 
   -0.49240E+08         0.58212E+06         0.00000E+00
    0.58212E+06        -0.49888E+08         0.00000E+00
    0.00000E+00         0.00000E+00        -0.49826E+08
 
   -0.49281E+08         0.58969E+06         0.00000E+00
    0.58969E+06        -0.49882E+08         0.00000E+00
    0.00000E+00         0.00000E+00        -0.49833E+08
 
   -0.49321E+08         0.59636E+06         0.00000E+00
    0.59636E+06        -0.49877E+08         0.00000E+00
    0.00000E+00         0.00000E+00        -0.49840E+08
 
   -0.49360E+08         0.60217E+06         0.00000E+00
    0.60217E+06        -0.49871E+08         0.00000E+00
    0.00000E+00         0.00000E+00        -0.49846E+08
 
   -0.49399E+08         0.60717E+06         0.00000E+00
    0.60717E+06        -0.49866E+08         0.00000E+00
    0.00000E+00         0.00000E+00        -0.49853E+08
 
   -0.49436E+08         0.61139E+06         0.00000E+00
    0.61139E+06        -0.49860E+08         0.00000E+00
    0.00000E+00         0.00000E+00        -0.49859E+08
 
   -0.49472E+08         0.61488E+06         0.00000E+00
    0.61488E+06        -0.49855E+08         0.00000E+00
    0.00000E+00         0.00000E+00        -0.49865E+08
 
   -0.49507E+08         0.61767E+06         0.00000E+00
    0.61767E+06        -0.49850E+08         0.00000E+00
    0.00000E+00         0.00000E+00        -0.49871E+08
 
   -0.49542E+08         0.61979E+06         0.00000E+00
    0.61979E+06        -0.49844E+08         0.00000E+00
    0.00000E+00         0.00000E+00        -0.49877E+08
 
   -0.49575E+08         0.62128E+06         0.00000E+00
    0.62128E+06        -0.49839E+08         0.00000E+00
    0.00000E+00         0.00000E+00        -0.49883E+08
 
   -0.49607E+08         0.62217E+06         0.00000E+00
    0.62217E+06        -0.49834E+08         0.00000E+00
    0.00000E+00         0.00000E+00        -0.49888E+08
 
   -0.49638E+08         0.62248E+06         0.00000E+00
    0.62248E+06        -0.49828E+08         0.00000E+00
    0.00000E+00         0.00000E+00        -0.49893E+08
 
   -0.49667E+08         0.62225E+06         0.00000E+00
    0.62225E+06        -0.49823E+08         0.00000E+00
    0.00000E+00         0.00000E+00        -0.49898E+08
 
   -0.49696E+08         0.62151E+06         0.00000E+00
    0.62151E+06        -0.49818E+08         0.00000E+00
    0.00000E+00         0.00000E+00        -0.49903E+08
 
   -0.49723E+08         0.62030E+06         0.00000E+00
    0.62030E+06        -0.49812E+08         0.00000E+00
    0.00000E+00         0.00000E+00        -0.49907E+08
 
   -0.49749E+08         0.61863E+06         0.00000E+00
    0.61863E+06        -0.49807E+08         0.00000E+00
    0.00000E+00         0.00000E+00        -0.49911E+08
 
   -0.49773E+08         0.61656E+06         0.00000E+00
    0.61656E+06        -0.49802E+08         0.00000E+00
    0.00000E+00         0.00000E+00        -0.49915E+08
 
   -0.49796E+08         0.61412E+06         0.00000E+00
    0.61412E+06        -0.49797E+08         0.00000E+00
    0.00000E+00         0.00000E+00        -0.49919E+08
 
   -0.49818E+08         0.61134E+06         0.00000E+00
    0.61134E+06        -0.49792E+08         0.00000E+00
    0.00000E+00         0.00000E+00        -0.49922E+08
 
   -0.49838E+08         0.60828E+06         0.00000E+00
    0.60828E+06        -0.49787E+08         0.00000E+00
    0.00000E+00         0.00000E+00        -0.49925E+08
 
   -0.49857E+08         0.60498E+06         0.00000E+00
    0.60498E+06        -0.49782E+08         0.00000E+00
    0.00000E+00         0.00000E+00        -0.49928E+08
 
   -0.49874E+08         0.60149E+06         0.00000E+00
    0.60149E+06        -0.49778E+08         0.00000E+00
    0.00000E+00         0.00000E+00        -0.49930E+08
 
   -0.49890E+08         0.59788E+06         0.00000E+00
    0.59788E+06        -0.49773E+08         0.00000E+00
    0.00000E+00         0.00000E+00        -0.49933E+08
 
   -0.49904E+08         0.59421E+06         0.00000E+00
    0.59421E+06        -0.49769E+08         0.00000E+00
    0.00000E+00         0.00000E+00        -0.49935E+08
 
   -0.49916E+08         0.59054E+06         0.00000E+00
    0.59054E+06        -0.49765E+08         0.00000E+00
    0.00000E+00         0.00000E+00        -0.49936E+08
 
   -0.49926E+08         0.58696E+06         0.00000E+00
    0.58696E+06        -0.49762E+08         0.00000E+00
    0.00000E+00         0.00000E+00        -0.49938E+08
 
   -0.49935E+08         0.58355E+06         0.00000E+00
    0.58355E+06        -0.49758E+08         0.00000E+00
    0.00000E+00         0.00000E+00        -0.49939E+08
 
   -0.47981E+08         0.27720E+05         0.00000E+00
    0.27720E+05        -0.50000E+08         0.00000E+00
    0.00000E+00         0.00000E+00        -0.49596E+08
 
   -0.48031E+08         0.76526E+05         0.00000E+00
    0.76526E+05        -0.49999E+08         0.00000E+00
    0.00000E+00         0.00000E+00        -0.49606E+08
 
   -0.48083E+08         0.12257E+06         0.00000E+00
    0.12257E+06        -0.49997E+08         0.00000E+00
    0.00000E+00         0.00000E+00        -0.49616E+08
 
   -0.48136E+08         0.16592E+06         0.00000E+00
    0.16592E+06        -0.49995E+08         0.00000E+00
    0.00000E+00         0.00000E+00        -0.49626E+08
 
   -0.48191E+08         0.20665E+06         0.00000E+00
    0.20665E+06        -0.49992E+08         0.00000E+00
    0.00000E+00         0.00000E+00        -0.49637E+08
 
   -0.48246E+08         0.24483E+06         0.00000E+00
    0.24483E+06        -0.49989E+08         0.00000E+00
    0.00000E+00         0.00000E+00        -0.49647E+08
 
   -0.48301E+08         0.28055E+06         0.00000E+00
    0.28055E+06        -0.49986E+08         0.00000E+00
    0.00000E+00         0.00000E+00        -0.49657E+08
 
   -0.48357E+08         0.31390E+06         0.00000E+00
    0.31390E+06        -0.49982E+08         0.00000E+00
    0.00000E+00         0.00000E+00        -0.49668E+08
 
   -0.48413E+08         0.34498E+06         0.00000E+00
    0.34498E+06        -0.49978E+08         0.00000E+00
    0.00000E+00         0.00000E+00        -0.49678E+08
 
   -0.48470E+08         0.37386E+06         0.00000E+00
    0.37386E+06        -0.49974E+08         0.00000E+00
    0.00000E+00         0.00000E+00        -0.49689E+08
 
   -0.48526E+08         0.40067E+06         0.00000E+00
    0.40067E+06        -0.49970E+08         0.00000E+00
    0.00000E+00         0.00000E+00        -0.49699E+08
 
   -0.48582E+08         0.42548E+06         0.00000E+00
    0.42548E+06        -0.49966E+08         0.00000E+00
    0.00000E+00         0.00000E+00        -0.49710E+08
 
   -0.48637E+08         0.44842E+06         0.00000E+00
    0.44842E+06        -0.49962E+08         0.00000E+00
    0.00000E+00         0.00000E+00        -0.49720E+08
 
   -0.48692E+08         0.46956E+06         0.00000E+00
    0.46956E+06        -0.49958E+08         0.00000E+00
    0.00000E+00         0.00000E+00        -0.49730E+08
 
   -0.48747E+08         0.48903E+06         0.00000E+00
    0.48903E+06        -0.49955E+08         0.00000E+00
    0.00000E+00         0.00000E+00        -0.49740E+08
 
   -0.48801E+08         0.50690E+06         0.00000E+00
    0.50690E+06        -0.49951E+08         0.00000E+00
    0.00000E+00         0.00000E+00        -0.49750E+08
 
   -0.48854E+08         0.52328E+06         0.00000E+00
    0.52328E+06        -0.49948E+08         0.00000E+00
    0.00000E+00         0.00000E+00        -0.49760E+08
 
   -0.48906E+08         0.53826E+06         0.00000E+00
    0.53826E+06        -0.49944E+08         0.00000E+00
    0.00000E+00         0.00000E+00        -0.49770E+08
 
   -0.48958E+08         0.55193E+06         0.00000E+00
    0.55193E+06        -0.49941E+08         0.00000E+00
    0.00000E+00         0.00000E+00        -0.49780E+08
 
   -0.49008E+08         0.56437E+06         0.00000E+00
    0.56437E+06        -0.49938E+08         0.00000E+00
    0.00000E+00         0.00000E+00        -0.49789E+08
 
   -0.49058E+08         0.57567E+06         0.00000E+00
    0.57567E+06        -0.49935E+08         0.00000E+00
    0.00000E+00         0.00000E+00        -0.49799E+08
 
   -0.49106E+08         0.58588E+06         0.00000E+00
    0.58588E+06        -0.49932E+08         0.00000E+00
    0.00000E+00         0.00000E+00        -0.49808E+08
 
   -0.49154E+08         0.59510E+06         0.00000E+00
    0.59510E+06        -0.49930E+08         0.00000E+00
    0.00000E+00         0.00000E+00        -0.49817E+08
 
   -0.49200E+08         0.60337E+06         0.00000E+00
    0.60337E+06        -0.49927E+08         0.00000E+00
    0.00000E+00         0.00000E+00        -0.49825E+08
 
   -0.49246E+08         0.61076E+06         0.00000E+00
    0.61076E+06        -0.49924E+08         0.00000E+00
    0.00000E+00         0.00000E+00        -0.49834E+08
 
   -0.49290E+08         0.61731E+06         0.00000E+00
    0.61731E+06        -0.49922E+08         0.00000E+00
    0.00000E+00         0.00000E+00        -0.49842E+08
 
   -0.49333E+08         0.62308E+06         0.00000E+00
    0.62308E+06        -0.49919E+08         0.00000E+00
    0.00000E+00         0.00000E+00        -0.49850E+08
 
   -0.49375E+08         0.62811E+06         0.00000E+00
    0.62811E+06        -0.49916E+08         0.00000E+00
    0.00000E+00         0.00000E+00        -0.49858E+08
 
   -0.49416E+08         0.63243E+06         0.00000E+00
    0.63243E+06        -0.49914E+08         0.00000E+00
    0.00000E+00         0.00000E+00        -0.49866E+08
 
   -0.49456E+08         0.63608E+06         0.00000E+00
    0.63608E+06        -0.49911E+08         0.00000E+00
    0.00000E+00         0.00000E+00        -0.49873E+08
 
   -0.49495E+08         0.63907E+06         0.00000E+00
    0.63907E+06        -0.49908E+08         0.00000E+00
    0.00000E+00         0.00000E+00        -0.49880E+08
 
   -0.49532E+08         0.64144E+06         0.00000E+00
    0.64144E+06        -0.49905E+08         0.00000E+00
    0.00000E+00         0.00000E+00        -0.49887E+08
 
   -0.49568E+08         0.64319E+06         0.00000E+00
    0.64319E+06        -0.49902E+08         0.00000E+00
    0.00000E+00         0.00000E+00        -0.49894E+08
 
   -0.49603E+08         0.64436E+06         0.00000E+00
    0.64436E+06        -0.49898E+08         0.00000E+00
    0.00000E+00         0.00000E+00        -0.49900E+08
 
   -0.49637E+08         0.64495E+06         0.00000E+00
    0.64495E+06        -0.49895E+08         0.00000E+00
    0.00000E+00         0.00000E+00        -0.49906E+08
 
   -0.49669E+08         0.64497E+06         0.00000E+00
    0.64497E+06        -0.49891E+08         0.00000E+00
    0.00000E+00         0.00000E+00        -0.49912E+08
 
   -0.49700E+08         0.64445E+06         0.00000E+00
    0.64445E+06        -0.49887E+08         0.00000E+00
    0.00000E+00         0.00000E+00        -0.49918E+08
 
   -0.49730E+08         0.64339E+06         0.00000E+00
    0.64339E+06        -0.49884E+08         0.00000E+00
    0.00000E+00         0.00000E+00        -0.49923E+08
 
   -0.49758E+08         0.64181E+06         0.00000E+00
    0.64181E+06        -0.49880E+08         0.00000E+00
    0.00000E+00         0.00000E+00        -0.49928E+08
 
   -0.49785E+08         0.63972E+06         0.00000E+00
    0.63972E+06        -0.49875E+08         0.00000E+00
    0.00000E+00         0.00000E+00        -0.49932E+08
 
   -0.49810E+08         0.63715E+06         0.00000E+00
    0.63715E+06        -0.49871E+08         0.00000E+00
    0.00000E+00         0.00000E+00        -0.49936E+08
 
   -0.49833E+08         0.63413E+06         0.00000E+00
    0.63413E+06        -0.49867E+08         0.00000E+00
    0.00000E+00         0.00000E+00        -0.49940E+08
 
   -0.49855E+08         0.63068E+06         0.00000E+00
    0.63068E+06        -0.49863E+08         0.00000E+00
    0.00000E+00         0.00000E+00        -0.49944E+08
 
   -0.49875E+08         0.62683E+06         0.00000E+00
    0.62683E+06        -0.49859E+08         0.00000E+00
    0.00000E+00         0.00000E+00        -0.49947E+08
 
   -0.49894E+08         0.62264E+06         0.00000E+00
    0.62264E+06        -0.49855E+08         0.00000E+00
    0.00000E+00         0.00000E+00        -0.49950E+08
 
   -0.49910E+08         0.61816E+06         0.00000E+00
    0.61816E+06        -0.49851E+08         0.00000E+00
    0.00000E+00         0.00000E+00        -0.49952E+08
 
   -0.49925E+08         0.61344E+06         0.00000E+00
    0.61344E+06        -0.49847E+08         0.00000E+00
    0.00000E+00         0.00000E+00        -0.49954E+08
 
   -0.49937E+08         0.60855E+06         0.00000E+00
    0.60855E+06        -0.49843E+08         0.00000E+00
    0.00000E+00         0.00000E+00        -0.49956E+08
 
   -0.49947E+08         0.60357E+06         0.00000E+00
    0.60357E+06        -0.49840E+08         0.00000E+00
    0.00000E+00         0.00000E+00        -0.49957E+08
 
   -0.49955E+08         0.59859E+06         0.00000E+00
    0.59859E+06        -0.49837E+08         0.00000E+00
    0.00000E+00         0.00000E+00        -0.49958E+08
 
   -0.47720E+08         0.30258E+05         0.00000E+00
    0.30258E+05        -0.50000E+08         0.00000E+00
    0.00000E+00         0.00000E+00        -0.49544E+08
 
   -0.47786E+08         0.82501E+05         0.00000E+00
    0.82501E+05        -0.49999E+08         0.00000E+00
    0.00000E+00         0.00000E+00        -0.49557E+08
 
   -0.47853E+08         0.13134E+06         0.00000E+00
    0.13134E+06        -0.49998E+08         0.00000E+00
    0.00000E+00         0.00000E+00        -0.49570E+08
 
   -0.47921E+08         0.17689E+06         0.00000E+00
    0.17689E+06        -0.49996E+08         0.00000E+00
    0.00000E+00         0.00000E+00        -0.49583E+08
 
   -0.47990E+08         0.21926E+06         0.00000E+00
    0.21926E+06        -0.49994E+08         0.00000E+00
    0.00000E+00         0.00000E+00        -0.49597E+08
 
   -0.48058E+08         0.25859E+06         0.00000E+00
    0.25859E+06        -0.49992E+08         0.00000E+00
    0.00000E+00         0.00000E+00        -0.49610E+08
 
   -0.48127E+08         0.29501E+06         0.00000E+00
    0.29501E+06        -0.49990E+08         0.00000E+00
    0.00000E+00         0.00000E+00        -0.49623E+08
 
   -0.48195E+08         0.32865E+06         0.00000E+00
    0.32865E+06        -0.49988E+08         0.00000E+00
    0.00000E+00         0.00000E+00        -0.49637E+08
 
   -0.48264E+08         0.35966E+06         0.00000E+00
    0.35966E+06        -0.49986E+08         0.00000E+00
    0.00000E+00         0.00000E+00        -0.49650E+08
 
   -0.48331E+08         0.38819E+06         0.00000E+00
    0.38819E+06        -0.49984E+08         0.00000E+00
    0.00000E+00         0.00000E+00        -0.49663E+08
 
   -0.48398E+08         0.41439E+06         0.00000E+00
    0.41439E+06        -0.49983E+08         0.00000E+00
    0.00000E+00         0.00000E+00        -0.49676E+08
 
   -0.48464E+08         0.43840E+06         0.00000E+00
    0.43840E+06        -0.49982E+08         0.00000E+00
    0.00000E+00         0.00000E+00        -0.49689E+08
 
   -0.48529E+08         0.46037E+06         0.00000E+00
    0.46037E+06        -0.49981E+08         0.00000E+00
    0.00000E+00         0.00000E+00        -0.49702E+08
 
   -0.48593E+08         0.48046E+06         0.00000E+00
    0.48046E+06        -0.49981E+08         0.00000E+00
    0.00000E+00         0.00000E+00        -0.49715E+08
 
   -0.48656E+08         0.49879E+06         0.00000E+00
    0.49879E+06        -0.49980E+08         0.00000E+00
    0.00000E+00         0.00000E+00        -0.49727E+08
 
   -0.48717E+08         0.51552E+06         0.00000E+00
    0.51552E+06        -0.49981E+08         0.00000E+00
    0.00000E+00         0.00000E+00        -0.49740E+08
 
   -0.48778E+08         0.53078E+06         0.00000E+00
    0.53078E+06        -0.49981E+08         0.00000E+00
    0.00000E+00         0.00000E+00        -0.49752E+08
 
   -0.48837E+08         0.54470E+06         0.00000E+00
    0.54470E+06        -0.49982E+08         0.00000E+00
    0.00000E+00         0.00000E+00        -0.49764E+08
 
   -0.48894E+08         0.55739E+06         0.00000E+00
    0.55739E+06        -0.49983E+08         0.00000E+00
    0.00000E+00         0.00000E+00        -0.49775E+08
 
   -0.48950E+08         0.56897E+06         0.00000E+00
    0.56897E+06        -0.49985E+08         0.00000E+00
    0.00000E+00         0.00000E+00        -0.49787E+08
 
   -0.49005E+08         0.57955E+06         0.00000E+00
    0.57955E+06        -0.49986E+08         0.00000E+00
    0.00000E+00         0.00000E+00        -0.49798E+08
 
   -0.49059E+08         0.58921E+06         0.00000E+00
    0.58921E+06        -0.49988E+08         0.00000E+00
    0.00000E+00         0.00000E+00        -0.49809E+08
 
   -0.49111E+08         0.59804E+06         0.00000E+00
    0.59804E+06        -0.49990E+08         0.00000E+00
    0.00000E+00         0.00000E+00        -0.49820E+08
 
   -0.49161E+08         0.60612E+06         0.00000E+00
    0.60612E+06        -0.49992E+08         0.00000E+00
    0.00000E+00         0.00000E+00        -0.49831E+08
 
   -0.49210E+08         0.61352E+06         0.00000E+00
    0.61352E+06        -0.49994E+08         0.00000E+00
    0.00000E+00         0.00000E+00        -0.49841E+08
 
   -0.49258E+08         0.62027E+06         0.00000E+00
    0.62027E+06        -0.49996E+08         0.00000E+00
    0.00000E+00         0.00000E+00        -0.49851E+08
 
   -0.49305E+08         0.62644E+06         0.00000E+00
    0.62644E+06        -0.49997E+08         0.00000E+00
    0.00000E+00         0.00000E+00        -0.49860E+08
 
   -0.49350E+08         0.63204E+06         0.00000E+00
    0.63204E+06        -0.49999E+08         0.00000E+00
    0.00000E+00         0.00000E+00        -0.49870E+08
 
   -0.49394E+08         0.63712E+06         0.00000E+00
    0.63712E+06        -0.50000E+08         0.00000E+00
    0.00000E+00         0.00000E+00        -0.49879E+08
 
   -0.49437E+08         0.64167E+06         0.00000E+00
    0.64167E+06        -0.50001E+08         0.00000E+00
    0.00000E+00         0.00000E+00        -0.49888E+08
 
   -0.49478E+08         0.64572E+06         0.00000E+00
    0.64572E+06        -0.50002E+08         0.00000E+00
    0.00000E+00         0.00000E+00        -0.49896E+08
 
   -0.49519E+08         0.64925E+06         0.00000E+00
    0.64925E+06        -0.50003E+08         0.00000E+00
    0.00000E+00         0.00000E+00        -0.49904E+08
 
   -0.49558E+08         0.65227E+06         0.00000E+00
    0.65227E+06        -0.50003E+08         0.00000E+00
    0.00000E+00         0.00000E+00        -0.49912E+08
 
   -0.49595E+08         0.65476E+06         0.00000E+00
    0.65476E+06        -0.50002E+08         0.00000E+00
    0.00000E+00         0.00000E+00        -0.49920E+08
 
   -0.49632E+08         0.65671E+06         0.00000E+00
    0.65671E+06        -0.50001E+08         0.00000E+00
    0.00000E+00         0.00000E+00        -0.49927E+08
 
   -0.49667E+08         0.65810E+06         0.00000E+00
    0.65810E+06        -0.50000E+08         0.00000E+00
    0.00000E+00         0.00000E+00        -0.49933E+08
 
   -0.49701E+08         0.65889E+06         0.00000E+00
    0.65889E+06        -0.49999E+08         0.00000E+00
    0.00000E+00         0.00000E+00        -0.49940E+08
 
   -0.49733E+08         0.65909E+06         0.00000E+00
    0.65909E+06        -0.49996E+08         0.00000E+00
    0.00000E+00         0.00000E+00        -0.49946E+08
 
   -0.49765E+08         0.65866E+06         0.00000E+00
    0.65866E+06        -0.49994E+08         0.00000E+00
    0.00000E+00         0.00000E+00        -0.49952E+08
 
   -0.49794E+08         0.65759E+06         0.00000E+00
    0.65759E+06        -0.49991E+08         0.00000E+00
    0.00000E+00         0.00000E+00        -0.49957E+08
 
   -0.49822E+08         0.65586E+06         0.00000E+00
    0.65586E+06        -0.49988E+08         0.00000E+00
    0.00000E+00         0.00000E+00        -0.49962E+08
 
   -0.49848E+08         0.65347E+06         0.00000E+00
    0.65347E+06        -0.49985E+08         0.00000E+00
    0.00000E+00         0.00000E+00        -0.49967E+08
 
   -0.49873E+08         0.65041E+06         0.00000E+00
    0.65041E+06        -0.49981E+08         0.00000E+00
    0.00000E+00         0.00000E+00        -0.49971E+08
 
   -0.49896E+08         0.64670E+06         0.00000E+00
    0.64670E+06        -0.49977E+08         0.00000E+00
    0.00000E+00         0.00000E+00        -0.49974E+08
 
   -0.49916E+08         0.64235E+06         0.00000E+00
    0.64235E+06        -0.49973E+08         0.00000E+00
    0.00000E+00         0.00000E+00        -0.49978E+08
 
   -0.49935E+08         0.63740E+06         0.00000E+00
    0.63740E+06        -0.49969E+08         0.00000E+00
    0.00000E+00         0.00000E+00        -0.49981E+08
 
   -0.49951E+08         0.63188E+06         0.00000E+00
    0.63188E+06        -0.49965E+08         0.00000E+00
    0.00000E+00         0.00000E+00        -0.49983E+08
 
   -0.49965E+08         0.62585E+06         0.00000E+00
    0.62585E+06        -0.49961E+08         0.00000E+00
    0.00000E+00         0.00000E+00        -0.49985E+08
 
   -0.49976E+08         0.61938E+06         0.00000E+00
    0.61938E+06        -0.49958E+08         0.00000E+00
    0.00000E+00         0.00000E+00        -0.49987E+08
 
   -0.49985E+08         0.61257E+06         0.00000E+00
    0.61257E+06        -0.49955E+08         0.00000E+00
    0.00000E+00         0.00000E+00        -0.49988E+08
 
   -0.47443E+08         0.32293E+05         0.00000E+00
    0.32293E+05        -0.50000E+08         0.00000E+00
    0.00000E+00         0.00000E+00        -0.49489E+08
 
   -0.47528E+08         0.86668E+05         0.00000E+00
    0.86668E+05        -0.49999E+08         0.00000E+00
    0.00000E+00         0.00000E+00        -0.49506E+08
 
   -0.47614E+08         0.13688E+06         0.00000E+00
    0.13688E+06        -0.49999E+08         0.00000E+00
    0.00000E+00         0.00000E+00        -0.49523E+08
 
   -0.47700E+08         0.18310E+06         0.00000E+00
    0.18310E+06        -0.49998E+08         0.00000E+00
    0.00000E+00         0.00000E+00        -0.49540E+08
 
   -0.47785E+08         0.22551E+06         0.00000E+00
    0.22551E+06        -0.49997E+08         0.00000E+00
    0.00000E+00         0.00000E+00        -0.49557E+08
 
   -0.47870E+08         0.26430E+06         0.00000E+00
    0.26430E+06        -0.49997E+08         0.00000E+00
    0.00000E+00         0.00000E+00        -0.49573E+08
 
   -0.47954E+08         0.29968E+06         0.00000E+00
    0.29968E+06        -0.49997E+08         0.00000E+00
    0.00000E+00         0.00000E+00        -0.49590E+08
 
   -0.48037E+08         0.33184E+06         0.00000E+00
    0.33184E+06        -0.49998E+08         0.00000E+00
    0.00000E+00         0.00000E+00        -0.49607E+08
 
   -0.48119E+08         0.36101E+06         0.00000E+00
    0.36101E+06        -0.49999E+08         0.00000E+00
    0.00000E+00         0.00000E+00        -0.49624E+08
 
   -0.48199E+08         0.38741E+06         0.00000E+00
    0.38741E+06        -0.50001E+08         0.00000E+00
    0.00000E+00         0.00000E+00        -0.49640E+08
 
   -0.48278E+08         0.41125E+06         0.00000E+00
    0.41125E+06        -0.50003E+08         0.00000E+00
    0.00000E+00         0.00000E+00        -0.49656E+08
 
   -0.48355E+08         0.43276E+06         0.00000E+00
    0.43276E+06        -0.50006E+08         0.00000E+00
    0.00000E+00         0.00000E+00        -0.49672E+08
 
   -0.48430E+08         0.45215E+06         0.00000E+00
    0.45215E+06        -0.50010E+08         0.00000E+00
    0.00000E+00         0.00000E+00        -0.49688E+08
 
   -0.48503E+08         0.46965E+06         0.00000E+00
    0.46965E+06        -0.50015E+08         0.00000E+00
    0.00000E+00         0.00000E+00        -0.49704E+08
 
   -0.48574E+08         0.48545E+06         0.00000E+00
    0.48545E+06        -0.50020E+08         0.00000E+00
    0.00000E+00         0.00000E+00        -0.49719E+08
 
   -0.48643E+08         0.49976E+06         0.00000E+00
    0.49976E+06        -0.50027E+08         0.00000E+00
    0.00000E+00         0.00000E+00        -0.49734E+08
 
   -0.48710E+08         0.51277E+06         0.00000E+00
    0.51277E+06        -0.50033E+08         0.00000E+00
    0.00000E+00         0.00000E+00        -0.49749E+08
 
   -0.48774E+08         0.52466E+06         0.00000E+00
    0.52466E+06        -0.50040E+08         0.00000E+00
    0.00000E+00         0.00000E+00        -0.49763E+08
 
   -0.48837E+08         0.53559E+06         0.00000E+00
    0.53559E+06        -0.50048E+08         0.00000E+00
    0.00000E+00         0.00000E+00        -0.49777E+08
 
   -0.48898E+08         0.54571E+06         0.00000E+00
    0.54571E+06        -0.50056E+08         0.00000E+00
    0.00000E+00         0.00000E+00        -0.49791E+08
 
   -0.48957E+08         0.55516E+06         0.00000E+00
    0.55516E+06        -0.50065E+08         0.00000E+00
    0.00000E+00         0.00000E+00        -0.49804E+08
 
   -0.49013E+08         0.56406E+06         0.00000E+00
    0.56406E+06        -0.50074E+08         0.00000E+00
    0.00000E+00         0.00000E+00        -0.49817E+08
 
   -0.49068E+08         0.57251E+06         0.00000E+00
    0.57251E+06        -0.50082E+08         0.00000E+00
    0.00000E+00         0.00000E+00        -0.49830E+08
 
   -0.49122E+08         0.58059E+06         0.00000E+00
    0.58059E+06        -0.50091E+08         0.00000E+00
    0.00000E+00         0.00000E+00        -0.49843E+08
 
   -0.49173E+08         0.58838E+06         0.00000E+00
    0.58838E+06        -0.50100E+08         0.00000E+00
    0.00000E+00         0.00000E+00        -0.49855E+08
 
   -0.49223E+08         0.59593E+06         0.00000E+00
    0.59593E+06        -0.50109E+08         0.00000E+00
    0.00000E+00         0.00000E+00        -0.49866E+08
 
   -0.49272E+08         0.60327E+06         0.00000E+00
    0.60327E+06        -0.50117E+08         0.00000E+00
    0.00000E+00         0.00000E+00        -0.49878E+08
 
   -0.49319E+08         0.61042E+06         0.00000E+00
    0.61042E+06        -0.50125E+08         0.00000E+00
    0.00000E+00         0.00000E+00        -0.49889E+08
 
   -0.49365E+08         0.61739E+06         0.00000E+00
    0.61739E+06        -0.50132E+08         0.00000E+00
    0.00000E+00         0.00000E+00        -0.49899E+08
 
   -0.49410E+08         0.62415E+06         0.00000E+00
    0.62415E+06        -0.50139E+08         0.00000E+00
    0.00000E+00         0.00000E+00        -0.49910E+08
 
   -0.49453E+08         0.63068E+06         0.00000E+00
    0.63068E+06        -0.50145E+08         0.00000E+00
    0.00000E+00         0.00000E+00        -0.49920E+08
 
   -0.49495E+08         0.63694E+06         0.00000E+00
    0.63694E+06        -0.50150E+08         0.00000E+00
    0.00000E+00         0.00000E+00        -0.49929E+08
 
   -0.49537E+08         0.64289E+06         0.00000E+00
    0.64289E+06        -0.50155E+08         0.00000E+00
    0.00000E+00         0.00000E+00        -0.49938E+08
 
   -0.49577E+08         0.64846E+06         0.00000E+00
    0.64846E+06        -0.50159E+08         0.00000E+00
    0.00000E+00         0.00000E+00        -0.49947E+08
 
   -0.49616E+08         0.65357E+06         0.00000E+00
    0.65357E+06        -0.50162E+08         0.00000E+00
    0.00000E+00         0.00000E+00        -0.49955E+08
 
   -0.49654E+08         0.65817E+06         0.00000E+00
    0.65817E+06        -0.50164E+08         0.00000E+00
    0.00000E+00         0.00000E+00        -0.49964E+08
 
   -0.49691E+08         0.66217E+06         0.00000E+00
    0.66217E+06        -0.50165E+08         0.00000E+00
    0.00000E+00         0.00000E+00        -0.49971E+08
 
   -0.49727E+08         0.66548E+06         0.00000E+00
    0.66548E+06        -0.50165E+08         0.00000E+00
    0.00000E+00         0.00000E+00        -0.49978E+08
 
   -0.49761E+08         0.66803E+06         0.00000E+00
    0.66803E+06        -0.50164E+08         0.00000E+00
    0.00000E+00         0.00000E+00        -0.49985E+08
 
   -0.49795E+08         0.66973E+06         0.00000E+00
    0.66973E+06        -0.50163E+08         0.00000E+00
    0.00000E+00         0.00000E+00        -0.49991E+08
 
   -0.49827E+08         0.67052E+06         0.00000E+00
    0.67052E+06        -0.50161E+08         0.00000E+00
    0.00000E+00         0.00000E+00        -0.49997E+08
 
   -0.49857E+08         0.67033E+06         0.00000E+00
    0.67033E+06        -0.50158E+08         0.00000E+00
    0.00000E+00         0.00000E+00        -0.50003E+08
 
   -0.49886E+08         0.66909E+06         0.00000E+00
    0.66909E+06        -0.50154E+08         0.00000E+00
    0.00000E+00         0.00000E+00        -0.50008E+08
 
   -0.49913E+08         0.66677E+06         0.00000E+00
    0.66677E+06        -0.50150E+08         0.00000E+00
    0.00000E+00         0.00000E+00        -0.50013E+08
 
   -0.49938E+08         0.66332E+06         0.00000E+00
    0.66332E+06        -0.50145E+08         0.00000E+00
    0.00000E+00         0.00000E+00        -0.50017E+08
 
   -0.49961E+08         0.65875E+06         0.00000E+00
    0.65875E+06        -0.50140E+08         0.00000E+00
    0.00000E+00         0.00000E+00        -0.50020E+08
 
   -0.49981E+08         0.65304E+06         0.00000E+00
    0.65304E+06        -0.50136E+08         0.00000E+00
    0.00000E+00         0.00000E+00        -0.50023E+08
 
   -0.49998E+08         0.64624E+06         0.00000E+00
    0.64624E+06        -0.50131E+08         0.00000E+00
    0.00000E+00         0.00000E+00        -0.50026E+08
 
   -0.50013E+08         0.63837E+06         0.00000E+00
    0.63837E+06        -0.50126E+08         0.00000E+00
    0.00000E+00         0.00000E+00        -0.50028E+08
 
   -0.50025E+08         0.62952E+06         0.00000E+00
    0.62952E+06        -0.50121E+08         0.00000E+00
    0.00000E+00         0.00000E+00        -0.50029E+08
 
   -0.47158E+08         0.33549E+05         0.00000E+00
    0.33549E+05        -0.50000E+08         0.00000E+00
    0.00000E+00         0.00000E+00        -0.49432E+08
 
   -0.47267E+08         0.88075E+05         0.00000E+00
    0.88075E+05        -0.50000E+08         0.00000E+00
    0.00000E+00         0.00000E+00        -0.49453E+08
 
   -0.47375E+08         0.13751E+06         0.00000E+00
    0.13751E+06        -0.50000E+08         0.00000E+00
    0.00000E+00         0.00000E+00        -0.49475E+08
 
   -0.47482E+08         0.18209E+06         0.00000E+00
    0.18209E+06        -0.50001E+08         0.00000E+00
    0.00000E+00         0.00000E+00        -0.49497E+08
 
   -0.47588E+08         0.22209E+06         0.00000E+00
    0.22209E+06        -0.50002E+08         0.00000E+00
    0.00000E+00         0.00000E+00        -0.49518E+08
 
   -0.47692E+08         0.25779E+06         0.00000E+00
    0.25779E+06        -0.50004E+08         0.00000E+00
    0.00000E+00         0.00000E+00        -0.49539E+08
 
   -0.47794E+08         0.28948E+06         0.00000E+00
    0.28948E+06        -0.50008E+08         0.00000E+00
    0.00000E+00         0.00000E+00        -0.49560E+08
 
   -0.47894E+08         0.31748E+06         0.00000E+00
    0.31748E+06        -0.50012E+08         0.00000E+00
    0.00000E+00         0.00000E+00        -0.49581E+08
 
   -0.47991E+08         0.34211E+06         0.00000E+00
    0.34211E+06        -0.50018E+08         0.00000E+00
    0.00000E+00         0.00000E+00        -0.49602E+08
 
   -0.48085E+08         0.36370E+06         0.00000E+00
    0.36370E+06        -0.50025E+08         0.00000E+00
    0.00000E+00         0.00000E+00        -0.49622E+08
 
   -0.48176E+08         0.38257E+06         0.00000E+00
    0.38257E+06        -0.50033E+08         0.00000E+00
    0.00000E+00         0.00000E+00        -0.49642E+08
 
   -0.48264E+08         0.39905E+06         0.00000E+00
    0.39905E+06        -0.50043E+08         0.00000E+00
    0.00000E+00         0.00000E+00        -0.49661E+08
 
   -0.48349E+08         0.41347E+06         0.00000E+00
    0.41347E+06        -0.50054E+08         0.00000E+00
    0.00000E+00         0.00000E+00        -0.49681E+08
 
   -0.48430E+08         0.42615E+06         0.00000E+00
    0.42615E+06        -0.50066E+08         0.00000E+00
    0.00000E+00         0.00000E+00        -0.49699E+08
 
   -0.48509E+08         0.43737E+06         0.00000E+00
    0.43737E+06        -0.50080E+08         0.00000E+00
    0.00000E+00         0.00000E+00        -0.49718E+08
 
   -0.48584E+08         0.44744E+06         0.00000E+00
    0.44744E+06        -0.50095E+08         0.00000E+00
    0.00000E+00         0.00000E+00        -0.49736E+08
 
   -0.48656E+08         0.45661E+06         0.00000E+00
    0.45661E+06        -0.50110E+08         0.00000E+00
    0.00000E+00         0.00000E+00        -0.49753E+08
 
   -0.48724E+08         0.46514E+06         0.00000E+00
    0.46514E+06        -0.50127E+08         0.00000E+00
    0.00000E+00         0.00000E+00        -0.49770E+08
 
   -0.48790E+08         0.47325E+06         0.00000E+00
    0.47325E+06        -0.50144E+08         0.00000E+00
    0.00000E+00         0.00000E+00        -0.49787E+08
 
   -0.48853E+08         0.48115E+06         0.00000E+00
    0.48115E+06        -0.50162E+08         0.00000E+00
    0.00000E+00         0.00000E+00        -0.49803E+08
 
   -0.48913E+08         0.48901E+06         0.00000E+00
    0.48901E+06        -0.50181E+08         0.00000E+00
    0.00000E+00         0.00000E+00        -0.49819E+08
 
   -0.48971E+08         0.49698E+06         0.00000E+00
    0.49698E+06        -0.50199E+08         0.00000E+00
    0.00000E+00         0.00000E+00        -0.49834E+08
 
   -0.49027E+08         0.50518E+06         0.00000E+00
    0.50518E+06        -0.50218E+08         0.00000E+00
    0.00000E+00         0.00000E+00        -0.49849E+08
 
   -0.49080E+08         0.51371E+06         0.00000E+00
    0.51371E+06        -0.50237E+08         0.00000E+00
    0.00000E+00         0.00000E+00        -0.49863E+08
 
   -0.49131E+08         0.52264E+06         0.00000E+00
    0.52264E+06        -0.50256E+08         0.00000E+00
    0.00000E+00         0.00000E+00        -0.49877E+08
 
   -0.49181E+08         0.53201E+06         0.00000E+00
    0.53201E+06        -0.50274E+08         0.00000E+00
    0.00000E+00         0.00000E+00        -0.49891E+08
 
   -0.49229E+08         0.54183E+06         0.00000E+00
    0.54183E+06        -0.50291E+08         0.00000E+00
    0.00000E+00         0.00000E+00        -0.49904E+08
 
   -0.49276E+08         0.55209E+06         0.00000E+00
    0.55209E+06        -0.50308E+08         0.00000E+00
    0.00000E+00         0.00000E+00        -0.49917E+08
 
   -0.49321E+08         0.56276E+06         0.00000E+00
    0.56276E+06        -0.50324E+08         0.00000E+00
    0.00000E+00         0.00000E+00        -0.49929E+08
 
   -0.49365E+08         0.57378E+06         0.00000E+00
    0.57378E+06        -0.50339E+08         0.00000E+00
    0.00000E+00         0.00000E+00        -0.49941E+08
 
   -0.49409E+08         0.58506E+06         0.00000E+00
    0.58506E+06        -0.50352E+08         0.00000E+00
    0.00000E+00         0.00000E+00        -0.49952E+08
 
   -0.49452E+08         0.59650E+06         0.00000E+00
    0.59650E+06        -0.50364E+08         0.00000E+00
    0.00000E+00         0.00000E+00        -0.49963E+08
 
   -0.49494E+08         0.60799E+06         0.00000E+00
    0.60799E+06        -0.50375E+08         0.00000E+00
    0.00000E+00         0.00000E+00        -0.49974E+08
 
   -0.49536E+08         0.61939E+06         0.00000E+00
    0.61939E+06        -0.50385E+08         0.00000E+00
    0.00000E+00         0.00000E+00        -0.49984E+08
 
   -0.49577E+08         0.63053E+06         0.00000E+00
    0.63053E+06        -0.50392E+08         0.00000E+00
    0.00000E+00         0.00000E+00        -0.49994E+08
 
   -0.49618E+08         0.64127E+06         0.00000E+00
    0.64127E+06        -0.50399E+08         0.00000E+00
    0.00000E+00         0.00000E+00        -0.50003E+08
 
   -0.49658E+08         0.65143E+06         0.00000E+00
    0.65143E+06        -0.50403E+08         0.00000E+00
    0.00000E+00         0.00000E+00        -0.50012E+08
 
   -0.49698E+08         0.66083E+06         0.00000E+00
    0.66083E+06        -0.50406E+08         0.00000E+00
    0.00000E+00         0.00000E+00        -0.50021E+08
 
   -0.49737E+08         0.66930E+06         0.00000E+00
    0.66930E+06        -0.50407E+08         0.00000E+00
    0.00000E+00         0.00000E+00        -0.50029E+08
 
   -0.49775E+08         0.67664E+06         0.00000E+00
    0.67664E+06        -0.50407E+08         0.00000E+00
    0.00000E+00         0.00000E+00        -0.50036E+08
 
   -0.49813E+08         0.68269E+06         0.00000E+00
    0.68269E+06        -0.50405E+08         0.00000E+00
    0.00000E+00         0.00000E+00        -0.50044E+08
 
   -0.49850E+08         0.68728E+06         0.00000E+00
    0.68728E+06        -0.50402E+08         0.00000E+00
    0.00000E+00         0.00000E+00        -0.50050E+08
 
   -0.49886E+08         0.69025E+06         0.00000E+00
    0.69025E+06        -0.50398E+08         0.00000E+00
    0.00000E+00         0.00000E+00        -0.50057E+08
 
   -0.49920E+08         0.69147E+06         0.00000E+00
    0.69147E+06        -0.50392E+08         0.00000E+00
    0.00000E+00         0.00000E+00        -0.50062E+08
 
   -0.49952E+08         0.69081E+06         0.00000E+00
    0.69081E+06        -0.50386E+08         0.00000E+00
    0.00000E+00         0.00000E+00        -0.50068E+08
 
   -0.49983E+08         0.68817E+06         0.00000E+00
    0.68817E+06        -0.50379E+08         0.00000E+00
    0.00000E+00         0.00000E+00        -0.50072E+08
 
   -0.50011E+08         0.68349E+06         0.00000E+00
    0.68349E+06        -0.50371E+08         0.00000E+00
    0.00000E+00         0.00000E+00        -0.50076E+08
 
   -0.50036E+08         0.67672E+06         0.00000E+00
    0.67672E+06        -0.50363E+08         0.00000E+00
    0.00000E+00         0.00000E+00        -0.50080E+08
 
   -0.50059E+08         0.66786E+06         0.00000E+00
    0.66786E+06        -0.50356E+08         0.00000E+00
    0.00000E+00         0.00000E+00        -0.50083E+08
 
   -0.50077E+08         0.65694E+06         0.00000E+00
    0.65694E+06        -0.50348E+08         0.00000E+00
    0.00000E+00         0.00000E+00        -0.50085E+08
 
   -0.46876E+08         0.33793E+05         0.00000E+00
    0.33793E+05        -0.50000E+08         0.00000E+00
    0.00000E+00         0.00000E+00        -0.49375E+08
 
   -0.47014E+08         0.85686E+05         0.00000E+00
    0.85686E+05        -0.50000E+08         0.00000E+00
    0.00000E+00         0.00000E+00        -0.49403E+08
 
   -0.47150E+08         0.13124E+06         0.00000E+00
    0.13124E+06        -0.50001E+08         0.00000E+00
    0.00000E+00         0.00000E+00        -0.49430E+08
 
   -0.47283E+08         0.17081E+06         0.00000E+00
    0.17081E+06        -0.50004E+08         0.00000E+00
    0.00000E+00         0.00000E+00        -0.49457E+08
 
   -0.47414E+08         0.20478E+06         0.00000E+00
    0.20478E+06        -0.50008E+08         0.00000E+00
    0.00000E+00         0.00000E+00        -0.49484E+08
 
   -0.47540E+08         0.23357E+06         0.00000E+00
    0.23357E+06        -0.50014E+08         0.00000E+00
    0.00000E+00         0.00000E+00        -0.49511E+08
 
   -0.47663E+08         0.25764E+06         0.00000E+00
    0.25764E+06        -0.50022E+08         0.00000E+00
    0.00000E+00         0.00000E+00        -0.49537E+08
 
   -0.47781E+08         0.27746E+06         0.00000E+00
    0.27746E+06        -0.50032E+08         0.00000E+00
    0.00000E+00         0.00000E+00        -0.49563E+08
 
   -0.47895E+08         0.29352E+06         0.00000E+00
    0.29352E+06        -0.50045E+08         0.00000E+00
    0.00000E+00         0.00000E+00        -0.49588E+08
 
   -0.48004E+08         0.30633E+06         0.00000E+00
    0.30633E+06        -0.50059E+08         0.00000E+00
    0.00000E+00         0.00000E+00        -0.49613E+08
 
   -0.48108E+08         0.31639E+06         0.00000E+00
    0.31639E+06        -0.50076E+08         0.00000E+00
    0.00000E+00         0.00000E+00        -0.49637E+08
 
   -0.48207E+08         0.32418E+06         0.00000E+00
    0.32418E+06        -0.50096E+08         0.00000E+00
    0.00000E+00         0.00000E+00        -0.49660E+08
 
   -0.48300E+08         0.33020E+06         0.00000E+00
    0.33020E+06        -0.50117E+08         0.00000E+00
    0.00000E+00         0.00000E+00        -0.49683E+08
 
   -0.48388E+08         0.33490E+06         0.00000E+00
    0.33490E+06        -0.50140E+08         0.00000E+00
    0.00000E+00         0.00000E+00        -0.49706E+08
 
   -0.48472E+08         0.33871E+06         0.00000E+00
    0.33871E+06        -0.50166E+08         0.00000E+00
    0.00000E+00         0.00000E+00        -0.49727E+08
 
   -0.48550E+08         0.34206E+06         0.00000E+00
    0.34206E+06        -0.50193E+08         0.00000E+00
    0.00000E+00         0.00000E+00        -0.49748E+08
 
   -0.48624E+08         0.34531E+06         0.00000E+00
    0.34531E+06        -0.50221E+08         0.00000E+00
    0.00000E+00         0.00000E+00        -0.49769E+08
 
   -0.48693E+08         0.34879E+06         0.00000E+00
    0.34879E+06        -0.50251E+08         0.00000E+00
    0.00000E+00         0.00000E+00        -0.49789E+08
 
   -0.48758E+08         0.35282E+06         0.00000E+00
    0.35282E+06        -0.50282E+08         0.00000E+00
    0.00000E+00         0.00000E+00        -0.49808E+08
 
   -0.48819E+08         0.35766E+06         0.00000E+00
    0.35766E+06        -0.50314E+08         0.00000E+00
    0.00000E+00         0.00000E+00        -0.49827E+08
 
   -0.48877E+08         0.36352E+06         0.00000E+00
    0.36352E+06        -0.50347E+08         0.00000E+00
    0.00000E+00         0.00000E+00        -0.49845E+08
 
   -0.48931E+08         0.37058E+06         0.00000E+00
    0.37058E+06        -0.50379E+08         0.00000E+00
    0.00000E+00         0.00000E+00        -0.49862E+08
 
   -0.48983E+08         0.37899E+06         0.00000E+00
    0.37899E+06        -0.50412E+08         0.00000E+00
    0.00000E+00         0.00000E+00        -0.49879E+08
 
   -0.49032E+08         0.38883E+06         0.00000E+00
    0.38883E+06        -0.50444E+08         0.00000E+00
    0.00000E+00         0.00000E+00        -0.49895E+08
 
   -0.49078E+08         0.40018E+06         0.00000E+00
    0.40018E+06        -0.50476E+08         0.00000E+00
    0.00000E+00         0.00000E+00        -0.49911E+08
 
   -0.49123E+08         0.41303E+06         0.00000E+00
    0.41303E+06        -0.50507E+08         0.00000E+00
    0.00000E+00         0.00000E+00        -0.49926E+08
 
   -0.49166E+08         0.42738E+06         0.00000E+00
    0.42738E+06        -0.50537E+08         0.00000E+00
    0.00000E+00         0.00000E+00        -0.49941E+08
 
   -0.49209E+08         0.44317E+06         0.00000E+00
    0.44317E+06        -0.50566E+08         0.00000E+00
    0.00000E+00         0.00000E+00        -0.49955E+08
 
   -0.49250E+08         0.46030E+06         0.00000E+00
    0.46030E+06        -0.50593E+08         0.00000E+00
    0.00000E+00         0.00000E+00        -0.49968E+08
 
   -0.49291E+08         0.47864E+06         0.00000E+00
    0.47864E+06        -0.50619E+08         0.00000E+00
    0.00000E+00         0.00000E+00        -0.49982E+08
 
   -0.49332E+08         0.49803E+06         0.00000E+00
    0.49803E+06        -0.50642E+08         0.00000E+00
    0.00000E+00         0.00000E+00        -0.49995E+08
 
   -0.49373E+08         0.51829E+06         0.00000E+00
    0.51829E+06        -0.50664E+08         0.00000E+00
    0.00000E+00         0.00000E+00        -0.50007E+08
 
   -0.49414E+08         0.53918E+06         0.00000E+00
    0.53918E+06        -0.50683E+08         0.00000E+00
    0.00000E+00         0.00000E+00        -0.50019E+08
 
   -0.49455E+08         0.56047E+06         0.00000E+00
    0.56047E+06        -0.50699E+08         0.00000E+00
    0.00000E+00         0.00000E+00        -0.50031E+08
 
   -0.49497E+08         0.58189E+06         0.00000E+00
    0.58189E+06        -0.50713E+08         0.00000E+00
    0.00000E+00         0.00000E+00        -0.50042E+08
 
   -0.49540E+08         0.60314E+06         0.00000E+00
    0.60314E+06        -0.50725E+08         0.00000E+00
    0.00000E+00         0.00000E+00        -0.50053E+08
 
   -0.49584E+08         0.62392E+06         0.00000E+00
    0.62392E+06        -0.50733E+08         0.00000E+00
    0.00000E+00         0.00000E+00        -0.50063E+08
 
   -0.49628E+08         0.64391E+06         0.00000E+00
    0.64391E+06        -0.50739E+08         0.00000E+00
    0.00000E+00         0.00000E+00        -0.50073E+08
 
   -0.49673E+08         0.66277E+06         0.00000E+00
    0.66277E+06        -0.50743E+08         0.00000E+00
    0.00000E+00         0.00000E+00        -0.50083E+08
 
   -0.49718E+08         0.68017E+06         0.00000E+00
    0.68017E+06        -0.50743E+08         0.00000E+00
    0.00000E+00         0.00000E+00        -0.50092E+08
 
   -0.49765E+08         0.69577E+06         0.00000E+00
    0.69577E+06        -0.50741E+08         0.00000E+00
    0.00000E+00         0.00000E+00        -0.50101E+08
 
   -0.49811E+08         0.70925E+06         0.00000E+00
    0.70925E+06        -0.50737E+08         0.00000E+00
    0.00000E+00         0.00000E+00        -0.50109E+08
 
   -0.49857E+08         0.72028E+06         0.00000E+00
    0.72028E+06        -0.50731E+08         0.00000E+00
    0.00000E+00         0.00000E+00        -0.50117E+08
 
   -0.49903E+08         0.72857E+06         0.00000E+00
    0.72857E+06        -0.50722E+08         0.00000E+00
    0.00000E+00         0.00000E+00        -0.50125E+08
 
   -0.49948E+08         0.73383E+06         0.00000E+00
    0.73383E+06        -0.50712E+08         0.00000E+00
    0.00000E+00         0.00000E+00        -0.50132E+08
 
   -0.49992E+08         0.73583E+06         0.00000E+00
    0.73583E+06        -0.50700E+08         0.00000E+00
    0.00000E+00         0.00000E+00        -0.50138E+08
 
   -0.50034E+08         0.73436E+06         0.00000E+00
    0.73436E+06        -0.50687E+08         0.00000E+00
    0.00000E+00         0.00000E+00        -0.50144E+08
 
   -0.50073E+08         0.72924E+06         0.00000E+00
    0.72924E+06        -0.50673E+08         0.00000E+00
    0.00000E+00         0.00000E+00        -0.50149E+08
 
   -0.50110E+08         0.72038E+06         0.00000E+00
    0.72038E+06        -0.50659E+08         0.00000E+00
    0.00000E+00         0.00000E+00        -0.50154E+08
 
   -0.50143E+08         0.70771E+06         0.00000E+00
    0.70771E+06        -0.50644E+08         0.00000E+00
    0.00000E+00         0.00000E+00        -0.50157E+08
 
   -0.46612E+08         0.32931E+05         0.00000E+00
    0.32931E+05        -0.49999E+08         0.00000E+00
    0.00000E+00         0.00000E+00        -0.49321E+08
 
   -0.46787E+08         0.78372E+05         0.00000E+00
    0.78372E+05        -0.50000E+08         0.00000E+00
    0.00000E+00         0.00000E+00        -0.49357E+08
 
   -0.46958E+08         0.11560E+06         0.00000E+00
    0.11560E+06        -0.50003E+08         0.00000E+00
    0.00000E+00         0.00000E+00        -0.49391E+08
 
   -0.47124E+08         0.14516E+06         0.00000E+00
    0.14516E+06        -0.50008E+08         0.00000E+00
    0.00000E+00         0.00000E+00        -0.49426E+08
 
   -0.47285E+08         0.16766E+06         0.00000E+00
    0.16766E+06        -0.50017E+08         0.00000E+00
    0.00000E+00         0.00000E+00        -0.49459E+08
 
   -0.47439E+08         0.18379E+06         0.00000E+00
    0.18379E+06        -0.50028E+08         0.00000E+00
    0.00000E+00         0.00000E+00        -0.49492E+08
 
   -0.47586E+08         0.19428E+06         0.00000E+00
    0.19428E+06        -0.50043E+08         0.00000E+00
    0.00000E+00         0.00000E+00        -0.49525E+08
 
   -0.47725E+08         0.19992E+06         0.00000E+00
    0.19992E+06        -0.50062E+08         0.00000E+00
    0.00000E+00         0.00000E+00        -0.49556E+08
 
   -0.47857E+08         0.20148E+06         0.00000E+00
    0.20148E+06        -0.50084E+08         0.00000E+00
    0.00000E+00         0.00000E+00        -0.49587E+08
 
   -0.47981E+08         0.19975E+06         0.00000E+00
    0.19975E+06        -0.50110E+08         0.00000E+00
    0.00000E+00         0.00000E+00        -0.49617E+08
 
   -0.48096E+08         0.19552E+06         0.00000E+00
    0.19552E+06        -0.50139E+08         0.00000E+00
    0.00000E+00         0.00000E+00        -0.49646E+08
 
   -0.48203E+08         0.18954E+06         0.00000E+00
    0.18954E+06        -0.50172E+08         0.00000E+00
    0.00000E+00         0.00000E+00        -0.49674E+08
 
   -0.48303E+08         0.18251E+06         0.00000E+00
    0.18251E+06        -0.50209E+08         0.00000E+00
    0.00000E+00         0.00000E+00        -0.49701E+08
 
   -0.48394E+08         0.17512E+06         0.00000E+00
    0.17512E+06        -0.50248E+08         0.00000E+00
    0.00000E+00         0.00000E+00        -0.49727E+08
 
   -0.48478E+08         0.16797E+06         0.00000E+00
    0.16797E+06        -0.50290E+08         0.00000E+00
    0.00000E+00         0.00000E+00        -0.49753E+08
 
   -0.48555E+08         0.16163E+06         0.00000E+00
    0.16163E+06        -0.50335E+08         0.00000E+00
    0.00000E+00         0.00000E+00        -0.49777E+08
 
   -0.48625E+08         0.15659E+06         0.00000E+00
    0.15659E+06        -0.50381E+08         0.00000E+00
    0.00000E+00         0.00000E+00        -0.49800E+08
 
   -0.48688E+08         0.15329E+06         0.00000E+00
    0.15329E+06        -0.50429E+08         0.00000E+00
    0.00000E+00         0.00000E+00        -0.49823E+08
 
   -0.48746E+08         0.15210E+06         0.00000E+00
    0.15210E+06        -0.50479E+08         0.00000E+00
    0.00000E+00         0.00000E+00        -0.49844E+08
 
   -0.48799E+08         0.15334E+06         0.00000E+00
    0.15334E+06        -0.50529E+08         0.00000E+00
    0.00000E+00         0.00000E+00        -0.49865E+08
 
   -0.48847E+08         0.15724E+06         0.00000E+00
    0.15724E+06        -0.50580E+08         0.00000E+00
    0.00000E+00         0.00000E+00        -0.49885E+08
 
   -0.48891E+08         0.16401E+06         0.00000E+00
    0.16401E+06        -0.50631E+08         0.00000E+00
    0.00000E+00         0.00000E+00        -0.49904E+08
 
   -0.48932E+08         0.17375E+06         0.00000E+00
    0.17375E+06        -0.50682E+08         0.00000E+00
    0.00000E+00         0.00000E+00        -0.49922E+08
 
   -0.48969E+08         0.18657E+06         0.00000E+00
    0.18657E+06        -0.50732E+08         0.00000E+00
    0.00000E+00         0.00000E+00        -0.49939E+08
 
   -0.49005E+08         0.20246E+06         0.00000E+00
    0.20246E+06        -0.50782E+08         0.00000E+00
    0.00000E+00         0.00000E+00        -0.49956E+08
 
   -0.49038E+08         0.22141E+06         0.00000E+00
    0.22141E+06        -0.50829E+08         0.00000E+00
    0.00000E+00         0.00000E+00        -0.49973E+08
 
   -0.49071E+08         0.24333E+06         0.00000E+00
    0.24333E+06        -0.50875E+08         0.00000E+00
    0.00000E+00         0.00000E+00        -0.49988E+08
 
   -0.49103E+08         0.26811E+06         0.00000E+00
    0.26811E+06        -0.50919E+08         0.00000E+00
    0.00000E+00         0.00000E+00        -0.50003E+08
 
   -0.49135E+08         0.29556E+06         0.00000E+00
    0.29556E+06        -0.50961E+08         0.00000E+00
    0.00000E+00         0.00000E+00        -0.50018E+08
 
   -0.49167E+08         0.32547E+06         0.00000E+00
    0.32547E+06        -0.51000E+08         0.00000E+00
    0.00000E+00         0.00000E+00        -0.50032E+08
 
   -0.49201E+08         0.35759E+06         0.00000E+00
    0.35759E+06        -0.51036E+08         0.00000E+00
    0.00000E+00         0.00000E+00        -0.50046E+08
 
   -0.49235E+08         0.39162E+06         0.00000E+00
    0.39162E+06        -0.51068E+08         0.00000E+00
    0.00000E+00         0.00000E+00        -0.50060E+08
 
   -0.49272E+08         0.42721E+06         0.00000E+00
    0.42721E+06        -0.51098E+08         0.00000E+00
    0.00000E+00         0.00000E+00        -0.50073E+08
 
   -0.49310E+08         0.46398E+06         0.00000E+00
    0.46398E+06        -0.51123E+08         0.00000E+00
    0.00000E+00         0.00000E+00        -0.50086E+08
 
   -0.49351E+08         0.50153E+06         0.00000E+00
    0.50153E+06        -0.51145E+08         0.00000E+00
    0.00000E+00         0.00000E+00        -0.50098E+08
 
   -0.49395E+08         0.53939E+06         0.00000E+00
    0.53939E+06        -0.51163E+08         0.00000E+00
    0.00000E+00         0.00000E+00        -0.50111E+08
 
   -0.49441E+08         0.57707E+06         0.00000E+00
    0.57707E+06        -0.51176E+08         0.00000E+00
    0.00000E+00         0.00000E+00        -0.50122E+08
 
   -0.49490E+08         0.61407E+06         0.00000E+00
    0.61407E+06        -0.51186E+08         0.00000E+00
    0.00000E+00         0.00000E+00        -0.50134E+08
 
   -0.49542E+08         0.64984E+06         0.00000E+00
    0.64984E+06        -0.51191E+08         0.00000E+00
    0.00000E+00         0.00000E+00        -0.50146E+08
 
   -0.49597E+08         0.68382E+06         0.00000E+00
    0.68382E+06        -0.51192E+08         0.00000E+00
    0.00000E+00         0.00000E+00        -0.50157E+08
 
   -0.49655E+08         0.71543E+06         0.00000E+00
    0.71543E+06        -0.51189E+08         0.00000E+00
    0.00000E+00         0.00000E+00        -0.50168E+08
 
   -0.49715E+08         0.74409E+06         0.00000E+00
    0.74409E+06        -0.51181E+08         0.00000E+00
    0.00000E+00         0.00000E+00        -0.50178E+08
 
   -0.49777E+08         0.76923E+06         0.00000E+00
    0.76923E+06        -0.51171E+08         0.00000E+00
    0.00000E+00         0.00000E+00        -0.50189E+08
 
   -0.49841E+08         0.79026E+06         0.00000E+00
    0.79026E+06        -0.51156E+08         0.00000E+00
    0.00000E+00         0.00000E+00        -0.50198E+08
 
   -0.49906E+08         0.80665E+06         0.00000E+00
    0.80665E+06        -0.51139E+08         0.00000E+00
    0.00000E+00         0.00000E+00        -0.50208E+08
 
   -0.49971E+08         0.81790E+06         0.00000E+00
    0.81790E+06        -0.51118E+08         0.00000E+00
    0.00000E+00         0.00000E+00        -0.50217E+08
 
   -0.50036E+08         0.82352E+06         0.00000E+00
    0.82352E+06        -0.51096E+08         0.00000E+00
    0.00000E+00         0.00000E+00        -0.50225E+08
 
   -0.50101E+08         0.82313E+06         0.00000E+00
    0.82313E+06        -0.51071E+08         0.00000E+00
    0.00000E+00         0.00000E+00        -0.50233E+08
 
   -0.50163E+08         0.81639E+06         0.00000E+00
    0.81639E+06        -0.51046E+08         0.00000E+00
    0.00000E+00         0.00000E+00        -0.50241E+08
 
   -0.50222E+08         0.80306E+06         0.00000E+00
    0.80306E+06        -0.51020E+08         0.00000E+00
    0.00000E+00         0.00000E+00        -0.50247E+08
 
   -0.46387E+08         0.31032E+05         0.00000E+00
    0.31032E+05        -0.49999E+08         0.00000E+00
    0.00000E+00         0.00000E+00        -0.49273E+08
 
   -0.46612E+08         0.64385E+05         0.00000E+00
    0.64385E+05        -0.50000E+08         0.00000E+00
    0.00000E+00         0.00000E+00        -0.49318E+08
 
   -0.46830E+08         0.86398E+05         0.00000E+00
    0.86398E+05        -0.50005E+08         0.00000E+00
    0.00000E+00         0.00000E+00        -0.49362E+08
 
   -0.47038E+08         0.98039E+05         0.00000E+00
    0.98039E+05        -0.50015E+08         0.00000E+00
    0.00000E+00         0.00000E+00        -0.49406E+08
 
   -0.47237E+08         0.10048E+06         0.00000E+00
    0.10048E+06        -0.50030E+08         0.00000E+00
    0.00000E+00         0.00000E+00        -0.49449E+08
 
   -0.47424E+08         0.94956E+05         0.00000E+00
    0.94956E+05        -0.50050E+08         0.00000E+00
    0.00000E+00         0.00000E+00        -0.49490E+08
 
   -0.47599E+08         0.82784E+05         0.00000E+00
    0.82784E+05        -0.50076E+08         0.00000E+00
    0.00000E+00         0.00000E+00        -0.49530E+08
 
   -0.47761E+08         0.65289E+05         0.00000E+00
    0.65289E+05        -0.50108E+08         0.00000E+00
    0.00000E+00         0.00000E+00        -0.49569E+08
 
   -0.47910E+08         0.43792E+05         0.00000E+00
    0.43792E+05        -0.50145E+08         0.00000E+00
    0.00000E+00         0.00000E+00        -0.49607E+08
 
   -0.48047E+08         0.19569E+05         0.00000E+00
    0.19569E+05        -0.50189E+08         0.00000E+00
    0.00000E+00         0.00000E+00        -0.49642E+08
 
   -0.48170E+08        -0.61696E+04         0.00000E+00
   -0.61696E+04        -0.50237E+08         0.00000E+00
    0.00000E+00         0.00000E+00        -0.49677E+08
 
   -0.48281E+08        -0.32302E+05         0.00000E+00
   -0.32302E+05        -0.50291E+08         0.00000E+00
    0.00000E+00         0.00000E+00        -0.49710E+08
 
   -0.48380E+08        -0.57807E+05         0.00000E+00
   -0.57807E+05        -0.50349E+08         0.00000E+00
    0.00000E+00         0.00000E+00        -0.49741E+08
 
   -0.48467E+08        -0.81768E+05         0.00000E+00
   -0.81768E+05        -0.50411E+08         0.00000E+00
    0.00000E+00         0.00000E+00        -0.49771E+08
 
   -0.48543E+08        -0.10338E+06         0.00000E+00
   -0.10338E+06        -0.50476E+08         0.00000E+00
    0.00000E+00         0.00000E+00        -0.49799E+08
 
   -0.48609E+08        -0.12196E+06         0.00000E+00
   -0.12196E+06        -0.50544E+08         0.00000E+00
    0.00000E+00         0.00000E+00        -0.49826E+08
 
   -0.48666E+08        -0.13692E+06         0.00000E+00
   -0.13692E+06        -0.50615E+08         0.00000E+00
    0.00000E+00         0.00000E+00        -0.49852E+08
 
   -0.48714E+08        -0.14778E+06         0.00000E+00
   -0.14778E+06        -0.50687E+08         0.00000E+00
    0.00000E+00         0.00000E+00        -0.49876E+08
 
   -0.48755E+08        -0.15416E+06         0.00000E+00
   -0.15416E+06        -0.50760E+08         0.00000E+00
    0.00000E+00         0.00000E+00        -0.49899E+08
 
   -0.48790E+08        -0.15577E+06         0.00000E+00
   -0.15577E+06        -0.50834E+08         0.00000E+00
    0.00000E+00         0.00000E+00        -0.49920E+08
 
   -0.48819E+08        -0.15242E+06         0.00000E+00
   -0.15242E+06        -0.50908E+08         0.00000E+00
    0.00000E+00         0.00000E+00        -0.49941E+08
 
   -0.48843E+08        -0.14397E+06         0.00000E+00
   -0.14397E+06        -0.50982E+08         0.00000E+00
    0.00000E+00         0.00000E+00        -0.49960E+08
 
   -0.48863E+08        -0.13035E+06         0.00000E+00
   -0.13035E+06        -0.51054E+08         0.00000E+00
    0.00000E+00         0.00000E+00        -0.49979E+08
 
   -0.48880E+08        -0.11158E+06         0.00000E+00
   -0.11158E+06        -0.51126E+08         0.00000E+00
    0.00000E+00         0.00000E+00        -0.49997E+08
 
   -0.48896E+08        -0.87716E+05         0.00000E+00
   -0.87716E+05        -0.51195E+08         0.00000E+00
    0.00000E+00         0.00000E+00        -0.50013E+08
 
   -0.48910E+08        -0.58860E+05         0.00000E+00
   -0.58860E+05        -0.51262E+08         0.00000E+00
    0.00000E+00         0.00000E+00        -0.50030E+08
 
   -0.48923E+08        -0.25178E+05         0.00000E+00
   -0.25178E+05        -0.51326E+08         0.00000E+00
    0.00000E+00         0.00000E+00        -0.50045E+08
 
   -0.48937E+08         0.13124E+05         0.00000E+00
    0.13124E+05        -0.51388E+08         0.00000E+00
    0.00000E+00         0.00000E+00        -0.50060E+08
 
   -0.48953E+08         0.55792E+05         0.00000E+00
    0.55792E+05        -0.51446E+08         0.00000E+00
    0.00000E+00         0.00000E+00        -0.50075E+08
 
   -0.48970E+08         0.10253E+06         0.00000E+00
    0.10253E+06        -0.51500E+08         0.00000E+00
    0.00000E+00         0.00000E+00        -0.50089E+08
 
   -0.48989E+08         0.15299E+06         0.00000E+00
    0.15299E+06        -0.51550E+08         0.00000E+00
    0.00000E+00         0.00000E+00        -0.50103E+08
 
   -0.49012E+08         0.20678E+06         0.00000E+00
    0.20678E+06        -0.51596E+08         0.00000E+00
    0.00000E+00         0.00000E+00        -0.50117E+08
 
   -0.49039E+08         0.26345E+06         0.00000E+00
    0.26345E+06        -0.51637E+08         0.00000E+00
    0.00000E+00         0.00000E+00        -0.50130E+08
 
   -0.49070E+08         0.32252E+06         0.00000E+00
    0.32252E+06        -0.51673E+08         0.00000E+00
    0.00000E+00         0.00000E+00        -0.50144E+08
 
   -0.49105E+08         0.38341E+06         0.00000E+00
    0.38341E+06        -0.51703E+08         0.00000E+00
    0.00000E+00         0.00000E+00        -0.50157E+08
 
   -0.49147E+08         0.44553E+06         0.00000E+00
    0.44553E+06        -0.51728E+08         0.00000E+00
    0.00000E+00         0.00000E+00        -0.50170E+08
 
   -0.49194E+08         0.50819E+06         0.00000E+00
    0.50819E+06        -0.51748E+08         0.00000E+00
    0.00000E+00         0.00000E+00        -0.50184E+08
 
   -0.49247E+08         0.57067E+06         0.00000E+00
    0.57067E+06        -0.51761E+08         0.00000E+00
    0.00000E+00         0.00000E+00        -0.50197E+08
 
   -0.49306E+08         0.63217E+06         0.00000E+00
    0.63217E+06        -0.51768E+08         0.00000E+00
    0.00000E+00         0.00000E+00        -0.50210E+08
 
   -0.49372E+08         0.69184E+06         0.00000E+00
    0.69184E+06        -0.51769E+08         0.00000E+00
    0.00000E+00         0.00000E+00        -0.50224E+08
 
   -0.49445E+08         0.74877E+06         0.00000E+00
    0.74877E+06        -0.51763E+08         0.00000E+00
    0.00000E+00         0.00000E+00        -0.50237E+08
 
   -0.49523E+08         0.80201E+06         0.00000E+00
    0.80201E+06        -0.51752E+08         0.00000E+00
    0.00000E+00         0.00000E+00        -0.50250E+08
 
   -0.49608E+08         0.85057E+06         0.00000E+00
    0.85057E+06        -0.51734E+08         0.00000E+00
    0.00000E+00         0.00000E+00        -0.50264E+08
 
   -0.49698E+08         0.89345E+06         0.00000E+00
    0.89345E+06        -0.51711E+08         0.00000E+00
    0.00000E+00         0.00000E+00        -0.50277E+08
 
   -0.49793E+08         0.92963E+06         0.00000E+00
    0.92963E+06        -0.51682E+08         0.00000E+00
    0.00000E+00         0.00000E+00        -0.50290E+08
 
   -0.49892E+08         0.95813E+06         0.00000E+00
    0.95813E+06        -0.51648E+08         0.00000E+00
    0.00000E+00         0.00000E+00        -0.50303E+08
 
   -0.49995E+08         0.97800E+06         0.00000E+00
    0.97800E+06        -0.51609E+08         0.00000E+00
    0.00000E+00         0.00000E+00        -0.50316E+08
 
   -0.50099E+08         0.98834E+06         0.00000E+00
    0.98834E+06        -0.51568E+08         0.00000E+00
    0.00000E+00         0.00000E+00        -0.50329E+08
 
   -0.50203E+08         0.98834E+06         0.00000E+00
    0.98834E+06        -0.51523E+08         0.00000E+00
    0.00000E+00         0.00000E+00        -0.50341E+08
 
   -0.50306E+08         0.97738E+06         0.00000E+00
    0.97738E+06        -0.51477E+08         0.00000E+00
    0.00000E+00         0.00000E+00        -0.50352E+08
 
   -0.46233E+08         0.27749E+05         0.00000E+00
    0.27749E+05        -0.49997E+08         0.00000E+00
    0.00000E+00         0.00000E+00        -0.49225E+08
 
   -0.46530E+08         0.38861E+05         0.00000E+00
    0.38861E+05        -0.50000E+08         0.00000E+00
    0.00000E+00         0.00000E+00        -0.49285E+08
 
   -0.46813E+08         0.33231E+05         0.00000E+00
    0.33231E+05        -0.50010E+08         0.00000E+00
    0.00000E+00         0.00000E+00        -0.49344E+08
 
   -0.47079E+08         0.13245E+05         0.00000E+00
    0.13245E+05        -0.50028E+08         0.00000E+00
    0.00000E+00         0.00000E+00        -0.49400E+08
 
   -0.47325E+08        -0.18753E+05         0.00000E+00
   -0.18753E+05        -0.50055E+08         0.00000E+00
    0.00000E+00         0.00000E+00        -0.49455E+08
 
   -0.47551E+08        -0.60285E+05         0.00000E+00
   -0.60285E+05        -0.50091E+08         0.00000E+00
    0.00000E+00         0.00000E+00        -0.49508E+08
 
   -0.47756E+08        -0.10887E+06         0.00000E+00
   -0.10887E+06        -0.50137E+08         0.00000E+00
    0.00000E+00         0.00000E+00        -0.49558E+08
 
   -0.47940E+08        -0.16215E+06         0.00000E+00
   -0.16215E+06        -0.50191E+08         0.00000E+00
    0.00000E+00         0.00000E+00        -0.49605E+08
 
   -0.48102E+08        -0.21791E+06         0.00000E+00
   -0.21791E+06        -0.50254E+08         0.00000E+00
    0.00000E+00         0.00000E+00        -0.49650E+08
 
   -0.48243E+08        -0.27417E+06         0.00000E+00
   -0.27417E+06        -0.50325E+08         0.00000E+00
    0.00000E+00         0.00000E+00        -0.49693E+08
 
   -0.48365E+08        -0.32918E+06         0.00000E+00
   -0.32918E+06        -0.50403E+08         0.00000E+00
    0.00000E+00         0.00000E+00        -0.49733E+08
 
   -0.48467E+08        -0.38140E+06         0.00000E+00
   -0.38140E+06        -0.50487E+08         0.00000E+00
    0.00000E+00         0.00000E+00        -0.49770E+08
 
   -0.48552E+08        -0.42955E+06         0.00000E+00
   -0.42955E+06        -0.50575E+08         0.00000E+00
    0.00000E+00         0.00000E+00        -0.49805E+08
 
   -0.48621E+08        -0.47257E+06         0.00000E+00
   -0.47257E+06        -0.50668E+08         0.00000E+00
    0.00000E+00         0.00000E+00        -0.49837E+08
 
   -0.48676E+08        -0.50960E+06         0.00000E+00
   -0.50960E+06        -0.50765E+08         0.00000E+00
    0.00000E+00         0.00000E+00        -0.49867E+08
 
   -0.48717E+08        -0.54001E+06         0.00000E+00
   -0.54001E+06        -0.50863E+08         0.00000E+00
    0.00000E+00         0.00000E+00        -0.49895E+08
 
   -0.48746E+08        -0.56331E+06         0.00000E+00
   -0.56331E+06        -0.50963E+08         0.00000E+00
    0.00000E+00         0.00000E+00        -0.49921E+08
 
   -0.48766E+08        -0.57918E+06         0.00000E+00
   -0.57918E+06        -0.51064E+08         0.00000E+00
    0.00000E+00         0.00000E+00        -0.49945E+08
 
   -0.48776E+08        -0.58743E+06         0.00000E+00
   -0.58743E+06        -0.51164E+08         0.00000E+00
    0.00000E+00         0.00000E+00        -0.49967E+08
 
   -0.48779E+08        -0.58796E+06         0.00000E+00
   -0.58796E+06        -0.51264E+08         0.00000E+00
    0.00000E+00         0.00000E+00        -0.49988E+08
 
   -0.48777E+08        -0.58077E+06         0.00000E+00
   -0.58077E+06        -0.51363E+08         0.00000E+00
    0.00000E+00         0.00000E+00        -0.50007E+08
 
   -0.48769E+08        -0.56594E+06         0.00000E+00
   -0.56594E+06        -0.51459E+08         0.00000E+00
    0.00000E+00         0.00000E+00        -0.50025E+08
 
   -0.48758E+08        -0.54358E+06         0.00000E+00
   -0.54358E+06        -0.51554E+08         0.00000E+00
    0.00000E+00         0.00000E+00        -0.50042E+08
 
   -0.48745E+08        -0.51386E+06         0.00000E+00
   -0.51386E+06        -0.51646E+08         0.00000E+00
    0.00000E+00         0.00000E+00        -0.50057E+08
 
   -0.48730E+08        -0.47699E+06         0.00000E+00
   -0.47699E+06        -0.51735E+08         0.00000E+00
    0.00000E+00         0.00000E+00        -0.50072E+08
 
   -0.48715E+08        -0.43318E+06         0.00000E+00
   -0.43318E+06        -0.51820E+08         0.00000E+00
    0.00000E+00         0.00000E+00        -0.50086E+08
 
   -0.48700E+08        -0.38269E+06         0.00000E+00
   -0.38269E+06        -0.51902E+08         0.00000E+00
    0.00000E+00         0.00000E+00        -0.50100E+08
 
   -0.48688E+08        -0.32580E+06         0.00000E+00
   -0.32580E+06        -0.51979E+08         0.00000E+00
    0.00000E+00         0.00000E+00        -0.50113E+08
 
   -0.48677E+08        -0.26281E+06         0.00000E+00
   -0.26281E+06        -0.52053E+08         0.00000E+00
    0.00000E+00         0.00000E+00        -0.50125E+08
 
   -0.48671E+08        -0.19402E+06         0.00000E+00
   -0.19402E+06        -0.52121E+08         0.00000E+00
    0.00000E+00         0.00000E+00        -0.50138E+08
 
   -0.48669E+08        -0.11981E+06         0.00000E+00
   -0.11981E+06        -0.52185E+08         0.00000E+00
    0.00000E+00         0.00000E+00        -0.50150E+08
 
   -0.48672E+08        -0.40573E+05         0.00000E+00
   -0.40573E+05        -0.52244E+08         0.00000E+00
    0.00000E+00         0.00000E+00        -0.50162E+08
 
   -0.48681E+08         0.43258E+05         0.00000E+00
    0.43258E+05        -0.52296E+08         0.00000E+00
    0.00000E+00         0.00000E+00        -0.50175E+08
 
   -0.48698E+08         0.13117E+06         0.00000E+00
    0.13117E+06        -0.52343E+08         0.00000E+00
    0.00000E+00         0.00000E+00        -0.50187E+08
 
   -0.48722E+08         0.22259E+06         0.00000E+00
    0.22259E+06        -0.52383E+08         0.00000E+00
    0.00000E+00         0.00000E+00        -0.50200E+08
 
   -0.48755E+08         0.31686E+06         0.00000E+00
    0.31686E+06        -0.52416E+08         0.00000E+00
    0.00000E+00         0.00000E+00        -0.50214E+08
 
   -0.48798E+08         0.41322E+06         0.00000E+00
    0.41322E+06        -0.52442E+08         0.00000E+00
    0.00000E+00         0.00000E+00        -0.50227E+08
 
   -0.48851E+08         0.51079E+06         0.00000E+00
    0.51079E+06        -0.52461E+08         0.00000E+00
    0.00000E+00         0.00000E+00        -0.50242E+08
 
   -0.48916E+08         0.60858E+06         0.00000E+00
    0.60858E+06        -0.52471E+08         0.00000E+00
    0.00000E+00         0.00000E+00        -0.50256E+08
 
   -0.48992E+08         0.70547E+06         0.00000E+00
    0.70547E+06        -0.52473E+08         0.00000E+00
    0.00000E+00         0.00000E+00        -0.50272E+08
 
   -0.49079E+08         0.80018E+06         0.00000E+00
    0.80018E+06        -0.52465E+08         0.00000E+00
    0.00000E+00         0.00000E+00        -0.50288E+08
 
   -0.49180E+08         0.89131E+06         0.00000E+00
    0.89131E+06        -0.52449E+08         0.00000E+00
    0.00000E+00         0.00000E+00        -0.50305E+08
 
   -0.49293E+08         0.97732E+06         0.00000E+00
    0.97732E+06        -0.52423E+08         0.00000E+00
    0.00000E+00         0.00000E+00        -0.50322E+08
 
   -0.49418E+08         0.10565E+07         0.00000E+00
    0.10565E+07        -0.52388E+08         0.00000E+00
    0.00000E+00         0.00000E+00        -0.50340E+08
 
   -0.49554E+08         0.11272E+07         0.00000E+00
    0.11272E+07        -0.52344E+08         0.00000E+00
    0.00000E+00         0.00000E+00        -0.50359E+08
 
   -0.49702E+08         0.11874E+07         0.00000E+00
    0.11874E+07        -0.52291E+08         0.00000E+00
    0.00000E+00         0.00000E+00        -0.50378E+08
 
   -0.49860E+08         0.12352E+07         0.00000E+00
    0.12352E+07        -0.52229E+08         0.00000E+00
    0.00000E+00         0.00000E+00        -0.50397E+08
 
   -0.50027E+08         0.12688E+07         0.00000E+00
    0.12688E+07        -0.52161E+08         0.00000E+00
    0.00000E+00         0.00000E+00        -0.50417E+08
 
   -0.50199E+08         0.12864E+07         0.00000E+00
    0.12864E+07        -0.52086E+08         0.00000E+00
    0.00000E+00         0.00000E+00        -0.50436E+08
 
   -0.50376E+08         0.12861E+07         0.00000E+00
    0.12861E+07        -0.52006E+08         0.00000E+00
    0.00000E+00         0.00000E+00        -0.50456E+08
 
   -0.46217E+08         0.19119E+05         0.00000E+00
    0.19119E+05        -0.49992E+08         0.00000E+00
    0.00000E+00         0.00000E+00        -0.49155E+08
 
   -0.46625E+08        -0.14865E+05         0.00000E+00
   -0.14865E+05        -0.50000E+08         0.00000E+00
    0.00000E+00         0.00000E+00        -0.49238E+08
 
   -0.47000E+08        -0.72822E+05         0.00000E+00
   -0.72822E+05        -0.50022E+08         0.00000E+00
    0.00000E+00         0.00000E+00        -0.49317E+08
 
   -0.47339E+08        -0.14986E+06         0.00000E+00
   -0.14986E+06        -0.50060E+08         0.00000E+00
    0.00000E+00         0.00000E+00        -0.49393E+08
 
   -0.47641E+08        -0.24046E+06         0.00000E+00
   -0.24046E+06        -0.50114E+08         0.00000E+00
    0.00000E+00         0.00000E+00        -0.49464E+08
 
   -0.47905E+08        -0.33961E+06         0.00000E+00
   -0.33961E+06        -0.50182E+08         0.00000E+00
    0.00000E+00         0.00000E+00        -0.49530E+08
 
   -0.48132E+08        -0.44292E+06         0.00000E+00
   -0.44292E+06        -0.50264E+08         0.00000E+00
    0.00000E+00         0.00000E+00        -0.49592E+08
 
   -0.48323E+08        -0.54657E+06         0.00000E+00
   -0.54657E+06        -0.50358E+08         0.00000E+00
    0.00000E+00         0.00000E+00        -0.49649E+08
 
   -0.48480E+08        -0.64734E+06         0.00000E+00
   -0.64734E+06        -0.50462E+08         0.00000E+00
    0.00000E+00         0.00000E+00        -0.49701E+08
 
   -0.48605E+08        -0.74258E+06         0.00000E+00
   -0.74258E+06        -0.50576E+08         0.00000E+00
    0.00000E+00         0.00000E+00        -0.49749E+08
 
   -0.48702E+08        -0.83019E+06         0.00000E+00
   -0.83019E+06        -0.50696E+08         0.00000E+00
    0.00000E+00         0.00000E+00        -0.49792E+08
 
   -0.48773E+08        -0.90857E+06         0.00000E+00
   -0.90857E+06        -0.50821E+08         0.00000E+00
    0.00000E+00         0.00000E+00        -0.49832E+08
 
   -0.48821E+08        -0.97662E+06         0.00000E+00
   -0.97662E+06        -0.50950E+08         0.00000E+00
    0.00000E+00         0.00000E+00        -0.49867E+08
 
   -0.48848E+08        -0.10336E+07         0.00000E+00
   -0.10336E+07        -0.51081E+08         0.00000E+00
    0.00000E+00         0.00000E+00        -0.49899E+08
 
   -0.48859E+08        -0.10792E+07         0.00000E+00
   -0.10792E+07        -0.51212E+08         0.00000E+00
    0.00000E+00         0.00000E+00        -0.49927E+08
 
   -0.48855E+08        -0.11131E+07         0.00000E+00
   -0.11131E+07        -0.51343E+08         0.00000E+00
    0.00000E+00         0.00000E+00        -0.49952E+08
 
   -0.48838E+08        -0.11356E+07         0.00000E+00
   -0.11356E+07        -0.51472E+08         0.00000E+00
    0.00000E+00         0.00000E+00        -0.49975E+08
 
   -0.48811E+08        -0.11469E+07         0.00000E+00
   -0.11469E+07        -0.51599E+08         0.00000E+00
    0.00000E+00         0.00000E+00        -0.49995E+08
 
   -0.48776E+08        -0.11473E+07         0.00000E+00
   -0.11473E+07        -0.51723E+08         0.00000E+00
    0.00000E+00         0.00000E+00        -0.50013E+08
 
   -0.48735E+08        -0.11372E+07         0.00000E+00
   -0.11372E+07        -0.51843E+08         0.00000E+00
    0.00000E+00         0.00000E+00        -0.50029E+08
 
   -0.48688E+08        -0.11170E+07         0.00000E+00
   -0.11170E+07        -0.51960E+08         0.00000E+00
    0.00000E+00         0.00000E+00        -0.50043E+08
 
   -0.48638E+08        -0.10872E+07         0.00000E+00
   -0.10872E+07        -0.52073E+08         0.00000E+00
    0.00000E+00         0.00000E+00        -0.50055E+08
 
   -0.48586E+08        -0.10482E+07         0.00000E+00
   -0.10482E+07        -0.52182E+08         0.00000E+00
    0.00000E+00         0.00000E+00        -0.50066E+08
 
   -0.48533E+08        -0.10004E+07         0.00000E+00
   -0.10004E+07        -0.52286E+08         0.00000E+00
    0.00000E+00         0.00000E+00        -0.50077E+08
 
   -0.48480E+08        -0.94430E+06         0.00000E+00
   -0.94430E+06        -0.52385E+08         0.00000E+00
    0.00000E+00         0.00000E+00        -0.50086E+08
 
   -0.48428E+08        -0.88012E+06         0.00000E+00
   -0.88012E+06        -0.52481E+08         0.00000E+00
    0.00000E+00         0.00000E+00        -0.50095E+08
 
   -0.48378E+08        -0.80819E+06         0.00000E+00
   -0.80819E+06        -0.52571E+08         0.00000E+00
    0.00000E+00         0.00000E+00        -0.50103E+08
 
   -0.48331E+08        -0.72880E+06         0.00000E+00
   -0.72880E+06        -0.52657E+08         0.00000E+00
    0.00000E+00         0.00000E+00        -0.50111E+08
 
   -0.48288E+08        -0.64217E+06         0.00000E+00
   -0.64217E+06        -0.52739E+08         0.00000E+00
    0.00000E+00         0.00000E+00        -0.50118E+08
 
   -0.48250E+08        -0.54851E+06         0.00000E+00
   -0.54851E+06        -0.52815E+08         0.00000E+00
    0.00000E+00         0.00000E+00        -0.50126E+08
 
   -0.48218E+08        -0.44802E+06         0.00000E+00
   -0.44802E+06        -0.52887E+08         0.00000E+00
    0.00000E+00         0.00000E+00        -0.50134E+08
 
   -0.48193E+08        -0.34090E+06         0.00000E+00
   -0.34090E+06        -0.52953E+08         0.00000E+00
    0.00000E+00         0.00000E+00        -0.50142E+08
 
   -0.48176E+08        -0.22735E+06         0.00000E+00
   -0.22735E+06        -0.53014E+08         0.00000E+00
    0.00000E+00         0.00000E+00        -0.50151E+08
 
   -0.48169E+08        -0.10762E+06         0.00000E+00
   -0.10762E+06        -0.53069E+08         0.00000E+00
    0.00000E+00         0.00000E+00        -0.50160E+08
 
   -0.48171E+08         0.17962E+05         0.00000E+00
    0.17962E+05        -0.53117E+08         0.00000E+00
    0.00000E+00         0.00000E+00        -0.50171E+08
 
   -0.48186E+08         0.14901E+06         0.00000E+00
    0.14901E+06        -0.53159E+08         0.00000E+00
    0.00000E+00         0.00000E+00        -0.50182E+08
 
   -0.48214E+08         0.28500E+06         0.00000E+00
    0.28500E+06        -0.53193E+08         0.00000E+00
    0.00000E+00         0.00000E+00        -0.50194E+08
 
   -0.48256E+08         0.42524E+06         0.00000E+00
    0.42524E+06        -0.53219E+08         0.00000E+00
    0.00000E+00         0.00000E+00        -0.50208E+08
 
   -0.48315E+08         0.56885E+06         0.00000E+00
    0.56885E+06        -0.53235E+08         0.00000E+00
    0.00000E+00         0.00000E+00        -0.50223E+08
 
   -0.48392E+08         0.71469E+06         0.00000E+00
    0.71469E+06        -0.53241E+08         0.00000E+00
    0.00000E+00         0.00000E+00        -0.50240E+08
 
   -0.48488E+08         0.86137E+06         0.00000E+00
    0.86137E+06        -0.53236E+08         0.00000E+00
    0.00000E+00         0.00000E+00        -0.50258E+08
 
   -0.48605E+08         0.10071E+07         0.00000E+00
    0.10071E+07        -0.53219E+08         0.00000E+00
    0.00000E+00         0.00000E+00        -0.50278E+08
 
   -0.48744E+08         0.11499E+07         0.00000E+00
    0.11499E+07        -0.53189E+08         0.00000E+00
    0.00000E+00         0.00000E+00        -0.50300E+08
 
   -0.48906E+08         0.12873E+07         0.00000E+00
    0.12873E+07        -0.53145E+08         0.00000E+00
    0.00000E+00         0.00000E+00        -0.50323E+08
 
   -0.49092E+08         0.14165E+07         0.00000E+00
    0.14165E+07        -0.53085E+08         0.00000E+00
    0.00000E+00         0.00000E+00        -0.50349E+08
 
   -0.49302E+08         0.15344E+07         0.00000E+00
    0.15344E+07        -0.53011E+08         0.00000E+00
    0.00000E+00         0.00000E+00        -0.50376E+08
 
   -0.49536E+08         0.16373E+07         0.00000E+00
    0.16373E+07        -0.52921E+08         0.00000E+00
    0.00000E+00         0.00000E+00        -0.50404E+08
 
   -0.49793E+08         0.17213E+07         0.00000E+00
    0.17213E+07        -0.52816E+08         0.00000E+00
    0.00000E+00         0.00000E+00        -0.50435E+08
 
   -0.50069E+08         0.17823E+07         0.00000E+00
    0.17823E+07        -0.52696E+08         0.00000E+00
    0.00000E+00         0.00000E+00        -0.50466E+08
 
   -0.50364E+08         0.18167E+07         0.00000E+00
    0.18167E+07        -0.52565E+08         0.00000E+00
    0.00000E+00         0.00000E+00        -0.50499E+08
 
   -0.46510E+08        -0.12939E+05         0.00000E+00
   -0.12939E+05        -0.49979E+08         0.00000E+00
    0.00000E+00         0.00000E+00        -0.48969E+08
 
   -0.47073E+08        -0.14483E+06         0.00000E+00
   -0.14483E+06        -0.50004E+08         0.00000E+00
    0.00000E+00         0.00000E+00        -0.49087E+08
 
   -0.47561E+08        -0.30603E+06         0.00000E+00
   -0.30603E+06        -0.50059E+08         0.00000E+00
    0.00000E+00         0.00000E+00        -0.49195E+08
 
   -0.47973E+08        -0.48270E+06         0.00000E+00
   -0.48270E+06        -0.50142E+08         0.00000E+00
    0.00000E+00         0.00000E+00        -0.49294E+08
 
   -0.48313E+08        -0.66553E+06         0.00000E+00
   -0.66553E+06        -0.50247E+08         0.00000E+00
    0.00000E+00         0.00000E+00        -0.49383E+08
 
   -0.48585E+08        -0.84692E+06         0.00000E+00
   -0.84692E+06        -0.50374E+08         0.00000E+00
    0.00000E+00         0.00000E+00        -0.49463E+08
 
   -0.48796E+08        -0.10206E+07         0.00000E+00
   -0.10206E+07        -0.50516E+08         0.00000E+00
    0.00000E+00         0.00000E+00        -0.49534E+08
 
   -0.48951E+08        -0.11816E+07         0.00000E+00
   -0.11816E+07        -0.50672E+08         0.00000E+00
    0.00000E+00         0.00000E+00        -0.49596E+08
 
   -0.49058E+08        -0.13265E+07         0.00000E+00
   -0.13265E+07        -0.50836E+08         0.00000E+00
    0.00000E+00         0.00000E+00        -0.49650E+08
 
   -0.49122E+08        -0.14532E+07         0.00000E+00
   -0.14532E+07        -0.51005E+08         0.00000E+00
    0.00000E+00         0.00000E+00        -0.49697E+08
 
   -0.49151E+08        -0.15603E+07         0.00000E+00
   -0.15603E+07        -0.51175E+08         0.00000E+00
    0.00000E+00         0.00000E+00        -0.49736E+08
 
   -0.49151E+08        -0.16477E+07         0.00000E+00
   -0.16477E+07        -0.51345E+08         0.00000E+00
    0.00000E+00         0.00000E+00        -0.49770E+08
 
   -0.49126E+08        -0.17158E+07         0.00000E+00
   -0.17158E+07        -0.51512E+08         0.00000E+00
    0.00000E+00         0.00000E+00        -0.49799E+08
 
   -0.49081E+08        -0.17654E+07         0.00000E+00
   -0.17654E+07        -0.51674E+08         0.00000E+00
    0.00000E+00         0.00000E+00        -0.49822E+08
 
   -0.49022E+08        -0.17974E+07         0.00000E+00
   -0.17974E+07        -0.51830E+08         0.00000E+00
    0.00000E+00         0.00000E+00        -0.49841E+08
 
   -0.48950E+08        -0.18133E+07         0.00000E+00
   -0.18133E+07        -0.51979E+08         0.00000E+00
    0.00000E+00         0.00000E+00        -0.49857E+08
 
   -0.48869E+08        -0.18141E+07         0.00000E+00
   -0.18141E+07        -0.52121E+08         0.00000E+00
    0.00000E+00         0.00000E+00        -0.49869E+08
 
   -0.48782E+08        -0.18014E+07         0.00000E+00
   -0.18014E+07        -0.52256E+08         0.00000E+00
    0.00000E+00         0.00000E+00        -0.49879E+08
 
   -0.48690E+08        -0.17761E+07         0.00000E+00
   -0.17761E+07        -0.52383E+08         0.00000E+00
    0.00000E+00         0.00000E+00        -0.49886E+08
 
   -0.48595E+08        -0.17396E+07         0.00000E+00
   -0.17396E+07        -0.52503E+08         0.00000E+00
    0.00000E+00         0.00000E+00        -0.49891E+08
 
   -0.48499E+08        -0.16927E+07         0.00000E+00
   -0.16927E+07        -0.52616E+08         0.00000E+00
    0.00000E+00         0.00000E+00        -0.49894E+08
 
   -0.48403E+08        -0.16365E+07         0.00000E+00
   -0.16365E+07        -0.52723E+08         0.00000E+00
    0.00000E+00         0.00000E+00        -0.49896E+08
 
   -0.48307E+08        -0.15715E+07         0.00000E+00
   -0.15715E+07        -0.52823E+08         0.00000E+00
    0.00000E+00         0.00000E+00        -0.49897E+08
 
   -0.48213E+08        -0.14985E+07         0.00000E+00
   -0.14985E+07        -0.52918E+08         0.00000E+00
    0.00000E+00         0.00000E+00        -0.49897E+08
 
   -0.48120E+08        -0.14180E+07         0.00000E+00
   -0.14180E+07        -0.53007E+08         0.00000E+00
    0.00000E+00         0.00000E+00        -0.49897E+08
 
   -0.48030E+08        -0.13302E+07         0.00000E+00
   -0.13302E+07        -0.53091E+08         0.00000E+00
    0.00000E+00         0.00000E+00        -0.49895E+08
 
   -0.47944E+08        -0.12354E+07         0.00000E+00
   -0.12354E+07        -0.53171E+08         0.00000E+00
    0.00000E+00         0.00000E+00        -0.49894E+08
 
   -0.47861E+08        -0.11338E+07         0.00000E+00
   -0.11338E+07        -0.53247E+08         0.00000E+00
    0.00000E+00         0.00000E+00        -0.49893E+08
 
   -0.47783E+08        -0.10254E+07         0.00000E+00
   -0.10254E+07        -0.53320E+08         0.00000E+00
    0.00000E+00         0.00000E+00        -0.49892E+08
 
   -0.47710E+08        -0.90998E+06         0.00000E+00
   -0.90998E+06        -0.53388E+08         0.00000E+00
    0.00000E+00         0.00000E+00        -0.49891E+08
 
   -0.47643E+08        -0.78745E+06         0.00000E+00
   -0.78745E+06        -0.53454E+08         0.00000E+00
    0.00000E+00         0.00000E+00        -0.49890E+08
 
   -0.47582E+08        -0.65752E+06         0.00000E+00
   -0.65752E+06        -0.53516E+08         0.00000E+00
    0.00000E+00         0.00000E+00        -0.49891E+08
 
   -0.47530E+08        -0.51987E+06         0.00000E+00
   -0.51987E+06        -0.53575E+08         0.00000E+00
    0.00000E+00         0.00000E+00        -0.49892E+08
 
   -0.47487E+08        -0.37413E+06         0.00000E+00
   -0.37413E+06        -0.53630E+08         0.00000E+00
    0.00000E+00         0.00000E+00        -0.49894E+08
 
   -0.47454E+08        -0.21993E+06         0.00000E+00
   -0.21993E+06        -0.53681E+08         0.00000E+00
    0.00000E+00         0.00000E+00        -0.49898E+08
 
   -0.47433E+08        -0.56881E+05         0.00000E+00
   -0.56881E+05        -0.53728E+08         0.00000E+00
    0.00000E+00         0.00000E+00        -0.49903E+08
 
   -0.47427E+08         0.11531E+06         0.00000E+00
    0.11531E+06        -0.53770E+08         0.00000E+00
    0.00000E+00         0.00000E+00        -0.49910E+08
 
   -0.47438E+08         0.29683E+06         0.00000E+00
    0.29683E+06        -0.53805E+08         0.00000E+00
    0.00000E+00         0.00000E+00        -0.49920E+08
 
   -0.47468E+08         0.48768E+06         0.00000E+00
    0.48768E+06        -0.53833E+08         0.00000E+00
    0.00000E+00         0.00000E+00        -0.49931E+08
 
   -0.47520E+08         0.68757E+06         0.00000E+00
    0.68757E+06        -0.53852E+08         0.00000E+00
    0.00000E+00         0.00000E+00        -0.49946E+08
 
   -0.47599E+08         0.89583E+06         0.00000E+00
    0.89583E+06        -0.53860E+08         0.00000E+00
    0.00000E+00         0.00000E+00        -0.49963E+08
 
   -0.47707E+08         0.11113E+07         0.00000E+00
    0.11113E+07        -0.53854E+08         0.00000E+00
    0.00000E+00         0.00000E+00        -0.49983E+08
 
   -0.47849E+08         0.13320E+07         0.00000E+00
    0.13320E+07        -0.53833E+08         0.00000E+00
    0.00000E+00         0.00000E+00        -0.50008E+08
 
   -0.48029E+08         0.15555E+07         0.00000E+00
    0.15555E+07        -0.53793E+08         0.00000E+00
    0.00000E+00         0.00000E+00        -0.50035E+08
 
   -0.48250E+08         0.17782E+07         0.00000E+00
    0.17782E+07        -0.53731E+08         0.00000E+00
    0.00000E+00         0.00000E+00        -0.50067E+08
 
   -0.48515E+08         0.19955E+07         0.00000E+00
    0.19955E+07        -0.53645E+08         0.00000E+00
    0.00000E+00         0.00000E+00        -0.50103E+08
 
   -0.48828E+08         0.22023E+07         0.00000E+00
    0.22023E+07        -0.53533E+08         0.00000E+00
    0.00000E+00         0.00000E+00        -0.50143E+08
 
   -0.49191E+08         0.23923E+07         0.00000E+00
    0.23923E+07        -0.53393E+08         0.00000E+00
    0.00000E+00         0.00000E+00        -0.50188E+08
 
   -0.49607E+08         0.25580E+07         0.00000E+00
    0.25580E+07        -0.53223E+08         0.00000E+00
    0.00000E+00         0.00000E+00        -0.50237E+08
 
   -0.50072E+08         0.26881E+07         0.00000E+00
    0.26881E+07        -0.53018E+08         0.00000E+00
    0.00000E+00         0.00000E+00        -0.50289E+08
 
   -0.47522E+08        -0.12271E+06         0.00000E+00
   -0.12271E+06        -0.49953E+08         0.00000E+00
    0.00000E+00         0.00000E+00        -0.48399E+08
 
   -0.48227E+08        -0.46170E+06         0.00000E+00
   -0.46170E+06        -0.50028E+08         0.00000E+00
    0.00000E+00         0.00000E+00        -0.48555E+08
 
   -0.48771E+08        -0.79976E+06         0.00000E+00
   -0.79976E+06        -0.50143E+08         0.00000E+00
    0.00000E+00         0.00000E+00        -0.48687E+08
 
   -0.49178E+08        -0.11278E+07         0.00000E+00
   -0.11278E+07        -0.50299E+08         0.00000E+00
    0.00000E+00         0.00000E+00        -0.48799E+08
 
   -0.49464E+08        -0.14327E+07         0.00000E+00
   -0.14327E+07        -0.50488E+08         0.00000E+00
    0.00000E+00         0.00000E+00        -0.48894E+08
 
   -0.49644E+08        -0.17044E+07         0.00000E+00
   -0.17044E+07        -0.50696E+08         0.00000E+00
    0.00000E+00         0.00000E+00        -0.48972E+08
 
   -0.49738E+08        -0.19372E+07         0.00000E+00
   -0.19372E+07        -0.50915E+08         0.00000E+00
    0.00000E+00         0.00000E+00        -0.49035E+08
 
   -0.49763E+08        -0.21292E+07         0.00000E+00
   -0.21292E+07        -0.51135E+08         0.00000E+00
    0.00000E+00         0.00000E+00        -0.49084E+08
 
   -0.49734E+08        -0.22811E+07         0.00000E+00
   -0.22811E+07        -0.51351E+08         0.00000E+00
    0.00000E+00         0.00000E+00        -0.49121E+08
 
   -0.49665E+08        -0.23953E+07         0.00000E+00
   -0.23953E+07        -0.51557E+08         0.00000E+00
    0.00000E+00         0.00000E+00        -0.49148E+08
 
   -0.49566E+08        -0.24754E+07         0.00000E+00
   -0.24754E+07        -0.51751E+08         0.00000E+00
    0.00000E+00         0.00000E+00        -0.49167E+08
 
   -0.49446E+08        -0.25250E+07         0.00000E+00
   -0.25250E+07        -0.51930E+08         0.00000E+00
    0.00000E+00         0.00000E+00        -0.49179E+08
 
   -0.49312E+08        -0.25481E+07         0.00000E+00
   -0.25481E+07        -0.52095E+08         0.00000E+00
    0.00000E+00         0.00000E+00        -0.49185E+08
 
   -0.49169E+08        -0.25484E+07         0.00000E+00
   -0.25484E+07        -0.52244E+08         0.00000E+00
    0.00000E+00         0.00000E+00        -0.49186E+08
 
   -0.49022E+08        -0.25292E+07         0.00000E+00
   -0.25292E+07        -0.52379E+08         0.00000E+00
    0.00000E+00         0.00000E+00        -0.49184E+08
 
   -0.48872E+08        -0.24937E+07         0.00000E+00
   -0.24937E+07        -0.52500E+08         0.00000E+00
    0.00000E+00         0.00000E+00        -0.49178E+08
 
   -0.48723E+08        -0.24444E+07         0.00000E+00
   -0.24444E+07        -0.52608E+08         0.00000E+00
    0.00000E+00         0.00000E+00        -0.49170E+08
 
   -0.48576E+08        -0.23836E+07         0.00000E+00
   -0.23836E+07        -0.52703E+08         0.00000E+00
    0.00000E+00         0.00000E+00        -0.49160E+08
 
   -0.48432E+08        -0.23133E+07         0.00000E+00
   -0.23133E+07        -0.52788E+08         0.00000E+00
    0.00000E+00         0.00000E+00        -0.49148E+08
 
   -0.48291E+08        -0.22351E+07         0.00000E+00
   -0.22351E+07        -0.52864E+08         0.00000E+00
    0.00000E+00         0.00000E+00        -0.49135E+08
 
   -0.48154E+08        -0.21502E+07         0.00000E+00
   -0.21502E+07        -0.52931E+08         0.00000E+00
    0.00000E+00         0.00000E+00        -0.49121E+08
 
   -0.48021E+08        -0.20596E+07         0.00000E+00
   -0.20596E+07        -0.52991E+08         0.00000E+00
    0.00000E+00         0.00000E+00        -0.49106E+08
 
   -0.47892E+08        -0.19642E+07         0.00000E+00
   -0.19642E+07        -0.53044E+08         0.00000E+00
    0.00000E+00         0.00000E+00        -0.49091E+08
 
   -0.47767E+08        -0.18644E+07         0.00000E+00
   -0.18644E+07        -0.53093E+08         0.00000E+00
    0.00000E+00         0.00000E+00        -0.49076E+08
 
   -0.47646E+08        -0.17606E+07         0.00000E+00
   -0.17606E+07        -0.53137E+08         0.00000E+00
    0.00000E+00         0.00000E+00        -0.49060E+08
 
   -0.47528E+08        -0.16530E+07         0.00000E+00
   -0.16530E+07        -0.53178E+08         0.00000E+00
    0.00000E+00         0.00000E+00        -0.49045E+08
 
   -0.47414E+08        -0.15414E+07         0.00000E+00
   -0.15414E+07        -0.53217E+08         0.00000E+00
    0.00000E+00         0.00000E+00        -0.49030E+08
 
   -0.47303E+08        -0.14258E+07         0.00000E+00
   -0.14258E+07        -0.53254E+08         0.00000E+00
    0.00000E+00         0.00000E+00        -0.49015E+08
 
   -0.47195E+08        -0.13058E+07         0.00000E+00
   -0.13058E+07        -0.53290E+08         0.00000E+00
    0.00000E+00         0.00000E+00        -0.49001E+08
 
   -0.47091E+08        -0.11808E+07         0.00000E+00
   -0.11808E+07        -0.53326E+08         0.00000E+00
    0.00000E+00         0.00000E+00        -0.48987E+08
 
   -0.46990E+08        -0.10502E+07         0.00000E+00
   -0.10502E+07        -0.53362E+08         0.00000E+00
    0.00000E+00         0.00000E+00        -0.48974E+08
 
   -0.46892E+08        -0.91311E+06         0.00000E+00
   -0.91311E+06        -0.53399E+08         0.00000E+00
    0.00000E+00         0.00000E+00        -0.48962E+08
 
   -0.46800E+08        -0.76854E+06         0.00000E+00
   -0.76854E+06        -0.53437E+08         0.00000E+00
    0.00000E+00         0.00000E+00        -0.48951E+08
 
   -0.46712E+08        -0.61531E+06         0.00000E+00
   -0.61531E+06        -0.53476E+08         0.00000E+00
    0.00000E+00         0.00000E+00        -0.48941E+08
 
   -0.46630E+08        -0.45206E+06         0.00000E+00
   -0.45206E+06        -0.53517E+08         0.00000E+00
    0.00000E+00         0.00000E+00        -0.48933E+08
 
   -0.46556E+08        -0.27728E+06         0.00000E+00
   -0.27728E+06        -0.53558E+08         0.00000E+00
    0.00000E+00         0.00000E+00        -0.48927E+08
 
   -0.46492E+08        -0.89276E+05         0.00000E+00
   -0.89276E+05        -0.53600E+08         0.00000E+00
    0.00000E+00         0.00000E+00        -0.48922E+08
 
   -0.46439E+08         0.11378E+06         0.00000E+00
    0.11378E+06        -0.53642E+08         0.00000E+00
    0.00000E+00         0.00000E+00        -0.48920E+08
 
   -0.46402E+08         0.33380E+06         0.00000E+00
    0.33380E+06        -0.53683E+08         0.00000E+00
    0.00000E+00         0.00000E+00        -0.48921E+08
 
   -0.46385E+08         0.57274E+06         0.00000E+00
    0.57274E+06        -0.53721E+08         0.00000E+00
    0.00000E+00         0.00000E+00        -0.48925E+08
 
   -0.46392E+08         0.83246E+06         0.00000E+00
    0.83246E+06        -0.53755E+08         0.00000E+00
    0.00000E+00         0.00000E+00        -0.48933E+08
 
   -0.46430E+08         0.11145E+07         0.00000E+00
    0.11145E+07        -0.53780E+08         0.00000E+00
    0.00000E+00         0.00000E+00        -0.48946E+08
 
   -0.46508E+08         0.14200E+07         0.00000E+00
    0.14200E+07        -0.53793E+08         0.00000E+00
    0.00000E+00         0.00000E+00        -0.48964E+08
 
   -0.46633E+08         0.17489E+07         0.00000E+00
    0.17489E+07        -0.53789E+08         0.00000E+00
    0.00000E+00         0.00000E+00        -0.48988E+08
 
   -0.46817E+08         0.21000E+07         0.00000E+00
    0.21000E+07        -0.53762E+08         0.00000E+00
    0.00000E+00         0.00000E+00        -0.49020E+08
 
   -0.47070E+08         0.24697E+07         0.00000E+00
    0.24697E+07        -0.53705E+08         0.00000E+00
    0.00000E+00         0.00000E+00        -0.49059E+08
 
   -0.47403E+08         0.28521E+07         0.00000E+00
    0.28521E+07        -0.53607E+08         0.00000E+00
    0.00000E+00         0.00000E+00        -0.49106E+08
 
   -0.47827E+08         0.32383E+07         0.00000E+00
    0.32383E+07        -0.53462E+08         0.00000E+00
    0.00000E+00         0.00000E+00        -0.49162E+08
 
   -0.48352E+08         0.36183E+07         0.00000E+00
    0.36183E+07        -0.53262E+08         0.00000E+00
    0.00000E+00         0.00000E+00        -0.49227E+08
 
   -0.48994E+08         0.39865E+07         0.00000E+00
    0.39865E+07        -0.53009E+08         0.00000E+00
    0.00000E+00         0.00000E+00        -0.49304E+08
 
   -0.50013E+08        -0.40389E+06         0.00000E+00
   -0.40389E+06        -0.49929E+08         0.00000E+00
    0.00000E+00         0.00000E+00        -0.46870E+08
 
   -0.50599E+08        -0.10742E+07         0.00000E+00
   -0.10742E+07        -0.50037E+08         0.00000E+00
    0.00000E+00         0.00000E+00        -0.47009E+08
 
   -0.50942E+08        -0.16817E+07         0.00000E+00
   -0.16817E+07        -0.50248E+08         0.00000E+00
    0.00000E+00         0.00000E+00        -0.47119E+08
 
   -0.51071E+08        -0.21854E+07         0.00000E+00
   -0.21854E+07        -0.50502E+08         0.00000E+00
    0.00000E+00         0.00000E+00        -0.47196E+08
 
   -0.51041E+08        -0.25776E+07         0.00000E+00
   -0.25776E+07        -0.50762E+08         0.00000E+00
    0.00000E+00         0.00000E+00        -0.47242E+08
 
   -0.50904E+08        -0.28659E+07         0.00000E+00
   -0.28659E+07        -0.51009E+08         0.00000E+00
    0.00000E+00         0.00000E+00        -0.47264E+08
 
   -0.50699E+08        -0.30642E+07         0.00000E+00
   -0.30642E+07        -0.51232E+08         0.00000E+00
    0.00000E+00         0.00000E+00        -0.47267E+08
 
   -0.50455E+08        -0.31877E+07         0.00000E+00
   -0.31877E+07        -0.51425E+08         0.00000E+00
    0.00000E+00         0.00000E+00        -0.47257E+08
 
   -0.50192E+08        -0.32505E+07         0.00000E+00
   -0.32505E+07        -0.51587E+08         0.00000E+00
    0.00000E+00         0.00000E+00        -0.47237E+08
 
   -0.49924E+08        -0.32654E+07         0.00000E+00
   -0.32654E+07        -0.51718E+08         0.00000E+00
    0.00000E+00         0.00000E+00        -0.47210E+08
 
   -0.49658E+08        -0.32430E+07         0.00000E+00
   -0.32430E+07        -0.51822E+08         0.00000E+00
    0.00000E+00         0.00000E+00        -0.47177E+08
 
   -0.49401E+08        -0.31921E+07         0.00000E+00
   -0.31921E+07        -0.51900E+08         0.00000E+00
    0.00000E+00         0.00000E+00        -0.47142E+08
 
   -0.49156E+08        -0.31198E+07         0.00000E+00
   -0.31198E+07        -0.51956E+08         0.00000E+00
    0.00000E+00         0.00000E+00        -0.47104E+08
 
   -0.48924E+08        -0.30317E+07         0.00000E+00
   -0.30317E+07        -0.51992E+08         0.00000E+00
    0.00000E+00         0.00000E+00        -0.47064E+08
 
   -0.48705E+08        -0.29324E+07         0.00000E+00
   -0.29324E+07        -0.52011E+08         0.00000E+00
    0.00000E+00         0.00000E+00        -0.47025E+08
 
   -0.48500E+08        -0.28253E+07         0.00000E+00
   -0.28253E+07        -0.52016E+08         0.00000E+00
    0.00000E+00         0.00000E+00        -0.46985E+08
 
   -0.48308E+08        -0.27131E+07         0.00000E+00
   -0.27131E+07        -0.52010E+08         0.00000E+00
    0.00000E+00         0.00000E+00        -0.46945E+08
 
   -0.48127E+08        -0.25979E+07         0.00000E+00
   -0.25979E+07        -0.51994E+08         0.00000E+00
    0.00000E+00         0.00000E+00        -0.46905E+08
 
   -0.47957E+08        -0.24812E+07         0.00000E+00
   -0.24812E+07        -0.51971E+08         0.00000E+00
    0.00000E+00         0.00000E+00        -0.46867E+08
 
   -0.47797E+08        -0.23641E+07         0.00000E+00
   -0.23641E+07        -0.51942E+08         0.00000E+00
    0.00000E+00         0.00000E+00        -0.46829E+08
 
   -0.47645E+08        -0.22474E+07         0.00000E+00
   -0.22474E+07        -0.51908E+08         0.00000E+00
    0.00000E+00         0.00000E+00        -0.46792E+08
 
   -0.47501E+08        -0.21316E+07         0.00000E+00
   -0.21316E+07        -0.51872E+08         0.00000E+00
    0.00000E+00         0.00000E+00        -0.46756E+08
 
   -0.47362E+08        -0.20168E+07         0.00000E+00
   -0.20168E+07        -0.51834E+08         0.00000E+00
    0.00000E+00         0.00000E+00        -0.46721E+08
 
   -0.47229E+08        -0.19032E+07         0.00000E+00
   -0.19032E+07        -0.51796E+08         0.00000E+00
    0.00000E+00         0.00000E+00        -0.46686E+08
 
   -0.47100E+08        -0.17907E+07         0.00000E+00
   -0.17907E+07        -0.51758E+08         0.00000E+00
    0.00000E+00         0.00000E+00        -0.46653E+08
 
   -0.46973E+08        -0.16789E+07         0.00000E+00
   -0.16789E+07        -0.51722E+08         0.00000E+00
    0.00000E+00         0.00000E+00        -0.46620E+08
 
   -0.46849E+08        -0.15676E+07         0.00000E+00
   -0.15676E+07        -0.51687E+08         0.00000E+00
    0.00000E+00         0.00000E+00        -0.46588E+08
 
   -0.46725E+08        -0.14561E+07         0.00000E+00
   -0.14561E+07        -0.51656E+08         0.00000E+00
    0.00000E+00         0.00000E+00        -0.46558E+08
 
   -0.46602E+08        -0.13438E+07         0.00000E+00
   -0.13438E+07        -0.51628E+08         0.00000E+00
    0.00000E+00         0.00000E+00        -0.46527E+08
 
   -0.46479E+08        -0.12298E+07         0.00000E+00
   -0.12298E+07        -0.51604E+08         0.00000E+00
    0.00000E+00         0.00000E+00        -0.46498E+08
 
   -0.46354E+08        -0.11132E+07         0.00000E+00
   -0.11132E+07        -0.51586E+08         0.00000E+00
    0.00000E+00         0.00000E+00        -0.46469E+08
 
   -0.46227E+08        -0.99277E+06         0.00000E+00
   -0.99277E+06        -0.51572E+08         0.00000E+00
    0.00000E+00         0.00000E+00        -0.46441E+08
 
   -0.46098E+08        -0.86708E+06         0.00000E+00
   -0.86708E+06        -0.51565E+08         0.00000E+00
    0.00000E+00         0.00000E+00        -0.46414E+08
 
   -0.45966E+08        -0.73446E+06         0.00000E+00
   -0.73446E+06        -0.51565E+08         0.00000E+00
    0.00000E+00         0.00000E+00        -0.46387E+08
 
   -0.45831E+08        -0.59294E+06         0.00000E+00
   -0.59294E+06        -0.51572E+08         0.00000E+00
    0.00000E+00         0.00000E+00        -0.46362E+08
 
   -0.45693E+08        -0.44017E+06         0.00000E+00
   -0.44017E+06        -0.51586E+08         0.00000E+00
    0.00000E+00         0.00000E+00        -0.46337E+08
 
   -0.45553E+08        -0.27335E+06         0.00000E+00
   -0.27335E+06        -0.51609E+08         0.00000E+00
    0.00000E+00         0.00000E+00        -0.46314E+08
 
   -0.45410E+08        -0.89151E+05         0.00000E+00
   -0.89151E+05        -0.51641E+08         0.00000E+00
    0.00000E+00         0.00000E+00        -0.46291E+08
 
   -0.45268E+08         0.11636E+06         0.00000E+00
    0.11636E+06        -0.51681E+08         0.00000E+00
    0.00000E+00         0.00000E+00        -0.46271E+08
 
   -0.45128E+08         0.34786E+06         0.00000E+00
    0.34786E+06        -0.51729E+08         0.00000E+00
    0.00000E+00         0.00000E+00        -0.46253E+08
 
   -0.44993E+08         0.61085E+06         0.00000E+00
    0.61085E+06        -0.51785E+08         0.00000E+00
    0.00000E+00         0.00000E+00        -0.46237E+08
 
   -0.44870E+08         0.91177E+06         0.00000E+00
    0.91177E+06        -0.51848E+08         0.00000E+00
    0.00000E+00         0.00000E+00        -0.46225E+08
 
   -0.44766E+08         0.12580E+07         0.00000E+00
    0.12580E+07        -0.51915E+08         0.00000E+00
    0.00000E+00         0.00000E+00        -0.46218E+08
 
   -0.44693E+08         0.16578E+07         0.00000E+00
    0.16578E+07        -0.51982E+08         0.00000E+00
    0.00000E+00         0.00000E+00        -0.46216E+08
 
   -0.44667E+08         0.21200E+07         0.00000E+00
    0.21200E+07        -0.52044E+08         0.00000E+00
    0.00000E+00         0.00000E+00        -0.46223E+08
 
   -0.44708E+08         0.26532E+07         0.00000E+00
    0.26532E+07        -0.52092E+08         0.00000E+00
    0.00000E+00         0.00000E+00        -0.46241E+08
 
   -0.44845E+08         0.32637E+07         0.00000E+00
    0.32637E+07        -0.52110E+08         0.00000E+00
    0.00000E+00         0.00000E+00        -0.46272E+08
 
   -0.45113E+08         0.39524E+07         0.00000E+00
    0.39524E+07        -0.52080E+08         0.00000E+00
    0.00000E+00         0.00000E+00        -0.46320E+08
 
   -0.45546E+08         0.47077E+07         0.00000E+00
    0.47077E+07        -0.51969E+08         0.00000E+00
    0.00000E+00         0.00000E+00        -0.46384E+08
 
   -0.46150E+08         0.54929E+07         0.00000E+00
    0.54929E+07        -0.51730E+08         0.00000E+00
    0.00000E+00         0.00000E+00        -0.46457E+08
 
   -0.54895E+08        -0.90624E+06         0.00000E+00
   -0.90624E+06        -0.49898E+08         0.00000E+00
    0.00000E+00         0.00000E+00        -0.43611E+08
 
   -0.54554E+08        -0.20607E+07         0.00000E+00
   -0.20607E+07        -0.50222E+08         0.00000E+00
    0.00000E+00         0.00000E+00        -0.43608E+08
 
   -0.53899E+08        -0.27911E+07         0.00000E+00
   -0.27911E+07        -0.50443E+08         0.00000E+00
    0.00000E+00         0.00000E+00        -0.43521E+08
 
   -0.53150E+08        -0.32248E+07         0.00000E+00
   -0.32248E+07        -0.50570E+08         0.00000E+00
    0.00000E+00         0.00000E+00        -0.43397E+08
 
   -0.52409E+08        -0.34542E+07         0.00000E+00
   -0.34542E+07        -0.50617E+08         0.00000E+00
    0.00000E+00         0.00000E+00        -0.43258E+08
 
   -0.51718E+08        -0.35447E+07         0.00000E+00
   -0.35447E+07        -0.50599E+08         0.00000E+00
    0.00000E+00         0.00000E+00        -0.43116E+08
 
   -0.51092E+08        -0.35420E+07         0.00000E+00
   -0.35420E+07        -0.50528E+08         0.00000E+00
    0.00000E+00         0.00000E+00        -0.42977E+08
 
   -0.50534E+08        -0.34778E+07         0.00000E+00
   -0.34778E+07        -0.50417E+08         0.00000E+00
    0.00000E+00         0.00000E+00        -0.42843E+08
 
   -0.50041E+08        -0.33741E+07         0.00000E+00
   -0.33741E+07        -0.50275E+08         0.00000E+00
    0.00000E+00         0.00000E+00        -0.42716E+08
 
   -0.49607E+08        -0.32461E+07         0.00000E+00
   -0.32461E+07        -0.50112E+08         0.00000E+00
    0.00000E+00         0.00000E+00        -0.42597E+08
 
   -0.49225E+08        -0.31042E+07         0.00000E+00
   -0.31042E+07        -0.49933E+08         0.00000E+00
    0.00000E+00         0.00000E+00        -0.42484E+08
 
   -0.48889E+08        -0.29558E+07         0.00000E+00
   -0.29558E+07        -0.49744E+08         0.00000E+00
    0.00000E+00         0.00000E+00        -0.42379E+08
 
   -0.48592E+08        -0.28056E+07         0.00000E+00
   -0.28056E+07        -0.49550E+08         0.00000E+00
    0.00000E+00         0.00000E+00        -0.42281E+08
 
   -0.48329E+08        -0.26568E+07         0.00000E+00
   -0.26568E+07        -0.49353E+08         0.00000E+00
    0.00000E+00         0.00000E+00        -0.42189E+08
 
   -0.48094E+08        -0.25117E+07         0.00000E+00
   -0.25117E+07        -0.49157E+08         0.00000E+00
    0.00000E+00         0.00000E+00        -0.42103E+08
 
   -0.47884E+08        -0.23714E+07         0.00000E+00
   -0.23714E+07        -0.48963E+08         0.00000E+00
    0.00000E+00         0.00000E+00        -0.42022E+08
 
   -0.47695E+08        -0.22369E+07         0.00000E+00
   -0.22369E+07        -0.48772E+08         0.00000E+00
    0.00000E+00         0.00000E+00        -0.41946E+08
 
   -0.47523E+08        -0.21084E+07         0.00000E+00
   -0.21084E+07        -0.48587E+08         0.00000E+00
    0.00000E+00         0.00000E+00        -0.41875E+08
 
   -0.47365E+08        -0.19860E+07         0.00000E+00
   -0.19860E+07        -0.48408E+08         0.00000E+00
    0.00000E+00         0.00000E+00        -0.41807E+08
 
   -0.47219E+08        -0.18697E+07         0.00000E+00
   -0.18697E+07        -0.48234E+08         0.00000E+00
    0.00000E+00         0.00000E+00        -0.41744E+08
 
   -0.47083E+08        -0.17591E+07         0.00000E+00
   -0.17591E+07        -0.48068E+08         0.00000E+00
    0.00000E+00         0.00000E+00        -0.41683E+08
 
   -0.46954E+08        -0.16541E+07         0.00000E+00
   -0.16541E+07        -0.47909E+08         0.00000E+00
    0.00000E+00         0.00000E+00        -0.41625E+08
 
   -0.46830E+08        -0.15541E+07         0.00000E+00
   -0.15541E+07        -0.47757E+08         0.00000E+00
    0.00000E+00         0.00000E+00        -0.41570E+08
 
   -0.46710E+08        -0.14587E+07         0.00000E+00
   -0.14587E+07        -0.47614E+08         0.00000E+00
    0.00000E+00         0.00000E+00        -0.41518E+08
 
   -0.46592E+08        -0.13674E+07         0.00000E+00
   -0.13674E+07        -0.47478E+08         0.00000E+00
    0.00000E+00         0.00000E+00        -0.41467E+08
 
   -0.46475E+08        -0.12796E+07         0.00000E+00
   -0.12796E+07        -0.47350E+08         0.00000E+00
    0.00000E+00         0.00000E+00        -0.41418E+08
 
   -0.46358E+08        -0.11949E+07         0.00000E+00
   -0.11949E+07        -0.47230E+08         0.00000E+00
    0.00000E+00         0.00000E+00        -0.41370E+08
 
   -0.46238E+08        -0.11125E+07         0.00000E+00
   -0.11125E+07        -0.47118E+08         0.00000E+00
    0.00000E+00         0.00000E+00        -0.41324E+08
 
   -0.46115E+08        -0.10317E+07         0.00000E+00
   -0.10317E+07        -0.47015E+08         0.00000E+00
    0.00000E+00         0.00000E+00        -0.41279E+08
 
   -0.45986E+08        -0.95182E+06         0.00000E+00
   -0.95182E+06        -0.46920E+08         0.00000E+00
    0.00000E+00         0.00000E+00        -0.41234E+08
 
   -0.45851E+08        -0.87190E+06         0.00000E+00
   -0.87190E+06        -0.46834E+08         0.00000E+00
    0.00000E+00         0.00000E+00        -0.41190E+08
 
   -0.45709E+08        -0.79096E+06         0.00000E+00
   -0.79096E+06        -0.46758E+08         0.00000E+00
    0.00000E+00         0.00000E+00        -0.41146E+08
 
   -0.45556E+08        -0.70781E+06         0.00000E+00
   -0.70781E+06        -0.46691E+08         0.00000E+00
    0.00000E+00         0.00000E+00        -0.41102E+08
 
   -0.45392E+08        -0.62104E+06         0.00000E+00
   -0.62104E+06        -0.46635E+08         0.00000E+00
    0.00000E+00         0.00000E+00        -0.41058E+08
 
   -0.45214E+08        -0.52896E+06         0.00000E+00
   -0.52896E+06        -0.46590E+08         0.00000E+00
    0.00000E+00         0.00000E+00        -0.41014E+08
 
   -0.45021E+08        -0.42952E+06         0.00000E+00
   -0.42952E+06        -0.46556E+08         0.00000E+00
    0.00000E+00         0.00000E+00        -0.40968E+08
 
   -0.44810E+08        -0.32016E+06         0.00000E+00
   -0.32016E+06        -0.46536E+08         0.00000E+00
    0.00000E+00         0.00000E+00        -0.40922E+08
 
   -0.44579E+08        -0.19769E+06         0.00000E+00
   -0.19769E+06        -0.46530E+08         0.00000E+00
    0.00000E+00         0.00000E+00        -0.40875E+08
 
   -0.44324E+08        -0.58090E+05         0.00000E+00
   -0.58090E+05        -0.46540E+08         0.00000E+00
    0.00000E+00         0.00000E+00        -0.40826E+08
 
   -0.44042E+08         0.10378E+06         0.00000E+00
    0.10378E+06        -0.46567E+08         0.00000E+00
    0.00000E+00         0.00000E+00        -0.40775E+08
 
   -0.43732E+08         0.29451E+06         0.00000E+00
    0.29451E+06        -0.46614E+08         0.00000E+00
    0.00000E+00         0.00000E+00        -0.40722E+08
 
   -0.43389E+08         0.52272E+06         0.00000E+00
    0.52272E+06        -0.46684E+08         0.00000E+00
    0.00000E+00         0.00000E+00        -0.40667E+08
 
   -0.43011E+08         0.79964E+06         0.00000E+00
    0.79964E+06        -0.46777E+08         0.00000E+00
    0.00000E+00         0.00000E+00        -0.40611E+08
 
   -0.42598E+08         0.11402E+07         0.00000E+00
    0.11402E+07        -0.46899E+08         0.00000E+00
    0.00000E+00         0.00000E+00        -0.40552E+08
 
   -0.42150E+08         0.15642E+07         0.00000E+00
    0.15642E+07        -0.47050E+08         0.00000E+00
    0.00000E+00         0.00000E+00        -0.40493E+08
 
   -0.41674E+08         0.20985E+07         0.00000E+00
    0.20985E+07        -0.47233E+08         0.00000E+00
    0.00000E+00         0.00000E+00        -0.40434E+08
 
   -0.41190E+08         0.27792E+07         0.00000E+00
    0.27792E+07        -0.47450E+08         0.00000E+00
    0.00000E+00         0.00000E+00        -0.40381E+08
 
   -0.40735E+08         0.36550E+07         0.00000E+00
    0.36550E+07        -0.47696E+08         0.00000E+00
    0.00000E+00         0.00000E+00        -0.40339E+08
 
   -0.40392E+08         0.47914E+07         0.00000E+00
    0.47914E+07        -0.47966E+08         0.00000E+00
    0.00000E+00         0.00000E+00        -0.40325E+08
 
   -0.40337E+08         0.62736E+07         0.00000E+00
    0.62736E+07        -0.48243E+08         0.00000E+00
    0.00000E+00         0.00000E+00        -0.40369E+08
 
   -0.61460E+08        -0.16508E+07         0.00000E+00
   -0.16508E+07        -0.50252E+08         0.00000E+00
    0.00000E+00         0.00000E+00        -0.38277E+08
 
   -0.58264E+08        -0.20108E+07         0.00000E+00
   -0.20108E+07        -0.49720E+08         0.00000E+00
    0.00000E+00         0.00000E+00        -0.37531E+08
 
   -0.55903E+08        -0.21197E+07         0.00000E+00
   -0.21197E+07        -0.49097E+08         0.00000E+00
    0.00000E+00         0.00000E+00        -0.36934E+08
 
   -0.54112E+08        -0.21034E+07         0.00000E+00
   -0.21034E+07        -0.48436E+08         0.00000E+00
    0.00000E+00         0.00000E+00        -0.36444E+08
 
   -0.52726E+08        -0.20256E+07         0.00000E+00
   -0.20256E+07        -0.47766E+08         0.00000E+00
    0.00000E+00         0.00000E+00        -0.36033E+08
 
   -0.51636E+08        -0.19195E+07         0.00000E+00
   -0.19195E+07        -0.47108E+08         0.00000E+00
    0.00000E+00         0.00000E+00        -0.35683E+08
 
   -0.50765E+08        -0.18026E+07         0.00000E+00
   -0.18026E+07        -0.46472E+08         0.00000E+00
    0.00000E+00         0.00000E+00        -0.35382E+08
 
   -0.50061E+08        -0.16842E+07         0.00000E+00
   -0.16842E+07        -0.45864E+08         0.00000E+00
    0.00000E+00         0.00000E+00        -0.35119E+08
 
   -0.49487E+08        -0.15691E+07         0.00000E+00
   -0.15691E+07        -0.45287E+08         0.00000E+00
    0.00000E+00         0.00000E+00        -0.34889E+08
 
   -0.49012E+08        -0.14599E+07         0.00000E+00
   -0.14599E+07        -0.44743E+08         0.00000E+00
    0.00000E+00         0.00000E+00        -0.34685E+08
 
   -0.48617E+08        -0.13574E+07         0.00000E+00
   -0.13574E+07        -0.44231E+08         0.00000E+00
    0.00000E+00         0.00000E+00        -0.34504E+08
 
   -0.48285E+08        -0.12622E+07         0.00000E+00
   -0.12622E+07        -0.43750E+08         0.00000E+00
    0.00000E+00         0.00000E+00        -0.34341E+08
 
   -0.48003E+08        -0.11740E+07         0.00000E+00
   -0.11740E+07        -0.43300E+08         0.00000E+00
    0.00000E+00         0.00000E+00        -0.34195E+08
 
   -0.47762E+08        -0.10925E+07         0.00000E+00
   -0.10925E+07        -0.42878E+08         0.00000E+00
    0.00000E+00         0.00000E+00        -0.34062E+08
 
   -0.47553E+08        -0.10174E+07         0.00000E+00
   -0.10174E+07        -0.42483E+08         0.00000E+00
    0.00000E+00         0.00000E+00        -0.33941E+08
 
   -0.47370E+08        -0.94815E+06         0.00000E+00
   -0.94815E+06        -0.42113E+08         0.00000E+00
    0.00000E+00         0.00000E+00        -0.33831E+08
 
   -0.47208E+08        -0.88427E+06         0.00000E+00
   -0.88427E+06        -0.41767E+08         0.00000E+00
    0.00000E+00         0.00000E+00        -0.33729E+08
 
   -0.47063E+08        -0.82530E+06         0.00000E+00
   -0.82530E+06        -0.41442E+08         0.00000E+00
    0.00000E+00         0.00000E+00        -0.33635E+08
 
   -0.46932E+08        -0.77078E+06         0.00000E+00
   -0.77078E+06        -0.41138E+08         0.00000E+00
    0.00000E+00         0.00000E+00        -0.33548E+08
 
   -0.46810E+08        -0.72031E+06         0.00000E+00
   -0.72031E+06        -0.40854E+08         0.00000E+00
    0.00000E+00         0.00000E+00        -0.33467E+08
 
   -0.46697E+08        -0.67348E+06         0.00000E+00
   -0.67348E+06        -0.40587E+08         0.00000E+00
    0.00000E+00         0.00000E+00        -0.33391E+08
 
   -0.46589E+08        -0.62993E+06         0.00000E+00
   -0.62993E+06        -0.40337E+08         0.00000E+00
    0.00000E+00         0.00000E+00        -0.33320E+08
 
   -0.46484E+08        -0.58931E+06         0.00000E+00
   -0.58931E+06        -0.40103E+08         0.00000E+00
    0.00000E+00         0.00000E+00        -0.33252E+08
 
   -0.46382E+08        -0.55130E+06         0.00000E+00
   -0.55130E+06        -0.39884E+08         0.00000E+00
    0.00000E+00         0.00000E+00        -0.33187E+08
 
   -0.46279E+08        -0.51559E+06         0.00000E+00
   -0.51559E+06        -0.39678E+08         0.00000E+00
    0.00000E+00         0.00000E+00        -0.33126E+08
 
   -0.46175E+08        -0.48188E+06         0.00000E+00
   -0.48188E+06        -0.39486E+08         0.00000E+00
    0.00000E+00         0.00000E+00        -0.33067E+08
 
   -0.46068E+08        -0.44988E+06         0.00000E+00
   -0.44988E+06        -0.39307E+08         0.00000E+00
    0.00000E+00         0.00000E+00        -0.33009E+08
 
   -0.45956E+08        -0.41929E+06         0.00000E+00
   -0.41929E+06        -0.39139E+08         0.00000E+00
    0.00000E+00         0.00000E+00        -0.32953E+08
 
   -0.45838E+08        -0.38982E+06         0.00000E+00
   -0.38982E+06        -0.38983E+08         0.00000E+00
    0.00000E+00         0.00000E+00        -0.32899E+08
 
   -0.45713E+08        -0.36114E+06         0.00000E+00
   -0.36114E+06        -0.38839E+08         0.00000E+00
    0.00000E+00         0.00000E+00        -0.32845E+08
 
   -0.45577E+08        -0.33291E+06         0.00000E+00
   -0.33291E+06        -0.38705E+08         0.00000E+00
    0.00000E+00         0.00000E+00        -0.32791E+08
 
   -0.45429E+08        -0.30474E+06         0.00000E+00
   -0.30474E+06        -0.38582E+08         0.00000E+00
    0.00000E+00         0.00000E+00        -0.32737E+08
 
   -0.45267E+08        -0.27618E+06         0.00000E+00
   -0.27618E+06        -0.38471E+08         0.00000E+00
    0.00000E+00         0.00000E+00        -0.32682E+08
 
   -0.45088E+08        -0.24672E+06         0.00000E+00
   -0.24672E+06        -0.38371E+08         0.00000E+00
    0.00000E+00         0.00000E+00        -0.32626E+08
 
   -0.44889E+08        -0.21570E+06         0.00000E+00
   -0.21570E+06        -0.38283E+08         0.00000E+00
    0.00000E+00         0.00000E+00        -0.32569E+08
 
   -0.44665E+08        -0.18235E+06         0.00000E+00
   -0.18235E+06        -0.38208E+08         0.00000E+00
    0.00000E+00         0.00000E+00        -0.32509E+08
 
   -0.44414E+08        -0.14568E+06         0.00000E+00
   -0.14568E+06        -0.38147E+08         0.00000E+00
    0.00000E+00         0.00000E+00        -0.32446E+08
 
   -0.44128E+08        -0.10441E+06         0.00000E+00
   -0.10441E+06        -0.38101E+08         0.00000E+00
    0.00000E+00         0.00000E+00        -0.32380E+08
 
   -0.43802E+08        -0.56900E+05         0.00000E+00
   -0.56900E+05        -0.38072E+08         0.00000E+00
    0.00000E+00         0.00000E+00        -0.32309E+08
 
   -0.43426E+08        -0.95495E+03         0.00000E+00
   -0.95495E+03        -0.38064E+08         0.00000E+00
    0.00000E+00         0.00000E+00        -0.32232E+08
 
   -0.42992E+08         0.66365E+05         0.00000E+00
    0.66365E+05        -0.38079E+08         0.00000E+00
    0.00000E+00         0.00000E+00        -0.32149E+08
 
   -0.42485E+08         0.14908E+06         0.00000E+00
    0.14908E+06        -0.38123E+08         0.00000E+00
    0.00000E+00         0.00000E+00        -0.32056E+08
 
   -0.41889E+08         0.25280E+06         0.00000E+00
    0.25280E+06        -0.38202E+08         0.00000E+00
    0.00000E+00         0.00000E+00        -0.31953E+08
 
   -0.41182E+08         0.38547E+06         0.00000E+00
    0.38547E+06        -0.38324E+08         0.00000E+00
    0.00000E+00         0.00000E+00        -0.31836E+08
 
   -0.40335E+08         0.55867E+06         0.00000E+00
    0.55867E+06        -0.38502E+08         0.00000E+00
    0.00000E+00         0.00000E+00        -0.31702E+08
 
   -0.39307E+08         0.78968E+06         0.00000E+00
    0.78968E+06        -0.38750E+08         0.00000E+00
    0.00000E+00         0.00000E+00        -0.31546E+08
 
   -0.38043E+08         0.11052E+07         0.00000E+00
    0.11052E+07        -0.39091E+08         0.00000E+00
    0.00000E+00         0.00000E+00        -0.31361E+08
 
   -0.36463E+08         0.15478E+07         0.00000E+00
    0.15478E+07        -0.39555E+08         0.00000E+00
    0.00000E+00         0.00000E+00        -0.31138E+08
 
   -0.34447E+08         0.21889E+07         0.00000E+00
    0.21889E+07        -0.40184E+08         0.00000E+00
    0.00000E+00         0.00000E+00        -0.30861E+08
 
   -0.31806E+08         0.31545E+07         0.00000E+00
    0.31545E+07        -0.41038E+08         0.00000E+00
    0.00000E+00         0.00000E+00        -0.30503E+08
 
SCALARS stresss double 
LOOKUP_TABLE default
  -49686460.6948457     
  -50533554.4045824     
  -51306294.1887471     
  -52000522.4031546     
  -52635791.4552598     
  -53178527.7189413     
  -53634136.9308276     
  -54023483.6196274     
  -54360648.6442561     
  -54655747.0446529     
  -54916329.0852530     
  -55148199.8860983     
  -55355927.8054473     
  -55543176.0309298     
  -55712928.1557726     
  -55867647.0725551     
  -56009390.1743456     
  -56139894.9268352     
  -56260643.7675112     
  -56372914.2390754     
  -56477818.3747746     
  -56576334.1434825     
  -56669330.9660940     
  -56757590.7788364     
  -56841825.7523237     
  -56922693.5218527     
  -57000810.6097979     
  -57076764.6031073     
  -57151125.5742211     
  -57224457.1942971     
  -57297327.9797475     
  -57370323.1367993     
  -57444057.5278725     
  -57519190.3864230     
  -57596442.5682351     
  -57676617.3712420     
  -57760626.3222851     
  -57849521.8825921     
  -57944539.8725527     
  -58047155.7466322     
  -58159160.9900681     
  -58282769.4624172     
  -58420769.6216057     
  -58576749.4797258     
  -58755441.4965140     
  -58963274.3053044     
  -59209299.2177063     
  -59506832.8186574     
  -59876544.8174533     
  -60352625.4694241     
  -50771071.7490083     
  -50662030.1025052     
  -50677372.0379665     
  -50759230.2309924     
  -50866414.6155705     
  -51005007.4012408     
  -51166533.8526394     
  -51333291.5418776     
  -51497554.8553966     
  -51655613.0520572     
  -51805805.5582112     
  -51947549.8679555     
  -52080839.4058689     
  -52205974.2140297     
  -52323412.1022278     
  -52433684.6593734     
  -52537349.4309309     
  -52634962.8608610     
  -52727065.4338570     
  -52814174.1064416     
  -52896779.1364140     
  -52975343.5739016     
  -53050304.3543463     
  -53122074.3405028     
  -53191044.9095414     
  -53257588.8358077     
  -53322063.3160512     
  -53384813.0431609     
  -53446173.2689923     
  -53506472.8135454     
  -53566036.9796227     
  -53625190.3191097     
  -53684259.1659765     
  -53743573.7946193     
  -53803469.9665874     
  -53864289.4699194     
  -53926378.9907661     
  -53990086.2110193     
  -54055751.2605904     
  -54123690.3119097     
  -54194165.6941042     
  -54267332.4494469     
  -54343142.7604757     
  -54421172.9253553     
  -54500303.3237038     
  -54578109.2022272     
  -54649660.2159939     
  -54705061.3372636     
  -54724202.9646829     
  -54665071.9782625     
  -50815305.5003958     
  -50643300.0999656     
  -50493091.6023150     
  -50378721.6234019     
  -50302511.5447758     
  -50254553.5887190     
  -50229925.1967644     
  -50226399.9260584     
  -50239748.0576979     
  -50265834.0388987     
  -50301197.1522714     
  -50343111.8282862     
  -50389491.1367030     
  -50438760.8611955     
  -50489744.9276499     
  -50541571.9507580     
  -50593602.2983399     
  -50645372.2246504     
  -50696551.3730537     
  -50746910.4760746     
  -50796296.7415710     
  -50844615.0016648     
  -50891813.1694946     
  -50937870.9042416     
  -50982790.6475231     
  -51026590.3847019     
  -51069297.6197262     
  -51110944.1442554     
  -51151561.2396024     
  -51191174.9786326     
  -51229801.2965313     
  -51267440.4738658     
  -51304070.6194210     
  -51339639.6474913     
  -51374055.1044850     
  -51407170.9980798     
  -51438770.4988880     
  -51468542.9954743     
  -51496053.4653956     
  -51520701.4730869     
  -51541666.3845410     
  -51557834.8692133     
  -51567707.2758896     
  -51569283.3540876     
  -51559941.3175810     
  -51536364.0498985     
  -51494676.4490653     
  -51431256.2171788     
  -51345484.0772063     
  -51247873.5682671     
  -50989322.6005555     
  -50773732.5130702     
  -50594333.5382974     
  -50441474.2325493     
  -50311294.3169538     
  -50203056.1103592     
  -50114597.3449070     
  -50043318.5835600     
  -49987323.8915221     
  -49944804.6171302     
  -49913965.4667449     
  -49893091.0974700     
  -49880607.8321788     
  -49875115.3215843     
  -49875393.4604577     
  -49880394.1260404     
  -49889225.2214305     
  -49901131.7803926     
  -49915476.8294251     
  -49931723.3776724     
  -49949418.1199773     
  -49968176.9997533     
  -49987672.5477533     
  -50007622.8014672     
  -50027781.5639900     
  -50047929.7492224     
  -50067867.5641115     
  -50087407.2881722     
  -50106366.4202674     
  -50124560.9698319     
  -50141798.6734190     
  -50157871.9180497     
  -50172550.1522619     
  -50185571.5681015     
  -50196633.8502910     
  -50205383.8263654     
  -50211405.9382792     
  -50214209.6345897     
  -50213216.1256568     
  -50207745.5730826     
  -50197006.8894094     
  -50180094.1777091     
  -50155996.7452708     
  -50123633.6058577     
  -50081927.0354846     
  -50029926.4363526     
  -49966959.8429236     
  -49892649.5756031     
  -49806145.6727023     
  -49702397.1306648     
  -51050604.7896946     
  -50894569.2606479     
  -50748182.6945507     
  -50614512.4764926     
  -50493829.5654800     
  -50385425.3948836     
  -50288844.3671141     
  -50203577.8690943     
  -50128864.3809534     
  -50063911.4422945     
  -50007926.8273269     
  -49960115.9566186     
  -49919688.0970151     
  -49885869.6038903     
  -49857917.8241801     
  -49835132.0070809     
  -49816860.1311481     
  -49802501.9271793     
  -49791508.8889919     
  -49783382.1288361     
  -49777668.8131310     
  -49773957.7428931     
  -49771874.4809500     
  -49771076.2952009     
  -49771247.0866103     
  -49772092.3983935     
  -49773334.5534353     
  -49774707.9353034     
  -49775954.4104272     
  -49776818.8827011     
  -49777044.9758985     
  -49776370.8542498     
  -49774525.2190989     
  -49771223.5629886     
  -49766164.8265127     
  -49759028.6936323     
  -49749473.8836525     
  -49737137.9551902     
  -49721639.3211837     
  -49702582.3498513     
  -49679566.5025500     
  -49652200.2301993     
  -49620119.4114204     
  -49583007.7918930     
  -49540612.3934368     
  -49492740.6330641     
  -49439225.2714678     
  -49379883.4048418     
  -49314710.0821865     
  -49245398.0447824     
  -51059501.4684320     
  -50947740.5631310     
  -50841331.6344988     
  -50740045.6287127     
  -50644367.5353230     
  -50554735.9363992     
  -50471299.7764385     
  -50394071.3045661     
  -50322996.4733641     
  -50257923.1755802     
  -50198625.1580928     
  -50144825.8663318     
  -50096213.5772054     
  -50052451.8678246     
  -50013188.2469419     
  -49978061.8330091     
  -49946710.0721007     
  -49918774.2988850     
  -49893904.0266241     
  -49871759.9835948     
  -49852016.0121572     
  -49834359.9990604     
  -49818494.0211444     
  -49804133.8833353     
  -49791008.2073059     
  -49778857.2072508     
  -49767431.2686645     
  -49756489.4294184     
  -49745797.8510680     
  -49735128.3626988     
  -49724257.1598243     
  -49712963.7466537     
  -49701030.2208644     
  -49688241.0146012     
  -49674383.2213622     
  -49659247.6513001     
  -49642630.7596588     
  -49624337.5724781     
  -49604185.6729878     
  -49582010.1905822     
  -49557669.5376773     
  -49531051.3888636     
  -49502078.2147543     
  -49470711.9253210     
  -49436958.6036287     
  -49400877.9974097     
  -49362607.9424689     
  -49322409.7112475     
  -49280664.8582247     
  -49237352.4362786     
  -51030903.3433883     
  -50950695.1780263     
  -50872245.4823991     
  -50796169.8365713     
  -50722751.5816964     
  -50652223.4592741     
  -50584806.7468797     
  -50520663.7171093     
  -50459890.9029174     
  -50402536.5057744     
  -50348602.0318347     
  -50298045.9680730     
  -50250789.9094353     
  -50206724.9351581     
  -50165717.3621159     
  -50127613.7909051     
  -50092245.5560998     
  -50059432.6659012     
  -50028987.2617544     
  -50000716.6011189     
  -49974425.5662536     
  -49949918.7156293     
  -49927001.9116336     
  -49905483.5727804     
  -49885175.6086669     
  -49865894.1015721     
  -49847459.8008586     
  -49829698.4963970     
  -49812441.3360252     
  -49795525.1501910     
  -49778792.8445902     
  -49762093.9185810     
  -49745285.1627636     
  -49728231.5822989     
  -49710807.5819011     
  -49692898.4325113     
  -49674402.0174724     
  -49655230.8282998     
  -49635314.1512442     
  -49614600.3665715     
  -49593059.2923327     
  -49570684.5685533     
  -49547496.2060562     
  -49523543.5441976     
  -49498908.6675013     
  -49473709.0699678     
  -49448095.0546152     
  -49422234.2257930     
  -49396296.2158370     
  -49370619.3796370     
  -50980463.9235307     
  -50919967.6309764     
  -50860444.2052002     
  -50802033.9885803     
  -50744946.7071737     
  -50689361.1954707     
  -50635421.9312916     
  -50583252.1994236     
  -50532953.3459523     
  -50484600.6270452     
  -50438244.6949113     
  -50393912.8314453     
  -50351610.1067868     
  -50311320.9734668     
  -50273011.2521354     
  -50236630.3082474     
  -50202113.2617029     
  -50169383.1402199     
  -50138352.9316377     
  -50108927.5118641     
  -50081005.4350433     
  -50054480.5786302     
  -50029243.6418070     
  -50005183.5017467     
  -49982188.4381915     
  -49960147.2420849     
  -49938950.2281120     
  -49918490.1737340     
  -49898663.2085559     
  -49879369.6776427     
  -49860515.0006984     
  -49842010.5458651     
  -49823774.5323087     
  -49805732.9698699     
  -49787820.6371692     
  -49769982.0923113     
  -49752172.7037697     
  -49734359.6844924     
  -49716523.1108525     
  -49698656.9091300     
  -49680769.7905884     
  -49662886.0986165     
  -49645046.4762118     
  -49627308.1564506     
  -49609744.5862595     
  -49592444.3178986     
  -49575510.3554597     
  -49559063.6879375     
  -49543250.8847385     
  -49528190.8732752     
  -50915729.8550157     
  -50868822.5019661     
  -50822391.5169912     
  -50776573.0926657     
  -50731471.9487455     
  -50687190.9095006     
  -50643826.6458799     
  -50601464.4087204     
  -50560177.8075248     
  -50520029.2223645     
  -50481069.0422418     
  -50443335.5100348     
  -50406854.9276009     
  -50371642.0244581     
  -50337700.4794726     
  -50305023.6015642     
  -50273595.1483792     
  -50243390.2462856     
  -50214376.3745040     
  -50186514.3825878     
  -50159759.5179712     
  -50134062.4466672     
  -50109370.2551449     
  -50085627.4252944     
  -50062776.7775452     
  -50040760.3798094     
  -50019520.4220088     
  -49999000.0574715     
  -49979144.2133918     
  -49959900.3728110     
  -49941219.3302054     
  -49923055.9218296     
  -49905369.7305777     
  -49888125.7634609     
  -49871295.0980369     
  -49854855.4924163     
  -49838791.9518160     
  -49823097.2427554     
  -49807772.3433090     
  -49792826.8136149     
  -49778279.0652859     
  -49764156.5049224     
  -49750495.5358297     
  -49737341.4408970     
  -49724748.2451231     
  -49712778.6901385     
  -49701504.1254083     
  -49691002.9372110     
  -49681356.1090545     
  -49672661.7962253     
  -50842453.2446187     
  -50805600.0786986     
  -50768983.9128081     
  -50732675.2793736     
  -50696748.9010554     
  -50661273.4991455     
  -50626312.9012250     
  -50591926.5052584     
  -50558168.4109742     
  -50525086.7794925     
  -50492723.6807472     
  -50461114.9084214     
  -50430289.8769191     
  -50400271.6429177     
  -50371077.0333752     
  -50342716.8630013     
  -50315196.2322480     
  -50288514.8984548     
  -50262667.7109233     
  -50237645.0989035     
  -50213433.6009410     
  -50190016.4245856     
  -50167374.0265936     
  -50145484.7050608     
  -50124325.1961752     
  -50103871.2693878     
  -50084098.3157149     
  -50064981.9246259     
  -50046498.4455069     
  -50028625.5300563     
  -50011342.6521677     
  -49994631.6019097     
  -49978476.9501503     
  -49962866.4802244     
  -49947791.5828094     
  -49933247.6098708     
  -49919234.1831902     
  -49905755.4526753     
  -49892820.2996679     
  -49880442.4813479     
  -49868640.7148097     
  -49857438.7036255     
  -49846865.1133098     
  -49836953.4972283     
  -49827742.1489724     
  -49819273.8184397     
  -49811595.2847560     
  -49804757.2217532     
  -49798815.2714064     
  -49793825.2993387     
  -50765177.6482896     
  -50736240.8024552     
  -50707361.6722658     
  -50678597.1068868     
  -50649999.8089321     
  -50621620.8774552     
  -50593508.8149370     
  -50565709.0683105     
  -50538263.9680122     
  -50511212.5918460     
  -50484590.5701590     
  -50458429.9822920     
  -50432759.3010329     
  -50407603.3771014     
  -50382983.4701020     
  -50358917.3275096     
  -50335419.3092580     
  -50312500.5544470     
  -50290169.1865636     
  -50268430.5533888     
  -50247287.4973378     
  -50226740.6515788     
  -50206788.7570174     
  -50187428.9951627     
  -50168657.3319652     
  -50150468.8678925     
  -50132858.1897292     
  -50115819.7198322     
  -50099348.0588137     
  -50083438.3178575     
  -50068086.4370942     
  -50053289.4866646     
  -50039045.9473006     
  -50025355.9674402     
  -50012221.5941071     
  -49999646.9750279     
  -49987638.5297988     
  -49976205.0883708     
  -49965357.9957094     
  -49955111.1820862     
  -49945481.1987213     
  -49936487.2179630     
  -49928150.9958182     
  -49920496.7945540     
  -49913551.2703085     
  -49907343.3503310     
  -49901904.1289376     
  -49897266.6723740     
  -49893465.3187770     
  -49890536.6551824     
  -50687620.9772907     
  -50665079.3810340     
  -50642471.0537760     
  -50619840.6992329     
  -50597231.8846192     
  -50574686.1332731     
  -50552243.0976612     
  -50529940.5033759     
  -50507814.0155232     
  -50485897.1640339     
  -50464221.3038600     
  -50442815.5751058     
  -50421706.8823087     
  -50400919.8960051     
  -50380477.0755113     
  -50360398.7130966     
  -50340702.9999154     
  -50321406.1134060     
  -50302522.3251761     
  -50284064.1279333     
  -50266042.3796890     
  -50248466.4632059     
  -50231344.4584266     
  -50214683.3254327     
  -50198489.0953394     
  -50182767.0664421     
  -50167522.0029035     
  -50152758.3332779     
  -50138480.3462301     
  -50124692.3808919     
  -50111399.0094175     
  -50098605.2094432     
  -50086316.5243198     
  -50074539.2091820     
  -50063280.3611294     
  -50052548.0320336     
  -50042351.3227338     
  -50032700.4576163     
  -50023606.8387746     
  -50015083.0790922     
  -50007143.0137603     
  -49999801.6901386     
  -49993075.3367427     
  -49986981.3132389     
  -49981538.0425518     
  -49976764.9195754     
  -49972682.1827478     
  -49969310.7721570     
  -49966672.3386301     
  -49964788.7487757     
  -50612622.5078649     
  -50595278.4839215     
  -50577782.2065030     
  -50560171.9708251     
  -50542484.5702138     
  -50524755.4910304     
  -50507018.7907169     
  -50489307.0686513     
  -50471651.4572437     
  -50454081.6013143     
  -50436625.6406441     
  -50419310.2053215     
  -50402160.4188885     
  -50385199.9100681     
  -50368450.8343418     
  -50351933.9057664     
  -50335668.4390675     
  -50319672.4019176     
  -50303962.4771386     
  -50288554.1343476     
  -50273461.7103444     
  -50258698.4973412     
  -50244276.8379733     
  -50230208.2258946     
  -50216503.4106478     
  -50203172.5054193     
  -50190225.0962232     
  -50177670.3510337     
  -50165517.1273753     
  -50153774.0769010     
  -50142449.7455373     
  -50131552.6678363     
  -50121091.4542643     
  -50111074.8702587     
  -50101511.9059941     
  -50092411.8359253     
  -50083784.2672944     
  -50075639.1769203     
  -50067986.9357324     
  -50060838.3206689     
  -50054204.5137478     
  -50048097.0882555     
  -50042527.9819580     
  -50037509.4569217     
  -50033054.0454481     
  -50029174.4835552     
  -50025883.6379720     
  -50023194.4245488     
  -50021119.6596363     
  -50019672.0373325     
  -50542164.3200085     
  -50529017.4727875     
  -50515666.0495683     
  -50502142.7528932     
  -50488479.2795214     
  -50474706.2449134     
  -50460853.2010627     
  -50446948.6248139     
  -50433019.9070123     
  -50419093.3500099     
  -50405194.1686779     
  -50391346.4937219     
  -50377573.3795590     
  -50363896.8168834     
  -50350337.7499353     
  -50336916.0986392     
  -50323650.7856988     
  -50310559.7686023     
  -50297660.0763835     
  -50284967.8508897     
  -50272498.3922147     
  -50260266.2078630     
  -50248285.0651228     
  -50236568.0460503     
  -50225127.6043974     
  -50213975.6237634     
  -50203123.4762117     
  -50192582.0805618     
  -50182361.9595593     
  -50172473.2951205     
  -50162925.9808662     
  -50153729.6711823     
  -50144893.8260800     
  -50136427.7511764     
  -50128340.6321689     
  -50120641.5632367     
  -50113339.5688748     
  -50106443.6187347     
  -50099962.6351231     
  -50093905.4928775     
  -50088281.0113932     
  -50083097.9386189     
  -50078364.9269258     
  -50074090.5009488     
  -50070283.0177516     
  -50066950.6193394     
  -50064101.1758104     
  -50061742.2185667     
  -50059880.8837389     
  -50058523.8108260     
  -50477459.2420823     
  -50467660.6112011     
  -50457630.9199869     
  -50447397.9734416     
  -50436988.7992172     
  -50426429.6544896     
  -50415746.0087309     
  -50404962.5388376     
  -50394103.1258701     
  -50383190.8524429     
  -50372248.0026537     
  -50361296.0648411     
  -50350355.7366942     
  -50339446.9328895     
  -50328588.7953505     
  -50317799.7061170     
  -50307097.3027804     
  -50296498.4964095     
  -50286019.4918488     
  -50275675.8102284     
  -50265482.3134739     
  -50255453.2305680     
  -50245602.1852734     
  -50235942.2249888     
  -50226485.8503808     
  -50217245.0454037     
  -50208231.3072990     
  -50199455.6761498     
  -50190928.7635575     
  -50182660.7800044     
  -50174661.5604694     
  -50166940.5878751     
  -50159507.0139597     
  -50152369.6771891     
  -50145537.1173494     
  -50139017.5864949     
  -50132819.0559536     
  -50126949.2191370     
  -50121415.4899304     
  -50116224.9964853     
  -50111384.5702788     
  -50106900.7303575     
  -50102779.6627333     
  -50099027.1949070     
  -50095648.7654527     
  -50092649.3886715     
  -50090033.6149730     
  -50087805.4878575     
  -50085968.4912710     
  -50084525.5031889     
  -50419091.1269003     
  -50411923.4442492     
  -50404517.4561518     
  -50396896.4055365     
  -50389083.0082496     
  -50381099.4351441     
  -50372967.3033414     
  -50364707.6661267     
  -50356341.0051338     
  -50347887.2247846     
  -50339365.6484183     
  -50330795.0161179     
  -50322193.4843528     
  -50313578.6273521     
  -50304967.4401430     
  -50296376.3431981     
  -50287821.1886179     
  -50279317.2677555     
  -50270879.3201720     
  -50262521.5437944     
  -50254257.6061320     
  -50246100.6563851     
  -50238063.3382672     
  -50230157.8033418     
  -50222395.7246647     
  -50214788.3105091     
  -50207346.3179397     
  -50200080.0659999     
  -50192999.4482674     
  -50186113.9445359     
  -50179432.6313817     
  -50172964.1913803     
  -50166716.9207458     
  -50160698.7351785     
  -50154917.1737179     
  -50149379.4004194     
  -50144092.2036854     
  -50139061.9931090     
  -50134294.7937070     
  -50129796.2374460     
  -50125571.5519893     
  -50121625.5466166     
  -50117962.5952902     
  -50114586.6168719     
  -50111501.0525557     
  -50108708.8406246     
  -50106212.3884832     
  -50104013.5417348     
  -50102113.5524488     
  -50100513.0424487     
  -50367169.2408094     
  -50362035.0257344     
  -50356668.5752868     
  -50351088.9716212     
  -50345314.9570892     
  -50339364.9187994     
  -50333256.8730022     
  -50327008.4522070     
  -50320636.8937625     
  -50314159.0299336     
  -50307591.2795540     
  -50300949.6411543     
  -50294249.6874558     
  -50287506.5611791     
  -50280734.9720939     
  -50273949.1952291     
  -50267163.0701583     
  -50260390.0012710     
  -50253642.9589345     
  -50246934.4814420     
  -50240276.6776389     
  -50233681.2301106     
  -50227159.3988100     
  -50220722.0249964     
  -50214379.5353538     
  -50208141.9461510     
  -50202018.8673042     
  -50196019.5062015     
  -50190152.6711462     
  -50184426.7742809     
  -50178849.8338527     
  -50173429.4756883     
  -50168172.9337493     
  -50163087.0496511     
  -50158178.2710303     
  -50153452.6486637     
  -50148915.8322473     
  -50144573.0647598     
  -50140429.1753487     
  -50136488.5706913     
  -50132755.2247977     
  -50129232.6672418     
  -50125923.9698237     
  -50122831.7316865     
  -50119958.0629173     
  -50117304.5666703     
  -50114872.3199142     
  -50112661.8530393     
  -50110673.1278279     
  -50108905.5151096     
  -50321472.6797436     
  -50317882.9147778     
  -50314075.4674681     
  -50310065.7100346     
  -50305868.8211278     
  -50301499.7668203     
  -50296973.2836996     
  -50292303.8631522     
  -50287505.7371448     
  -50282592.8653712     
  -50277578.9236604     
  -50272477.2935892     
  -50267301.0532406     
  -50262062.9690287     
  -50256775.4885196     
  -50251450.7341762     
  -50246100.4979531     
  -50240736.2366637     
  -50235369.0680437     
  -50230009.7674297     
  -50224668.7649709     
  -50219356.1432920     
  -50214081.6355187     
  -50208854.6235837     
  -50203684.1367210     
  -50198578.8500649     
  -50193547.0832627     
  -50188596.7990160     
  -50183735.6014645     
  -50178970.7343285     
  -50174309.0787306     
  -50169757.1506189     
  -50165321.0977202     
  -50161006.6959569     
  -50156819.3452661     
  -50152764.0647676     
  -50148845.4872358     
  -50145067.8528364     
  -50141435.0021005     
  -50137950.3681172     
  -50134616.9679351     
  -50131437.3931760     
  -50128413.7998712     
  -50125547.8975453     
  -50122840.9375810     
  -50120293.7009211     
  -50117906.4851588     
  -50115679.0910362     
  -50113610.8086086     
  -50111700.4028435     
  -50281571.8451943     
  -50279133.6466409     
  -50276497.0755671     
  -50273674.2879594     
  -50270677.3513235     
  -50267518.2256409     
  -50264208.7454478     
  -50260760.6032139     
  -50257185.3338532     
  -50253494.3003379     
  -50249698.6803673     
  -50245809.4540321     
  -50241837.3924144     
  -50237793.0470708     
  -50233686.7403397     
  -50229528.5564158     
  -50225328.3331339     
  -50221095.6544032     
  -50216839.8432330     
  -50212569.9552918     
  -50208294.7729386     
  -50204022.7996691     
  -50199762.2549162     
  -50195521.0691455     
  -50191306.8791891     
  -50187127.0237586     
  -50182988.5390816     
  -50178898.1546080     
  -50174862.2887305     
  -50170887.0444725     
  -50166978.2050927     
  -50163141.2295626     
  -50159381.2478773     
  -50155703.0561601     
  -50152111.1115312     
  -50148609.5267098     
  -50145202.0643305     
  -50141892.1309542     
  -50138682.7707656     
  -50135576.6589502     
  -50132576.0947547     
  -50129682.9942395     
  -50126898.8827380     
  -50124224.8870474     
  -50121661.7273808     
  -50119209.7091149     
  -50116868.7143793     
  -50114638.1935550     
  -50112517.1566895     
  -50110504.1649809     
  -50246923.0690508     
  -50245326.5940350     
  -50243553.1049572     
  -50241612.0403308     
  -50239512.8225937     
  -50237264.8397702     
  -50234877.4281520     
  -50232359.8559040     
  -50229721.3075906     
  -50226970.8695795     
  -50224117.5162820     
  -50221170.0971942     
  -50218137.3246996     
  -50215027.7625924     
  -50211849.8152817     
  -50208611.7176346     
  -50205321.5254199     
  -50201987.1063060     
  -50198616.1313780     
  -50195216.0671268     
  -50191794.1678737     
  -50188357.4685875     
  -50184912.7780546     
  -50181466.6723630     
  -50178025.4886625     
  -50174595.3191619     
  -50171182.0053297     
  -50167791.1322623     
  -50164428.0231874     
  -50161097.7340726     
  -50157805.0483108     
  -50154554.4714550     
  -50151350.2259828     
  -50148196.2460659     
  -50145096.1723323     
  -50142053.3466045     
  -50139070.8066044     
  -50136151.2806211     
  -50133297.1821356     
  -50130510.6044087     
  -50127793.3150351     
  -50125146.7504772     
  -50122572.0105912     
  -50120069.8531683     
  -50117640.6885120     
  -50115284.5740831     
  -50113001.2092451     
  -50110789.9301422     
  -50108649.7047651     
  -50106579.1282301     
  -50216937.6434575     
  -50215942.9997085     
  -50214792.8913634     
  -50213494.5146111     
  -50212055.0961756     
  -50210481.8766382     
  -50208782.0944790     
  -50206962.9708380     
  -50205031.6949656     
  -50202995.4103464     
  -50200861.2014735     
  -50198636.0812501     
  -50196326.9789940     
  -50193940.7290203     
  -50191484.0597766     
  -50188963.5835044     
  -50186385.7864009     
  -50183757.0192528     
  -50181083.4885179     
  -50178371.2478247     
  -50175626.1898664     
  -50172854.0386612     
  -50170060.3421543     
  -50167250.4651357     
  -50164429.5824507     
  -50161602.6724787     
  -50158774.5108594     
  -50155949.6644442     
  -50153132.4854540     
  -50150327.1058252     
  -50147537.4317275     
  -50144767.1382398     
  -50142019.6641698     
  -50139298.2070094     
  -50136605.7180153     
  -50133944.8974115     
  -50131318.1897075     
  -50128727.7791345     
  -50126175.5851987     
  -50123663.2583584     
  -50121192.1758314     
  -50118763.4375429     
  -50116377.8622271     
  -50114035.9836986     
  -50111738.0473122     
  -50109484.0066330     
  -50107273.5203392     
  -50105105.9493889     
  -50102980.3544735     
  -50100895.4937977     
  -50191029.0170632     
  -50190453.8792743     
  -50189743.8291062     
  -50188904.2518559     
  -50187940.5908132     
  -50186858.3326407     
  -50185662.9932766     
  -50184360.1043518     
  -50182955.2001156     
  -50181453.8048616     
  -50179861.4208422     
  -50178183.5166617     
  -50176425.5161364     
  -50174592.7876052     
  -50172690.6336813     
  -50170724.2814266     
  -50168698.8729361     
  -50166619.4563157     
  -50164490.9770387     
  -50162318.2696644     
  -50160106.0499045     
  -50157858.9070207     
  -50155581.2965391     
  -50153277.5332665     
  -50150951.7845946     
  -50148608.0640777     
  -50146250.2252733     
  -50143881.9558310     
  -50141506.7718208     
  -50139128.0122899     
  -50136748.8340396     
  -50134372.2066153     
  -50132000.9075023     
  -50129637.5175246     
  -50127284.4164413     
  -50124943.7787408     
  -50122617.5696326     
  -50120307.5412368     
  -50118015.2289773     
  -50115741.9481819     
  -50113488.7908970     
  -50111256.6229255     
  -50109046.0810993     
  -50106857.5707972     
  -50104691.2637236     
  -50102547.0959628     
  -50100424.7663278     
  -50098323.7350199     
  -50096243.2226230     
  -50094182.2094517     
  -50168642.6835106     
  -50168351.0979491     
  -50167943.4668287     
  -50167423.7418491     
  -50166795.9464734     
  -50166064.1635096     
  -50165232.5230496     
  -50164305.1907665     
  -50163286.3565717     
  -50162180.2236312     
  -50160990.9977390     
  -50159722.8770450     
  -50158380.0421345     
  -50156966.6464517     
  -50155486.8070651     
  -50153944.5957667     
  -50152344.0304980     
  -50150689.0670978     
  -50148983.5913616     
  -50147231.4114074     
  -50145436.2503389     
  -50143601.7391989     
  -50141731.4102048     
  -50139828.6902594     
  -50137896.8947296     
  -50135939.2214858     
  -50133958.7451965     
  -50131958.4118717     
  -50129941.0336495     
  -50127909.2838229     
  -50125865.6921006     
  -50123812.6401013     
  -50121752.3570776     
  -50119686.9158690     
  -50117618.2290830     
  -50115548.0455066     
  -50113477.9467479     
  -50111409.3441117     
  -50109343.4757134     
  -50107281.4038347     
  -50105224.0125289     
  -50103172.0054814     
  -50101125.9041344     
  -50099086.0460853     
  -50097052.5837690     
  -50095025.4834341     
  -50093004.5244282     
  -50090989.2988025     
  -50088979.2112517     
  -50086973.4794030     
  -50149273.1126056     
  -50149165.7404612     
  -50148959.1726120     
  -50148656.2471322     
  -50148259.8783005     
  -50147773.0463218     
  -50147198.7872808     
  -50146540.1833349     
  -50145800.3531498     
  -50144982.4425864     
  -50144089.6156375     
  -50143125.0456214     
  -50142091.9066315     
  -50140993.3652431     
  -50139832.5724780     
  -50138612.6560262     
  -50137336.7127239     
  -50136007.8012860     
  -50134628.9352913     
  -50133203.0764189     
  -50131733.1279322     
  -50130221.9284100     
  -50128672.2457203     
  -50127086.7712352     
  -50125468.1142845     
  -50123818.7968457     
  -50122141.2484681     
  -50120437.8014292     
  -50118710.6861224     
  -50116962.0266741     
  -50115193.8367903     
  -50113408.0158317     
  -50111606.3451183     
  -50109790.4844631     
  -50107961.9689379     
  -50106122.2058719     
  -50104272.4720851     
  -50102413.9113619     
  -50100547.5321658     
  -50098674.2056021     
  -50096794.6636321     
  -50094909.4975443     
  -50093019.1566912     
  -50091123.9474950     
  -50089224.0327329     
  -50087319.4311080     
  -50085410.0171154     
  -50083495.5212122     
  -50081575.5303000     
  -50079649.4885319     
  -50132471.4658931     
  -50132477.3333589     
  -50132398.7484239     
  -50132237.6999854     
  -50131996.2515673     
  -50131676.5330016     
  -50131280.7322512     
  -50130811.0873824     
  -50130269.8786939     
  -50129659.4210122     
  -50128982.0561580     
  -50128240.1455899     
  -50127436.0632303     
  -50126572.1884781     
  -50125650.8994107     
  -50124674.5661796     
  -50123645.5446018     
  -50122566.1699485     
  -50121438.7509336     
  -50120265.5639029     
  -50119048.8472255     
  -50117790.7958882     
  -50116493.5562938     
  -50115159.2212635     
  -50113789.8252449     
  -50112387.3397254     
  -50110953.6688518     
  -50109490.6452580     
  -50108000.0260992     
  -50106483.4892962     
  -50104942.6299898     
  -50103378.9572059     
  -50101793.8907346     
  -50100188.7582243     
  -50098564.7924927     
  -50096923.1290581     
  -50095264.8038928     
  -50093590.7514025     
  -50091901.8026349     
  -50090198.6837210     
  -50088482.0145536     
  -50086752.3077074     
  -50085009.9676049     
  -50083255.2899342     
  -50081488.4613226     
  -50079709.5592728     
  -50077918.5523672     
  -50076115.3007455     
  -50074299.5568627     
  -50072470.9665339     
  -50117847.0979370     
  -50117916.7963964     
  -50117914.7443560     
  -50117842.2952416     
  -50117700.8719309     
  -50117491.9601576     
  -50117217.1019908     
  -50116877.8893990     
  -50116475.9579101     
  -50116012.9803735     
  -50115490.6608343     
  -50114910.7285249     
  -50114274.9319823     
  -50113585.0332952     
  -50112842.8024889     
  -50112050.0120499     
  -50111208.4315976     
  -50110319.8227055     
  -50109385.9338767     
  -50108408.4956756     
  -50107389.2160217     
  -50106329.7756456     
  -50105231.8237115     
  -50104096.9736090     
  -50102926.7989153     
  -50101722.8295319     
  -50100486.5479960     
  -50099219.3859711     
  -50097922.7209175     
  -50096597.8729446     
  -50095246.1018493     
  -50093868.6043405     
  -50092466.5114536     
  -50091040.8861565     
  -50089592.7211504     
  -50088122.9368682     
  -50086632.3796721     
  -50085121.8202550     
  -50083591.9522469     
  -50082043.3910318     
  -50080476.6727757     
  -50078892.2536715     
  -50077290.5094031     
  -50075671.7348320     
  -50074036.1439116     
  -50072383.8698313     
  -50070714.9653955     
  -50069029.4036404     
  -50067327.0786932     
  -50065607.8068772     
  -50105065.1297583     
  -50105165.3351891     
  -50105204.6066894     
  -50105183.8314417     
  -50105103.9590217     
  -50104965.9962661     
  -50104771.0021698     
  -50104520.0828260     
  -50104214.3864153     
  -50103855.0982550     
  -50103443.4359141     
  -50102980.6444042     
  -50102467.9914513     
  -50101906.7628570     
  -50101298.2579532     
  -50100643.7851586     
  -50099944.6576406     
  -50099202.1890882     
  -50098417.6896010     
  -50097592.4616990     
  -50096727.7964565     
  -50095824.9697647     
  -50094885.2387270     
  -50093909.8381903     
  -50092899.9774149     
  -50091856.8368880     
  -50090781.5652821     
  -50089675.2765628     
  -50088539.0472478     
  -50087373.9138203     
  -50086180.8702999     
  -50084960.8659735     
  -50083714.8032887     
  -50082443.5359124     
  -50081147.8669581     
  -50079828.5473828     
  -50078486.2745580     
  -50077121.6910163     
  -50075735.3833770     
  -50074327.8814518     
  -50072899.6575357     
  -50071451.1258833     
  -50069982.6423751     
  -50068494.5043740     
  -50066986.9507779     
  -50065460.1622673     
  -50063914.2617529     
  -50062349.3150243     
  -50060765.3316029     
  -50059162.2657999     
  -50093841.7622173     
  -50093950.9066067     
  -50094008.2504283     
  -50094014.3461056     
  -50093969.8006719     
  -50093875.2718484     
  -50093731.4641255     
  -50093539.1248551     
  -50093299.0403631     
  -50093012.0320905     
  -50092678.9527702     
  -50092300.6826472     
  -50091878.1257493     
  -50091412.2062147     
  -50090903.8646823     
  -50090354.0547525     
  -50089763.7395212     
  -50089133.8881952     
  -50088465.4727926     
  -50087759.4649328     
  -50087016.8327221     
  -50086238.5377372     
  -50085425.5321129     
  -50084578.7557362     
  -50083699.1335518     
  -50082787.5729812     
  -50081844.9614606     
  -50080872.1640995     
  -50079870.0214633     
  -50078839.3474840     
  -50077780.9275005     
  -50076695.5164323     
  -50075583.8370885     
  -50074446.5786165     
  -50073284.3950899     
  -50072097.9042412     
  -50070887.6863401     
  -50069654.2832192     
  -50068398.1974512     
  -50067119.8916778     
  -50065819.7880935     
  -50064498.2680864     
  -50063155.6720366     
  -50061792.2992758     
  -50060408.4082088     
  -50059004.2165978     
  -50057579.9020132     
  -50056135.6024491     
  -50054671.4171076     
  -50053187.4073517     
  -50083938.4961176     
  -50084043.4134168     
  -50084104.1982560     
  -50084121.1685833     
  -50084094.6891964     
  -50084025.1688014     
  -50083913.0570568     
  -50083758.8416104     
  -50083563.0451365     
  -50083326.2223815     
  -50083048.9572237     
  -50082731.8597550     
  -50082375.5633907     
  -50081980.7220129     
  -50081548.0071543     
  -50081078.1052275     
  -50080571.7148055     
  -50080029.5439578     
  -50079452.3076482     
  -50078840.7251984     
  -50078195.5178212     
  -50077517.4062291     
  -50076807.1083210     
  -50076065.3369516     
  -50075292.7977873     
  -50074490.1872514     
  -50073658.1905636     
  -50072797.4798747     
  -50071908.7125020     
  -50070992.5292664     
  -50070049.5529362     
  -50069080.3867771     
  -50068085.6132148     
  -50067065.7926096     
  -50066021.4621465     
  -50064953.1348438     
  -50063861.2986803     
  -50062746.4158455     
  -50061608.9221121     
  -50060449.2263355     
  -50059267.7100784     
  -50058064.7273655     
  -50056840.6045674     
  -50055595.6404155     
  -50054330.1061491     
  -50053044.2457963     
  -50051738.2765876     
  -50050412.3895054     
  -50049066.7499680     
  -50047701.4986481     
  -50075156.0388430     
  -50075249.4141522     
  -50075305.0743171     
  -50075323.1778777     
  -50075303.9229373     
  -50075247.5449999     
  -50075154.3147817     
  -50075024.5360057     
  -50074858.5431843     
  -50074656.6993973     
  -50074419.3940709     
  -50074147.0407630     
  -50073840.0749622     
  -50073498.9519032     
  -50073124.1444073     
  -50072716.1407496     
  -50072275.4425607     
  -50071802.5627652     
  -50071298.0235639     
  -50070762.3544612     
  -50070196.0903449     
  -50069599.7696197     
  -50068973.9324001     
  -50068319.1187651     
  -50067635.8670788     
  -50066924.7123804     
  -50066186.1848461     
  -50065420.8083264     
  -50064629.0989615     
  -50063811.5638780     
  -50062968.6999684     
  -50062100.9927573     
  -50061208.9153551     
  -50060292.9275031     
  -50059353.4747106     
  -50058390.9874860     
  -50057405.8806655     
  -50056398.5528384     
  -50055369.3858726     
  -50054318.7445407     
  -50053246.9762483     
  -50052154.4108655     
  -50051041.3606627     
  -50049908.1203514     
  -50048754.9672301     
  -50047582.1614378     
  -50046389.9463127     
  -50045178.5488581     
  -50043948.1803156     
  -50042699.0368440     
  -50067328.3896645     
  -50067406.8558016     
  -50067452.9728527     
  -50067466.7950430     
  -50067448.4095916     
  -50067397.9351537     
  -50067315.5202341     
  -50067201.3415769     
  -50067055.6025378     
  -50066878.5314443     
  -50066670.3799470     
  -50066431.4213705     
  -50066161.9490647     
  -50065862.2747640     
  -50065532.7269588     
  -50065173.6492815     
  -50064785.3989141     
  -50064368.3450190     
  -50063922.8671996     
  -50063449.3539911     
  -50062948.2013887     
  -50062419.8114149     
  -50061864.5907279     
  -50061282.9492785     
  -50060675.2990140     
  -50060042.0526349     
  -50059383.6224066     
  -50058700.4190280     
  -50057992.8505609     
  -50057261.3214215     
  -50056506.2314371     
  -50055727.9749689     
  -50054926.9401050     
  -50054103.5079234     
  -50053258.0518281     
  -50052390.9369595     
  -50051502.5196804     
  -50050593.1471397     
  -50049663.1569139     
  -50048712.8767283     
  -50047742.6242594     
  -50046752.7070173     
  -50045743.4223114     
  -50044715.0572983     
  -50043667.8891115     
  -50042602.1850760     
  -50041518.2030048     
  -50040416.1915793     
  -50039296.3908116     
  -50038159.0325905     
  -50060317.3892951     
  -50060380.1347549     
  -50060415.0245860     
  -50060422.0482675     
  -50060401.2225193     
  -50060352.5902075     
  -50060276.2192192     
  -50060172.2013137     
  -50060040.6509516     
  -50059881.7041088     
  -50059695.5170770     
  -50059482.2652577     
  -50059242.1419509     
  -50058975.3571446     
  -50058682.1363072     
  -50058362.7191885     
  -50058017.3586304     
  -50057646.3193932     
  -50057249.8769993     
  -50056828.3165978     
  -50056381.9318544     
  -50055911.0238671     
  -50055415.9001136     
  -50054896.8734311     
  -50054354.2610314     
  -50053788.3835552     
  -50053199.5641662     
  -50052588.1276890     
  -50051954.3997915     
  -50051298.7062154     
  -50050621.3720556     
  -50049922.7210904     
  -50049203.0751652     
  -50048462.7536308     
  -50047702.0728364     
  -50046921.3456819     
  -50046120.8812268     
  -50045300.9843601     
  -50044461.9555306     
  -50043604.0905381     
  -50042727.6803877     
  -50041833.0112064     
  -50040920.3642233     
  -50039990.0158134     
  -50039042.2376045     
  -50038077.2966494     
  -50037095.4556607     
  -50036096.9733094     
  -50035082.1045868     
  -50034051.1012289     
  -50054007.8761218     
  -50054055.6494512     
  -50054079.3435261     
  -50054078.9107989     
  -50054054.3260358     
  -50054005.5855699     
  -50053932.7065246     
  -50053835.7260142     
  -50053714.7003222     
  -50053569.7040621     
  -50053400.8293241     
  -50053208.1848110     
  -50052991.8949663     
  -50052752.0990976     
  -50052488.9504994     
  -50052202.6155764     
  -50051893.2729732     
  -50051561.1127099     
  -50051206.3353291     
  -50050829.1510558     
  -50050429.7789728     
  -50050008.4462146     
  -50049565.3871819     
  -50049100.8427793     
  -50048615.0596781     
  -50048108.2896064     
  -50047580.7886693     
  -50047032.8167001     
  -50046464.6366447     
  -50045876.5139817     
  -50045268.7161782     
  -50044641.5121850     
  -50043995.1719706     
  -50043329.9660965     
  -50042646.1653351     
  -50041944.0403305     
  -50041223.8613033     
  -50040485.8978020     
  -50039730.4184987     
  -50038957.6910329     
  -50038167.9819014     
  -50037361.5563966     
  -50036538.6785926     
  -50035699.6113793     
  -50034844.6165443     
  -50033973.9549036     
  -50033087.8864801     
  -50032186.6707293     
  -50031270.5668123     
  -50030339.8339160     
  -50048303.4962784     
  -50048337.9121366     
  -50048351.4405061     
  -50048344.0156547     
  -50048315.5900175     
  -50048266.1337052     
  -50048195.6339871     
  -50048104.0947509     
  -50047991.5359427     
  -50047857.9929890     
  -50047703.5162045     
  -50047528.1701885     
  -50047332.0332101     
  -50047115.1965887     
  -50046877.7640681     
  -50046619.8511902     
  -50046341.5846688     
  -50046043.1017655     
  -50045724.5496722     
  -50045386.0848993     
  -50045027.8726746     
  -50044650.0863533     
  -50044252.9068417     
  -50043836.5220360     
  -50043401.1262790     
  -50042946.9198354     
  -50042474.1083885     
  -50041982.9025586     
  -50041473.5174457     
  -50040946.1721976     
  -50040401.0896047     
  -50039838.4957225     
  -50039258.6195234     
  -50038661.6925791     
  -50038047.9487733     
  -50037417.6240474     
  -50036770.9561787     
  -50036108.1845919     
  -50035429.5502055     
  -50034735.2953120     
  -50034025.6634940     
  -50033300.8995752     
  -50032561.2496070     
  -50031806.9608910     
  -50031038.2820367     
  -50030255.4630555     
  -50029458.7554890     
  -50028648.4125728     
  -50027824.6894350     
  -50026987.8433282     
  -50043123.1545542     
  -50043146.2251003     
  -50043151.1262507     
  -50043137.7864082     
  -50043106.1487009     
  -50043056.1706742     
  -50042987.8239616     
  -50042901.0939348     
  -50042795.9793349     
  -50042672.4918882     
  -50042530.6559078     
  -50042370.5078828     
  -50042192.0960578     
  -50041995.4800049     
  -50041780.7301886     
  -50041547.9275282     
  -50041297.1629565     
  -50041028.5369797     
  -50040742.1592378     
  -50040438.1480689     
  -50040116.6300783     
  -50039777.7397147     
  -50039421.6188539     
  -50039048.4163938     
  -50038658.2878592     
  -50038251.3950201     
  -50037827.9055247     
  -50037387.9925467     
  -50036931.8344507     
  -50036459.6144734     
  -50035971.5204261     
  -50035467.7444155     
  -50034948.4825853     
  -50034413.9348812     
  -50033864.3048361     
  -50033299.7993804     
  -50032720.6286749     
  -50032127.0059690     
  -50031519.1474827     
  -50030897.2723148     
  -50030261.6023762     
  -50029612.3623483     
  -50028949.7796684     
  -50028274.0845396     
  -50027585.5099680     
  -50026884.2918237     
  -50026170.6689288     
  -50025444.8831697     
  -50024707.1796338     
  -50023957.8067709     
  -50038398.0579372     
  -50038411.8892053     
  -50038409.8871445     
  -50038391.9819224     
  -50038358.1156038     
  -50038308.2419733     
  -50038242.3263385     
  -50038160.3453156     
  -50038062.2865996     
  -50037948.1487190     
  -50037817.9407789     
  -50037671.6821913     
  -50037509.4023972     
  -50037331.1405798     
  -50037136.9453709     
  -50036926.8745532     
  -50036700.9947575     
  -50036459.3811592     
  -50036202.1171731     
  -50035929.2941494     
  -50035641.0110715     
  -50035337.3742571     
  -50035018.4970639     
  -50034684.4996012     
  -50034335.5084488     
  -50033971.6563829     
  -50033593.0821127     
  -50033199.9300263     
  -50032792.3499478     
  -50032370.4969071     
  -50031934.5309220     
  -50031484.6167945     
  -50031020.9239209     
  -50030543.6261189     
  -50030052.9014677     
  -50029548.9321670     
  -50029031.9044112     
  -50028502.0082815     
  -50027959.4376555     
  -50027404.3901342     
  -50026837.0669882     
  -50026257.6731202     
  -50025666.4170476     
  -50025063.5109021     
  -50024449.1704485     
  -50023823.6151199     
  -50023187.0680725     
  -50022539.7562566     
  -50021881.9105054     
  -50021213.7656398     
  -50034069.2856338     
  -50034075.8920889     
  -50034068.6941678     
  -50034047.6281412     
  -50034012.6398724     
  -50033963.6847281     
  -50033900.7274739     
  -50033823.7421541     
  -50033732.7119593     
  -50033627.6290796     
  -50033508.4945476     
  -50033375.3180714     
  -50033228.1178574     
  -50033066.9204269     
  -50032891.7604253     
  -50032702.6804251     
  -50032499.7307262     
  -50032282.9691518     
  -50032052.4608423     
  -50031808.2780490     
  -50031550.4999266     
  -50031279.2123275     
  -50030994.5075982     
  -50030696.4843781     
  -50030385.2474025     
  -50030060.9073104     
  -50029723.5804578     
  -50029373.3887371     
  -50029010.4594046     
  -50028634.9249144     
  -50028246.9227621     
  -50027846.5953372     
  -50027434.0897844     
  -50027009.5578770     
  -50026573.1558988     
  -50026125.0445389     
  -50025665.3887968     
  -50025194.3578997     
  -50024712.1252324     
  -50024218.8682781     
  -50023714.7685729     
  -50023200.0116723     
  -50022674.7871296     
  -50022139.2884877     
  -50021593.7132828     
  -50021038.2630603     
  -50020473.1434027     
  -50019898.5639699     
  -50019314.7385497     
  -50018721.8851204     
  -50030085.8129038     
  -50030087.0145229     
  -50030076.1943538     
  -50030053.2968682     
  -50030018.2742604     
  -50029971.0864177     
  -50029911.7008760     
  -50029840.0927651     
  -50029756.2447409     
  -50029660.1469075     
  -50029551.7967293     
  -50029431.1989352     
  -50029298.3654133     
  -50029153.3150998     
  -50028996.0738607     
  -50028826.6743687     
  -50028645.1559756     
  -50028451.5645807     
  -50028245.9524964     
  -50028028.3783120     
  -50027798.9067560     
  -50027557.6085584     
  -50027304.5603124     
  -50027039.8443383     
  -50026763.5485481     
  -50026475.7663125     
  -50026176.5963324     
  -50025866.1425117     
  -50025544.5138362     
  -50025211.8242564     
  -50024868.1925760     
  -50024513.7423454     
  -50024148.6017623     
  -50023772.9035782     
  -50023386.7850121     
  -50022990.3876714     
  -50022583.8574802     
  -50022167.3446153     
  -50021741.0034506     
  -50021304.9925088     
  -50020859.4744218     
  -50020404.6158991     
  -50019940.5877045     
  -50019467.5646408     
  -50018985.7255429     
  -50018495.2532789     
  -50017996.3347579     
  -50017489.1609475     
  -50016973.9268960     
  -50016450.8317638     
  -50026402.9168051     
  -50026400.2920134     
  -50026387.2306669     
  -50026363.6860666     
  -50026329.6177231     
  -50026284.9913630     
  -50026229.7789250     
  -50026163.9585451     
  -50026087.5145330     
  -50026000.4373394     
  -50025902.7235151     
  -50025794.3756625     
  -50025675.4023802     
  -50025545.8182016     
  -50025405.6435267     
  -50025254.9045510     
  -50025093.6331877     
  -50024921.8669878     
  -50024739.6490562     
  -50024547.0279658     
  -50024344.0576690     
  -50024130.7974088     
  -50023907.3116280     
  -50023673.6698794     
  -50023429.9467347     
  -50023176.2216958     
  -50022912.5791062     
  -50022639.1080649     
  -50022355.9023418     
  -50022063.0602960     
  -50021760.6847973     
  -50021448.8831504     
  -50021127.7670233     
  -50020797.4523792     
  -50020458.0594130     
  -50020109.7124914     
  -50019752.5400993     
  -50019386.6747886     
  -50019012.2531341     
  -50018629.4156931     
  -50018238.3069709     
  -50017839.0753903     
  -50017431.8732678     
  -50017016.8567932     
  -50016594.1860153     
  -50016164.0248324     
  -50015726.5409867     
  -50015281.9060640     
  -50014830.2954976     
  -50014371.8885765     
  -50022980.8969619     
  -50022975.7718654     
  -50022961.6375400     
  -50022938.4558326     
  -50022906.1935737     
  -50022864.8226046     
  -50022814.3197971     
  -50022754.6670637     
  -50022685.8513618     
  -50022607.8646887     
  -50022520.7040717     
  -50022424.3715506     
  -50022318.8741548     
  -50022204.2238750     
  -50022080.4376295     
  -50021947.5372272     
  -50021805.5493246     
  -50021654.5053812     
  -50021494.4416105     
  -50021325.3989289     
  -50021147.4229019     
  -50020960.5636890     
  -50020764.8759868     
  -50020560.4189712     
  -50020347.2562390     
  -50020125.4557493     
  -50019895.0897647     
  -50019656.2347936     
  -50019408.9715324     
  -50019153.3848096     
  -50018889.5635306     
  -50018617.6006249     
  -50018337.5929938     
  -50018049.6414618     
  -50017753.8507295     
  -50017450.3293282     
  -50017139.1895787     
  -50016820.5475514     
  -50016494.5230295     
  -50016161.2394761     
  -50015820.8240023     
  -50015473.4073403     
  -50015119.1238175     
  -50014758.1113350     
  -50014390.5113476     
  -50014016.4688480     
  -50013636.1323516     
  -50013249.6538857     
  -50012857.1889798     
  -50012458.8966582     
  -50019784.0517224     
  -50019777.5115878     
  -50019763.2634228     
  -50019741.2768172     
  -50019711.5253458     
  -50019673.9866065     
  -50019628.6422520     
  -50019575.4780141     
  -50019514.4837233     
  -50019445.6533213     
  -50019368.9848690     
  -50019284.4805487     
  -50019192.1466610     
  -50019091.9936185     
  -50018984.0359338     
  -50018868.2922045     
  -50018744.7850942     
  -50018613.5413104     
  -50018474.5915792     
  -50018327.9706179     
  -50018173.7171047     
  -50018011.8736468     
  -50017842.4867467     
  -50017665.6067668     
  -50017481.2878934     
  -50017289.5880994     
  -50017090.5691065     
  -50016884.2963474     
  -50016670.8389271     
  -50016450.2695852     
  -50016222.6646580     
  -50015988.1040411     
  -50015746.6711526     
  -50015498.4528979     
  -50015243.5396342     
  -50014982.0251371     
  -50014714.0065677     
  -50014439.5844417     
  -50014158.8625995     
  -50013871.9481769     
  -50013578.9515786     
  -50013279.9864525     
  -50012975.1696648     
  -50012664.6212772     
  -50012348.4645254     
  -50012026.8257985     
  -50011699.8346193     
  -50011367.6236266     
  -50011030.3285572     
  -50010688.0882293     
  -50016779.8581647     
  -50016772.7712978     
  -50016759.1771929     
  -50016739.0521289     
  -50016712.3755489     
  -50016679.1301027     
  -50016639.3016822     
  -50016592.8794537     
  -50016539.8558839     
  -50016480.2267618     
  -50016413.9912171     
  -50016341.1517321     
  -50016261.7141524     
  -50016175.6876915     
  -50016083.0849334     
  -50015983.9218311     
  -50015878.2177019     
  -50015765.9952207     
  -50015647.2804094     
  -50015522.1026253     
  -50015390.4945457     
  -50015252.4921522     
  -50015108.1347120     
  -50014957.4647579     
  -50014800.5280672     
  -50014637.3736397     
  -50014468.0536738     
  -50014292.6235425     
  -50014111.1417685     
  -50013923.6699994     
  -50013730.2729815     
  -50013531.0185338     
  -50013325.9775233     
  -50013115.2238375     
  -50012898.8343598     
  -50012676.8889437     
  -50012449.4703872     
  -50012216.6644086     
  -50011978.5596215     
  -50011735.2475105     
  -50011486.8224083     
  -50011233.3814718     
  -50010975.0246595     
  -50010711.8547093     
  -50010443.9771161     
  -50010171.5001101     
  -50009894.5346348     
  -50009613.1943265     
  -50009327.5954915     
  -50009037.8570855     
  -50013938.3124802     
  -50013931.3597921     
  -50013919.0212525     
  -50013901.2787020     
  -50013878.1164624     
  -50013849.5213784     
  -50013815.4828530     
  -50013775.9928813     
  -50013731.0460785     
  -50013680.6397062     
  -50013624.7736940     
  -50013563.4506576     
  -50013496.6759150     
  -50013424.4574983     
  -50013346.8061632     
  -50013263.7353959     
  -50013175.2614168     
  -50013081.4031827     
  -50012982.1823856     
  -50012877.6234501     
  -50012767.7535287     
  -50012652.6024953     
  -50012532.2029367     
  -50012406.5901429     
  -50012275.8020958     
  -50012139.8794569     
  -50011998.8655534     
  -50011852.8063639     
  -50011701.7505027     
  -50011545.7492035     
  -50011384.8563023     
  -50011219.1282203     
  -50011048.6239454     
  -50010873.4050136     
  -50010693.5354906     
  -50010509.0819524     
  -50010320.1134657     
  -50010126.7015689     
  -50009928.9202516     
  -50009726.8459350     
  -50009520.5574518     
  -50009310.1360259     
  -50009095.6652516     
  -50008877.2310734     
  -50008654.9217649     
  -50008428.8279075     
  -50008199.0423688     
  -50007965.6602809     
  -50007728.7790177     
  -50007488.4981718     
  -50011231.3948011     
  -50011225.1006473     
  -50011214.4799932     
  -50011199.5191538     
  -50011180.2063474     
  -50011156.5317322     
  -50011128.4874408     
  -50011096.0676103     
  -50011059.2684108     
  -50011018.0880707     
  -50010972.5268991     
  -50010922.5873061     
  -50010868.2738201     
  -50010809.5931028     
  -50010746.5539624     
  -50010679.1673638     
  -50010607.4464372     
  -50010531.4064846     
  -50010451.0649843     
  -50010366.4415934     
  -50010277.5581491     
  -50010184.4386683     
  -50010087.1093450     
  -50009985.5985474     
  -50009879.9368126     
  -50009770.1568410     
  -50009656.2934891     
  -50009538.3837610     
  -50009416.4668000     
  -50009290.5838779     
  -50009160.7783845     
  -50009027.0958161     
  -50008889.5837630     
  -50008748.2918968     
  -50008603.2719568     
  -50008454.5777362     
  -50008302.2650672     
  -50008146.3918059     
  -50007987.0178171     
  -50007824.2049580     
  -50007658.0170619     
  -50007488.5199209     
  -50007315.7812689     
  -50007139.8707630     
  -50006960.8599658     
  -50006778.8223255     
  -50006593.8331568     
  -50006405.9696203     
  -50006215.3107010     
  -50006021.9371874     
  -50008632.6292535     
  -50008627.3907660     
  -50008618.8377170     
  -50008606.9599169     
  -50008591.7485790     
  -50008573.1963514     
  -50008551.2973458     
  -50008526.0471650     
  -50008497.4429278     
  -50008465.4832920     
  -50008430.1684753     
  -50008391.5002742     
  -50008349.4820816     
  -50008304.1189013     
  -50008255.4173621     
  -50008203.3857290     
  -50008148.0339138     
  -50008089.3734833     
  -50008027.4176661     
  -50007962.1813585     
  -50007893.6811282     
  -50007821.9352173     
  -50007746.9635441     
  -50007668.7877026     
  -50007587.4309627     
  -50007502.9182677     
  -50007415.2762315     
  -50007324.5331352     
  -50007230.7189218     
  -50007133.8651910     
  -50007034.0051930     
  -50006931.1738210     
  -50006825.4076035     
  -50006716.7446959     
  -50006605.2248713     
  -50006490.8895106     
  -50006373.7815922     
  -50006253.9456810     
  -50006131.4279168     
  -50006006.2760021     
  -50005878.5391895     
  -50005748.2682681     
  -50005615.5155501     
  -50005480.3348556     
  -50005342.7814981     
  -50005202.9122682     
  -50005060.7854173     
  -50004916.4606403     
  -50004769.9990576     
  -50004621.4631962     
  -50006116.7157971     
  -50006112.8290651     
  -50006106.6048767     
  -50006098.0357044     
  -50006087.1149802     
  -50006073.8371219     
  -50006058.1975559     
  -50006040.1927396     
  -50006019.8201828     
  -50005997.0784665     
  -50005971.9672609     
  -50005944.4873416     
  -50005914.6406056     
  -50005882.4300836     
  -50005847.8599536     
  -50005810.9355512     
  -50005771.6633800     
  -50005730.0511203     
  -50005686.1076361     
  -50005639.8429820     
  -50005591.2684086     
  -50005540.3963666     
  -50005487.2405101     
  -50005431.8156996     
  -50005374.1380027     
  -50005314.2246955     
  -50005252.0942622     
  -50005187.7663939     
  -50005121.2619874     
  -50005052.6031428     
  -50004981.8131602     
  -50004908.9165359     
  -50004833.9389588     
  -50004756.9073047     
  -50004677.8496309     
  -50004596.7951707     
  -50004513.7743258     
  -50004428.8186602     
  -50004341.9608917     
  -50004253.2348838     
  -50004162.6756369     
  -50004070.3192789     
  -50003976.2030556     
  -50003880.3653196     
  -50003782.8455198     
  -50003683.6841891     
  -50003582.9229326     
  -50003480.6044145     
  -50003376.7723441     
  -50003271.4714615     
  -50003659.2152452     
  -50003656.8974532     
  -50003653.1955684     
  -50003648.1040571     
  -50003641.6179419     
  -50003633.7328213     
  -50003624.4448865     
  -50003613.7509392     
  -50003601.6484070     
  -50003588.1353587     
  -50003573.2105176     
  -50003556.8732747     
  -50003539.1237015     
  -50003519.9625600     
  -50003499.3913135     
  -50003477.4121359     
  -50003454.0279203     
  -50003429.2422869     
  -50003403.0595894     
  -50003375.4849217     
  -50003346.5241230     
  -50003316.1837826     
  -50003284.4712444     
  -50003251.3946097     
  -50003216.9627401     
  -50003181.1852599     
  -50003144.0725577     
  -50003105.6357873     
  -50003065.8868680     
  -50003024.8384853     
  -50002982.5040897     
  -50002938.8978963     
  -50002894.0348829     
  -50002847.9307885     
  -50002800.6021109     
  -50002752.0661039     
  -50002702.3407743     
  -50002651.4448785     
  -50002599.3979183     
  -50002546.2201364     
  -50002491.9325120     
  -50002436.5567557     
  -50002380.1153032     
  -50002322.6313103     
  -50002264.1286452     
  -50002204.6318827     
  -50002144.1662960     
  -50002082.7578491     
  -50002020.4331882     
  -50001957.2196330     
  -50001236.2727924     
  -50001235.6798916     
  -50001234.6425710     
  -50001233.1567945     
  -50001231.2187057     
  -50001228.8246402     
  -50001225.9711373     
  -50001222.6549508     
  -50001218.8730602     
  -50001214.6226803     
  -50001209.9012708     
  -50001204.7065452     
  -50001199.0364794     
  -50001192.8893193     
  -50001186.2635885     
  -50001179.1580954     
  -50001171.5719389     
  -50001163.5045154     
  -50001154.9555238     
  -50001145.9249706     
  -50001136.4131751     
  -50001126.4207736     
  -50001115.9487229     
  -50001104.9983050     
  -50001093.5711294     
  -50001081.6691367     
  -50001069.2946012     
  -50001056.4501331     
  -50001043.1386809     
  -50001029.3635330     
  -50001015.1283195     
  -50001000.4370137     
  -50000985.2939329     
  -50000969.7037395     
  -50000953.6714414     
  -50000937.2023931     
  -50000920.3022952     
  -50000902.9771952     
  -50000885.2334865     
  -50000867.0779089     
  -50000848.5175473     
  -50000829.5598313     
  -50000810.2125340     
  -50000790.4837707     
  -50000770.3819978     
  -50000749.9160106     
  -50000729.0949412     
  -50000707.9282569     
  -50000686.4257569     
  -50000664.5975698     
  -49998824.3684632     
  -49998825.6082210     
  -49998827.3389058     
  -49998829.5576587     
  -49998832.2614384     
  -49998835.4470272     
  -49998839.1110359     
  -49998843.2499096     
  -49998847.8599324     
  -49998852.9372322     
  -49998858.4777858     
  -49998864.4774233     
  -49998870.9318327     
  -49998877.8365637     
  -49998885.1870324     
  -49998892.9785256     
  -49998901.2062037     
  -49998909.8651058     
  -49998918.9501526     
  -49998928.4561505     
  -49998938.3777949     
  -49998948.7096744     
  -49998959.4462735     
  -49998970.5819766     
  -49998982.1110716     
  -49998994.0277524     
  -49999006.3261236     
  -49999019.0002029     
  -49999032.0439250     
  -49999045.4511446     
  -49999059.2156405     
  -49999073.3311183     
  -49999087.7912141     
  -49999102.5894984     
  -49999117.7194790     
  -49999133.1746049     
  -49999148.9482699     
  -49999165.0338160     
  -49999181.4245370     
  -49999198.1136827     
  -49999215.0944618     
  -49999232.3600463     
  -49999249.9035750     
  -49999267.7181569     
  -49999285.7968759     
  -49999304.1327934     
  -49999322.7189529     
  -49999341.5483837     
  -49999360.6141041     
  -49999379.9091255     
  -49996400.0852484     
  -49996403.2256335     
  -49996407.7969401     
  -49996413.7973429     
  -49996421.2244770     
  -49996430.0754375     
  -49996440.3467780     
  -49996452.0345102     
  -49996465.1341028     
  -49996479.6404811     
  -49996495.5480273     
  -49996512.8505799     
  -49996531.5414341     
  -49996551.6133425     
  -49996573.0585154     
  -49996595.8686220     
  -49996620.0347913     
  -49996645.5476140     
  -49996672.3971436     
  -49996700.5728988     
  -49996730.0638655     
  -49996760.8584995     
  -49996792.9447288     
  -49996826.3099573     
  -49996860.9410677     
  -49996896.8244252     
  -49996933.9458814     
  -49996972.2907787     
  -49997011.8439545     
  -49997052.5897462     
  -49997094.5119962     
  -49997137.5940575     
  -49997181.8187989     
  -49997227.1686114     
  -49997273.6254144     
  -49997321.1706622     
  -49997369.7853512     
  -49997419.4500265     
  -49997470.1447897     
  -49997521.8493068     
  -49997574.5428162     
  -49997628.2041368     
  -49997682.8116769     
  -49997738.3434432     
  -49997794.7770496     
  -49997852.0897273     
  -49997910.2583337     
  -49997969.2593635     
  -49998029.0689585     
  -49998089.6629175     
  -49993939.8873553     
  -49993944.9602371     
  -49993952.4175213     
  -49993962.2584521     
  -49993974.4813732     
  -49993989.0837201     
  -49994006.0620119     
  -49994025.4118446     
  -49994047.1278842     
  -49994071.2038610     
  -49994097.6325642     
  -49994126.4058370     
  -49994157.5145724     
  -49994190.9487100     
  -49994226.6972322     
  -49994264.7481629     
  -49994305.0885651     
  -49994347.7045396     
  -49994392.5812251     
  -49994439.7027979     
  -49994489.0524727     
  -49994540.6125039     
  -49994594.3641874     
  -49994650.2878636     
  -49994708.3629201     
  -49994768.5677954     
  -49994830.8799838     
  -49994895.2760399     
  -49994961.7315842     
  -49995030.2213093     
  -49995100.7189867     
  -49995173.1974741     
  -49995247.6287232     
  -49995323.9837884     
  -49995402.2328354     
  -49995482.3451515     
  -49995564.2891553     
  -49995648.0324076     
  -49995733.5416229     
  -49995820.7826810     
  -49995909.7206401     
  -49996000.3197490     
  -49996092.5434614     
  -49996186.3544498     
  -49996281.7146202     
  -49996378.5851276     
  -49996476.9263915     
  -49996576.6981130     
  -49996677.8592908     
  -49996780.3682399     
  -49991419.9020491     
  -49991426.9021412     
  -49991437.2625446     
  -49991450.9837952     
  -49991468.0651534     
  -49991488.5045891     
  -49991512.2987666     
  -49991539.4430314     
  -49991569.9313970     
  -49991603.7565338     
  -49991640.9097580     
  -49991681.3810222     
  -49991725.1589065     
  -49991772.2306112     
  -49991822.5819495     
  -49991876.1973424     
  -49991933.0598139     
  -49991993.1509872     
  -49992056.4510820     
  -49992122.9389128     
  -49992192.5918883     
  -49992265.3860115     
  -49992341.2958809     
  -49992420.2946925     
  -49992502.3542431     
  -49992587.4449341     
  -49992675.5357763     
  -49992766.5943961     
  -49992860.5870417     
  -49992957.4785911     
  -49993057.2325602     
  -49993159.8111124     
  -49993265.1750690     
  -49993373.2839196     
  -49993484.0958345     
  -49993597.5676775     
  -49993713.6550193     
  -49993832.3121517     
  -49993953.4921036     
  -49994077.1466563     
  -49994203.2263607     
  -49994331.6805555     
  -49994462.4573851     
  -49994595.5038193     
  -49994730.7656739     
  -49994868.1876312     
  -49995007.7132624     
  -49995149.2850503     
  -49995292.8444126     
  -49995438.3317271     
  -49988815.6990222     
  -49988824.5779227     
  -49988837.8247596     
  -49988855.4417765     
  -49988877.4295427     
  -49988903.7869296     
  -49988934.5110892     
  -49988969.5974335     
  -49989009.0396155     
  -49989052.8295118     
  -49989100.9572065     
  -49989153.4109765     
  -49989210.1772787     
  -49989271.2407378     
  -49989336.5841365     
  -49989406.1884064     
  -49989480.0326205     
  -49989558.0939876     
  -49989640.3478469     
  -49989726.7676656     
  -49989817.3250364     
  -49989911.9896767     
  -49990010.7294300     
  -49990113.5102673     
  -49990220.2962904     
  -49990331.0497366     
  -49990445.7309843     
  -49990564.2985599     
  -49990686.7091459     
  -49990812.9175903     
  -49990942.8769167     
  -49991076.5383365     
  -49991213.8512608     
  -49991354.7633148     
  -49991499.2203525     
  -49991647.1664727     
  -49991798.5440361     
  -49991953.2936834     
  -49992111.3543546     
  -49992272.6633093     
  -49992437.1561481     
  -49992604.7668346     
  -49992775.4277198     
  -49992949.0695658     
  -49993125.6215720     
  -49993305.0114016     
  -49993487.1652096     
  -49993672.0076718     
  -49993859.4620149     
  -49994049.4500476     
  -49986102.0611321     
  -49986112.7162286     
  -49986128.7885055     
  -49986150.2825352     
  -49986177.2007799     
  -49986209.5435604     
  -49986247.3090264     
  -49986290.4931292     
  -49986339.0895969     
  -49986393.0899103     
  -49986452.4832823     
  -49986517.2566381     
  -49986587.3945978     
  -49986662.8794613     
  -49986743.6911950     
  -49986829.8074190     
  -49986921.2033991     
  -49987017.8520374     
  -49987119.7238673     
  -49987226.7870483     
  -49987339.0073640     
  -49987456.3482212     
  -49987578.7706503     
  -49987706.2333079     
  -49987838.6924810     
  -49987976.1020922     
  -49988118.4137069     
  -49988265.5765419     
  -49988417.5374756     
  -49988574.2410587     
  -49988735.6295282     
  -49988901.6428203     
  -49989072.2185872     
  -49989247.2922129     
  -49989426.7968319     
  -49989610.6633487     
  -49989798.8204586     
  -49989991.1946690     
  -49990187.7103237     
  -49990388.2896267     
  -49990592.8526681     
  -49990801.3174513     
  -49991013.5999212     
  -49991229.6139936     
  -49991449.2715862     
  -49991672.4826507     
  -49991899.1552064     
  -49992129.1953745     
  -49992362.5074149     
  -49992598.9937632     
  -49983252.7396545     
  -49983264.9976007     
  -49983283.7744265     
  -49983309.0778687     
  -49983340.9130668     
  -49983379.2825227     
  -49983424.1860642     
  -49983475.6208106     
  -49983533.5811414     
  -49983598.0586676     
  -49983669.0422052     
  -49983746.5177520     
  -49983830.4684667     
  -49983920.8746499     
  -49984017.7137291     
  -49984120.9602443     
  -49984230.5858372     
  -49984346.5592428     
  -49984468.8462820     
  -49984597.4098581     
  -49984732.2099538     
  -49984873.2036315     
  -49985020.3450354     
  -49985173.5853946     
  -49985332.8730296     
  -49985498.1533593     
  -49985669.3689106     
  -49985846.4593294     
  -49986029.3613935     
  -49986218.0090266     
  -49986412.3333146     
  -49986612.2625231     
  -49986817.7221161     
  -49987028.6347766     
  -49987244.9204285     
  -49987466.4962601     
  -49987693.2767481     
  -49987925.1736846     
  -49988162.0962036     
  -49988403.9508103     
  -49988650.6414112     
  -49988902.0693453     
  -49989158.1334168     
  -49989418.7299299     
  -49989683.7527239     
  -49989953.0932101     
  -49990226.6404106     
  -49990504.2809982     
  -49990785.8993374     
  -49991071.3775281     
  -49980240.1858846     
  -49980253.7803517     
  -49980275.0600160     
  -49980304.0368360     
  -49980340.7196136     
  -49980385.1139477     
  -49980437.2221889     
  -49980497.0434004     
  -49980564.5733198     
  -49980639.8043271     
  -49980722.7254136     
  -49980813.3221563     
  -49980911.5766940     
  -49981017.4677077     
  -49981130.9704033     
  -49981252.0564980     
  -49981380.6942092     
  -49981516.8482462     
  -49981660.4798053     
  -49981811.5465667     
  -49981970.0026944     
  -49982135.7988387     
  -49982308.8821403     
  -49982489.1962378     
  -49982676.6812764     
  -49982871.2739190     
  -49983072.9073594     
  -49983281.5113373     
  -49983497.0121551     
  -49983719.3326963     
  -49983948.3924459     
  -49984184.1075123     
  -49984426.3906503     
  -49984675.1512862     
  -49984930.2955442     
  -49985191.7262738     
  -49985459.3430792     
  -49985733.0423495     
  -49986012.7172904     
  -49986298.2579572     
  -49986589.5512896     
  -49986886.4811467     
  -49987188.9283445     
  -49987496.7706940     
  -49987809.8830409     
  -49988128.1373066     
  -49988451.4025313     
  -49988779.5449173     
  -49989112.4278750     
  -49989449.9120700     
  -49977035.2488973     
  -49977049.7923942     
  -49977073.2660154     
  -49977105.6872137     
  -49977147.0696327     
  -49977197.4230517     
  -49977256.7533363     
  -49977325.0623928     
  -49977402.3481281     
  -49977488.6044130     
  -49977583.8210510     
  -49977687.9837507     
  -49977801.0741027     
  -49977923.0695598     
  -49978053.9434224     
  -49978193.6648258     
  -49978342.1987330     
  -49978499.5059291     
  -49978665.5430204     
  -49978840.2624357     
  -49979023.6124307     
  -49979215.5370957     
  -49979415.9763656     
  -49979624.8660317     
  -49979842.1377573     
  -49980067.7190943     
  -49980301.5335026     
  -49980543.5003709     
  -49980793.5350396     
  -49981051.5488257     
  -49981317.4490492     
  -49981591.1390599     
  -49981872.5182678     
  -49982161.4821727     
  -49982457.9223965     
  -49982761.7267161     
  -49983072.7790973     
  -49983390.9597303     
  -49983716.1450663     
  -49984048.2078545     
  -49984387.0171806     
  -49984732.4385069     
  -49985084.3337124     
  -49985442.5611349     
  -49985806.9756135     
  -49986177.4285331     
  -49986553.7678699     
  -49986935.8382371     
  -49987323.4809342     
  -49987716.5339957     
  -49973606.8264665     
  -49973621.7762646     
  -49973646.9961791     
  -49973682.5106248     
  -49973728.3394282     
  -49973784.4977674     
  -49973850.9961194     
  -49973927.8402125     
  -49974015.0309852     
  -49974112.5645507     
  -49974220.4321666     
  -49974338.6202102     
  -49974467.1101594     
  -49974605.8785776     
  -49974754.8971038     
  -49974914.1324472     
  -49975083.5463859     
  -49975263.0957695     
  -49975452.7325257     
  -49975652.4036702     
  -49975862.0513198     
  -49976081.6127095     
  -49976311.0202110     
  -49976550.2013547     
  -49976799.0788542     
  -49977057.5706328     
  -49977325.5898520     
  -49977603.0449415     
  -49977889.8396320     
  -49978185.8729881     
  -49978491.0394433     
  -49978805.2288364     
  -49979128.3264481     
  -49979460.2130396     
  -49979800.7648909     
  -49980149.8538412     
  -49980507.3473287     
  -49980873.1084315     
  -49981246.9959097     
  -49981628.8642466     
  -49982018.5636921     
  -49982415.9403051     
  -49982820.8359978     
  -49983233.0885792     
  -49983652.5318004     
  -49984078.9954003     
  -49984512.3051513     
  -49984952.2829068     
  -49985398.7466492     
  -49985851.5105398     
  -49969921.4524055     
  -49969936.0710550     
  -49969962.4146170     
  -49970000.5160760     
  -49970050.4028844     
  -49970112.0969018     
  -49970185.6143426     
  -49970270.9657321     
  -49970368.1558684     
  -49970477.1837938     
  -49970598.0427712     
  -49970730.7202680     
  -49970875.1979465     
  -49971031.4516591     
  -49971199.4514506     
  -49971379.1615646     
  -49971570.5404555     
  -49971773.5408044     
  -49971988.1095405     
  -49972214.1878646     
  -49972451.7112782     
  -49972700.6096136     
  -49972960.8070692     
  -49973232.2222459     
  -49973514.7681860     
  -49973808.3524148     
  -49974112.8769834     
  -49974428.2385125     
  -49974754.3282387     
  -49975091.0320607     
  -49975438.2305866     
  -49975795.7991816     
  -49976163.6080165     
  -49976541.5221159     
  -49976929.4014066     
  -49977327.1007658     
  -49977734.4700696     
  -49978151.3542404     
  -49978577.5932946     
  -49979013.0223895     
  -49979457.4718701     
  -49979910.7673152     
  -49980372.7295832     
  -49980843.1748570     
  -49981321.9146901     
  -49981808.7560504     
  -49982303.5013654     
  -49982805.9485671     
  -49983315.8911365     
  -49983833.1181491     
  -49965942.7987941     
  -49965956.1104864     
  -49965982.7407491     
  -49966022.7327850     
  -49966076.1231066     
  -49966142.9414824     
  -49966223.2108928     
  -49966316.9474956     
  -49966424.1606012     
  -49966544.8526573     
  -49966679.0192410     
  -49966826.6490601     
  -49966987.7239615     
  -49967162.2189462     
  -49967350.1021920     
  -49967551.3350813     
  -49967765.8722350     
  -49967993.6615515     
  -49968234.6442503     
  -49968488.7549199     
  -49968755.9215685     
  -49969036.0656797     
  -49969329.1022689     
  -49969634.9399437     
  -49969953.4809654     
  -49970284.6213123     
  -49970628.2507431     
  -49970984.2528629     
  -49971352.5051879     
  -49971732.8792110     
  -49972125.2404667     
  -49972529.4485958     
  -49972945.3574089     
  -49973372.8149491     
  -49973811.6635536     
  -49974261.7399131     
  -49974722.8751301     
  -49975194.8947759     
  -49975677.6189448     
  -49976170.8623070     
  -49976674.4341591     
  -49977188.1384734     
  -49977711.7739443     
  -49978245.1340332     
  -49978788.0070119     
  -49979340.1760039     
  -49979901.4190237     
  -49980471.5090162     
  -49981050.2138929     
  -49981637.2965682     
  -49961631.0655901     
  -49961641.8107925     
  -49961667.6367709     
  -49961708.5984631     
  -49961764.7426863     
  -49961836.1080984     
  -49961922.7251739     
  -49962024.6161918     
  -49962141.7952341     
  -49962274.2681974     
  -49962422.0328127     
  -49962585.0786766     
  -49962763.3872909     
  -49962956.9321100     
  -49963165.6785971     
  -49963389.5842863     
  -49963628.5988511     
  -49963882.6641794     
  -49964151.7144519     
  -49964435.6762258     
  -49964734.4685217     
  -49965048.0029131     
  -49965376.1836189     
  -49965718.9075967     
  -49966076.0646382     
  -49966447.5374634     
  -49966833.2018174     
  -49967232.9265639     
  -49967646.5737797     
  -49968073.9988466     
  -49968515.0505419     
  -49968969.5711264     
  -49969437.3964298     
  -49969918.3559332     
  -49970412.2728477     
  -49970918.9641906     
  -49971438.2408568     
  -49971969.9076865     
  -49972513.7635292     
  -49973069.6013033     
  -49973637.2080507     
  -49974216.3649885     
  -49974806.8475552     
  -49975408.4254535     
  -49976020.8626880     
  -49976643.9176003     
  -49977277.3428988     
  -49977920.8856861     
  -49978574.2874824     
  -49979237.2842460     
  -49956942.2228203     
  -49956948.8153656     
  -49956972.4563746     
  -49957013.2136388     
  -49957071.1450499     
  -49957146.2985948     
  -49957238.7123675     
  -49957348.4145944     
  -49957475.4236766     
  -49957619.7482432     
  -49957781.3872188     
  -49957960.3299019     
  -49958156.5560535     
  -49958370.0359959     
  -49958600.7307199     
  -49958848.5919995     
  -49959113.5625135     
  -49959395.5759726     
  -49959694.5572515     
  -49960010.4225252     
  -49960343.0794078     
  -49960692.4270932     
  -49961058.3564986     
  -49961440.7504063     
  -49961839.4836070     
  -49962254.4230410     
  -49962685.4279377     
  -49963132.3499534     
  -49963595.0333046     
  -49964073.3148987     
  -49964567.0244598     
  -49965075.9846492     
  -49965600.0111819     
  -49966138.9129353     
  -49966692.4920535     
  -49967260.5440438     
  -49967842.8578670     
  -49968439.2160201     
  -49969049.3946119     
  -49969673.1634312     
  -49970310.2860068     
  -49970960.5196610     
  -49971623.6155540     
  -49972299.3187217     
  -49972987.3681063     
  -49973687.4965781     
  -49974399.4309519     
  -49975122.8919956     
  -49975857.5944324     
  -49976603.2469372     
  -49951827.0618839     
  -49951827.5551943     
  -49951847.3163106     
  -49951886.4261896     
  -49951944.9536743     
  -49952022.9555452     
  -49952120.4765913     
  -49952237.5496999     
  -49952374.1959639     
  -49952530.4248050     
  -49952706.2341117     
  -49952901.6103907     
  -49953116.5289306     
  -49953350.9539762     
  -49953604.8389118     
  -49953878.1264537     
  -49954170.7488485     
  -49954482.6280775     
  -49954813.6760656     
  -49955163.7948924     
  -49955532.8770066     
  -49955920.8054399     
  -49956327.4540210     
  -49956752.6875883     
  -49957196.3621999     
  -49957658.3253398     
  -49958138.4161199     
  -49958636.4654764     
  -49959152.2963603     
  -49959685.7239201     
  -49960236.5556769     
  -49960804.5916912     
  -49961389.6247202     
  -49961991.4403647     
  -49962609.8172069     
  -49963244.5269361     
  -49963895.3344638     
  -49964561.9980265     
  -49965244.2692780     
  -49965941.8933676     
  -49966654.6090079     
  -49967382.1485286     
  -49968124.2379196     
  -49968880.5968601     
  -49969650.9387370     
  -49970434.9706499     
  -49971232.3934055     
  -49972042.9015002     
  -49972866.1830913     
  -49973701.9199581     
  -49946230.0024838     
  -49946222.0750943     
  -49946235.9443083     
  -49946271.7031597     
  -49946329.4298163     
  -49946409.1877203     
  -49946511.0257525     
  -49946634.9784196     
  -49946781.0660618     
  -49946949.2950790     
  -49947139.6581750     
  -49947352.1346159     
  -49947586.6905024     
  -49947843.2790541     
  -49948121.8409035     
  -49948422.3043978     
  -49948744.5859080     
  -49949088.5901421     
  -49949454.2104620     
  -49949841.3292014     
  -49950249.8179841     
  -49950679.5380408     
  -49951130.3405223     
  -49951602.0668090     
  -49952094.5488138     
  -49952607.6092786     
  -49953141.0620616     
  -49953694.7124159     
  -49954268.3572561     
  -49954861.7854143     
  -49955474.7778825     
  -49956107.1080418     
  -49956758.5418763     
  -49957428.8381722     
  -49958117.7487006     
  -49958825.0183833     
  -49959550.3854416     
  -49960293.5815275     
  -49961054.3318364     
  -49961832.3552014     
  -49962627.3641689     
  -49963439.0650562     
  -49964267.1579885     
  -49965111.3369191     
  -49965971.2896296     
  -49966846.6977118     
  -49967737.2365321     
  -49968642.5751771     
  -49969562.3763831     
  -49970496.2964474     
  -49940087.5905029     
  -49940068.5657968     
  -49940074.2481913     
  -49940104.7394672     
  -49940160.1231317     
  -49940240.4646929     
  -49940345.8119639     
  -49940476.1953937     
  -49940631.6284217     
  -49940812.1078535     
  -49941017.6142568     
  -49941248.1123736     
  -49941503.5515465     
  -49941783.8661588     
  -49942088.9760819     
  -49942418.7871330     
  -49942773.1915358     
  -49943152.0683860     
  -49943555.2841170     
  -49943982.6929645     
  -49944434.1374285     
  -49944909.4487300     
  -49945408.4472602     
  -49945930.9430220     
  -49946476.7360595     
  -49947045.6168766     
  -49947637.3668407     
  -49948251.7585717     
  -49948888.5563129     
  -49949547.5162853     
  -49950228.3870213     
  -49950930.9096777     
  -49951654.8183267     
  -49952399.8402250     
  -49953165.6960577     
  -49953952.1001587     
  -49954758.7607051     
  -49955585.3798859     
  -49956431.6540445     
  -49957297.2737936     
  -49958181.9241034     
  -49959085.2843623     
  -49960007.0284099     
  -49960946.8245429     
  -49961904.3354929     
  -49962879.2183776     
  -49963871.1246254     
  -49964879.6998725     
  -49965904.5838350     
  -49966945.4101564     
  -49933326.6102140     
  -49933293.5316151     
  -49933288.5422294     
  -49933311.7458467     
  -49933363.2237901     
  -49933443.0353883     
  -49933551.2184802     
  -49933687.7899522     
  -49933852.7463006     
  -49934046.0642199     
  -49934267.7012102     
  -49934517.5962047     
  -49934795.6702097     
  -49935101.8269584     
  -49935435.9535720     
  -49935797.9212273     
  -49936187.5858275     
  -49936604.7886728     
  -49937049.3571282     
  -49937521.1052874     
  -49938019.8346277     
  -49938545.3346549     
  -49939097.3835361     
  -49939675.7487168     
  -49940280.1875214     
  -49940910.4477340     
  -49941566.2681581     
  -49942247.3791524     
  -49942953.5031415     
  -49943684.3551012     
  -49944439.6430128     
  -49945219.0682893     
  -49946022.3261693     
  -49946849.1060779     
  -49947699.0919548     
  -49948571.9625460     
  -49949467.3916610     
  -49950385.0483918     
  -49951324.5972959     
  -49952285.6985403     
  -49953268.0080075     
  -49954271.1773627     
  -49955294.8540821     
  -49956338.6814424     
  -49957402.2984709     
  -49958485.3398576     
  -49959587.4358283     
  -49960708.2119807     
  -49961847.2890824     
  -49963004.2828335     
  -49925861.7223250     
  -49925811.5134903     
  -49925793.3587653     
  -49925807.3522195     
  -49925853.5603434     
  -49925932.0227996     
  -49926042.7532119     
  -49926185.7399882     
  -49926360.9471744     
  -49926568.3153326     
  -49926807.7624424     
  -49927079.1848189     
  -49927382.4580455     
  -49927717.4379165     
  -49928083.9613852     
  -49928481.8475157     
  -49928910.8984331     
  -49929370.9002692     
  -49929861.6241000     
  -49930382.8268730     
  -49930934.2523184     
  -49931515.6318444     
  -49932126.6854104     
  -49932767.1223780     
  -49933436.6423351     
  -49934134.9358911     
  -49934861.6854408     
  -49935616.5658954     
  -49936399.2453751     
  -49937209.3858660     
  -49938046.6438357     
  -49938910.6708062     
  -49939801.1138835     
  -49940717.6162419     
  -49941659.8175608     
  -49942627.3544136     
  -49943619.8606064     
  -49944636.9674671     
  -49945678.3040820     
  -49946743.4974811     
  -49947832.1727699     
  -49948943.9532080     
  -49950078.4602346     
  -49951235.3134391     
  -49952414.1304800     
  -49953614.5269479     
  -49954836.1161771     
  -49956078.5090035     
  -49957341.3134709     
  -49958624.1344866     
  -49917592.5288734     
  -49917522.2791046     
  -49917488.7673342     
  -49917492.0590840     
  -49917532.1861348     
  -49917609.1476631     
  -49917722.9114210     
  -49917873.4149513     
  -49918060.5668348     
  -49918284.2479639     
  -49918544.3128357     
  -49918840.5908626     
  -49919172.8876934     
  -49919540.9865405     
  -49919944.6495092     
  -49920383.6189231     
  -49920857.6186431     
  -49921366.3553744     
  -49921909.5199564     
  -49922486.7886352     
  -49923097.8243089     
  -49923742.2777481     
  -49924419.7887831     
  -49925129.9874572     
  -49925872.4951418     
  -49926646.9256090     
  -49927452.8860609     
  -49928289.9781113     
  -49929157.7987165     
  -49930055.9410536     
  -49930983.9953442     
  -49931941.5496192     
  -49932928.1904251     
  -49933943.5034675     
  -49934987.0741922     
  -49936058.4883003     
  -49937157.3321960     
  -49938283.1933683     
  -49939435.6607017     
  -49940614.3247167     
  -49941818.7777409     
  -49943048.6140063     
  -49944303.4296762     
  -49945582.8227984     
  -49946886.3931869     
  -49948213.7422303     
  -49949564.4726288     
  -49950938.1880585     
  -49952334.4927654     
  -49953752.9910898     
  -49908399.9589601     
  -49908307.3875296     
  -49908257.1219596     
  -49908249.1705450     
  -49908283.5005181     
  -49908360.0397092     
  -49908478.6782522     
  -49908639.2703260     
  -49908841.6359266     
  -49909085.5626645     
  -49909370.8075768     
  -49909697.0989536     
  -49910064.1381682     
  -49910471.6015070     
  -49910919.1419940     
  -49911406.3912026     
  -49911932.9610513     
  -49912498.4455762     
  -49913102.4226769     
  -49913744.4558299     
  -49914424.0957654     
  -49915140.8821024     
  -49915894.3449380     
  -49916684.0063876     
  -49917509.3820701     
  -49918369.9825362     
  -49919265.3146350     
  -49920194.8828158     
  -49921158.1903622     
  -49922154.7405541     
  -49923184.0377568     
  -49924245.5884317     
  -49925338.9020688     
  -49926463.4920366     
  -49927618.8763480     
  -49928804.5783402     
  -49930020.1272663     
  -49931265.0587977     
  -49932538.9154348     
  -49933841.2468257     
  -49935171.6099908     
  -49936529.5694535     
  -49937914.6972757     
  -49939326.5729972     
  -49940764.7834795     
  -49942228.9226537     
  -49943718.5911722     
  -49945233.3959644     
  -49946772.9496990     
  -49948336.8701502     
  -49898141.8688731     
  -49898026.0386514     
  -49897959.1631235     
  -49897941.1512909     
  -49897971.8625490     
  -49898051.1090454     
  -49898178.6580801     
  -49898354.2345400     
  -49898577.5233590     
  -49898848.1719962     
  -49899165.7929243     
  -49899529.9661207     
  -49899940.2415543     
  -49900396.1416614     
  -49900897.1638027     
  -49901442.7826959     
  -49902032.4528179     
  -49902665.6107684     
  -49903341.6775921     
  -49904060.0610509     
  -49904820.1578426     
  -49905621.3557600     
  -49906463.0357856     
  -49907344.5741167     
  -49908265.3441170     
  -49909224.7181894     
  -49910222.0695672     
  -49911256.7740175     
  -49912328.2114552     
  -49913435.7674630     
  -49914578.8347128     
  -49915756.8142888     
  -49916969.1169046     
  -49918215.1640152     
  -49919494.3888198     
  -49920806.2371525     
  -49922150.1682598     
  -49923525.6554618     
  -49924932.1866958     
  -49926369.2649409     
  -49927836.4085214     
  -49929333.1512880     
  -49930859.0426765     
  -49932413.6476423     
  -49933996.5464699     
  -49935607.3344586     
  -49937245.6214826     
  -49938911.0314258     
  -49940603.2014930     
  -49942321.7813967     
  -49886647.7608254     
  -49886510.1318131     
  -49886429.4183936     
  -49886405.3703664     
  -49886437.6781827     
  -49886525.9762144     
  -49886669.8460579     
  -49886868.8198633     
  -49887122.3836796     
  -49887429.9808062     
  -49887791.0151413     
  -49888204.8545191     
  -49888670.8340271     
  -49889188.2592953     
  -49889756.4097496     
  -49890374.5418217     
  -49891041.8921081     
  -49891757.6804722     
  -49892521.1130811     
  -49893331.3853725     
  -49894187.6849442     
  -49895089.1943610     
  -49896035.0938734     
  -49897024.5640418     
  -49898056.7882625     
  -49899130.9551894     
  -49900246.2610473     
  -49901401.9118315     
  -49902597.1253910     
  -49903831.1333895     
  -49905103.1831416     
  -49906412.5393197     
  -49907758.4855288     
  -49909140.3257454     
  -49910557.3856180     
  -49912009.0136257     
  -49913494.5820929     
  -49915013.4880567     
  -49916565.1539858     
  -49918149.0283480     
  -49919764.5860247     
  -49921411.3285706     
  -49923088.7843176     
  -49924796.5083208     
  -49926534.0821462     
  -49928301.1134991     
  -49930097.2356930     
  -49931922.1069574     
  -49933775.4095867     
  -49935656.8489279     
  -49873712.5526443     
  -49873558.4898884     
  -49873470.8807945     
  -49873449.2327077     
  -49873492.9828466     
  -49873601.5027396     
  -49873774.1026811     
  -49874010.0361973     
  -49874308.5045084     
  -49874668.6609783     
  -49875089.6155394     
  -49875570.4390848     
  -49876110.1678161     
  -49876707.8075397     
  -49877362.3379008     
  -49878072.7165490     
  -49878837.8832256     
  -49879656.7637658     
  -49880528.2740090     
  -49881451.3236089     
  -49882424.8197384     
  -49883447.6706814     
  -49884518.7893070     
  -49885637.0964185     
  -49886801.5239736     
  -49888011.0181694     
  -49889264.5423873     
  -49890561.0799931     
  -49891899.6369880     
  -49893279.2445056     
  -49894698.9611514     
  -49896157.8751798     
  -49897655.1065062     
  -49899189.8085486     
  -49900761.1698976     
  -49902368.4158096     
  -49904010.8095212     
  -49905687.6533808     
  -49907398.2897959     
  -49909142.1019927     
  -49910918.5145854     
  -49912726.9939533     
  -49914567.0484243     
  -49916438.2282607     
  -49918340.1254488     
  -49920272.3732879     
  -49922234.6457794     
  -49924226.6568136     
  -49926248.1591555     
  -49928298.9432259     
  -49859089.3850212     
  -49858930.2627153     
  -49858849.0047334     
  -49858844.7627271     
  -49858916.6067830     
  -49859063.5313288     
  -49859284.4610330     
  -49859578.2566844     
  -49859943.7210384     
  -49860379.6046204     
  -49860884.6114714     
  -49861457.4048275     
  -49862096.6127222     
  -49862800.8335019     
  -49863568.6412433     
  -49864398.5910688     
  -49865289.2243452     
  -49866239.0737632     
  -49867246.6682878     
  -49868310.5379712     
  -49869429.2186258     
  -49870601.2563455     
  -49871825.2118741     
  -49873099.6648111     
  -49874423.2176524     
  -49875794.4996590     
  -49877212.1705487     
  -49878674.9240074     
  -49880181.4910126     
  -49881730.6429683     
  -49883321.1946438     
  -49884952.0069142     
  -49886621.9892973     
  -49888330.1022843     
  -49890075.3594598     
  -49891856.8294071     
  -49893673.6373963     
  -49895524.9668503     
  -49897410.0605873     
  -49899328.2218350     
  -49901278.8150135     
  -49903261.2662847     
  -49905275.0638655     
  -49907319.7581001     
  -49909394.9612914     
  -49911500.3472878     
  -49913635.6508220     
  -49915800.6666033     
  -49917995.2481564     
  -49920219.3064103     
  -49842481.5450134     
  -49842337.6185690     
  -49842285.1561433     
  -49842322.8026513     
  -49842449.1100391     
  -49842662.5450028     
  -49842961.4966567     
  -49843344.2841368     
  -49843809.1641256     
  -49844354.3382863     
  -49844977.9605929     
  -49845678.1445465     
  -49846452.9702668     
  -49847300.4914486     
  -49848218.7421740     
  -49849205.7435737     
  -49850259.5103263     
  -49851378.0569907     
  -49852559.4041635     
  -49853801.5844544     
  -49855102.6482756     
  -49856460.6694361     
  -49857873.7505388     
  -49859340.0281725     
  -49860857.6778962     
  -49862424.9190085     
  -49864040.0191010     
  -49865701.2983870     
  -49867407.1338057     
  -49869155.9628942     
  -49870946.2874257     
  -49872776.6768084     
  -49874645.7712421     
  -49876552.2846283     
  -49878495.0072302     
  -49880472.8080767     
  -49882484.6371108     
  -49884529.5270731     
  -49886606.5951218     
  -49888715.0441809     
  -49890854.1640152     
  -49893023.3320276     
  -49895222.0137740     
  -49897449.7631934     
  -49899706.2225477     
  -49901991.1220686     
  -49904304.2793068     
  -49906645.5981821     
  -49909015.0677275     
  -49911412.7605266     
  -49823533.7295660     
  -49823437.9784379     
  -49823449.7998769     
  -49823567.1343201     
  -49823787.8190097     
  -49824109.5978973     
  -49824530.1314315     
  -49825047.0062122     
  -49825657.7444993     
  -49826359.8135635     
  -49827150.6348669     
  -49828027.5930630     
  -49828988.0448082     
  -49830029.3273720     
  -49831148.7670436     
  -49832343.6873224     
  -49833611.4168902     
  -49834949.2973554     
  -49836354.6907666     
  -49837824.9868893     
  -49839357.6102411     
  -49840950.0268827     
  -49842599.7509586     
  -49844304.3509855     
  -49846061.4558856     
  -49847868.7607574     
  -49849724.0323883     
  -49851625.1144974     
  -49853569.9327118     
  -49855556.4992701     
  -49857582.9174510     
  -49859647.3857227     
  -49861748.2016113     
  -49863883.7652830     
  -49866052.5828372     
  -49868253.2693069     
  -49870484.5513615     
  -49872745.2697076     
  -49875034.3811844     
  -49877350.9605481     
  -49879694.2019406     
  -49882063.4200376     
  -49884458.0508691     
  -49886877.6523101     
  -49889321.9042345     
  -49891790.6083223     
  -49894283.6875223     
  -49896801.1851583     
  -49899343.2636737     
  -49901910.2030117     
  -49801823.0900824     
  -49801826.2631465     
  -49801955.9198371     
  -49802209.0419755     
  -49802582.5009064     
  -49803073.0699666     
  -49803677.4367417     
  -49804392.2150908     
  -49805213.9569316     
  -49806139.1637722     
  -49807164.2979833     
  -49808285.7937994     
  -49809500.0680449     
  -49810803.5305769     
  -49812192.5944409     
  -49813663.6857356     
  -49815213.2531816     
  -49816837.7773932     
  -49818533.7798497     
  -49820297.8315648     
  -49822126.5614534     
  -49824016.6643937     
  -49825964.9089845     
  -49827968.1449967     
  -49830023.3105187     
  -49832127.4387942     
  -49834277.6647537     
  -49836471.2312359     
  -49838705.4949011     
  -49840977.9318338     
  -49843286.1428321     
  -49845627.8583846     
  -49848000.9433301     
  -49850403.4011987     
  -49852833.3782308     
  -49855289.1670711     
  -49857769.2101323     
  -49860272.1026250     
  -49862796.5952483     
  -49865341.5965358     
  -49867906.1748503     
  -49870489.5600211     
  -49873091.1446169     
  -49875710.4848457     
  -49878347.3010758     
  -49881001.4779671     
  -49883673.0642045     
  -49886362.2718263     
  -49889069.4751355     
  -49891795.2091854     
  -49776850.8117174     
  -49777027.9291941     
  -49777353.4653292     
  -49777823.1228702     
  -49778432.4923438     
  -49779177.0674408     
  -49780052.2600486     
  -49781053.4149188     
  -49782175.8239627     
  -49783414.7401689     
  -49784765.3911368     
  -49786222.9922246     
  -49787782.7593076     
  -49789439.9211489     
  -49791189.7313785     
  -49793027.4800881     
  -49794948.5050375     
  -49796948.2024784     
  -49799022.0375994     
  -49801165.5545939     
  -49803374.3863559     
  -49805644.2638081     
  -49807971.0248657     
  -49810350.6230405     
  -49812779.1356900     
  -49815252.7719139     
  -49817767.8801030     
  -49820320.9551431     
  -49822908.6452754     
  -49825527.7586180     
  -49828175.2693470     
  -49830848.3235406     
  -49833544.2446836     
  -49836260.5388342     
  -49838994.8994485     
  -49841745.2118625     
  -49844509.5574264     
  -49847286.2172881     
  -49850073.6758189     
  -49852870.6236756     
  -49855675.9604926     
  -49858488.7971930     
  -49861308.4579125     
  -49864134.4815226     
  -49866966.6227447     
  -49869804.8528408     
  -49872649.3598681     
  -49875500.5484868     
  -49878359.0393019     
  -49881225.6677276     
  -49748035.4155899     
  -49748493.9894443     
  -49749126.0221276     
  -49749925.5413668     
  -49750886.4701320     
  -49752002.6451939     
  -49753267.8351398     
  -49754675.7578429     
  -49756220.0973864     
  -49757894.5204427     
  -49759692.6921107     
  -49761608.2912171     
  -49763635.0250878     
  -49765766.6437965     
  -49767996.9539005     
  -49770319.8316727     
  -49772729.2358413     
  -49775219.2198474     
  -49777783.9436329     
  -49780417.6849714     
  -49783114.8503521     
  -49785869.9854319     
  -49788677.7850651     
  -49791533.1029233     
  -49794430.9607183     
  -49797366.5570358     
  -49800335.2757929     
  -49803332.6943268     
  -49806354.5911237     
  -49809396.9531955     
  -49812455.9831104     
  -49815528.1056812     
  -49818609.9743173     
  -49821698.4770407     
  -49824790.7421675     
  -49827884.1436548     
  -49830976.3061090     
  -49834065.1094547     
  -49837148.6932543     
  -49840225.4606756     
  -49843294.0820951     
  -49846353.4983283     
  -49849402.9234737     
  -49852441.8473575     
  -49855470.0375623     
  -49858487.5410238     
  -49861494.6851766     
  -49864492.0786289     
  -49867480.6113449     
  -49870461.4543123     
  -49714709.5555909     
  -49715599.7733581     
  -49716691.4395152     
  -49717976.4284761     
  -49719446.5315712     
  -49721093.4788542     
  -49722908.9601175     
  -49724884.6451255     
  -49727012.2030784     
  -49729283.3213191     
  -49731689.7232992     
  -49734223.1858228     
  -49736875.5555861     
  -49739638.7650346     
  -49742504.8475589     
  -49745465.9520514     
  -49748514.3568479     
  -49751642.4830788     
  -49754842.9074517     
  -49758108.3744913     
  -49761431.8082614     
  -49764806.3235906     
  -49768225.2368274     
  -49771682.0761465     
  -49775170.5914285     
  -49778684.7637333     
  -49782218.8143891     
  -49785767.2137132     
  -49789324.6893836     
  -49792886.2344752     
  -49796447.1151763     
  -49800002.8781954     
  -49803549.3578692     
  -49807082.6829790     
  -49810599.2832804     
  -49814095.8957502     
  -49817569.5705502     
  -49821017.6767053     
  -49824437.9074925     
  -49827828.2855321     
  -49831187.1675712     
  -49834513.2489468     
  -49837805.5677131     
  -49841063.5084135     
  -49844286.8054776     
  -49847475.5462182     
  -49850630.1734038     
  -49853751.4873759     
  -49856840.6476813     
  -49859899.1741869     
  -49676122.8358926     
  -49677649.8965685     
  -49679408.8200356     
  -49681388.7644474     
  -49683578.8473305     
  -49685968.1704135     
  -49688545.8433541     
  -49691301.0063843     
  -49694222.8519090     
  -49697300.6450874     
  -49700523.7434309     
  -49703881.6154538     
  -49707363.8584145     
  -49710960.2151842     
  -49714660.5902844     
  -49718455.0651312     
  -49722333.9125296     
  -49726287.6104569     
  -49730306.8551772     
  -49734382.5737290     
  -49738505.9358241     
  -49742668.3652020     
  -49746861.5504748     
  -49751077.4555054     
  -49755308.3293530     
  -49759546.7158237     
  -49763785.4626600     
  -49768017.7304014     
  -49772237.0009471     
  -49776437.0858469     
  -49780612.1343488     
  -49784756.6412229     
  -49788865.4543827     
  -49792933.7823204     
  -49796957.2013689     
  -49800931.6627992     
  -49804853.4997602     
  -49808719.4340622     
  -49812526.5828010     
  -49816272.4648172     
  -49819955.0069802     
  -49823572.5502807     
  -49827123.8557136     
  -49830608.1099266     
  -49834024.9306081     
  -49837374.3715799     
  -49840656.9275614     
  -49843873.5385598     
  -49847025.5938505     
  -49850114.9354875     
  -49631454.1061083     
  -49633892.7834343     
  -49636595.0964313     
  -49639546.8446205     
  -49642733.8584071     
  -49646142.0262729     
  -49649757.3204710     
  -49653565.8212966     
  -49657553.7399709     
  -49661707.4402034     
  -49666013.4584864     
  -49670458.5231818     
  -49675029.5724582     
  -49679713.7711429     
  -49684498.5265468     
  -49689371.5033279     
  -49694320.6374550     
  -49699334.1493340     
  -49704400.5561622     
  -49709508.6835722     
  -49714647.6766282     
  -49719807.0102386     
  -49724976.4990439     
  -49730146.3068422     
  -49735306.9556099     
  -49740449.3341759     
  -49745564.7066034     
  -49750644.7203333     
  -49755681.4141387     
  -49760667.2259378     
  -49765595.0005087     
  -49770457.9971480     
  -49775249.8973045     
  -49779964.8122255     
  -49784597.2906369     
  -49789142.3264810     
  -49793595.3667283     
  -49797952.3192701     
  -49802209.5609006     
  -49806363.9453812     
  -49810412.8115826     
  -49814353.9916838     
  -49818185.8194127     
  -49821907.1382918     
  -49825517.3098583     
  -49829016.2218132     
  -49832404.2960479     
  -49835682.4965027     
  -49838852.3367708     
  -49841915.8874146     
  -49579837.7666560     
  -49583549.0864713     
  -49587555.3484832     
  -49591838.2880097     
  -49596379.7817336     
  -49601161.8759602     
  -49606166.8130113     
  -49611377.0557423     
  -49616775.3103260     
  -49622344.5473623     
  -49628068.0213981     
  -49633929.2889476     
  -49639912.2250939     
  -49646001.0387641     
  -49652180.2867576     
  -49658434.8866211     
  -49664750.1284575     
  -49671111.6857558     
  -49677505.6253366     
  -49683918.4164982     
  -49690336.9394588     
  -49696748.4931830     
  -49703140.8026842     
  -49709502.0258930     
  -49715820.7601813     
  -49722086.0486296     
  -49728287.3861246     
  -49734414.7253699     
  -49740458.4828916     
  -49746409.5451168     
  -49752259.2745964     
  -49757999.5164435     
  -49763622.6050474     
  -49769121.3711241     
  -49774489.1491493     
  -49779719.7852198     
  -49784807.6453779     
  -49789747.6244235     
  -49794535.1552332     
  -49799166.2185924     
  -49803637.3535411     
  -49807945.6682161     
  -49812088.8511742     
  -49816065.1831533     
  -49819873.5492340     
  -49823513.4513458     
  -49826985.0210521     
  -49830289.0325127     
  -49833426.9156105     
  -49836400.7690180     
  -49520409.7333159     
  -49525859.3766761     
  -49531631.9636005     
  -49537704.4268647     
  -49544054.0009125     
  -49550658.2494483     
  -49557495.0904524     
  -49564542.8191014     
  -49571780.1284685     
  -49579186.1281954     
  -49586740.3612371     
  -49594422.8187789     
  -49602213.9534277     
  -49610094.6907932     
  -49618046.4395619     
  -49626051.1001801     
  -49634091.0722568     
  -49642149.2608038     
  -49650209.0814323     
  -49658254.4646276     
  -49666269.8592284     
  -49674240.2352383     
  -49682151.0860988     
  -49689988.4305582     
  -49697738.8142687     
  -49705389.3112453     
  -49712927.5253234     
  -49720341.5917452     
  -49727620.1790069     
  -49734752.4910940     
  -49741728.2702272     
  -49748537.8002368     
  -49755171.9106753     
  -49761621.9817697     
  -49767879.9503076     
  -49773938.3165385     
  -49779790.1521610     
  -49785429.1094542     
  -49790849.4315972     
  -49796045.9642072     
  -49801014.1681102     
  -49805750.1333427     
  -49810250.5943689     
  -49814512.9464772     
  -49818535.2633076     
  -49822316.3154267     
  -49825855.5898728     
  -49829153.3106460     
  -49832210.4597517     
  -49835028.7991515     
  -49452379.6356337     
  -49460157.3331142     
  -49468278.5423863     
  -49476714.6671990     
  -49485437.6343154     
  -49494419.9173490     
  -49503634.5586760     
  -49513055.1881491     
  -49522656.0395143     
  -49532411.9644043     
  -49542298.4439903     
  -49552291.5984267     
  -49562368.1942027     
  -49572505.6495073     
  -49582682.0377173     
  -49592876.0891318     
  -49603067.1910828     
  -49613235.3865621     
  -49623361.3715098     
  -49633426.4909242     
  -49643412.7339593     
  -49653302.7281874     
  -49663079.7332158     
  -49672727.6338498     
  -49682230.9330083     
  -49691574.7445974     
  -49700744.7865572     
  -49709727.3742953     
  -49718509.4147232     
  -49727078.4011091     
  -49735422.4089542     
  -49743530.0930986     
  -49751390.6862461     
  -49758993.9990920     
  -49766330.4222258     
  -49773390.9299551     
  -49780167.0861915     
  -49786651.0525149     
  -49792835.5985074     
  -49798714.1144335     
  -49804280.6263157     
  -49809529.8134287     
  -49814457.0282088     
  -49819058.3185460     
  -49823330.4524144     
  -49827270.9447888     
  -49830878.0866909     
  -49834150.9760193     
  -49837089.5509051     
  -49839694.6236146     
  -49375136.1181925     
  -49385974.9674087     
  -49397164.7926374     
  -49408670.8068183     
  -49420459.0347881     
  -49432496.3340945     
  -49444750.4097077     
  -49457189.8278380     
  -49469784.0262084     
  -49482503.3214573     
  -49495318.9138740     
  -49508202.8894197     
  -49521128.2190465     
  -49534068.7553938     
  -49546999.2269488     
  -49559895.2297725     
  -49572733.2169100     
  -49585490.4856265     
  -49598145.1626419     
  -49610676.1875586     
  -49623063.2947114     
  -49635286.9936888     
  -49647328.5488047     
  -49659169.9578192     
  -49670793.9302312     
  -49682183.8654799     
  -49693323.8314105     
  -49704198.5433628     
  -49714793.3442545     
  -49725094.1860234     
  -49735087.6127969     
  -49744760.7461408     
  -49754101.2727330     
  -49763097.4347838     
  -49771738.0235107     
  -49780012.3759416     
  -49787910.3752990     
  -49795422.4551838     
  -49802539.6077406     
  -49809253.3959520     
  -49815555.9701718     
  -49821440.0889694     
  -49826899.1443285     
  -49831927.1911913     
  -49836518.9812580     
  -49840670.0008789     
  -49844376.5131120     
  -49847635.6043011     
  -49850445.2319537     
  -49852804.2801803     
  -49288391.0317316     
  -49303185.5875028     
  -49318318.1127432     
  -49333747.0599229     
  -49349432.0593266     
  -49365333.9264839     
  -49381414.6785605     
  -49397637.5406863     
  -49413966.9509994     
  -49430368.5627255     
  -49446809.2424047     
  -49463257.0643098     
  -49479681.3010885     
  -49496052.4105427     
  -49512342.0184658     
  -49528522.8975251     
  -49544568.9422590     
  -49560455.1403166     
  -49576157.5401355     
  -49591653.2153119     
  -49606920.2259831     
  -49621937.5776078     
  -49636685.1775867     
  -49651143.7902234     
  -49665294.9905735     
  -49679121.1177684     
  -49692605.2284351     
  -49705731.0508506     
  -49718482.9404894     
  -49730845.8376183     
  -49742805.2275911     
  -49754347.1044789     
  -49765457.9386444     
  -49776124.6488401     
  -49786334.5793661     
  -49796075.4827781     
  -49805335.5085851     
  -49814103.1983233     
  -49822367.4873317     
  -49830117.7135017     
  -49837343.6331994     
  -49844035.4444843     
  -49850183.8176734     
  -49855779.9332879     
  -49860815.5274825     
  -49865282.9449519     
  -49869175.1983233     
  -49872486.0327380     
  -49875210.0049615     
  -49877342.5532520     
  -49192364.7085328     
  -49212187.4550805     
  -49232305.6748345     
  -49252670.5408202     
  -49273234.8120089     
  -49293952.8772713     
  -49314780.7523474     
  -49335676.0975045     
  -49356598.2263850     
  -49377508.1081609     
  -49398368.3651007     
  -49419143.2647551     
  -49439798.7056964     
  -49460302.1962458     
  -49480622.8259404     
  -49500731.2296093     
  -49520599.5440200     
  -49540201.3571673     
  -49559511.6504301     
  -49578506.7339786     
  -49597164.1759649     
  -49615462.7261723     
  -49633382.2349279     
  -49650903.5681906     
  -49668008.5198260     
  -49684679.7221596     
  -49700900.5559536     
  -49716655.0609977     
  -49731927.8485170     
  -49746704.0166013     
  -49760969.0698359     
  -49774708.8442751     
  -49787909.4388437     
  -49800557.1541798     
  -49812638.4398533     
  -49824139.8507966     
  -49835048.0136861     
  -49845349.6038994     
  -49855031.3335635     
  -49864079.9511061     
  -49872482.2526417     
  -49880225.1054562     
  -49887295.4837320     
  -49893680.5163576     
  -49899367.5462965     
  -49904344.2014777     
  -49908598.4797770     
  -49912118.8489627     
  -49914894.3313831     
  -49916914.6559056     
  -49088007.0090818     
  -49114125.6892983     
  -49140457.5962106     
  -49166945.7775844     
  -49193535.4142535     
  -49220173.7656217     
  -49246810.2776884     
  -49273396.6077424     
  -49299886.6528726     
  -49326236.5788219     
  -49352404.8381508     
  -49378352.1751090     
  -49404041.6172739     
  -49429438.4535664     
  -49454510.1977876     
  -49479226.5369443     
  -49503559.2640484     
  -49527482.1955152     
  -49550971.0736650     
  -49574003.4551511     
  -49596558.5864188     
  -49618617.2675674     
  -49640161.7062192     
  -49661175.3632092     
  -49681642.7920780     
  -49701549.4744772     
  -49720881.6536800     
  -49739626.1684342     
  -49757770.2893908     
  -49775301.5603090     
  -49792207.6461628     
  -49808476.1901689     
  -49824094.6816268     
  -49839050.3363003     
  -49853329.9909038     
  -49866920.0130661     
  -49879806.2279636     
  -49891973.8626135     
  -49903407.5086134     
  -49914091.1038621     
  -49924007.9335305     
  -49933140.6503409     
  -49941471.3142800     
  -49948981.4523503     
  -49955652.1390939     
  -49961464.0957370     
  -49966397.7990025     
  -49970433.6027479     
  -49973551.9601064     
  -49975733.4568044     
  -48977236.1516874     
  -49011142.3990433     
  -49045128.8527519     
  -49079128.6264148     
  -49113077.2157891     
  -49146913.0304659     
  -49180577.3182014     
  -49214014.3316116     
  -49247171.4708953     
  -49279999.3786635     
  -49312452.0097514     
  -49344486.6805849     
  -49376064.0927363     
  -49407148.3257093     
  -49437706.7967446     
  -49467710.1872877     
  -49497132.3366457     
  -49525950.1038512     
  -49554143.1992346     
  -49581693.9877464     
  -49608587.2666169     
  -49634810.0204355     
  -49660351.1571254     
  -49685201.2285822     
  -49709352.1399325     
  -49732796.8514705     
  -49755529.0773536     
  -49777542.9851008     
  -49798832.8998396     
  -49819393.0171088     
  -49839217.1278369     
  -49858298.3588971     
  -49876628.9323813     
  -49894199.9464414     
  -49911001.1802208     
  -49927020.9250345     
  -49942245.8435898     
  -49956660.8586800     
  -49970249.0724931     
  -49982991.7174570     
  -49994868.1392978     
  -50005855.8124000     
  -50015930.3862482     
  -50025065.7600974     
  -50033234.1841908     
  -50040406.3957724     
  -50046551.8104969     
  -50051638.7337441     
  -50055634.3451705     
  -50058505.4390667     
  -48863160.8117546     
  -48906639.1113957     
  -48950002.6897800     
  -48993168.5832799     
  -49036058.0080581     
  -49078595.3036663     
  -49120709.0265279     
  -49162332.2538619     
  -49203402.8023248     
  -49243863.4875279     
  -49283662.3538781     
  -49322752.8322465     
  -49361093.8195716     
  -49398649.6851770     
  -49435390.2074728     
  -49471290.4427276     
  -49506330.5276394     
  -49540495.4188307     
  -49573774.5740779     
  -49606161.5814352     
  -49637653.7432628     
  -49668251.6226211     
  -49697958.5596125     
  -49726780.1651979     
  -49754723.7998171     
  -49781798.0438691     
  -49808012.1667754     
  -49833375.6009930     
  -49857897.4269675     
  -49881585.8746546     
  -49904447.8468768     
  -49926488.4694553     
  -49947710.6727335     
  -49968114.8088108     
  -49987698.3084818     
  -50006455.3815052     
  -50024376.7633289     
  -50041449.5107242     
  -50057656.8479045     
  -50072978.0638341     
  -50087388.4610395     
  -50100859.3570627     
  -50113358.1417669     
  -50124848.3938538     
  -50135290.0491556     
  -50144639.5837331     
  -50152850.1681458     
  -50159871.9576009     
  -50165653.1387062     
  -50170138.4599315     
  -48750237.2598351     
  -48805548.0396262     
  -48860468.9821213     
  -48914889.9244655     
  -48968702.1062716     
  -49021804.5694058     
  -49074102.8566240     
  -49125509.7516603     
  -49175946.2948615     
  -49225342.4462170     
  -49273637.4701366     
  -49320780.1560942     
  -49366728.9075083     
  -49411451.6917501     
  -49454925.8433499     
  -49497137.7237596     
  -49538082.2506002     
  -49577762.3141516     
  -49616188.1001085     
  -49653376.3370743     
  -49689349.4859865     
  -49724134.8871869     
  -49757763.8792921     
  -49790270.9024345     
  -49821692.5968546     
  -49852066.9062916     
  -49881432.1942030     
  -49909826.3796370     
  -49937286.0986211     
  -49963845.8962683     
  -49989537.4544054     
  -50014388.8594023     
  -50038423.9149508     
  -50061661.5047897     
  -50084115.0107511     
  -50105791.7920032     
  -50126692.7319413     
  -50146811.8596966     
  -50166136.0532514     
  -50184644.8298680     
  -50202310.2258570     
  -50219096.7613756     
  -50234961.4805744     
  -50249854.0647304     
  -50263717.0543009     
  -50276486.2740137     
  -50288091.4712756     
  -50298456.5143150     
  -50307497.7769542     
  -50315131.2488522     
  -48644335.0159410     
  -48714671.2960254     
  -48784223.9512072     
  -48852810.6766858     
  -48920271.7502597     
  -48986452.6761326     
  -49051212.6942787     
  -49114427.5929334     
  -49175990.2348221     
  -49235810.9911105     
  -49293818.2183331     
  -49349958.4892578     
  -49404196.4284055     
  -49456514.1568931     
  -49506910.4164729     
  -49555399.4504658     
  -49602009.7072831     
  -49646782.4190095     
  -49689770.0979898     
  -49731034.9878359     
  -49770647.4999533     
  -49808684.6614137     
  -49845228.5943886     
  -49880365.0415767     
  -49914181.9464951     
  -49946768.0925545     
  -49978211.8008352     
  -50008599.6835905     
  -50038015.4488380     
  -50066538.7509353     
  -50094244.0826653     
  -50121199.7059430     
  -50147466.6205410     
  -50173097.5729433     
  -50198136.1102818     
  -50222615.6870396     
  -50246558.8348330     
  -50269976.4084972     
  -50292866.9258011     
  -50315216.0244946     
  -50336996.0687492     
  -50358165.9422363     
  -50378671.0517481     
  -50398443.5069599     
  -50417402.3286426     
  -50435453.4868126     
  -50452490.0617860     
  -50468394.5964714     
  -50483045.7493630     
  -50496296.4241330     
  -48552794.8387286     
  -48643365.8663044     
  -48732446.4794436     
  -48819758.5509187     
  -48905000.3039282     
  -48987920.5087290     
  -49068305.0527511     
  -49145973.2296166     
  -49220780.1646937     
  -49292618.7609391     
  -49361419.6146653     
  -49427149.3916025     
  -49489808.3514546     
  -49549427.4448782     
  -49606065.1881352     
  -49659804.4203244     
  -49710749.0201238     
  -49759020.6561958     
  -49804755.6430451     
  -49848101.9645694     
  -49889216.5116396     
  -49928262.5611890     
  -49965407.5056404     
  -50000820.8251474     
  -50034672.2820885     
  -50067130.3077227     
  -50098360.5447264     
  -50128524.5060586     
  -50157778.3098962     
  -50186271.4519222     
  -50214145.5798676     
  -50241533.2408271     
  -50268556.5794173     
  -50295325.9741745     
  -50321938.6102442     
  -50348476.9974941     
  -50375007.4531455     
  -50401578.5748743     
  -50428219.7324614     
  -50454939.6044502     
  -50481724.7886530     
  -50508538.5416717     
  -50535319.7853226     
  -50561982.6762292     
  -50588417.1732627     
  -50614490.7013018     
  -50640049.1303594     
  -50664911.4726847     
  -50688858.4839098     
  -50711712.4885825     
  -48484996.6543635     
  -48605129.5957800     
  -48722283.9515571     
  -48835780.6149698     
  -48945203.4143412     
  -49050166.0029453     
  -49150349.6277287     
  -49245527.0390792     
  -49335561.5812966     
  -49420397.6946280     
  -49500050.7452615     
  -49574597.8839370     
  -49644169.6184923     
  -49708941.6639010     
  -49769126.9563536     
  -49824967.9659839     
  -49876729.5310499     
  -49924692.4137025     
  -49969147.7056692     
  -50010392.1326183     
  -50048724.2390181     
  -50084441.3873990     
  -50117837.4762121     
  -50149201.2651589     
  -50178815.1916301     
  -50206954.5628911     
  -50233887.0129773     
  -50259872.1188783     
  -50285161.0763014     
  -50309996.3405721     
  -50334611.1431767     
  -50359228.7997340     
  -50384061.7320238     
  -50409310.1369198     
  -50435160.2508327     
  -50461782.1819149     
  -50489327.3152519     
  -50517925.3375706     
  -50547680.9710624     
  -50578670.5345766     
  -50610938.4354474     
  -50644493.5987801     
  -50679305.6484284     
  -50715300.4736371     
  -50752355.1066270     
  -50790293.7280855     
  -50828891.5692287     
  -50867898.1740112     
  -50907060.3088946     
  -50945871.9194674     
  -48454619.2996276     
  -48621054.6330180     
  -48779928.8266481     
  -48930845.3647301     
  -49072975.6154943     
  -49205832.6612770     
  -49329220.7854307     
  -49443136.9237930     
  -49547719.2826912     
  -49643222.7520568     
  -49730001.1994916     
  -49808489.0656075     
  -49879181.6044810     
  -49942615.3384161     
  -49999350.3297163     
  -50049955.2466705     
  -50094995.5721988     
  -50135024.8649798     
  -50170578.7389168     
  -50202171.1261697     
  -50230292.3773379     
  -50255408.7882802     
  -50277963.1991737     
  -50298376.3715694     
  -50317048.9046485     
  -50334363.4985303     
  -50350687.4087913     
  -50366374.9621571     
  -50381770.0189870     
  -50397208.2742765     
  -50413019.2860342     
  -50429528.1087661     
  -50447056.3914492     
  -50465922.7757221     
  -50486442.4046636     
  -50508925.3320761     
  -50533673.6180000     
  -50560976.9263616     
  -50591106.5311923     
  -50624307.8197352     
  -50660791.6753311     
  -50700725.4990739     
  -50744224.9020637     
  -50791346.7363551     
  -50842081.9934113     
  -50896341.5689765     
  -50953919.6333621     
  -51014425.6170423     
  -51077288.9538183     
  -51142543.2700161     
  -48486262.2420056     
  -48721175.0379761     
  -48938640.6150724     
  -49136265.2071469     
  -49314439.7622079     
  -49473861.5322515     
  -49615281.1158035     
  -49739585.3983703     
  -49847834.9242918     
  -49941235.4340002     
  -50021080.0729443     
  -50088689.7217098     
  -50145364.1458533     
  -50192347.2907973     
  -50230805.6058323     
  -50261816.7430624     
  -50286365.8358902     
  -50305346.9686432     
  -50319567.9918436     
  -50329757.3430944     
  -50336571.9450983     
  -50340605.5647082     
  -50342397.2439073     
  -50342439.5734461     
  -50341186.6893895     
  -50339061.9455948     
  -50336465.2612897     
  -50333780.1694755     
  -50331380.6033215     
  -50329637.4563489     
  -50328924.9383842     
  -50329626.7215571     
  -50332141.8256443     
  -50336890.1244746     
  -50344317.2574922     
  -50354898.5939619     
  -50369141.7128826     
  -50387586.6255473     
  -50410802.6918830     
  -50439380.9178043     
  -50473920.2067191     
  -50515006.4822798     
  -50563185.0073035     
  -50618929.7093379     
  -50682620.0599303     
  -50754545.3971479     
  -50834957.5121504     
  -50924132.1790526     
  -51022078.7549770     
  -51126260.6054283     
  -48624578.0021520     
  -48936358.7243168     
  -49200305.1731302     
  -49425676.1986080     
  -49615089.2238595     
  -49770846.1187418     
  -49895984.1079785     
  -49994037.1908517     
  -50068648.6046587     
  -50123295.4682384     
  -50161140.6864427     
  -50184975.0109033     
  -50197212.8577535     
  -50199916.3964772     
  -50194832.2348960     
  -50183431.8025232     
  -50166950.7495962     
  -50146425.1495870     
  -50122723.6766364     
  -50096575.6679882     
  -50068595.3498941     
  -50039302.6678284     
  -50009141.2138513     
  -49978493.7402968     
  -49947695.7204055     
  -49917047.3799807     
  -49886824.5886726     
  -49857288.9696699     
  -49828697.5644605     
  -49801312.3754383     
  -49775410.1028943     
  -49751292.3925577     
  -49729296.9118077     
  -49709809.5704420     
  -49693278.1836965     
  -49680227.8200878     
  -49671277.9476714     
  -49667161.2253664     
  -49668743.2718264     
  -49677041.8018825     
  -49693241.8640157     
  -49718701.1324401     
  -49754934.8509902     
  -49803564.0560493     
  -49866205.2304255     
  -49944284.5059327     
  -50038810.4137751     
  -50150350.4249741     
  -50280180.8356283     
  -50435879.9532130     
  -48936949.8989485     
  -49215014.5498397     
  -49436414.0632329     
  -49589372.9232097     
  -49681755.7844900     
  -49725733.3113208     
  -49732786.0163600     
  -49712398.9879346     
  -49672005.0182596     
  -49617290.2516265     
  -49552553.9431153     
  -49481026.2370354     
  -49405123.5202483     
  -49326645.6929535     
  -49246926.0167308     
  -49166944.2304460     
  -49087411.8665173     
  -49008836.7304523     
  -48931571.8095140     
  -48855852.5431021     
  -48781825.3818352     
  -48709569.8184995     
  -48639115.5290976     
  -48570455.8653376     
  -48503558.6525987     
  -48438375.0417532     
  -48374847.0194711     
  -48312914.0863306     
  -48252519.5566219     
  -48193616.9135593     
  -48136176.6676034     
  -48080194.2160353     
  -48025699.2948796     
  -47972767.7601672     
  -47921536.6502793     
  -47872223.7873052     
  -47825153.6031162     
  -47780791.4616953     
  -47739789.5281871     
  -47703048.2141868     
  -47671798.3111015     
  -47647709.7034947     
  -47633031.7805109     
  -47630764.8367672     
  -47644841.4670428     
  -47680237.2546454     
  -47742764.7576289     
  -47837857.3350234     
  -47966443.8405461     
  -48112753.9585847     
  -49468146.1176759     
  -49461141.2156010     
  -49287480.5631730     
  -49039215.0047921     
  -48761645.4088369     
  -48477666.3105535     
  -48198951.4522219     
  -47931332.3902852     
  -47677502.2578240     
  -47438432.2467853     
  -47214141.2414416     
  -47004126.8100100     
  -46807612.1322179     
  -46623689.5173845     
  -46451404.1723781     
  -46289802.6512738     
  -46137960.0642946     
  -45994994.3629021     
  -45860072.7172268     
  -45732413.0609935     
  -45611282.7114541     
  -45495995.2557511     
  -45385906.4488800     
  -45280409.5868810     
  -45178930.6398635     
  -45080923.3155244     
  -44985864.1522001     
  -44893247.6974062     
  -44802581.8052384     
  -44713383.0799109     
  -44625172.5023079     
  -44537471.3040824     
  -44449797.2058617     
  -44361661.2244900     
  -44272565.4000454     
  -44182002.0332533     
  -44089455.4218384     
  -43994407.7540362     
  -43896351.9655765     
  -43794816.3783783     
  -43689409.5545584     
  -43579900.4817638     
  -43466361.9472000     
  -43349430.0839779     
  -43230784.4264376     
  -43114061.7304217     
  -43006656.6547240     
  -42923410.3858387     
  -42894485.4568331     
  -42982899.1423899     
  -49996283.0923466     
  -48505090.7046533     
  -47311576.1525014     
  -46330697.9865939     
  -45508538.0200712     
  -44808840.6925168     
  -44206043.3256581     
  -43681432.4774363     
  -43220894.9211745     
  -42813529.7871251     
  -42450751.6527558     
  -42125687.7253117     
  -41832759.0959709     
  -41567381.6754869     
  -41325747.5259364     
  -41104661.7193692     
  -40901418.4620772     
  -40713705.5459385     
  -40539529.5830452     
  -40377156.7044195     
  -40225064.8960154     
  -40081905.1665888     
  -39946469.4526072     
  -39817663.6658831     
  -39694484.6446366     
  -39576000.0203243     
  -39461330.1883794     
  -39349631.6889010     
  -39240081.3744264     
  -39131860.7722302     
  -39024140.0397769     
  -38916060.8614755     
  -38806717.5353294     
  -38695135.3357170     
  -38580244.9904918     
  -38460851.7398959     
  -38335596.8918080     
  -38202908.9551279     
  -38060940.1578285     
  -37907482.1591785     
  -37739851.5531361     
  -37554730.4287237     
  -37347938.0894417     
  -37114093.6566436     
  -36846098.7490913     
  -36534309.8970080     
  -36165148.7711464     
  -35718638.2586455     
  -35163770.6358137     
  -34449256.3635110     
SCALARS 2waySource double 
LOOKUP_TABLE default
  0.000000000000000E+000
  0.000000000000000E+000
  0.000000000000000E+000
  0.000000000000000E+000
  0.000000000000000E+000
  0.000000000000000E+000
  0.000000000000000E+000
  0.000000000000000E+000
  0.000000000000000E+000
  0.000000000000000E+000
  0.000000000000000E+000
  0.000000000000000E+000
  0.000000000000000E+000
  0.000000000000000E+000
  0.000000000000000E+000
  0.000000000000000E+000
  0.000000000000000E+000
  0.000000000000000E+000
  0.000000000000000E+000
  0.000000000000000E+000
  0.000000000000000E+000
  0.000000000000000E+000
  0.000000000000000E+000
  0.000000000000000E+000
  0.000000000000000E+000
  0.000000000000000E+000
  0.000000000000000E+000
  0.000000000000000E+000
  0.000000000000000E+000
  0.000000000000000E+000
  0.000000000000000E+000
  0.000000000000000E+000
  0.000000000000000E+000
  0.000000000000000E+000
  0.000000000000000E+000
  0.000000000000000E+000
  0.000000000000000E+000
  0.000000000000000E+000
  0.000000000000000E+000
  0.000000000000000E+000
  0.000000000000000E+000
  0.000000000000000E+000
  0.000000000000000E+000
  0.000000000000000E+000
  0.000000000000000E+000
  0.000000000000000E+000
  0.000000000000000E+000
  0.000000000000000E+000
  0.000000000000000E+000
  0.000000000000000E+000
  0.000000000000000E+000
  0.000000000000000E+000
  0.000000000000000E+000
  0.000000000000000E+000
  0.000000000000000E+000
  0.000000000000000E+000
  0.000000000000000E+000
  0.000000000000000E+000
  0.000000000000000E+000
  0.000000000000000E+000
  0.000000000000000E+000
  0.000000000000000E+000
  0.000000000000000E+000
  0.000000000000000E+000
  0.000000000000000E+000
  0.000000000000000E+000
  0.000000000000000E+000
  0.000000000000000E+000
  0.000000000000000E+000
  0.000000000000000E+000
  0.000000000000000E+000
  0.000000000000000E+000
  0.000000000000000E+000
  0.000000000000000E+000
  0.000000000000000E+000
  0.000000000000000E+000
  0.000000000000000E+000
  0.000000000000000E+000
  0.000000000000000E+000
  0.000000000000000E+000
  0.000000000000000E+000
  0.000000000000000E+000
  0.000000000000000E+000
  0.000000000000000E+000
  0.000000000000000E+000
  0.000000000000000E+000
  0.000000000000000E+000
  0.000000000000000E+000
  0.000000000000000E+000
  0.000000000000000E+000
  0.000000000000000E+000
  0.000000000000000E+000
  0.000000000000000E+000
  0.000000000000000E+000
  0.000000000000000E+000
  0.000000000000000E+000
  0.000000000000000E+000
  0.000000000000000E+000
  0.000000000000000E+000
  0.000000000000000E+000
  0.000000000000000E+000
  0.000000000000000E+000
  0.000000000000000E+000
  0.000000000000000E+000
  0.000000000000000E+000
  0.000000000000000E+000
  0.000000000000000E+000
  0.000000000000000E+000
  0.000000000000000E+000
  0.000000000000000E+000
  0.000000000000000E+000
  0.000000000000000E+000
  0.000000000000000E+000
  0.000000000000000E+000
  0.000000000000000E+000
  0.000000000000000E+000
  0.000000000000000E+000
  0.000000000000000E+000
  0.000000000000000E+000
  0.000000000000000E+000
  0.000000000000000E+000
  0.000000000000000E+000
  0.000000000000000E+000
  0.000000000000000E+000
  0.000000000000000E+000
  0.000000000000000E+000
  0.000000000000000E+000
  0.000000000000000E+000
  0.000000000000000E+000
  0.000000000000000E+000
  0.000000000000000E+000
  0.000000000000000E+000
  0.000000000000000E+000
  0.000000000000000E+000
  0.000000000000000E+000
  0.000000000000000E+000
  0.000000000000000E+000
  0.000000000000000E+000
  0.000000000000000E+000
  0.000000000000000E+000
  0.000000000000000E+000
  0.000000000000000E+000
  0.000000000000000E+000
  0.000000000000000E+000
  0.000000000000000E+000
  0.000000000000000E+000
  0.000000000000000E+000
  0.000000000000000E+000
  0.000000000000000E+000
  0.000000000000000E+000
  0.000000000000000E+000
  0.000000000000000E+000
  0.000000000000000E+000
  0.000000000000000E+000
  0.000000000000000E+000
  0.000000000000000E+000
  0.000000000000000E+000
  0.000000000000000E+000
  0.000000000000000E+000
  0.000000000000000E+000
  0.000000000000000E+000
  0.000000000000000E+000
  0.000000000000000E+000
  0.000000000000000E+000
  0.000000000000000E+000
  0.000000000000000E+000
  0.000000000000000E+000
  0.000000000000000E+000
  0.000000000000000E+000
  0.000000000000000E+000
  0.000000000000000E+000
  0.000000000000000E+000
  0.000000000000000E+000
  0.000000000000000E+000
  0.000000000000000E+000
  0.000000000000000E+000
  0.000000000000000E+000
  0.000000000000000E+000
  0.000000000000000E+000
  0.000000000000000E+000
  0.000000000000000E+000
  0.000000000000000E+000
  0.000000000000000E+000
  0.000000000000000E+000
  0.000000000000000E+000
  0.000000000000000E+000
  0.000000000000000E+000
  0.000000000000000E+000
  0.000000000000000E+000
  0.000000000000000E+000
  0.000000000000000E+000
  0.000000000000000E+000
  0.000000000000000E+000
  0.000000000000000E+000
  0.000000000000000E+000
  0.000000000000000E+000
  0.000000000000000E+000
  0.000000000000000E+000
  0.000000000000000E+000
  0.000000000000000E+000
  0.000000000000000E+000
  0.000000000000000E+000
  0.000000000000000E+000
  0.000000000000000E+000
  0.000000000000000E+000
  0.000000000000000E+000
  0.000000000000000E+000
  0.000000000000000E+000
  0.000000000000000E+000
  0.000000000000000E+000
  0.000000000000000E+000
  0.000000000000000E+000
  0.000000000000000E+000
  0.000000000000000E+000
  0.000000000000000E+000
  0.000000000000000E+000
  0.000000000000000E+000
  0.000000000000000E+000
  0.000000000000000E+000
  0.000000000000000E+000
  0.000000000000000E+000
  0.000000000000000E+000
  0.000000000000000E+000
  0.000000000000000E+000
  0.000000000000000E+000
  0.000000000000000E+000
  0.000000000000000E+000
  0.000000000000000E+000
  0.000000000000000E+000
  0.000000000000000E+000
  0.000000000000000E+000
  0.000000000000000E+000
  0.000000000000000E+000
  0.000000000000000E+000
  0.000000000000000E+000
  0.000000000000000E+000
  0.000000000000000E+000
  0.000000000000000E+000
  0.000000000000000E+000
  0.000000000000000E+000
  0.000000000000000E+000
  0.000000000000000E+000
  0.000000000000000E+000
  0.000000000000000E+000
  0.000000000000000E+000
  0.000000000000000E+000
  0.000000000000000E+000
  0.000000000000000E+000
  0.000000000000000E+000
  0.000000000000000E+000
  0.000000000000000E+000
  0.000000000000000E+000
  0.000000000000000E+000
  0.000000000000000E+000
  0.000000000000000E+000
  0.000000000000000E+000
  0.000000000000000E+000
  0.000000000000000E+000
  0.000000000000000E+000
  0.000000000000000E+000
  0.000000000000000E+000
  0.000000000000000E+000
  0.000000000000000E+000
  0.000000000000000E+000
  0.000000000000000E+000
  0.000000000000000E+000
  0.000000000000000E+000
  0.000000000000000E+000
  0.000000000000000E+000
  0.000000000000000E+000
  0.000000000000000E+000
  0.000000000000000E+000
  0.000000000000000E+000
  0.000000000000000E+000
  0.000000000000000E+000
  0.000000000000000E+000
  0.000000000000000E+000
  0.000000000000000E+000
  0.000000000000000E+000
  0.000000000000000E+000
  0.000000000000000E+000
  0.000000000000000E+000
  0.000000000000000E+000
  0.000000000000000E+000
  0.000000000000000E+000
  0.000000000000000E+000
  0.000000000000000E+000
  0.000000000000000E+000
  0.000000000000000E+000
  0.000000000000000E+000
  0.000000000000000E+000
  0.000000000000000E+000
  0.000000000000000E+000
  0.000000000000000E+000
  0.000000000000000E+000
  0.000000000000000E+000
  0.000000000000000E+000
  0.000000000000000E+000
  0.000000000000000E+000
  0.000000000000000E+000
  0.000000000000000E+000
  0.000000000000000E+000
  0.000000000000000E+000
  0.000000000000000E+000
  0.000000000000000E+000
  0.000000000000000E+000
  0.000000000000000E+000
  0.000000000000000E+000
  0.000000000000000E+000
  0.000000000000000E+000
  0.000000000000000E+000
  0.000000000000000E+000
  0.000000000000000E+000
  0.000000000000000E+000
  0.000000000000000E+000
  0.000000000000000E+000
  0.000000000000000E+000
  0.000000000000000E+000
  0.000000000000000E+000
  0.000000000000000E+000
  0.000000000000000E+000
  0.000000000000000E+000
  0.000000000000000E+000
  0.000000000000000E+000
  0.000000000000000E+000
  0.000000000000000E+000
  0.000000000000000E+000
  0.000000000000000E+000
  0.000000000000000E+000
  0.000000000000000E+000
  0.000000000000000E+000
  0.000000000000000E+000
  0.000000000000000E+000
  0.000000000000000E+000
  0.000000000000000E+000
  0.000000000000000E+000
  0.000000000000000E+000
  0.000000000000000E+000
  0.000000000000000E+000
  0.000000000000000E+000
  0.000000000000000E+000
  0.000000000000000E+000
  0.000000000000000E+000
  0.000000000000000E+000
  0.000000000000000E+000
  0.000000000000000E+000
  0.000000000000000E+000
  0.000000000000000E+000
  0.000000000000000E+000
  0.000000000000000E+000
  0.000000000000000E+000
  0.000000000000000E+000
  0.000000000000000E+000
  0.000000000000000E+000
  0.000000000000000E+000
  0.000000000000000E+000
  0.000000000000000E+000
  0.000000000000000E+000
  0.000000000000000E+000
  0.000000000000000E+000
  0.000000000000000E+000
  0.000000000000000E+000
  0.000000000000000E+000
  0.000000000000000E+000
  0.000000000000000E+000
  0.000000000000000E+000
  0.000000000000000E+000
  0.000000000000000E+000
  0.000000000000000E+000
  0.000000000000000E+000
  0.000000000000000E+000
  0.000000000000000E+000
  0.000000000000000E+000
  0.000000000000000E+000
  0.000000000000000E+000
  0.000000000000000E+000
  0.000000000000000E+000
  0.000000000000000E+000
  0.000000000000000E+000
  0.000000000000000E+000
  0.000000000000000E+000
  0.000000000000000E+000
  0.000000000000000E+000
  0.000000000000000E+000
  0.000000000000000E+000
  0.000000000000000E+000
  0.000000000000000E+000
  0.000000000000000E+000
  0.000000000000000E+000
  0.000000000000000E+000
  0.000000000000000E+000
  0.000000000000000E+000
  0.000000000000000E+000
  0.000000000000000E+000
  0.000000000000000E+000
  0.000000000000000E+000
  0.000000000000000E+000
  0.000000000000000E+000
  0.000000000000000E+000
  0.000000000000000E+000
  0.000000000000000E+000
  0.000000000000000E+000
  0.000000000000000E+000
  0.000000000000000E+000
  0.000000000000000E+000
  0.000000000000000E+000
  0.000000000000000E+000
  0.000000000000000E+000
  0.000000000000000E+000
  0.000000000000000E+000
  0.000000000000000E+000
  0.000000000000000E+000
  0.000000000000000E+000
  0.000000000000000E+000
  0.000000000000000E+000
  0.000000000000000E+000
  0.000000000000000E+000
  0.000000000000000E+000
  0.000000000000000E+000
  0.000000000000000E+000
  0.000000000000000E+000
  0.000000000000000E+000
  0.000000000000000E+000
  0.000000000000000E+000
  0.000000000000000E+000
  0.000000000000000E+000
  0.000000000000000E+000
  0.000000000000000E+000
  0.000000000000000E+000
  0.000000000000000E+000
  0.000000000000000E+000
  0.000000000000000E+000
  0.000000000000000E+000
  0.000000000000000E+000
  0.000000000000000E+000
  0.000000000000000E+000
  0.000000000000000E+000
  0.000000000000000E+000
  0.000000000000000E+000
  0.000000000000000E+000
  0.000000000000000E+000
  0.000000000000000E+000
  0.000000000000000E+000
  0.000000000000000E+000
  0.000000000000000E+000
  0.000000000000000E+000
  0.000000000000000E+000
  0.000000000000000E+000
  0.000000000000000E+000
  0.000000000000000E+000
  0.000000000000000E+000
  0.000000000000000E+000
  0.000000000000000E+000
  0.000000000000000E+000
  0.000000000000000E+000
  0.000000000000000E+000
  0.000000000000000E+000
  0.000000000000000E+000
  0.000000000000000E+000
  0.000000000000000E+000
  0.000000000000000E+000
  0.000000000000000E+000
  0.000000000000000E+000
  0.000000000000000E+000
  0.000000000000000E+000
  0.000000000000000E+000
  0.000000000000000E+000
  0.000000000000000E+000
  0.000000000000000E+000
  0.000000000000000E+000
  0.000000000000000E+000
  0.000000000000000E+000
  0.000000000000000E+000
  0.000000000000000E+000
  0.000000000000000E+000
  0.000000000000000E+000
  0.000000000000000E+000
  0.000000000000000E+000
  0.000000000000000E+000
  0.000000000000000E+000
  0.000000000000000E+000
  0.000000000000000E+000
  0.000000000000000E+000
  0.000000000000000E+000
  0.000000000000000E+000
  0.000000000000000E+000
  0.000000000000000E+000
  0.000000000000000E+000
  0.000000000000000E+000
  0.000000000000000E+000
  0.000000000000000E+000
  0.000000000000000E+000
  0.000000000000000E+000
  0.000000000000000E+000
  0.000000000000000E+000
  0.000000000000000E+000
  0.000000000000000E+000
  0.000000000000000E+000
  0.000000000000000E+000
  0.000000000000000E+000
  0.000000000000000E+000
  0.000000000000000E+000
  0.000000000000000E+000
  0.000000000000000E+000
  0.000000000000000E+000
  0.000000000000000E+000
  0.000000000000000E+000
  0.000000000000000E+000
  0.000000000000000E+000
  0.000000000000000E+000
  0.000000000000000E+000
  0.000000000000000E+000
  0.000000000000000E+000
  0.000000000000000E+000
  0.000000000000000E+000
  0.000000000000000E+000
  0.000000000000000E+000
  0.000000000000000E+000
  0.000000000000000E+000
  0.000000000000000E+000
  0.000000000000000E+000
  0.000000000000000E+000
  0.000000000000000E+000
  0.000000000000000E+000
  0.000000000000000E+000
  0.000000000000000E+000
  0.000000000000000E+000
  0.000000000000000E+000
  0.000000000000000E+000
  0.000000000000000E+000
  0.000000000000000E+000
  0.000000000000000E+000
  0.000000000000000E+000
  0.000000000000000E+000
  0.000000000000000E+000
  0.000000000000000E+000
  0.000000000000000E+000
  0.000000000000000E+000
  0.000000000000000E+000
  0.000000000000000E+000
  0.000000000000000E+000
  0.000000000000000E+000
  0.000000000000000E+000
  0.000000000000000E+000
  0.000000000000000E+000
  0.000000000000000E+000
  0.000000000000000E+000
  0.000000000000000E+000
  0.000000000000000E+000
  0.000000000000000E+000
  0.000000000000000E+000
  0.000000000000000E+000
  0.000000000000000E+000
  0.000000000000000E+000
  0.000000000000000E+000
  0.000000000000000E+000
  0.000000000000000E+000
  0.000000000000000E+000
  0.000000000000000E+000
  0.000000000000000E+000
  0.000000000000000E+000
  0.000000000000000E+000
  0.000000000000000E+000
  0.000000000000000E+000
  0.000000000000000E+000
  0.000000000000000E+000
  0.000000000000000E+000
  0.000000000000000E+000
  0.000000000000000E+000
  0.000000000000000E+000
  0.000000000000000E+000
  0.000000000000000E+000
  0.000000000000000E+000
  0.000000000000000E+000
  0.000000000000000E+000
  0.000000000000000E+000
  0.000000000000000E+000
  0.000000000000000E+000
  0.000000000000000E+000
  0.000000000000000E+000
  0.000000000000000E+000
  0.000000000000000E+000
  0.000000000000000E+000
  0.000000000000000E+000
  0.000000000000000E+000
  0.000000000000000E+000
  0.000000000000000E+000
  0.000000000000000E+000
  0.000000000000000E+000
  0.000000000000000E+000
  0.000000000000000E+000
  0.000000000000000E+000
  0.000000000000000E+000
  0.000000000000000E+000
  0.000000000000000E+000
  0.000000000000000E+000
  0.000000000000000E+000
  0.000000000000000E+000
  0.000000000000000E+000
  0.000000000000000E+000
  0.000000000000000E+000
  0.000000000000000E+000
  0.000000000000000E+000
  0.000000000000000E+000
  0.000000000000000E+000
  0.000000000000000E+000
  0.000000000000000E+000
  0.000000000000000E+000
  0.000000000000000E+000
  0.000000000000000E+000
  0.000000000000000E+000
  0.000000000000000E+000
  0.000000000000000E+000
  0.000000000000000E+000
  0.000000000000000E+000
  0.000000000000000E+000
  0.000000000000000E+000
  0.000000000000000E+000
  0.000000000000000E+000
  0.000000000000000E+000
  0.000000000000000E+000
  0.000000000000000E+000
  0.000000000000000E+000
  0.000000000000000E+000
  0.000000000000000E+000
  0.000000000000000E+000
  0.000000000000000E+000
  0.000000000000000E+000
  0.000000000000000E+000
  0.000000000000000E+000
  0.000000000000000E+000
  0.000000000000000E+000
  0.000000000000000E+000
  0.000000000000000E+000
  0.000000000000000E+000
  0.000000000000000E+000
  0.000000000000000E+000
  0.000000000000000E+000
  0.000000000000000E+000
  0.000000000000000E+000
  0.000000000000000E+000
  0.000000000000000E+000
  0.000000000000000E+000
  0.000000000000000E+000
  0.000000000000000E+000
  0.000000000000000E+000
  0.000000000000000E+000
  0.000000000000000E+000
  0.000000000000000E+000
  0.000000000000000E+000
  0.000000000000000E+000
  0.000000000000000E+000
  0.000000000000000E+000
  0.000000000000000E+000
  0.000000000000000E+000
  0.000000000000000E+000
  0.000000000000000E+000
  0.000000000000000E+000
  0.000000000000000E+000
  0.000000000000000E+000
  0.000000000000000E+000
  0.000000000000000E+000
  0.000000000000000E+000
  0.000000000000000E+000
  0.000000000000000E+000
  0.000000000000000E+000
  0.000000000000000E+000
  0.000000000000000E+000
  0.000000000000000E+000
  0.000000000000000E+000
  0.000000000000000E+000
  0.000000000000000E+000
  0.000000000000000E+000
  0.000000000000000E+000
  0.000000000000000E+000
  0.000000000000000E+000
  0.000000000000000E+000
  0.000000000000000E+000
  0.000000000000000E+000
  0.000000000000000E+000
  0.000000000000000E+000
  0.000000000000000E+000
  0.000000000000000E+000
  0.000000000000000E+000
  0.000000000000000E+000
  0.000000000000000E+000
  0.000000000000000E+000
  0.000000000000000E+000
  0.000000000000000E+000
  0.000000000000000E+000
  0.000000000000000E+000
  0.000000000000000E+000
  0.000000000000000E+000
  0.000000000000000E+000
  0.000000000000000E+000
  0.000000000000000E+000
  0.000000000000000E+000
  0.000000000000000E+000
  0.000000000000000E+000
  0.000000000000000E+000
  0.000000000000000E+000
  0.000000000000000E+000
  0.000000000000000E+000
  0.000000000000000E+000
  0.000000000000000E+000
  0.000000000000000E+000
  0.000000000000000E+000
  0.000000000000000E+000
  0.000000000000000E+000
  0.000000000000000E+000
  0.000000000000000E+000
  0.000000000000000E+000
  0.000000000000000E+000
  0.000000000000000E+000
  0.000000000000000E+000
  0.000000000000000E+000
  0.000000000000000E+000
  0.000000000000000E+000
  0.000000000000000E+000
  0.000000000000000E+000
  0.000000000000000E+000
  0.000000000000000E+000
  0.000000000000000E+000
  0.000000000000000E+000
  0.000000000000000E+000
  0.000000000000000E+000
  0.000000000000000E+000
  0.000000000000000E+000
  0.000000000000000E+000
  0.000000000000000E+000
  0.000000000000000E+000
  0.000000000000000E+000
  0.000000000000000E+000
  0.000000000000000E+000
  0.000000000000000E+000
  0.000000000000000E+000
  0.000000000000000E+000
  0.000000000000000E+000
  0.000000000000000E+000
  0.000000000000000E+000
  0.000000000000000E+000
  0.000000000000000E+000
  0.000000000000000E+000
  0.000000000000000E+000
  0.000000000000000E+000
  0.000000000000000E+000
  0.000000000000000E+000
  0.000000000000000E+000
  0.000000000000000E+000
  0.000000000000000E+000
  0.000000000000000E+000
  0.000000000000000E+000
  0.000000000000000E+000
  0.000000000000000E+000
  0.000000000000000E+000
  0.000000000000000E+000
  0.000000000000000E+000
  0.000000000000000E+000
  0.000000000000000E+000
  0.000000000000000E+000
  0.000000000000000E+000
  0.000000000000000E+000
  0.000000000000000E+000
  0.000000000000000E+000
  0.000000000000000E+000
  0.000000000000000E+000
  0.000000000000000E+000
  0.000000000000000E+000
  0.000000000000000E+000
  0.000000000000000E+000
  0.000000000000000E+000
  0.000000000000000E+000
  0.000000000000000E+000
  0.000000000000000E+000
  0.000000000000000E+000
  0.000000000000000E+000
  0.000000000000000E+000
  0.000000000000000E+000
  0.000000000000000E+000
  0.000000000000000E+000
  0.000000000000000E+000
  0.000000000000000E+000
  0.000000000000000E+000
  0.000000000000000E+000
  0.000000000000000E+000
  0.000000000000000E+000
  0.000000000000000E+000
  0.000000000000000E+000
  0.000000000000000E+000
  0.000000000000000E+000
  0.000000000000000E+000
  0.000000000000000E+000
  0.000000000000000E+000
  0.000000000000000E+000
  0.000000000000000E+000
  0.000000000000000E+000
  0.000000000000000E+000
  0.000000000000000E+000
  0.000000000000000E+000
  0.000000000000000E+000
  0.000000000000000E+000
  0.000000000000000E+000
  0.000000000000000E+000
  0.000000000000000E+000
  0.000000000000000E+000
  0.000000000000000E+000
  0.000000000000000E+000
  0.000000000000000E+000
  0.000000000000000E+000
  0.000000000000000E+000
  0.000000000000000E+000
  0.000000000000000E+000
  0.000000000000000E+000
  0.000000000000000E+000
  0.000000000000000E+000
  0.000000000000000E+000
  0.000000000000000E+000
  0.000000000000000E+000
  0.000000000000000E+000
  0.000000000000000E+000
  0.000000000000000E+000
  0.000000000000000E+000
  0.000000000000000E+000
  0.000000000000000E+000
  0.000000000000000E+000
  0.000000000000000E+000
  0.000000000000000E+000
  0.000000000000000E+000
  0.000000000000000E+000
  0.000000000000000E+000
  0.000000000000000E+000
  0.000000000000000E+000
  0.000000000000000E+000
  0.000000000000000E+000
  0.000000000000000E+000
  0.000000000000000E+000
  0.000000000000000E+000
  0.000000000000000E+000
  0.000000000000000E+000
  0.000000000000000E+000
  0.000000000000000E+000
  0.000000000000000E+000
  0.000000000000000E+000
  0.000000000000000E+000
  0.000000000000000E+000
  0.000000000000000E+000
  0.000000000000000E+000
  0.000000000000000E+000
  0.000000000000000E+000
  0.000000000000000E+000
  0.000000000000000E+000
  0.000000000000000E+000
  0.000000000000000E+000
  0.000000000000000E+000
  0.000000000000000E+000
  0.000000000000000E+000
  0.000000000000000E+000
  0.000000000000000E+000
  0.000000000000000E+000
  0.000000000000000E+000
  0.000000000000000E+000
  0.000000000000000E+000
  0.000000000000000E+000
  0.000000000000000E+000
  0.000000000000000E+000
  0.000000000000000E+000
  0.000000000000000E+000
  0.000000000000000E+000
  0.000000000000000E+000
  0.000000000000000E+000
  0.000000000000000E+000
  0.000000000000000E+000
  0.000000000000000E+000
  0.000000000000000E+000
  0.000000000000000E+000
  0.000000000000000E+000
  0.000000000000000E+000
  0.000000000000000E+000
  0.000000000000000E+000
  0.000000000000000E+000
  0.000000000000000E+000
  0.000000000000000E+000
  0.000000000000000E+000
  0.000000000000000E+000
  0.000000000000000E+000
  0.000000000000000E+000
  0.000000000000000E+000
  0.000000000000000E+000
  0.000000000000000E+000
  0.000000000000000E+000
  0.000000000000000E+000
  0.000000000000000E+000
  0.000000000000000E+000
  0.000000000000000E+000
  0.000000000000000E+000
  0.000000000000000E+000
  0.000000000000000E+000
  0.000000000000000E+000
  0.000000000000000E+000
  0.000000000000000E+000
  0.000000000000000E+000
  0.000000000000000E+000
  0.000000000000000E+000
  0.000000000000000E+000
  0.000000000000000E+000
  0.000000000000000E+000
  0.000000000000000E+000
  0.000000000000000E+000
  0.000000000000000E+000
  0.000000000000000E+000
  0.000000000000000E+000
  0.000000000000000E+000
  0.000000000000000E+000
  0.000000000000000E+000
  0.000000000000000E+000
  0.000000000000000E+000
  0.000000000000000E+000
  0.000000000000000E+000
  0.000000000000000E+000
  0.000000000000000E+000
  0.000000000000000E+000
  0.000000000000000E+000
  0.000000000000000E+000
  0.000000000000000E+000
  0.000000000000000E+000
  0.000000000000000E+000
  0.000000000000000E+000
  0.000000000000000E+000
  0.000000000000000E+000
  0.000000000000000E+000
  0.000000000000000E+000
  0.000000000000000E+000
  0.000000000000000E+000
  0.000000000000000E+000
  0.000000000000000E+000
  0.000000000000000E+000
  0.000000000000000E+000
  0.000000000000000E+000
  0.000000000000000E+000
  0.000000000000000E+000
  0.000000000000000E+000
  0.000000000000000E+000
  0.000000000000000E+000
  0.000000000000000E+000
  0.000000000000000E+000
  0.000000000000000E+000
  0.000000000000000E+000
  0.000000000000000E+000
  0.000000000000000E+000
  0.000000000000000E+000
  0.000000000000000E+000
  0.000000000000000E+000
  0.000000000000000E+000
  0.000000000000000E+000
  0.000000000000000E+000
  0.000000000000000E+000
  0.000000000000000E+000
  0.000000000000000E+000
  0.000000000000000E+000
  0.000000000000000E+000
  0.000000000000000E+000
  0.000000000000000E+000
  0.000000000000000E+000
  0.000000000000000E+000
  0.000000000000000E+000
  0.000000000000000E+000
  0.000000000000000E+000
  0.000000000000000E+000
  0.000000000000000E+000
  0.000000000000000E+000
  0.000000000000000E+000
  0.000000000000000E+000
  0.000000000000000E+000
  0.000000000000000E+000
  0.000000000000000E+000
  0.000000000000000E+000
  0.000000000000000E+000
  0.000000000000000E+000
  0.000000000000000E+000
  0.000000000000000E+000
  0.000000000000000E+000
  0.000000000000000E+000
  0.000000000000000E+000
  0.000000000000000E+000
  0.000000000000000E+000
  0.000000000000000E+000
  0.000000000000000E+000
  0.000000000000000E+000
  0.000000000000000E+000
  0.000000000000000E+000
  0.000000000000000E+000
  0.000000000000000E+000
  0.000000000000000E+000
  0.000000000000000E+000
  0.000000000000000E+000
  0.000000000000000E+000
  0.000000000000000E+000
  0.000000000000000E+000
  0.000000000000000E+000
  0.000000000000000E+000
  0.000000000000000E+000
  0.000000000000000E+000
  0.000000000000000E+000
  0.000000000000000E+000
  0.000000000000000E+000
  0.000000000000000E+000
  0.000000000000000E+000
  0.000000000000000E+000
  0.000000000000000E+000
  0.000000000000000E+000
  0.000000000000000E+000
  0.000000000000000E+000
  0.000000000000000E+000
  0.000000000000000E+000
  0.000000000000000E+000
  0.000000000000000E+000
  0.000000000000000E+000
  0.000000000000000E+000
  0.000000000000000E+000
  0.000000000000000E+000
  0.000000000000000E+000
  0.000000000000000E+000
  0.000000000000000E+000
  0.000000000000000E+000
  0.000000000000000E+000
  0.000000000000000E+000
  0.000000000000000E+000
  0.000000000000000E+000
  0.000000000000000E+000
  0.000000000000000E+000
  0.000000000000000E+000
  0.000000000000000E+000
  0.000000000000000E+000
  0.000000000000000E+000
  0.000000000000000E+000
  0.000000000000000E+000
  0.000000000000000E+000
  0.000000000000000E+000
  0.000000000000000E+000
  0.000000000000000E+000
  0.000000000000000E+000
  0.000000000000000E+000
  0.000000000000000E+000
  0.000000000000000E+000
  0.000000000000000E+000
  0.000000000000000E+000
  0.000000000000000E+000
  0.000000000000000E+000
  0.000000000000000E+000
  0.000000000000000E+000
  0.000000000000000E+000
  0.000000000000000E+000
  0.000000000000000E+000
  0.000000000000000E+000
  0.000000000000000E+000
  0.000000000000000E+000
  0.000000000000000E+000
  0.000000000000000E+000
  0.000000000000000E+000
  0.000000000000000E+000
  0.000000000000000E+000
  0.000000000000000E+000
  0.000000000000000E+000
  0.000000000000000E+000
  0.000000000000000E+000
  0.000000000000000E+000
  0.000000000000000E+000
  0.000000000000000E+000
  0.000000000000000E+000
  0.000000000000000E+000
  0.000000000000000E+000
  0.000000000000000E+000
  0.000000000000000E+000
  0.000000000000000E+000
  0.000000000000000E+000
  0.000000000000000E+000
  0.000000000000000E+000
  0.000000000000000E+000
  0.000000000000000E+000
  0.000000000000000E+000
  0.000000000000000E+000
  0.000000000000000E+000
  0.000000000000000E+000
  0.000000000000000E+000
  0.000000000000000E+000
  0.000000000000000E+000
  0.000000000000000E+000
  0.000000000000000E+000
  0.000000000000000E+000
  0.000000000000000E+000
  0.000000000000000E+000
  0.000000000000000E+000
  0.000000000000000E+000
  0.000000000000000E+000
  0.000000000000000E+000
  0.000000000000000E+000
  0.000000000000000E+000
  0.000000000000000E+000
  0.000000000000000E+000
  0.000000000000000E+000
  0.000000000000000E+000
  0.000000000000000E+000
  0.000000000000000E+000
  0.000000000000000E+000
  0.000000000000000E+000
  0.000000000000000E+000
  0.000000000000000E+000
  0.000000000000000E+000
  0.000000000000000E+000
  0.000000000000000E+000
  0.000000000000000E+000
  0.000000000000000E+000
  0.000000000000000E+000
  0.000000000000000E+000
  0.000000000000000E+000
  0.000000000000000E+000
  0.000000000000000E+000
  0.000000000000000E+000
  0.000000000000000E+000
  0.000000000000000E+000
  0.000000000000000E+000
  0.000000000000000E+000
  0.000000000000000E+000
  0.000000000000000E+000
  0.000000000000000E+000
  0.000000000000000E+000
  0.000000000000000E+000
  0.000000000000000E+000
  0.000000000000000E+000
  0.000000000000000E+000
  0.000000000000000E+000
  0.000000000000000E+000
  0.000000000000000E+000
  0.000000000000000E+000
  0.000000000000000E+000
  0.000000000000000E+000
  0.000000000000000E+000
  0.000000000000000E+000
  0.000000000000000E+000
  0.000000000000000E+000
  0.000000000000000E+000
  0.000000000000000E+000
  0.000000000000000E+000
  0.000000000000000E+000
  0.000000000000000E+000
  0.000000000000000E+000
  0.000000000000000E+000
  0.000000000000000E+000
  0.000000000000000E+000
  0.000000000000000E+000
  0.000000000000000E+000
  0.000000000000000E+000
  0.000000000000000E+000
  0.000000000000000E+000
  0.000000000000000E+000
  0.000000000000000E+000
  0.000000000000000E+000
  0.000000000000000E+000
  0.000000000000000E+000
  0.000000000000000E+000
  0.000000000000000E+000
  0.000000000000000E+000
  0.000000000000000E+000
  0.000000000000000E+000
  0.000000000000000E+000
  0.000000000000000E+000
  0.000000000000000E+000
  0.000000000000000E+000
  0.000000000000000E+000
  0.000000000000000E+000
  0.000000000000000E+000
  0.000000000000000E+000
  0.000000000000000E+000
  0.000000000000000E+000
  0.000000000000000E+000
  0.000000000000000E+000
  0.000000000000000E+000
  0.000000000000000E+000
  0.000000000000000E+000
  0.000000000000000E+000
  0.000000000000000E+000
  0.000000000000000E+000
  0.000000000000000E+000
  0.000000000000000E+000
  0.000000000000000E+000
  0.000000000000000E+000
  0.000000000000000E+000
  0.000000000000000E+000
  0.000000000000000E+000
  0.000000000000000E+000
  0.000000000000000E+000
  0.000000000000000E+000
  0.000000000000000E+000
  0.000000000000000E+000
  0.000000000000000E+000
  0.000000000000000E+000
  0.000000000000000E+000
  0.000000000000000E+000
  0.000000000000000E+000
  0.000000000000000E+000
  0.000000000000000E+000
  0.000000000000000E+000
  0.000000000000000E+000
  0.000000000000000E+000
  0.000000000000000E+000
  0.000000000000000E+000
  0.000000000000000E+000
  0.000000000000000E+000
  0.000000000000000E+000
  0.000000000000000E+000
  0.000000000000000E+000
  0.000000000000000E+000
  0.000000000000000E+000
  0.000000000000000E+000
  0.000000000000000E+000
  0.000000000000000E+000
  0.000000000000000E+000
  0.000000000000000E+000
  0.000000000000000E+000
  0.000000000000000E+000
  0.000000000000000E+000
  0.000000000000000E+000
  0.000000000000000E+000
  0.000000000000000E+000
  0.000000000000000E+000
  0.000000000000000E+000
  0.000000000000000E+000
  0.000000000000000E+000
  0.000000000000000E+000
  0.000000000000000E+000
  0.000000000000000E+000
  0.000000000000000E+000
  0.000000000000000E+000
  0.000000000000000E+000
  0.000000000000000E+000
  0.000000000000000E+000
  0.000000000000000E+000
  0.000000000000000E+000
  0.000000000000000E+000
  0.000000000000000E+000
  0.000000000000000E+000
  0.000000000000000E+000
  0.000000000000000E+000
  0.000000000000000E+000
  0.000000000000000E+000
  0.000000000000000E+000
  0.000000000000000E+000
  0.000000000000000E+000
  0.000000000000000E+000
  0.000000000000000E+000
  0.000000000000000E+000
  0.000000000000000E+000
  0.000000000000000E+000
  0.000000000000000E+000
  0.000000000000000E+000
  0.000000000000000E+000
  0.000000000000000E+000
  0.000000000000000E+000
  0.000000000000000E+000
  0.000000000000000E+000
  0.000000000000000E+000
  0.000000000000000E+000
  0.000000000000000E+000
  0.000000000000000E+000
  0.000000000000000E+000
  0.000000000000000E+000
  0.000000000000000E+000
  0.000000000000000E+000
  0.000000000000000E+000
  0.000000000000000E+000
  0.000000000000000E+000
  0.000000000000000E+000
  0.000000000000000E+000
  0.000000000000000E+000
  0.000000000000000E+000
  0.000000000000000E+000
  0.000000000000000E+000
  0.000000000000000E+000
  0.000000000000000E+000
  0.000000000000000E+000
  0.000000000000000E+000
  0.000000000000000E+000
  0.000000000000000E+000
  0.000000000000000E+000
  0.000000000000000E+000
  0.000000000000000E+000
  0.000000000000000E+000
  0.000000000000000E+000
  0.000000000000000E+000
  0.000000000000000E+000
  0.000000000000000E+000
  0.000000000000000E+000
  0.000000000000000E+000
  0.000000000000000E+000
  0.000000000000000E+000
  0.000000000000000E+000
  0.000000000000000E+000
  0.000000000000000E+000
  0.000000000000000E+000
  0.000000000000000E+000
  0.000000000000000E+000
  0.000000000000000E+000
  0.000000000000000E+000
  0.000000000000000E+000
  0.000000000000000E+000
  0.000000000000000E+000
  0.000000000000000E+000
  0.000000000000000E+000
  0.000000000000000E+000
  0.000000000000000E+000
  0.000000000000000E+000
  0.000000000000000E+000
  0.000000000000000E+000
  0.000000000000000E+000
  0.000000000000000E+000
  0.000000000000000E+000
  0.000000000000000E+000
  0.000000000000000E+000
  0.000000000000000E+000
  0.000000000000000E+000
  0.000000000000000E+000
  0.000000000000000E+000
  0.000000000000000E+000
  0.000000000000000E+000
  0.000000000000000E+000
  0.000000000000000E+000
  0.000000000000000E+000
  0.000000000000000E+000
  0.000000000000000E+000
  0.000000000000000E+000
  0.000000000000000E+000
  0.000000000000000E+000
  0.000000000000000E+000
  0.000000000000000E+000
  0.000000000000000E+000
  0.000000000000000E+000
  0.000000000000000E+000
  0.000000000000000E+000
  0.000000000000000E+000
  0.000000000000000E+000
  0.000000000000000E+000
  0.000000000000000E+000
  0.000000000000000E+000
  0.000000000000000E+000
  0.000000000000000E+000
  0.000000000000000E+000
  0.000000000000000E+000
  0.000000000000000E+000
  0.000000000000000E+000
  0.000000000000000E+000
  0.000000000000000E+000
  0.000000000000000E+000
  0.000000000000000E+000
  0.000000000000000E+000
  0.000000000000000E+000
  0.000000000000000E+000
  0.000000000000000E+000
  0.000000000000000E+000
  0.000000000000000E+000
  0.000000000000000E+000
  0.000000000000000E+000
  0.000000000000000E+000
  0.000000000000000E+000
  0.000000000000000E+000
  0.000000000000000E+000
  0.000000000000000E+000
  0.000000000000000E+000
  0.000000000000000E+000
  0.000000000000000E+000
  0.000000000000000E+000
  0.000000000000000E+000
  0.000000000000000E+000
  0.000000000000000E+000
  0.000000000000000E+000
  0.000000000000000E+000
  0.000000000000000E+000
  0.000000000000000E+000
  0.000000000000000E+000
  0.000000000000000E+000
  0.000000000000000E+000
  0.000000000000000E+000
  0.000000000000000E+000
  0.000000000000000E+000
  0.000000000000000E+000
  0.000000000000000E+000
  0.000000000000000E+000
  0.000000000000000E+000
  0.000000000000000E+000
  0.000000000000000E+000
  0.000000000000000E+000
  0.000000000000000E+000
  0.000000000000000E+000
  0.000000000000000E+000
  0.000000000000000E+000
  0.000000000000000E+000
  0.000000000000000E+000
  0.000000000000000E+000
  0.000000000000000E+000
  0.000000000000000E+000
  0.000000000000000E+000
  0.000000000000000E+000
  0.000000000000000E+000
  0.000000000000000E+000
  0.000000000000000E+000
  0.000000000000000E+000
  0.000000000000000E+000
  0.000000000000000E+000
  0.000000000000000E+000
  0.000000000000000E+000
  0.000000000000000E+000
  0.000000000000000E+000
  0.000000000000000E+000
  0.000000000000000E+000
  0.000000000000000E+000
  0.000000000000000E+000
  0.000000000000000E+000
  0.000000000000000E+000
  0.000000000000000E+000
  0.000000000000000E+000
  0.000000000000000E+000
  0.000000000000000E+000
  0.000000000000000E+000
  0.000000000000000E+000
  0.000000000000000E+000
  0.000000000000000E+000
  0.000000000000000E+000
  0.000000000000000E+000
  0.000000000000000E+000
  0.000000000000000E+000
  0.000000000000000E+000
  0.000000000000000E+000
  0.000000000000000E+000
  0.000000000000000E+000
  0.000000000000000E+000
  0.000000000000000E+000
  0.000000000000000E+000
  0.000000000000000E+000
  0.000000000000000E+000
  0.000000000000000E+000
  0.000000000000000E+000
  0.000000000000000E+000
  0.000000000000000E+000
  0.000000000000000E+000
  0.000000000000000E+000
  0.000000000000000E+000
  0.000000000000000E+000
  0.000000000000000E+000
  0.000000000000000E+000
  0.000000000000000E+000
  0.000000000000000E+000
  0.000000000000000E+000
  0.000000000000000E+000
  0.000000000000000E+000
  0.000000000000000E+000
  0.000000000000000E+000
  0.000000000000000E+000
  0.000000000000000E+000
  0.000000000000000E+000
  0.000000000000000E+000
  0.000000000000000E+000
  0.000000000000000E+000
  0.000000000000000E+000
  0.000000000000000E+000
  0.000000000000000E+000
  0.000000000000000E+000
  0.000000000000000E+000
  0.000000000000000E+000
  0.000000000000000E+000
  0.000000000000000E+000
  0.000000000000000E+000
  0.000000000000000E+000
  0.000000000000000E+000
  0.000000000000000E+000
  0.000000000000000E+000
  0.000000000000000E+000
  0.000000000000000E+000
  0.000000000000000E+000
  0.000000000000000E+000
  0.000000000000000E+000
  0.000000000000000E+000
  0.000000000000000E+000
  0.000000000000000E+000
  0.000000000000000E+000
  0.000000000000000E+000
  0.000000000000000E+000
  0.000000000000000E+000
  0.000000000000000E+000
  0.000000000000000E+000
  0.000000000000000E+000
  0.000000000000000E+000
  0.000000000000000E+000
  0.000000000000000E+000
  0.000000000000000E+000
  0.000000000000000E+000
  0.000000000000000E+000
  0.000000000000000E+000
  0.000000000000000E+000
  0.000000000000000E+000
  0.000000000000000E+000
  0.000000000000000E+000
  0.000000000000000E+000
  0.000000000000000E+000
  0.000000000000000E+000
  0.000000000000000E+000
  0.000000000000000E+000
  0.000000000000000E+000
  0.000000000000000E+000
  0.000000000000000E+000
  0.000000000000000E+000
  0.000000000000000E+000
  0.000000000000000E+000
  0.000000000000000E+000
  0.000000000000000E+000
  0.000000000000000E+000
  0.000000000000000E+000
  0.000000000000000E+000
  0.000000000000000E+000
  0.000000000000000E+000
  0.000000000000000E+000
  0.000000000000000E+000
  0.000000000000000E+000
  0.000000000000000E+000
  0.000000000000000E+000
  0.000000000000000E+000
  0.000000000000000E+000
  0.000000000000000E+000
  0.000000000000000E+000
  0.000000000000000E+000
  0.000000000000000E+000
  0.000000000000000E+000
  0.000000000000000E+000
  0.000000000000000E+000
  0.000000000000000E+000
  0.000000000000000E+000
  0.000000000000000E+000
  0.000000000000000E+000
  0.000000000000000E+000
  0.000000000000000E+000
  0.000000000000000E+000
  0.000000000000000E+000
  0.000000000000000E+000
  0.000000000000000E+000
  0.000000000000000E+000
  0.000000000000000E+000
  0.000000000000000E+000
  0.000000000000000E+000
  0.000000000000000E+000
  0.000000000000000E+000
  0.000000000000000E+000
  0.000000000000000E+000
  0.000000000000000E+000
  0.000000000000000E+000
  0.000000000000000E+000
  0.000000000000000E+000
  0.000000000000000E+000
  0.000000000000000E+000
  0.000000000000000E+000
  0.000000000000000E+000
  0.000000000000000E+000
  0.000000000000000E+000
  0.000000000000000E+000
  0.000000000000000E+000
  0.000000000000000E+000
  0.000000000000000E+000
  0.000000000000000E+000
  0.000000000000000E+000
  0.000000000000000E+000
  0.000000000000000E+000
  0.000000000000000E+000
  0.000000000000000E+000
  0.000000000000000E+000
  0.000000000000000E+000
  0.000000000000000E+000
  0.000000000000000E+000
  0.000000000000000E+000
  0.000000000000000E+000
  0.000000000000000E+000
  0.000000000000000E+000
  0.000000000000000E+000
  0.000000000000000E+000
  0.000000000000000E+000
  0.000000000000000E+000
  0.000000000000000E+000
  0.000000000000000E+000
  0.000000000000000E+000
  0.000000000000000E+000
  0.000000000000000E+000
  0.000000000000000E+000
  0.000000000000000E+000
  0.000000000000000E+000
  0.000000000000000E+000
  0.000000000000000E+000
  0.000000000000000E+000
  0.000000000000000E+000
  0.000000000000000E+000
  0.000000000000000E+000
  0.000000000000000E+000
  0.000000000000000E+000
  0.000000000000000E+000
  0.000000000000000E+000
  0.000000000000000E+000
  0.000000000000000E+000
  0.000000000000000E+000
  0.000000000000000E+000
  0.000000000000000E+000
  0.000000000000000E+000
  0.000000000000000E+000
  0.000000000000000E+000
  0.000000000000000E+000
  0.000000000000000E+000
  0.000000000000000E+000
  0.000000000000000E+000
  0.000000000000000E+000
  0.000000000000000E+000
  0.000000000000000E+000
  0.000000000000000E+000
  0.000000000000000E+000
  0.000000000000000E+000
  0.000000000000000E+000
  0.000000000000000E+000
  0.000000000000000E+000
  0.000000000000000E+000
  0.000000000000000E+000
  0.000000000000000E+000
  0.000000000000000E+000
  0.000000000000000E+000
  0.000000000000000E+000
  0.000000000000000E+000
  0.000000000000000E+000
  0.000000000000000E+000
  0.000000000000000E+000
  0.000000000000000E+000
  0.000000000000000E+000
  0.000000000000000E+000
  0.000000000000000E+000
  0.000000000000000E+000
  0.000000000000000E+000
  0.000000000000000E+000
  0.000000000000000E+000
  0.000000000000000E+000
  0.000000000000000E+000
  0.000000000000000E+000
  0.000000000000000E+000
  0.000000000000000E+000
  0.000000000000000E+000
  0.000000000000000E+000
  0.000000000000000E+000
  0.000000000000000E+000
  0.000000000000000E+000
  0.000000000000000E+000
  0.000000000000000E+000
  0.000000000000000E+000
  0.000000000000000E+000
  0.000000000000000E+000
  0.000000000000000E+000
  0.000000000000000E+000
  0.000000000000000E+000
  0.000000000000000E+000
  0.000000000000000E+000
  0.000000000000000E+000
  0.000000000000000E+000
  0.000000000000000E+000
  0.000000000000000E+000
  0.000000000000000E+000
  0.000000000000000E+000
  0.000000000000000E+000
  0.000000000000000E+000
  0.000000000000000E+000
  0.000000000000000E+000
  0.000000000000000E+000
  0.000000000000000E+000
  0.000000000000000E+000
  0.000000000000000E+000
  0.000000000000000E+000
  0.000000000000000E+000
  0.000000000000000E+000
  0.000000000000000E+000
  0.000000000000000E+000
  0.000000000000000E+000
  0.000000000000000E+000
  0.000000000000000E+000
  0.000000000000000E+000
  0.000000000000000E+000
  0.000000000000000E+000
  0.000000000000000E+000
  0.000000000000000E+000
  0.000000000000000E+000
  0.000000000000000E+000
  0.000000000000000E+000
  0.000000000000000E+000
  0.000000000000000E+000
  0.000000000000000E+000
  0.000000000000000E+000
  0.000000000000000E+000
  0.000000000000000E+000
  0.000000000000000E+000
  0.000000000000000E+000
  0.000000000000000E+000
  0.000000000000000E+000
  0.000000000000000E+000
  0.000000000000000E+000
  0.000000000000000E+000
  0.000000000000000E+000
  0.000000000000000E+000
  0.000000000000000E+000
  0.000000000000000E+000
  0.000000000000000E+000
  0.000000000000000E+000
  0.000000000000000E+000
  0.000000000000000E+000
  0.000000000000000E+000
  0.000000000000000E+000
  0.000000000000000E+000
  0.000000000000000E+000
  0.000000000000000E+000
  0.000000000000000E+000
  0.000000000000000E+000
  0.000000000000000E+000
  0.000000000000000E+000
  0.000000000000000E+000
  0.000000000000000E+000
  0.000000000000000E+000
  0.000000000000000E+000
  0.000000000000000E+000
  0.000000000000000E+000
  0.000000000000000E+000
  0.000000000000000E+000
  0.000000000000000E+000
  0.000000000000000E+000
  0.000000000000000E+000
  0.000000000000000E+000
  0.000000000000000E+000
  0.000000000000000E+000
  0.000000000000000E+000
  0.000000000000000E+000
  0.000000000000000E+000
  0.000000000000000E+000
  0.000000000000000E+000
  0.000000000000000E+000
  0.000000000000000E+000
  0.000000000000000E+000
  0.000000000000000E+000
  0.000000000000000E+000
  0.000000000000000E+000
  0.000000000000000E+000
  0.000000000000000E+000
  0.000000000000000E+000
  0.000000000000000E+000
  0.000000000000000E+000
  0.000000000000000E+000
  0.000000000000000E+000
  0.000000000000000E+000
  0.000000000000000E+000
  0.000000000000000E+000
  0.000000000000000E+000
  0.000000000000000E+000
  0.000000000000000E+000
  0.000000000000000E+000
  0.000000000000000E+000
  0.000000000000000E+000
  0.000000000000000E+000
  0.000000000000000E+000
  0.000000000000000E+000
  0.000000000000000E+000
  0.000000000000000E+000
  0.000000000000000E+000
  0.000000000000000E+000
  0.000000000000000E+000
  0.000000000000000E+000
  0.000000000000000E+000
  0.000000000000000E+000
  0.000000000000000E+000
  0.000000000000000E+000
  0.000000000000000E+000
  0.000000000000000E+000
  0.000000000000000E+000
  0.000000000000000E+000
  0.000000000000000E+000
  0.000000000000000E+000
  0.000000000000000E+000
  0.000000000000000E+000
  0.000000000000000E+000
  0.000000000000000E+000
  0.000000000000000E+000
  0.000000000000000E+000
  0.000000000000000E+000
  0.000000000000000E+000
  0.000000000000000E+000
  0.000000000000000E+000
  0.000000000000000E+000
  0.000000000000000E+000
  0.000000000000000E+000
  0.000000000000000E+000
  0.000000000000000E+000
  0.000000000000000E+000
  0.000000000000000E+000
  0.000000000000000E+000
  0.000000000000000E+000
  0.000000000000000E+000
  0.000000000000000E+000
  0.000000000000000E+000
  0.000000000000000E+000
  0.000000000000000E+000
  0.000000000000000E+000
  0.000000000000000E+000
  0.000000000000000E+000
  0.000000000000000E+000
  0.000000000000000E+000
  0.000000000000000E+000
  0.000000000000000E+000
  0.000000000000000E+000
  0.000000000000000E+000
  0.000000000000000E+000
  0.000000000000000E+000
  0.000000000000000E+000
  0.000000000000000E+000
  0.000000000000000E+000
  0.000000000000000E+000
  0.000000000000000E+000
  0.000000000000000E+000
  0.000000000000000E+000
  0.000000000000000E+000
  0.000000000000000E+000
  0.000000000000000E+000
  0.000000000000000E+000
  0.000000000000000E+000
  0.000000000000000E+000
  0.000000000000000E+000
  0.000000000000000E+000
  0.000000000000000E+000
  0.000000000000000E+000
  0.000000000000000E+000
  0.000000000000000E+000
  0.000000000000000E+000
  0.000000000000000E+000
  0.000000000000000E+000
  0.000000000000000E+000
  0.000000000000000E+000
  0.000000000000000E+000
  0.000000000000000E+000
  0.000000000000000E+000
  0.000000000000000E+000
  0.000000000000000E+000
  0.000000000000000E+000
  0.000000000000000E+000
  0.000000000000000E+000
  0.000000000000000E+000
  0.000000000000000E+000
  0.000000000000000E+000
  0.000000000000000E+000
  0.000000000000000E+000
  0.000000000000000E+000
  0.000000000000000E+000
  0.000000000000000E+000
  0.000000000000000E+000
  0.000000000000000E+000
  0.000000000000000E+000
  0.000000000000000E+000
  0.000000000000000E+000
  0.000000000000000E+000
  0.000000000000000E+000
  0.000000000000000E+000
  0.000000000000000E+000
  0.000000000000000E+000
  0.000000000000000E+000
  0.000000000000000E+000
  0.000000000000000E+000
  0.000000000000000E+000
  0.000000000000000E+000
  0.000000000000000E+000
  0.000000000000000E+000
  0.000000000000000E+000
  0.000000000000000E+000
  0.000000000000000E+000
  0.000000000000000E+000
  0.000000000000000E+000
  0.000000000000000E+000
  0.000000000000000E+000
  0.000000000000000E+000
  0.000000000000000E+000
  0.000000000000000E+000
  0.000000000000000E+000
  0.000000000000000E+000
  0.000000000000000E+000
  0.000000000000000E+000
  0.000000000000000E+000
  0.000000000000000E+000
  0.000000000000000E+000
  0.000000000000000E+000
  0.000000000000000E+000
  0.000000000000000E+000
  0.000000000000000E+000
  0.000000000000000E+000
  0.000000000000000E+000
  0.000000000000000E+000
  0.000000000000000E+000
  0.000000000000000E+000
  0.000000000000000E+000
  0.000000000000000E+000
  0.000000000000000E+000
  0.000000000000000E+000
  0.000000000000000E+000
  0.000000000000000E+000
  0.000000000000000E+000
  0.000000000000000E+000
  0.000000000000000E+000
  0.000000000000000E+000
  0.000000000000000E+000
  0.000000000000000E+000
  0.000000000000000E+000
  0.000000000000000E+000
  0.000000000000000E+000
  0.000000000000000E+000
  0.000000000000000E+000
  0.000000000000000E+000
  0.000000000000000E+000
  0.000000000000000E+000
  0.000000000000000E+000
  0.000000000000000E+000
  0.000000000000000E+000
  0.000000000000000E+000
  0.000000000000000E+000
  0.000000000000000E+000
  0.000000000000000E+000
  0.000000000000000E+000
  0.000000000000000E+000
  0.000000000000000E+000
  0.000000000000000E+000
  0.000000000000000E+000
  0.000000000000000E+000
  0.000000000000000E+000
  0.000000000000000E+000
  0.000000000000000E+000
  0.000000000000000E+000
  0.000000000000000E+000
  0.000000000000000E+000
  0.000000000000000E+000
  0.000000000000000E+000
  0.000000000000000E+000
  0.000000000000000E+000
  0.000000000000000E+000
  0.000000000000000E+000
  0.000000000000000E+000
  0.000000000000000E+000
  0.000000000000000E+000
  0.000000000000000E+000
  0.000000000000000E+000
  0.000000000000000E+000
  0.000000000000000E+000
  0.000000000000000E+000
  0.000000000000000E+000
  0.000000000000000E+000
  0.000000000000000E+000
  0.000000000000000E+000
  0.000000000000000E+000
  0.000000000000000E+000
  0.000000000000000E+000
  0.000000000000000E+000
  0.000000000000000E+000
  0.000000000000000E+000
  0.000000000000000E+000
  0.000000000000000E+000
  0.000000000000000E+000
  0.000000000000000E+000
  0.000000000000000E+000
  0.000000000000000E+000
  0.000000000000000E+000
  0.000000000000000E+000
  0.000000000000000E+000
  0.000000000000000E+000
  0.000000000000000E+000
  0.000000000000000E+000
  0.000000000000000E+000
  0.000000000000000E+000
  0.000000000000000E+000
  0.000000000000000E+000
  0.000000000000000E+000
  0.000000000000000E+000
  0.000000000000000E+000
  0.000000000000000E+000
  0.000000000000000E+000
  0.000000000000000E+000
  0.000000000000000E+000
  0.000000000000000E+000
  0.000000000000000E+000
  0.000000000000000E+000
  0.000000000000000E+000
  0.000000000000000E+000
  0.000000000000000E+000
  0.000000000000000E+000
  0.000000000000000E+000
  0.000000000000000E+000
  0.000000000000000E+000
  0.000000000000000E+000
  0.000000000000000E+000
  0.000000000000000E+000
  0.000000000000000E+000
  0.000000000000000E+000
  0.000000000000000E+000
  0.000000000000000E+000
  0.000000000000000E+000
  0.000000000000000E+000
  0.000000000000000E+000
  0.000000000000000E+000
  0.000000000000000E+000
  0.000000000000000E+000
  0.000000000000000E+000
  0.000000000000000E+000
  0.000000000000000E+000
  0.000000000000000E+000
  0.000000000000000E+000
  0.000000000000000E+000
  0.000000000000000E+000
  0.000000000000000E+000
  0.000000000000000E+000
  0.000000000000000E+000
  0.000000000000000E+000
  0.000000000000000E+000
  0.000000000000000E+000
  0.000000000000000E+000
  0.000000000000000E+000
  0.000000000000000E+000
  0.000000000000000E+000
  0.000000000000000E+000
  0.000000000000000E+000
  0.000000000000000E+000
  0.000000000000000E+000
  0.000000000000000E+000
  0.000000000000000E+000
  0.000000000000000E+000
  0.000000000000000E+000
  0.000000000000000E+000
  0.000000000000000E+000
  0.000000000000000E+000
  0.000000000000000E+000
  0.000000000000000E+000
  0.000000000000000E+000
  0.000000000000000E+000
  0.000000000000000E+000
  0.000000000000000E+000
  0.000000000000000E+000
  0.000000000000000E+000
  0.000000000000000E+000
  0.000000000000000E+000
  0.000000000000000E+000
  0.000000000000000E+000
  0.000000000000000E+000
  0.000000000000000E+000
  0.000000000000000E+000
  0.000000000000000E+000
  0.000000000000000E+000
  0.000000000000000E+000
  0.000000000000000E+000
  0.000000000000000E+000
  0.000000000000000E+000
  0.000000000000000E+000
  0.000000000000000E+000
  0.000000000000000E+000
  0.000000000000000E+000
  0.000000000000000E+000
  0.000000000000000E+000
  0.000000000000000E+000
  0.000000000000000E+000
  0.000000000000000E+000
  0.000000000000000E+000
  0.000000000000000E+000
  0.000000000000000E+000
  0.000000000000000E+000
  0.000000000000000E+000
  0.000000000000000E+000
  0.000000000000000E+000
  0.000000000000000E+000
  0.000000000000000E+000
  0.000000000000000E+000
  0.000000000000000E+000
  0.000000000000000E+000
  0.000000000000000E+000
  0.000000000000000E+000
  0.000000000000000E+000
  0.000000000000000E+000
  0.000000000000000E+000
  0.000000000000000E+000
  0.000000000000000E+000
  0.000000000000000E+000
  0.000000000000000E+000
  0.000000000000000E+000
  0.000000000000000E+000
  0.000000000000000E+000
  0.000000000000000E+000
  0.000000000000000E+000
  0.000000000000000E+000
  0.000000000000000E+000
  0.000000000000000E+000
  0.000000000000000E+000
  0.000000000000000E+000
  0.000000000000000E+000
  0.000000000000000E+000
  0.000000000000000E+000
  0.000000000000000E+000
  0.000000000000000E+000
  0.000000000000000E+000
  0.000000000000000E+000
  0.000000000000000E+000
  0.000000000000000E+000
  0.000000000000000E+000
  0.000000000000000E+000
  0.000000000000000E+000
  0.000000000000000E+000
  0.000000000000000E+000
  0.000000000000000E+000
  0.000000000000000E+000
  0.000000000000000E+000
  0.000000000000000E+000
  0.000000000000000E+000
  0.000000000000000E+000
  0.000000000000000E+000
  0.000000000000000E+000
  0.000000000000000E+000
  0.000000000000000E+000
  0.000000000000000E+000
  0.000000000000000E+000
  0.000000000000000E+000
  0.000000000000000E+000
  0.000000000000000E+000
  0.000000000000000E+000
  0.000000000000000E+000
  0.000000000000000E+000
  0.000000000000000E+000
  0.000000000000000E+000
  0.000000000000000E+000
  0.000000000000000E+000
  0.000000000000000E+000
  0.000000000000000E+000
  0.000000000000000E+000
  0.000000000000000E+000
  0.000000000000000E+000
  0.000000000000000E+000
  0.000000000000000E+000
  0.000000000000000E+000
  0.000000000000000E+000
  0.000000000000000E+000
  0.000000000000000E+000
  0.000000000000000E+000
  0.000000000000000E+000
  0.000000000000000E+000
  0.000000000000000E+000
  0.000000000000000E+000
  0.000000000000000E+000
  0.000000000000000E+000
  0.000000000000000E+000
  0.000000000000000E+000
  0.000000000000000E+000
  0.000000000000000E+000
  0.000000000000000E+000
  0.000000000000000E+000
  0.000000000000000E+000
  0.000000000000000E+000
  0.000000000000000E+000
  0.000000000000000E+000
  0.000000000000000E+000
  0.000000000000000E+000
  0.000000000000000E+000
  0.000000000000000E+000
  0.000000000000000E+000
  0.000000000000000E+000
  0.000000000000000E+000
  0.000000000000000E+000
  0.000000000000000E+000
  0.000000000000000E+000
  0.000000000000000E+000
  0.000000000000000E+000
  0.000000000000000E+000
  0.000000000000000E+000
  0.000000000000000E+000
  0.000000000000000E+000
  0.000000000000000E+000
  0.000000000000000E+000
  0.000000000000000E+000
  0.000000000000000E+000
  0.000000000000000E+000
  0.000000000000000E+000
  0.000000000000000E+000
  0.000000000000000E+000
  0.000000000000000E+000
  0.000000000000000E+000
  0.000000000000000E+000
  0.000000000000000E+000
  0.000000000000000E+000
  0.000000000000000E+000
  0.000000000000000E+000
  0.000000000000000E+000
  0.000000000000000E+000
  0.000000000000000E+000
  0.000000000000000E+000
  0.000000000000000E+000
  0.000000000000000E+000
  0.000000000000000E+000
  0.000000000000000E+000
  0.000000000000000E+000
  0.000000000000000E+000
  0.000000000000000E+000
  0.000000000000000E+000
  0.000000000000000E+000
  0.000000000000000E+000
  0.000000000000000E+000
  0.000000000000000E+000
  0.000000000000000E+000
  0.000000000000000E+000
  0.000000000000000E+000
  0.000000000000000E+000
  0.000000000000000E+000
  0.000000000000000E+000
  0.000000000000000E+000
  0.000000000000000E+000
  0.000000000000000E+000
  0.000000000000000E+000
  0.000000000000000E+000
  0.000000000000000E+000
  0.000000000000000E+000
  0.000000000000000E+000
  0.000000000000000E+000
  0.000000000000000E+000
  0.000000000000000E+000
  0.000000000000000E+000
  0.000000000000000E+000
  0.000000000000000E+000
  0.000000000000000E+000
  0.000000000000000E+000
  0.000000000000000E+000
  0.000000000000000E+000
  0.000000000000000E+000
  0.000000000000000E+000
  0.000000000000000E+000
  0.000000000000000E+000
  0.000000000000000E+000
  0.000000000000000E+000
  0.000000000000000E+000
  0.000000000000000E+000
  0.000000000000000E+000
  0.000000000000000E+000
  0.000000000000000E+000
  0.000000000000000E+000
  0.000000000000000E+000
  0.000000000000000E+000
  0.000000000000000E+000
  0.000000000000000E+000
  0.000000000000000E+000
  0.000000000000000E+000
  0.000000000000000E+000
  0.000000000000000E+000
  0.000000000000000E+000
  0.000000000000000E+000
  0.000000000000000E+000
  0.000000000000000E+000
  0.000000000000000E+000
  0.000000000000000E+000
  0.000000000000000E+000
  0.000000000000000E+000
  0.000000000000000E+000
  0.000000000000000E+000
  0.000000000000000E+000
  0.000000000000000E+000
  0.000000000000000E+000
  0.000000000000000E+000
  0.000000000000000E+000
  0.000000000000000E+000
  0.000000000000000E+000
  0.000000000000000E+000
  0.000000000000000E+000
  0.000000000000000E+000
  0.000000000000000E+000
  0.000000000000000E+000
  0.000000000000000E+000
  0.000000000000000E+000
  0.000000000000000E+000
  0.000000000000000E+000
  0.000000000000000E+000
  0.000000000000000E+000
  0.000000000000000E+000
  0.000000000000000E+000
  0.000000000000000E+000
  0.000000000000000E+000
  0.000000000000000E+000
  0.000000000000000E+000
  0.000000000000000E+000
  0.000000000000000E+000
  0.000000000000000E+000
  0.000000000000000E+000
  0.000000000000000E+000
  0.000000000000000E+000
  0.000000000000000E+000
  0.000000000000000E+000
  0.000000000000000E+000
  0.000000000000000E+000
  0.000000000000000E+000
  0.000000000000000E+000
  0.000000000000000E+000
  0.000000000000000E+000
  0.000000000000000E+000
  0.000000000000000E+000
  0.000000000000000E+000
  0.000000000000000E+000
  0.000000000000000E+000
  0.000000000000000E+000
  0.000000000000000E+000
  0.000000000000000E+000
  0.000000000000000E+000
  0.000000000000000E+000
  0.000000000000000E+000
  0.000000000000000E+000
  0.000000000000000E+000
  0.000000000000000E+000
  0.000000000000000E+000
  0.000000000000000E+000
  0.000000000000000E+000
  0.000000000000000E+000
  0.000000000000000E+000
  0.000000000000000E+000
  0.000000000000000E+000
  0.000000000000000E+000
  0.000000000000000E+000
  0.000000000000000E+000
  0.000000000000000E+000
  0.000000000000000E+000
  0.000000000000000E+000
  0.000000000000000E+000
  0.000000000000000E+000
  0.000000000000000E+000
  0.000000000000000E+000
  0.000000000000000E+000
  0.000000000000000E+000
  0.000000000000000E+000
  0.000000000000000E+000
  0.000000000000000E+000
  0.000000000000000E+000
  0.000000000000000E+000
  0.000000000000000E+000
  0.000000000000000E+000
  0.000000000000000E+000
  0.000000000000000E+000
  0.000000000000000E+000
  0.000000000000000E+000
  0.000000000000000E+000
  0.000000000000000E+000
  0.000000000000000E+000
  0.000000000000000E+000
  0.000000000000000E+000
  0.000000000000000E+000
  0.000000000000000E+000
  0.000000000000000E+000
  0.000000000000000E+000
  0.000000000000000E+000
  0.000000000000000E+000
  0.000000000000000E+000
  0.000000000000000E+000
  0.000000000000000E+000
  0.000000000000000E+000
  0.000000000000000E+000
  0.000000000000000E+000
  0.000000000000000E+000
  0.000000000000000E+000
  0.000000000000000E+000
  0.000000000000000E+000
  0.000000000000000E+000
  0.000000000000000E+000
  0.000000000000000E+000
  0.000000000000000E+000
  0.000000000000000E+000
  0.000000000000000E+000
  0.000000000000000E+000
  0.000000000000000E+000
  0.000000000000000E+000
  0.000000000000000E+000
  0.000000000000000E+000
  0.000000000000000E+000
  0.000000000000000E+000
  0.000000000000000E+000
  0.000000000000000E+000
  0.000000000000000E+000
  0.000000000000000E+000
  0.000000000000000E+000
  0.000000000000000E+000
  0.000000000000000E+000
  0.000000000000000E+000
  0.000000000000000E+000
  0.000000000000000E+000
  0.000000000000000E+000
  0.000000000000000E+000
  0.000000000000000E+000
  0.000000000000000E+000
  0.000000000000000E+000
  0.000000000000000E+000
  0.000000000000000E+000
  0.000000000000000E+000
  0.000000000000000E+000
  0.000000000000000E+000
  0.000000000000000E+000
  0.000000000000000E+000
  0.000000000000000E+000
  0.000000000000000E+000
  0.000000000000000E+000
  0.000000000000000E+000
  0.000000000000000E+000
  0.000000000000000E+000
  0.000000000000000E+000
  0.000000000000000E+000
  0.000000000000000E+000
  0.000000000000000E+000
  0.000000000000000E+000
  0.000000000000000E+000
  0.000000000000000E+000
  0.000000000000000E+000
  0.000000000000000E+000
  0.000000000000000E+000
  0.000000000000000E+000
  0.000000000000000E+000
  0.000000000000000E+000
  0.000000000000000E+000
  0.000000000000000E+000
  0.000000000000000E+000
  0.000000000000000E+000
  0.000000000000000E+000
  0.000000000000000E+000
  0.000000000000000E+000
  0.000000000000000E+000
  0.000000000000000E+000
  0.000000000000000E+000
  0.000000000000000E+000
  0.000000000000000E+000
  0.000000000000000E+000
  0.000000000000000E+000
  0.000000000000000E+000
  0.000000000000000E+000
  0.000000000000000E+000
  0.000000000000000E+000
  0.000000000000000E+000
  0.000000000000000E+000
  0.000000000000000E+000
  0.000000000000000E+000
  0.000000000000000E+000
  0.000000000000000E+000
  0.000000000000000E+000
  0.000000000000000E+000
  0.000000000000000E+000
  0.000000000000000E+000
  0.000000000000000E+000
  0.000000000000000E+000
  0.000000000000000E+000
  0.000000000000000E+000
  0.000000000000000E+000
  0.000000000000000E+000
  0.000000000000000E+000
  0.000000000000000E+000
  0.000000000000000E+000
  0.000000000000000E+000
  0.000000000000000E+000
  0.000000000000000E+000
  0.000000000000000E+000
  0.000000000000000E+000
  0.000000000000000E+000
  0.000000000000000E+000
  0.000000000000000E+000
  0.000000000000000E+000
  0.000000000000000E+000
  0.000000000000000E+000
  0.000000000000000E+000
  0.000000000000000E+000
  0.000000000000000E+000
  0.000000000000000E+000
  0.000000000000000E+000
  0.000000000000000E+000
  0.000000000000000E+000
  0.000000000000000E+000
  0.000000000000000E+000
  0.000000000000000E+000
  0.000000000000000E+000
  0.000000000000000E+000
  0.000000000000000E+000
  0.000000000000000E+000
  0.000000000000000E+000
  0.000000000000000E+000
  0.000000000000000E+000
  0.000000000000000E+000
  0.000000000000000E+000
  0.000000000000000E+000
  0.000000000000000E+000
  0.000000000000000E+000
  0.000000000000000E+000
  0.000000000000000E+000
  0.000000000000000E+000
  0.000000000000000E+000
  0.000000000000000E+000
  0.000000000000000E+000
  0.000000000000000E+000
  0.000000000000000E+000
  0.000000000000000E+000
  0.000000000000000E+000
  0.000000000000000E+000
  0.000000000000000E+000
  0.000000000000000E+000
  0.000000000000000E+000
  0.000000000000000E+000
  0.000000000000000E+000
  0.000000000000000E+000
  0.000000000000000E+000
  0.000000000000000E+000
  0.000000000000000E+000
  0.000000000000000E+000
  0.000000000000000E+000
  0.000000000000000E+000
  0.000000000000000E+000
  0.000000000000000E+000
  0.000000000000000E+000
  0.000000000000000E+000
  0.000000000000000E+000
  0.000000000000000E+000
  0.000000000000000E+000
  0.000000000000000E+000
  0.000000000000000E+000
  0.000000000000000E+000
  0.000000000000000E+000
  0.000000000000000E+000
  0.000000000000000E+000
  0.000000000000000E+000
  0.000000000000000E+000
  0.000000000000000E+000
  0.000000000000000E+000
  0.000000000000000E+000
  0.000000000000000E+000
  0.000000000000000E+000
  0.000000000000000E+000
  0.000000000000000E+000
  0.000000000000000E+000
  0.000000000000000E+000
  0.000000000000000E+000
  0.000000000000000E+000
  0.000000000000000E+000
  0.000000000000000E+000
  0.000000000000000E+000
  0.000000000000000E+000
  0.000000000000000E+000
  0.000000000000000E+000
  0.000000000000000E+000
  0.000000000000000E+000
  0.000000000000000E+000
  0.000000000000000E+000
  0.000000000000000E+000
  0.000000000000000E+000
  0.000000000000000E+000
  0.000000000000000E+000
  0.000000000000000E+000
  0.000000000000000E+000
  0.000000000000000E+000
  0.000000000000000E+000
  0.000000000000000E+000
  0.000000000000000E+000
  0.000000000000000E+000
  0.000000000000000E+000
  0.000000000000000E+000
  0.000000000000000E+000
  0.000000000000000E+000
  0.000000000000000E+000
  0.000000000000000E+000
  0.000000000000000E+000
  0.000000000000000E+000
  0.000000000000000E+000
  0.000000000000000E+000
  0.000000000000000E+000
  0.000000000000000E+000
  0.000000000000000E+000
  0.000000000000000E+000
  0.000000000000000E+000
  0.000000000000000E+000
  0.000000000000000E+000
  0.000000000000000E+000
  0.000000000000000E+000
  0.000000000000000E+000
  0.000000000000000E+000
  0.000000000000000E+000
  0.000000000000000E+000
  0.000000000000000E+000
  0.000000000000000E+000
  0.000000000000000E+000
  0.000000000000000E+000
  0.000000000000000E+000
  0.000000000000000E+000
  0.000000000000000E+000
  0.000000000000000E+000
  0.000000000000000E+000
  0.000000000000000E+000
  0.000000000000000E+000
  0.000000000000000E+000
  0.000000000000000E+000
  0.000000000000000E+000
  0.000000000000000E+000
  0.000000000000000E+000
  0.000000000000000E+000
  0.000000000000000E+000
  0.000000000000000E+000
  0.000000000000000E+000
  0.000000000000000E+000
  0.000000000000000E+000
  0.000000000000000E+000
  0.000000000000000E+000
  0.000000000000000E+000
  0.000000000000000E+000
  0.000000000000000E+000
  0.000000000000000E+000
  0.000000000000000E+000
  0.000000000000000E+000
  0.000000000000000E+000
  0.000000000000000E+000
  0.000000000000000E+000
  0.000000000000000E+000
  0.000000000000000E+000
  0.000000000000000E+000
  0.000000000000000E+000
  0.000000000000000E+000
  0.000000000000000E+000
  0.000000000000000E+000
  0.000000000000000E+000
  0.000000000000000E+000
  0.000000000000000E+000
  0.000000000000000E+000
  0.000000000000000E+000
  0.000000000000000E+000
  0.000000000000000E+000
  0.000000000000000E+000
  0.000000000000000E+000
  0.000000000000000E+000
  0.000000000000000E+000
  0.000000000000000E+000
  0.000000000000000E+000
  0.000000000000000E+000
  0.000000000000000E+000
  0.000000000000000E+000
  0.000000000000000E+000
  0.000000000000000E+000
  0.000000000000000E+000
  0.000000000000000E+000
  0.000000000000000E+000
  0.000000000000000E+000
  0.000000000000000E+000
  0.000000000000000E+000
  0.000000000000000E+000
  0.000000000000000E+000
  0.000000000000000E+000
  0.000000000000000E+000
  0.000000000000000E+000
  0.000000000000000E+000
  0.000000000000000E+000
  0.000000000000000E+000
  0.000000000000000E+000
  0.000000000000000E+000
  0.000000000000000E+000
  0.000000000000000E+000
  0.000000000000000E+000
  0.000000000000000E+000
  0.000000000000000E+000
  0.000000000000000E+000
  0.000000000000000E+000
  0.000000000000000E+000
  0.000000000000000E+000
  0.000000000000000E+000
  0.000000000000000E+000
  0.000000000000000E+000
  0.000000000000000E+000
  0.000000000000000E+000
  0.000000000000000E+000
  0.000000000000000E+000
  0.000000000000000E+000
  0.000000000000000E+000
  0.000000000000000E+000
  0.000000000000000E+000
  0.000000000000000E+000
  0.000000000000000E+000
  0.000000000000000E+000
  0.000000000000000E+000
  0.000000000000000E+000
  0.000000000000000E+000
  0.000000000000000E+000
  0.000000000000000E+000
  0.000000000000000E+000
  0.000000000000000E+000
  0.000000000000000E+000
  0.000000000000000E+000
  0.000000000000000E+000
  0.000000000000000E+000
  0.000000000000000E+000
  0.000000000000000E+000
  0.000000000000000E+000
  0.000000000000000E+000
  0.000000000000000E+000
  0.000000000000000E+000
  0.000000000000000E+000
  0.000000000000000E+000
  0.000000000000000E+000
  0.000000000000000E+000
  0.000000000000000E+000
  0.000000000000000E+000
  0.000000000000000E+000
  0.000000000000000E+000
  0.000000000000000E+000
  0.000000000000000E+000
  0.000000000000000E+000
  0.000000000000000E+000
  0.000000000000000E+000
  0.000000000000000E+000
  0.000000000000000E+000
  0.000000000000000E+000
  0.000000000000000E+000
  0.000000000000000E+000
  0.000000000000000E+000
  0.000000000000000E+000
  0.000000000000000E+000
  0.000000000000000E+000
  0.000000000000000E+000
  0.000000000000000E+000
  0.000000000000000E+000
  0.000000000000000E+000
  0.000000000000000E+000
  0.000000000000000E+000
  0.000000000000000E+000
  0.000000000000000E+000
  0.000000000000000E+000
  0.000000000000000E+000
  0.000000000000000E+000
  0.000000000000000E+000
  0.000000000000000E+000
  0.000000000000000E+000
  0.000000000000000E+000
  0.000000000000000E+000
  0.000000000000000E+000
  0.000000000000000E+000
  0.000000000000000E+000
  0.000000000000000E+000
  0.000000000000000E+000
  0.000000000000000E+000
  0.000000000000000E+000
  0.000000000000000E+000
  0.000000000000000E+000
  0.000000000000000E+000
  0.000000000000000E+000
  0.000000000000000E+000
  0.000000000000000E+000
  0.000000000000000E+000
  0.000000000000000E+000
  0.000000000000000E+000
  0.000000000000000E+000
  0.000000000000000E+000
  0.000000000000000E+000
  0.000000000000000E+000
  0.000000000000000E+000
  0.000000000000000E+000
  0.000000000000000E+000
  0.000000000000000E+000
  0.000000000000000E+000
  0.000000000000000E+000
  0.000000000000000E+000
  0.000000000000000E+000
  0.000000000000000E+000
  0.000000000000000E+000
  0.000000000000000E+000
  0.000000000000000E+000
  0.000000000000000E+000
  0.000000000000000E+000
  0.000000000000000E+000
  0.000000000000000E+000
  0.000000000000000E+000
  0.000000000000000E+000
  0.000000000000000E+000
  0.000000000000000E+000
  0.000000000000000E+000
  0.000000000000000E+000
  0.000000000000000E+000
  0.000000000000000E+000
  0.000000000000000E+000
  0.000000000000000E+000
  0.000000000000000E+000
  0.000000000000000E+000
  0.000000000000000E+000
  0.000000000000000E+000
  0.000000000000000E+000
  0.000000000000000E+000
  0.000000000000000E+000
  0.000000000000000E+000
  0.000000000000000E+000
  0.000000000000000E+000
  0.000000000000000E+000
  0.000000000000000E+000
  0.000000000000000E+000
  0.000000000000000E+000
  0.000000000000000E+000
  0.000000000000000E+000
  0.000000000000000E+000
  0.000000000000000E+000
  0.000000000000000E+000
  0.000000000000000E+000
  0.000000000000000E+000
  0.000000000000000E+000
  0.000000000000000E+000
  0.000000000000000E+000
  0.000000000000000E+000
  0.000000000000000E+000
  0.000000000000000E+000
  0.000000000000000E+000
  0.000000000000000E+000
  0.000000000000000E+000
  0.000000000000000E+000
  0.000000000000000E+000
  0.000000000000000E+000
  0.000000000000000E+000
  0.000000000000000E+000
  0.000000000000000E+000
  0.000000000000000E+000
  0.000000000000000E+000
  0.000000000000000E+000
  0.000000000000000E+000
  0.000000000000000E+000
  0.000000000000000E+000
  0.000000000000000E+000
  0.000000000000000E+000
  0.000000000000000E+000
  0.000000000000000E+000
  0.000000000000000E+000
  0.000000000000000E+000
  0.000000000000000E+000
  0.000000000000000E+000
  0.000000000000000E+000
  0.000000000000000E+000
  0.000000000000000E+000
  0.000000000000000E+000
  0.000000000000000E+000
  0.000000000000000E+000
  0.000000000000000E+000
  0.000000000000000E+000
  0.000000000000000E+000
  0.000000000000000E+000
  0.000000000000000E+000
  0.000000000000000E+000
  0.000000000000000E+000
  0.000000000000000E+000
  0.000000000000000E+000
  0.000000000000000E+000
  0.000000000000000E+000
  0.000000000000000E+000
  0.000000000000000E+000
  0.000000000000000E+000
  0.000000000000000E+000
  0.000000000000000E+000
  0.000000000000000E+000
  0.000000000000000E+000
  0.000000000000000E+000
  0.000000000000000E+000
  0.000000000000000E+000
  0.000000000000000E+000
  0.000000000000000E+000
  0.000000000000000E+000
  0.000000000000000E+000
  0.000000000000000E+000
  0.000000000000000E+000
  0.000000000000000E+000
  0.000000000000000E+000
  0.000000000000000E+000
  0.000000000000000E+000
  0.000000000000000E+000
  0.000000000000000E+000
  0.000000000000000E+000
  0.000000000000000E+000
  0.000000000000000E+000
  0.000000000000000E+000
  0.000000000000000E+000
  0.000000000000000E+000
  0.000000000000000E+000
  0.000000000000000E+000
  0.000000000000000E+000
  0.000000000000000E+000
  0.000000000000000E+000
  0.000000000000000E+000
  0.000000000000000E+000
  0.000000000000000E+000
  0.000000000000000E+000
  0.000000000000000E+000
  0.000000000000000E+000
  0.000000000000000E+000
  0.000000000000000E+000
  0.000000000000000E+000
  0.000000000000000E+000
  0.000000000000000E+000
  0.000000000000000E+000
  0.000000000000000E+000
  0.000000000000000E+000
  0.000000000000000E+000
  0.000000000000000E+000
  0.000000000000000E+000
  0.000000000000000E+000
  0.000000000000000E+000
  0.000000000000000E+000
  0.000000000000000E+000
  0.000000000000000E+000
  0.000000000000000E+000
  0.000000000000000E+000
  0.000000000000000E+000
  0.000000000000000E+000
  0.000000000000000E+000
  0.000000000000000E+000
  0.000000000000000E+000
  0.000000000000000E+000
  0.000000000000000E+000
  0.000000000000000E+000
  0.000000000000000E+000
  0.000000000000000E+000
  0.000000000000000E+000
  0.000000000000000E+000
  0.000000000000000E+000
  0.000000000000000E+000
  0.000000000000000E+000
  0.000000000000000E+000
  0.000000000000000E+000
  0.000000000000000E+000
  0.000000000000000E+000
  0.000000000000000E+000
  0.000000000000000E+000
  0.000000000000000E+000
  0.000000000000000E+000
  0.000000000000000E+000
  0.000000000000000E+000
  0.000000000000000E+000
  0.000000000000000E+000
  0.000000000000000E+000
  0.000000000000000E+000
  0.000000000000000E+000
  0.000000000000000E+000
  0.000000000000000E+000
  0.000000000000000E+000
  0.000000000000000E+000
  0.000000000000000E+000
  0.000000000000000E+000
  0.000000000000000E+000
  0.000000000000000E+000
  0.000000000000000E+000
  0.000000000000000E+000
  0.000000000000000E+000
  0.000000000000000E+000
  0.000000000000000E+000
  0.000000000000000E+000
  0.000000000000000E+000
  0.000000000000000E+000
  0.000000000000000E+000
  0.000000000000000E+000
  0.000000000000000E+000
  0.000000000000000E+000
  0.000000000000000E+000
  0.000000000000000E+000
  0.000000000000000E+000
  0.000000000000000E+000
  0.000000000000000E+000
  0.000000000000000E+000
  0.000000000000000E+000
  0.000000000000000E+000
  0.000000000000000E+000
  0.000000000000000E+000
  0.000000000000000E+000
  0.000000000000000E+000
  0.000000000000000E+000
  0.000000000000000E+000
  0.000000000000000E+000
  0.000000000000000E+000
  0.000000000000000E+000
  0.000000000000000E+000
  0.000000000000000E+000
  0.000000000000000E+000
  0.000000000000000E+000
  0.000000000000000E+000
  0.000000000000000E+000
  0.000000000000000E+000
  0.000000000000000E+000
  0.000000000000000E+000
  0.000000000000000E+000
  0.000000000000000E+000
  0.000000000000000E+000
  0.000000000000000E+000
  0.000000000000000E+000
  0.000000000000000E+000
  0.000000000000000E+000
  0.000000000000000E+000
  0.000000000000000E+000
  0.000000000000000E+000
  0.000000000000000E+000
  0.000000000000000E+000
  0.000000000000000E+000
  0.000000000000000E+000
  0.000000000000000E+000
  0.000000000000000E+000
  0.000000000000000E+000
  0.000000000000000E+000
  0.000000000000000E+000
  0.000000000000000E+000
  0.000000000000000E+000
  0.000000000000000E+000
  0.000000000000000E+000
  0.000000000000000E+000
  0.000000000000000E+000
  0.000000000000000E+000
  0.000000000000000E+000
  0.000000000000000E+000
  0.000000000000000E+000
  0.000000000000000E+000
  0.000000000000000E+000
  0.000000000000000E+000
  0.000000000000000E+000
  0.000000000000000E+000
  0.000000000000000E+000
  0.000000000000000E+000
  0.000000000000000E+000
  0.000000000000000E+000
  0.000000000000000E+000
  0.000000000000000E+000
  0.000000000000000E+000
  0.000000000000000E+000
  0.000000000000000E+000
  0.000000000000000E+000
  0.000000000000000E+000
  0.000000000000000E+000
  0.000000000000000E+000
  0.000000000000000E+000
  0.000000000000000E+000
  0.000000000000000E+000
  0.000000000000000E+000
  0.000000000000000E+000
  0.000000000000000E+000
  0.000000000000000E+000
  0.000000000000000E+000
  0.000000000000000E+000
  0.000000000000000E+000
  0.000000000000000E+000
  0.000000000000000E+000
  0.000000000000000E+000
  0.000000000000000E+000
  0.000000000000000E+000
  0.000000000000000E+000
  0.000000000000000E+000
  0.000000000000000E+000
  0.000000000000000E+000
  0.000000000000000E+000
  0.000000000000000E+000
  0.000000000000000E+000
  0.000000000000000E+000
  0.000000000000000E+000
  0.000000000000000E+000
  0.000000000000000E+000
  0.000000000000000E+000
  0.000000000000000E+000
  0.000000000000000E+000
  0.000000000000000E+000
  0.000000000000000E+000
  0.000000000000000E+000
  0.000000000000000E+000
  0.000000000000000E+000
  0.000000000000000E+000
  0.000000000000000E+000
  0.000000000000000E+000
  0.000000000000000E+000
  0.000000000000000E+000
  0.000000000000000E+000
  0.000000000000000E+000
  0.000000000000000E+000
  0.000000000000000E+000
  0.000000000000000E+000
  0.000000000000000E+000
  0.000000000000000E+000
  0.000000000000000E+000
  0.000000000000000E+000
  0.000000000000000E+000
  0.000000000000000E+000
  0.000000000000000E+000
  0.000000000000000E+000
  0.000000000000000E+000
  0.000000000000000E+000
  0.000000000000000E+000
  0.000000000000000E+000
  0.000000000000000E+000
  0.000000000000000E+000
  0.000000000000000E+000
  0.000000000000000E+000
  0.000000000000000E+000
  0.000000000000000E+000
  0.000000000000000E+000
  0.000000000000000E+000
  0.000000000000000E+000
  0.000000000000000E+000
  0.000000000000000E+000
  0.000000000000000E+000
  0.000000000000000E+000
  0.000000000000000E+000
  0.000000000000000E+000
  0.000000000000000E+000
  0.000000000000000E+000
  0.000000000000000E+000
  0.000000000000000E+000
  0.000000000000000E+000
  0.000000000000000E+000
  0.000000000000000E+000
  0.000000000000000E+000
  0.000000000000000E+000
  0.000000000000000E+000
  0.000000000000000E+000
  0.000000000000000E+000
  0.000000000000000E+000
  0.000000000000000E+000
  0.000000000000000E+000
  0.000000000000000E+000
  0.000000000000000E+000
  0.000000000000000E+000
  0.000000000000000E+000
  0.000000000000000E+000
  0.000000000000000E+000
  0.000000000000000E+000
  0.000000000000000E+000
  0.000000000000000E+000
  0.000000000000000E+000
  0.000000000000000E+000
  0.000000000000000E+000
  0.000000000000000E+000
  0.000000000000000E+000
  0.000000000000000E+000
  0.000000000000000E+000
  0.000000000000000E+000
  0.000000000000000E+000
  0.000000000000000E+000
  0.000000000000000E+000
  0.000000000000000E+000
  0.000000000000000E+000
  0.000000000000000E+000
  0.000000000000000E+000
  0.000000000000000E+000
  0.000000000000000E+000
  0.000000000000000E+000
  0.000000000000000E+000
  0.000000000000000E+000
  0.000000000000000E+000
  0.000000000000000E+000
  0.000000000000000E+000
  0.000000000000000E+000
  0.000000000000000E+000
  0.000000000000000E+000
  0.000000000000000E+000
  0.000000000000000E+000
  0.000000000000000E+000
  0.000000000000000E+000
  0.000000000000000E+000
  0.000000000000000E+000
  0.000000000000000E+000
  0.000000000000000E+000
  0.000000000000000E+000
  0.000000000000000E+000
  0.000000000000000E+000
  0.000000000000000E+000
  0.000000000000000E+000
  0.000000000000000E+000
  0.000000000000000E+000
  0.000000000000000E+000
  0.000000000000000E+000
  0.000000000000000E+000
  0.000000000000000E+000
  0.000000000000000E+000
  0.000000000000000E+000
  0.000000000000000E+000
  0.000000000000000E+000
  0.000000000000000E+000
  0.000000000000000E+000
  0.000000000000000E+000
  0.000000000000000E+000
  0.000000000000000E+000
  0.000000000000000E+000
  0.000000000000000E+000
  0.000000000000000E+000
  0.000000000000000E+000
  0.000000000000000E+000
  0.000000000000000E+000
  0.000000000000000E+000
  0.000000000000000E+000
  0.000000000000000E+000
  0.000000000000000E+000
  0.000000000000000E+000
  0.000000000000000E+000
  0.000000000000000E+000
  0.000000000000000E+000
  0.000000000000000E+000
  0.000000000000000E+000
  0.000000000000000E+000
  0.000000000000000E+000
  0.000000000000000E+000
  0.000000000000000E+000
  0.000000000000000E+000
  0.000000000000000E+000
  0.000000000000000E+000
  0.000000000000000E+000
  0.000000000000000E+000
  0.000000000000000E+000
  0.000000000000000E+000
  0.000000000000000E+000
  0.000000000000000E+000
  0.000000000000000E+000
  0.000000000000000E+000
  0.000000000000000E+000
  0.000000000000000E+000
  0.000000000000000E+000
  0.000000000000000E+000
  0.000000000000000E+000
  0.000000000000000E+000
  0.000000000000000E+000
  0.000000000000000E+000
  0.000000000000000E+000
  0.000000000000000E+000
  0.000000000000000E+000
  0.000000000000000E+000
  0.000000000000000E+000
  0.000000000000000E+000
  0.000000000000000E+000
  0.000000000000000E+000
  0.000000000000000E+000
  0.000000000000000E+000
  0.000000000000000E+000
  0.000000000000000E+000
  0.000000000000000E+000
  0.000000000000000E+000
  0.000000000000000E+000
  0.000000000000000E+000
  0.000000000000000E+000
  0.000000000000000E+000
  0.000000000000000E+000
  0.000000000000000E+000
  0.000000000000000E+000
  0.000000000000000E+000
  0.000000000000000E+000
  0.000000000000000E+000
  0.000000000000000E+000
  0.000000000000000E+000
  0.000000000000000E+000
  0.000000000000000E+000
  0.000000000000000E+000
  0.000000000000000E+000
  0.000000000000000E+000
  0.000000000000000E+000
  0.000000000000000E+000
  0.000000000000000E+000
  0.000000000000000E+000
  0.000000000000000E+000
  0.000000000000000E+000
  0.000000000000000E+000
  0.000000000000000E+000
  0.000000000000000E+000
  0.000000000000000E+000
  0.000000000000000E+000
  0.000000000000000E+000
  0.000000000000000E+000
  0.000000000000000E+000
  0.000000000000000E+000
  0.000000000000000E+000
  0.000000000000000E+000
  0.000000000000000E+000
  0.000000000000000E+000
  0.000000000000000E+000
  0.000000000000000E+000
  0.000000000000000E+000
  0.000000000000000E+000
  0.000000000000000E+000
  0.000000000000000E+000
  0.000000000000000E+000
  0.000000000000000E+000
  0.000000000000000E+000
  0.000000000000000E+000
  0.000000000000000E+000
  0.000000000000000E+000
  0.000000000000000E+000
  0.000000000000000E+000
  0.000000000000000E+000
  0.000000000000000E+000
  0.000000000000000E+000
  0.000000000000000E+000
  0.000000000000000E+000
  0.000000000000000E+000
  0.000000000000000E+000
  0.000000000000000E+000
  0.000000000000000E+000
  0.000000000000000E+000
  0.000000000000000E+000
  0.000000000000000E+000
  0.000000000000000E+000
  0.000000000000000E+000
  0.000000000000000E+000
  0.000000000000000E+000
  0.000000000000000E+000
  0.000000000000000E+000
  0.000000000000000E+000
  0.000000000000000E+000
  0.000000000000000E+000
  0.000000000000000E+000
  0.000000000000000E+000
  0.000000000000000E+000
  0.000000000000000E+000
  0.000000000000000E+000
  0.000000000000000E+000
  0.000000000000000E+000
  0.000000000000000E+000
  0.000000000000000E+000
  0.000000000000000E+000
  0.000000000000000E+000
  0.000000000000000E+000
  0.000000000000000E+000
  0.000000000000000E+000
  0.000000000000000E+000
  0.000000000000000E+000
  0.000000000000000E+000
  0.000000000000000E+000
  0.000000000000000E+000
  0.000000000000000E+000
  0.000000000000000E+000
  0.000000000000000E+000
  0.000000000000000E+000
  0.000000000000000E+000
  0.000000000000000E+000
  0.000000000000000E+000
  0.000000000000000E+000
  0.000000000000000E+000
  0.000000000000000E+000
  0.000000000000000E+000
  0.000000000000000E+000
  0.000000000000000E+000
  0.000000000000000E+000
  0.000000000000000E+000
  0.000000000000000E+000
  0.000000000000000E+000
  0.000000000000000E+000
  0.000000000000000E+000
  0.000000000000000E+000
  0.000000000000000E+000
  0.000000000000000E+000
  0.000000000000000E+000
  0.000000000000000E+000
  0.000000000000000E+000
  0.000000000000000E+000
  0.000000000000000E+000
  0.000000000000000E+000
  0.000000000000000E+000
  0.000000000000000E+000
  0.000000000000000E+000
  0.000000000000000E+000
  0.000000000000000E+000
  0.000000000000000E+000
  0.000000000000000E+000
  0.000000000000000E+000
  0.000000000000000E+000
  0.000000000000000E+000
  0.000000000000000E+000
  0.000000000000000E+000
  0.000000000000000E+000
  0.000000000000000E+000
  0.000000000000000E+000
  0.000000000000000E+000
  0.000000000000000E+000
  0.000000000000000E+000
  0.000000000000000E+000
  0.000000000000000E+000
  0.000000000000000E+000
  0.000000000000000E+000
  0.000000000000000E+000
  0.000000000000000E+000
  0.000000000000000E+000
  0.000000000000000E+000
  0.000000000000000E+000
  0.000000000000000E+000
  0.000000000000000E+000
  0.000000000000000E+000
  0.000000000000000E+000
  0.000000000000000E+000
  0.000000000000000E+000
  0.000000000000000E+000
  0.000000000000000E+000
  0.000000000000000E+000
  0.000000000000000E+000
  0.000000000000000E+000
  0.000000000000000E+000
  0.000000000000000E+000
  0.000000000000000E+000
  0.000000000000000E+000
  0.000000000000000E+000
  0.000000000000000E+000
  0.000000000000000E+000
  0.000000000000000E+000
  0.000000000000000E+000
  0.000000000000000E+000
  0.000000000000000E+000
  0.000000000000000E+000
  0.000000000000000E+000
  0.000000000000000E+000
  0.000000000000000E+000
  0.000000000000000E+000
  0.000000000000000E+000
  0.000000000000000E+000
  0.000000000000000E+000
  0.000000000000000E+000
  0.000000000000000E+000
  0.000000000000000E+000
  0.000000000000000E+000
  0.000000000000000E+000
  0.000000000000000E+000
  0.000000000000000E+000
  0.000000000000000E+000
  0.000000000000000E+000
  0.000000000000000E+000
  0.000000000000000E+000
  0.000000000000000E+000
  0.000000000000000E+000
  0.000000000000000E+000
  0.000000000000000E+000
  0.000000000000000E+000
  0.000000000000000E+000
  0.000000000000000E+000
  0.000000000000000E+000
  0.000000000000000E+000
  0.000000000000000E+000
  0.000000000000000E+000
  0.000000000000000E+000
  0.000000000000000E+000
  0.000000000000000E+000
  0.000000000000000E+000
  0.000000000000000E+000
  0.000000000000000E+000
  0.000000000000000E+000
  0.000000000000000E+000
  0.000000000000000E+000
  0.000000000000000E+000
  0.000000000000000E+000
  0.000000000000000E+000
  0.000000000000000E+000
  0.000000000000000E+000
  0.000000000000000E+000
  0.000000000000000E+000
  0.000000000000000E+000
  0.000000000000000E+000
  0.000000000000000E+000
  0.000000000000000E+000
  0.000000000000000E+000
  0.000000000000000E+000
  0.000000000000000E+000
  0.000000000000000E+000
  0.000000000000000E+000
  0.000000000000000E+000
  0.000000000000000E+000
  0.000000000000000E+000
  0.000000000000000E+000
  0.000000000000000E+000
  0.000000000000000E+000
  0.000000000000000E+000
  0.000000000000000E+000
  0.000000000000000E+000
  0.000000000000000E+000
  0.000000000000000E+000
  0.000000000000000E+000
  0.000000000000000E+000
  0.000000000000000E+000
  0.000000000000000E+000
  0.000000000000000E+000
  0.000000000000000E+000
  0.000000000000000E+000
  0.000000000000000E+000
  0.000000000000000E+000
  0.000000000000000E+000
  0.000000000000000E+000
  0.000000000000000E+000
  0.000000000000000E+000
  0.000000000000000E+000
  0.000000000000000E+000
  0.000000000000000E+000
  0.000000000000000E+000
  0.000000000000000E+000
  0.000000000000000E+000
  0.000000000000000E+000
  0.000000000000000E+000
  0.000000000000000E+000
  0.000000000000000E+000
  0.000000000000000E+000
  0.000000000000000E+000
  0.000000000000000E+000
  0.000000000000000E+000
  0.000000000000000E+000
  0.000000000000000E+000
  0.000000000000000E+000
  0.000000000000000E+000
  0.000000000000000E+000
  0.000000000000000E+000
  0.000000000000000E+000
  0.000000000000000E+000
  0.000000000000000E+000
  0.000000000000000E+000
  0.000000000000000E+000
  0.000000000000000E+000
  0.000000000000000E+000
  0.000000000000000E+000
  0.000000000000000E+000
  0.000000000000000E+000
  0.000000000000000E+000
  0.000000000000000E+000
  0.000000000000000E+000
  0.000000000000000E+000
  0.000000000000000E+000
  0.000000000000000E+000
  0.000000000000000E+000
  0.000000000000000E+000
  0.000000000000000E+000
  0.000000000000000E+000
  0.000000000000000E+000
  0.000000000000000E+000
  0.000000000000000E+000
  0.000000000000000E+000
  0.000000000000000E+000
  0.000000000000000E+000
  0.000000000000000E+000
  0.000000000000000E+000
  0.000000000000000E+000
  0.000000000000000E+000
  0.000000000000000E+000
  0.000000000000000E+000
  0.000000000000000E+000
  0.000000000000000E+000
  0.000000000000000E+000
  0.000000000000000E+000
  0.000000000000000E+000
  0.000000000000000E+000
  0.000000000000000E+000
  0.000000000000000E+000
  0.000000000000000E+000
  0.000000000000000E+000
  0.000000000000000E+000
  0.000000000000000E+000
  0.000000000000000E+000
  0.000000000000000E+000
  0.000000000000000E+000
  0.000000000000000E+000
  0.000000000000000E+000
  0.000000000000000E+000
  0.000000000000000E+000
  0.000000000000000E+000
  0.000000000000000E+000
  0.000000000000000E+000
  0.000000000000000E+000
  0.000000000000000E+000
  0.000000000000000E+000
  0.000000000000000E+000
  0.000000000000000E+000
  0.000000000000000E+000
  0.000000000000000E+000
  0.000000000000000E+000
  0.000000000000000E+000
  0.000000000000000E+000
  0.000000000000000E+000
  0.000000000000000E+000
  0.000000000000000E+000
  0.000000000000000E+000
  0.000000000000000E+000
  0.000000000000000E+000
  0.000000000000000E+000
  0.000000000000000E+000
  0.000000000000000E+000
  0.000000000000000E+000
  0.000000000000000E+000
  0.000000000000000E+000
  0.000000000000000E+000
  0.000000000000000E+000
  0.000000000000000E+000
  0.000000000000000E+000
  0.000000000000000E+000
  0.000000000000000E+000
  0.000000000000000E+000
  0.000000000000000E+000
  0.000000000000000E+000
  0.000000000000000E+000
  0.000000000000000E+000
  0.000000000000000E+000
  0.000000000000000E+000
  0.000000000000000E+000
  0.000000000000000E+000
  0.000000000000000E+000
  0.000000000000000E+000
  0.000000000000000E+000
  0.000000000000000E+000
  0.000000000000000E+000
  0.000000000000000E+000
  0.000000000000000E+000
  0.000000000000000E+000
  0.000000000000000E+000
  0.000000000000000E+000
  0.000000000000000E+000
  0.000000000000000E+000
  0.000000000000000E+000
  0.000000000000000E+000
  0.000000000000000E+000
  0.000000000000000E+000
  0.000000000000000E+000
  0.000000000000000E+000
  0.000000000000000E+000
  0.000000000000000E+000
  0.000000000000000E+000
  0.000000000000000E+000
  0.000000000000000E+000
  0.000000000000000E+000
  0.000000000000000E+000
  0.000000000000000E+000
  0.000000000000000E+000
  0.000000000000000E+000
  0.000000000000000E+000
  0.000000000000000E+000
  0.000000000000000E+000
  0.000000000000000E+000
  0.000000000000000E+000
  0.000000000000000E+000
  0.000000000000000E+000
  0.000000000000000E+000
  0.000000000000000E+000
  0.000000000000000E+000
  0.000000000000000E+000
  0.000000000000000E+000
  0.000000000000000E+000
  0.000000000000000E+000
  0.000000000000000E+000
  0.000000000000000E+000
  0.000000000000000E+000
  0.000000000000000E+000
  0.000000000000000E+000
  0.000000000000000E+000
  0.000000000000000E+000
  0.000000000000000E+000
  0.000000000000000E+000
  0.000000000000000E+000
  0.000000000000000E+000
  0.000000000000000E+000
  0.000000000000000E+000
  0.000000000000000E+000
  0.000000000000000E+000
  0.000000000000000E+000
  0.000000000000000E+000
  0.000000000000000E+000
  0.000000000000000E+000
  0.000000000000000E+000
  0.000000000000000E+000
  0.000000000000000E+000
  0.000000000000000E+000
  0.000000000000000E+000
  0.000000000000000E+000
  0.000000000000000E+000
  0.000000000000000E+000
  0.000000000000000E+000
  0.000000000000000E+000
  0.000000000000000E+000
  0.000000000000000E+000
  0.000000000000000E+000
  0.000000000000000E+000
  0.000000000000000E+000
  0.000000000000000E+000
  0.000000000000000E+000
  0.000000000000000E+000
  0.000000000000000E+000
  0.000000000000000E+000
  0.000000000000000E+000
  0.000000000000000E+000
  0.000000000000000E+000
  0.000000000000000E+000
  0.000000000000000E+000
  0.000000000000000E+000
  0.000000000000000E+000
  0.000000000000000E+000
  0.000000000000000E+000
  0.000000000000000E+000
  0.000000000000000E+000
  0.000000000000000E+000
  0.000000000000000E+000
  0.000000000000000E+000
  0.000000000000000E+000
  0.000000000000000E+000
  0.000000000000000E+000
  0.000000000000000E+000
  0.000000000000000E+000
  0.000000000000000E+000
  0.000000000000000E+000
  0.000000000000000E+000
  0.000000000000000E+000
  0.000000000000000E+000
  0.000000000000000E+000
  0.000000000000000E+000
  0.000000000000000E+000
  0.000000000000000E+000
  0.000000000000000E+000
  0.000000000000000E+000
  0.000000000000000E+000
  0.000000000000000E+000
  0.000000000000000E+000
  0.000000000000000E+000
  0.000000000000000E+000
  0.000000000000000E+000
  0.000000000000000E+000
  0.000000000000000E+000
  0.000000000000000E+000
  0.000000000000000E+000
  0.000000000000000E+000
  0.000000000000000E+000
  0.000000000000000E+000
  0.000000000000000E+000
  0.000000000000000E+000
  0.000000000000000E+000
  0.000000000000000E+000
  0.000000000000000E+000
  0.000000000000000E+000
  0.000000000000000E+000
  0.000000000000000E+000
  0.000000000000000E+000
  0.000000000000000E+000
  0.000000000000000E+000
  0.000000000000000E+000
  0.000000000000000E+000
  0.000000000000000E+000
  0.000000000000000E+000
  0.000000000000000E+000
  0.000000000000000E+000
  0.000000000000000E+000
  0.000000000000000E+000
  0.000000000000000E+000
  0.000000000000000E+000
  0.000000000000000E+000
  0.000000000000000E+000
  0.000000000000000E+000
  0.000000000000000E+000
  0.000000000000000E+000
  0.000000000000000E+000
  0.000000000000000E+000
  0.000000000000000E+000
  0.000000000000000E+000
  0.000000000000000E+000
  0.000000000000000E+000
  0.000000000000000E+000
  0.000000000000000E+000
  0.000000000000000E+000
  0.000000000000000E+000
  0.000000000000000E+000
  0.000000000000000E+000
  0.000000000000000E+000
  0.000000000000000E+000
  0.000000000000000E+000
  0.000000000000000E+000
  0.000000000000000E+000
  0.000000000000000E+000
  0.000000000000000E+000
  0.000000000000000E+000
  0.000000000000000E+000
  0.000000000000000E+000
  0.000000000000000E+000
  0.000000000000000E+000
  0.000000000000000E+000
  0.000000000000000E+000
  0.000000000000000E+000
  0.000000000000000E+000
  0.000000000000000E+000
  0.000000000000000E+000
  0.000000000000000E+000
  0.000000000000000E+000
  0.000000000000000E+000
  0.000000000000000E+000
  0.000000000000000E+000
  0.000000000000000E+000
  0.000000000000000E+000
  0.000000000000000E+000
  0.000000000000000E+000
  0.000000000000000E+000
  0.000000000000000E+000
  0.000000000000000E+000
  0.000000000000000E+000
  0.000000000000000E+000
  0.000000000000000E+000
  0.000000000000000E+000
  0.000000000000000E+000
  0.000000000000000E+000
  0.000000000000000E+000
  0.000000000000000E+000
  0.000000000000000E+000
  0.000000000000000E+000
  0.000000000000000E+000
  0.000000000000000E+000
  0.000000000000000E+000
  0.000000000000000E+000
  0.000000000000000E+000
  0.000000000000000E+000
  0.000000000000000E+000
  0.000000000000000E+000
  0.000000000000000E+000
  0.000000000000000E+000
  0.000000000000000E+000
  0.000000000000000E+000
  0.000000000000000E+000
  0.000000000000000E+000
  0.000000000000000E+000
  0.000000000000000E+000
  0.000000000000000E+000
  0.000000000000000E+000
  0.000000000000000E+000
  0.000000000000000E+000
  0.000000000000000E+000
  0.000000000000000E+000
  0.000000000000000E+000
  0.000000000000000E+000
  0.000000000000000E+000
  0.000000000000000E+000
  0.000000000000000E+000
  0.000000000000000E+000
  0.000000000000000E+000
  0.000000000000000E+000
  0.000000000000000E+000
  0.000000000000000E+000
  0.000000000000000E+000
  0.000000000000000E+000
  0.000000000000000E+000
  0.000000000000000E+000
  0.000000000000000E+000
  0.000000000000000E+000
  0.000000000000000E+000
  0.000000000000000E+000
  0.000000000000000E+000
  0.000000000000000E+000
  0.000000000000000E+000
  0.000000000000000E+000
  0.000000000000000E+000
  0.000000000000000E+000
  0.000000000000000E+000
  0.000000000000000E+000
  0.000000000000000E+000
  0.000000000000000E+000
  0.000000000000000E+000
  0.000000000000000E+000
  0.000000000000000E+000
  0.000000000000000E+000
  0.000000000000000E+000
  0.000000000000000E+000
  0.000000000000000E+000
  0.000000000000000E+000
  0.000000000000000E+000
  0.000000000000000E+000
  0.000000000000000E+000
  0.000000000000000E+000
  0.000000000000000E+000
  0.000000000000000E+000
  0.000000000000000E+000
  0.000000000000000E+000
  0.000000000000000E+000
  0.000000000000000E+000
  0.000000000000000E+000
  0.000000000000000E+000
  0.000000000000000E+000
  0.000000000000000E+000
  0.000000000000000E+000
  0.000000000000000E+000
  0.000000000000000E+000
  0.000000000000000E+000
  0.000000000000000E+000
  0.000000000000000E+000
  0.000000000000000E+000
  0.000000000000000E+000
  0.000000000000000E+000
  0.000000000000000E+000
  0.000000000000000E+000
  0.000000000000000E+000
  0.000000000000000E+000
  0.000000000000000E+000
  0.000000000000000E+000
  0.000000000000000E+000
  0.000000000000000E+000
  0.000000000000000E+000
  0.000000000000000E+000
  0.000000000000000E+000
  0.000000000000000E+000
  0.000000000000000E+000
  0.000000000000000E+000
  0.000000000000000E+000
  0.000000000000000E+000
  0.000000000000000E+000
  0.000000000000000E+000
  0.000000000000000E+000
  0.000000000000000E+000
  0.000000000000000E+000
  0.000000000000000E+000
  0.000000000000000E+000
  0.000000000000000E+000
  0.000000000000000E+000
  0.000000000000000E+000
  0.000000000000000E+000
  0.000000000000000E+000
  0.000000000000000E+000
  0.000000000000000E+000
  0.000000000000000E+000
  0.000000000000000E+000
  0.000000000000000E+000
  0.000000000000000E+000
  0.000000000000000E+000
  0.000000000000000E+000
  0.000000000000000E+000
  0.000000000000000E+000
  0.000000000000000E+000
  0.000000000000000E+000
  0.000000000000000E+000
  0.000000000000000E+000
  0.000000000000000E+000
  0.000000000000000E+000
  0.000000000000000E+000
  0.000000000000000E+000
  0.000000000000000E+000
  0.000000000000000E+000
  0.000000000000000E+000
  0.000000000000000E+000
  0.000000000000000E+000
  0.000000000000000E+000
  0.000000000000000E+000
  0.000000000000000E+000
  0.000000000000000E+000
  0.000000000000000E+000
  0.000000000000000E+000
  0.000000000000000E+000
  0.000000000000000E+000
  0.000000000000000E+000
  0.000000000000000E+000
  0.000000000000000E+000
  0.000000000000000E+000
  0.000000000000000E+000
  0.000000000000000E+000
  0.000000000000000E+000
  0.000000000000000E+000
  0.000000000000000E+000
  0.000000000000000E+000
  0.000000000000000E+000
  0.000000000000000E+000
  0.000000000000000E+000
  0.000000000000000E+000
  0.000000000000000E+000
  0.000000000000000E+000
  0.000000000000000E+000
  0.000000000000000E+000
  0.000000000000000E+000
  0.000000000000000E+000
  0.000000000000000E+000
  0.000000000000000E+000
  0.000000000000000E+000
  0.000000000000000E+000
  0.000000000000000E+000
  0.000000000000000E+000
  0.000000000000000E+000
  0.000000000000000E+000
  0.000000000000000E+000
  0.000000000000000E+000
  0.000000000000000E+000
  0.000000000000000E+000
  0.000000000000000E+000
  0.000000000000000E+000
  0.000000000000000E+000
  0.000000000000000E+000
  0.000000000000000E+000
  0.000000000000000E+000
  0.000000000000000E+000
  0.000000000000000E+000
  0.000000000000000E+000
  0.000000000000000E+000
  0.000000000000000E+000
  0.000000000000000E+000
  0.000000000000000E+000
  0.000000000000000E+000
  0.000000000000000E+000
  0.000000000000000E+000
  0.000000000000000E+000
  0.000000000000000E+000
  0.000000000000000E+000
  0.000000000000000E+000
  0.000000000000000E+000
  0.000000000000000E+000
  0.000000000000000E+000
  0.000000000000000E+000
  0.000000000000000E+000
  0.000000000000000E+000
  0.000000000000000E+000
  0.000000000000000E+000
  0.000000000000000E+000
  0.000000000000000E+000
  0.000000000000000E+000
  0.000000000000000E+000
  0.000000000000000E+000
  0.000000000000000E+000
  0.000000000000000E+000
  0.000000000000000E+000
  0.000000000000000E+000
  0.000000000000000E+000
  0.000000000000000E+000
  0.000000000000000E+000
  0.000000000000000E+000
  0.000000000000000E+000
  0.000000000000000E+000
  0.000000000000000E+000
  0.000000000000000E+000
  0.000000000000000E+000
  0.000000000000000E+000
  0.000000000000000E+000
  0.000000000000000E+000
  0.000000000000000E+000
  0.000000000000000E+000
  0.000000000000000E+000
  0.000000000000000E+000
  0.000000000000000E+000
  0.000000000000000E+000
  0.000000000000000E+000
  0.000000000000000E+000
  0.000000000000000E+000
  0.000000000000000E+000
  0.000000000000000E+000
  0.000000000000000E+000
  0.000000000000000E+000
  0.000000000000000E+000
  0.000000000000000E+000
  0.000000000000000E+000
  0.000000000000000E+000
  0.000000000000000E+000
  0.000000000000000E+000
  0.000000000000000E+000
  0.000000000000000E+000
  0.000000000000000E+000
  0.000000000000000E+000
  0.000000000000000E+000
  0.000000000000000E+000
  0.000000000000000E+000
  0.000000000000000E+000
  0.000000000000000E+000
  0.000000000000000E+000
  0.000000000000000E+000
  0.000000000000000E+000
  0.000000000000000E+000
  0.000000000000000E+000
  0.000000000000000E+000
  0.000000000000000E+000
  0.000000000000000E+000
  0.000000000000000E+000
  0.000000000000000E+000
  0.000000000000000E+000
  0.000000000000000E+000
  0.000000000000000E+000
  0.000000000000000E+000
  0.000000000000000E+000
  0.000000000000000E+000
  0.000000000000000E+000
  0.000000000000000E+000
  0.000000000000000E+000
  0.000000000000000E+000
  0.000000000000000E+000
  0.000000000000000E+000
  0.000000000000000E+000
  0.000000000000000E+000
  0.000000000000000E+000
  0.000000000000000E+000
  0.000000000000000E+000
  0.000000000000000E+000
  0.000000000000000E+000
  0.000000000000000E+000
  0.000000000000000E+000
  0.000000000000000E+000
  0.000000000000000E+000
  0.000000000000000E+000
  0.000000000000000E+000
  0.000000000000000E+000
  0.000000000000000E+000
  0.000000000000000E+000
  0.000000000000000E+000
  0.000000000000000E+000
  0.000000000000000E+000
  0.000000000000000E+000
  0.000000000000000E+000
  0.000000000000000E+000
  0.000000000000000E+000
  0.000000000000000E+000
  0.000000000000000E+000
  0.000000000000000E+000
  0.000000000000000E+000
  0.000000000000000E+000
  0.000000000000000E+000
  0.000000000000000E+000
  0.000000000000000E+000
  0.000000000000000E+000
  0.000000000000000E+000
  0.000000000000000E+000
  0.000000000000000E+000
  0.000000000000000E+000
  0.000000000000000E+000
  0.000000000000000E+000
  0.000000000000000E+000
  0.000000000000000E+000
  0.000000000000000E+000
  0.000000000000000E+000
  0.000000000000000E+000
  0.000000000000000E+000
  0.000000000000000E+000
  0.000000000000000E+000
  0.000000000000000E+000
  0.000000000000000E+000
  0.000000000000000E+000
  0.000000000000000E+000
  0.000000000000000E+000
  0.000000000000000E+000
  0.000000000000000E+000
  0.000000000000000E+000
  0.000000000000000E+000
  0.000000000000000E+000
  0.000000000000000E+000
  0.000000000000000E+000
  0.000000000000000E+000
  0.000000000000000E+000
  0.000000000000000E+000
  0.000000000000000E+000
  0.000000000000000E+000
  0.000000000000000E+000
  0.000000000000000E+000
  0.000000000000000E+000
  0.000000000000000E+000
  0.000000000000000E+000
  0.000000000000000E+000
  0.000000000000000E+000
  0.000000000000000E+000
  0.000000000000000E+000
  0.000000000000000E+000
  0.000000000000000E+000
  0.000000000000000E+000
  0.000000000000000E+000
  0.000000000000000E+000
  0.000000000000000E+000
  0.000000000000000E+000
  0.000000000000000E+000
  0.000000000000000E+000
  0.000000000000000E+000
  0.000000000000000E+000
  0.000000000000000E+000
  0.000000000000000E+000
  0.000000000000000E+000
  0.000000000000000E+000
  0.000000000000000E+000
  0.000000000000000E+000
  0.000000000000000E+000
  0.000000000000000E+000
  0.000000000000000E+000
  0.000000000000000E+000
  0.000000000000000E+000
  0.000000000000000E+000
  0.000000000000000E+000
  0.000000000000000E+000
  0.000000000000000E+000
  0.000000000000000E+000
  0.000000000000000E+000
  0.000000000000000E+000
  0.000000000000000E+000
  0.000000000000000E+000
  0.000000000000000E+000
  0.000000000000000E+000
  0.000000000000000E+000
  0.000000000000000E+000
  0.000000000000000E+000
  0.000000000000000E+000
  0.000000000000000E+000
  0.000000000000000E+000
  0.000000000000000E+000
  0.000000000000000E+000
  0.000000000000000E+000
  0.000000000000000E+000
  0.000000000000000E+000
  0.000000000000000E+000
  0.000000000000000E+000
  0.000000000000000E+000
  0.000000000000000E+000
  0.000000000000000E+000
  0.000000000000000E+000
  0.000000000000000E+000
  0.000000000000000E+000
  0.000000000000000E+000
  0.000000000000000E+000
  0.000000000000000E+000
  0.000000000000000E+000
  0.000000000000000E+000
  0.000000000000000E+000
  0.000000000000000E+000
  0.000000000000000E+000
  0.000000000000000E+000
  0.000000000000000E+000
  0.000000000000000E+000
  0.000000000000000E+000
  0.000000000000000E+000
  0.000000000000000E+000
  0.000000000000000E+000
  0.000000000000000E+000
  0.000000000000000E+000
  0.000000000000000E+000
  0.000000000000000E+000
  0.000000000000000E+000
  0.000000000000000E+000
  0.000000000000000E+000
  0.000000000000000E+000
  0.000000000000000E+000
  0.000000000000000E+000
  0.000000000000000E+000
  0.000000000000000E+000
  0.000000000000000E+000
  0.000000000000000E+000
  0.000000000000000E+000
  0.000000000000000E+000
  0.000000000000000E+000
  0.000000000000000E+000
  0.000000000000000E+000
  0.000000000000000E+000
  0.000000000000000E+000
  0.000000000000000E+000
  0.000000000000000E+000
  0.000000000000000E+000
  0.000000000000000E+000
  0.000000000000000E+000
  0.000000000000000E+000
  0.000000000000000E+000
  0.000000000000000E+000
  0.000000000000000E+000
  0.000000000000000E+000
  0.000000000000000E+000
  0.000000000000000E+000
  0.000000000000000E+000
  0.000000000000000E+000
  0.000000000000000E+000
  0.000000000000000E+000
  0.000000000000000E+000
  0.000000000000000E+000
  0.000000000000000E+000
  0.000000000000000E+000
  0.000000000000000E+000
  0.000000000000000E+000
  0.000000000000000E+000
  0.000000000000000E+000
  0.000000000000000E+000
  0.000000000000000E+000
  0.000000000000000E+000
  0.000000000000000E+000
  0.000000000000000E+000
  0.000000000000000E+000
  0.000000000000000E+000
  0.000000000000000E+000
  0.000000000000000E+000
  0.000000000000000E+000
  0.000000000000000E+000
  0.000000000000000E+000
  0.000000000000000E+000
  0.000000000000000E+000
  0.000000000000000E+000
  0.000000000000000E+000
  0.000000000000000E+000
  0.000000000000000E+000
  0.000000000000000E+000
  0.000000000000000E+000
  0.000000000000000E+000
  0.000000000000000E+000
  0.000000000000000E+000
  0.000000000000000E+000
  0.000000000000000E+000
  0.000000000000000E+000
  0.000000000000000E+000
  0.000000000000000E+000
  0.000000000000000E+000
  0.000000000000000E+000
  0.000000000000000E+000
  0.000000000000000E+000
  0.000000000000000E+000
  0.000000000000000E+000
  0.000000000000000E+000
  0.000000000000000E+000
  0.000000000000000E+000
  0.000000000000000E+000
  0.000000000000000E+000
  0.000000000000000E+000
  0.000000000000000E+000
  0.000000000000000E+000
  0.000000000000000E+000
  0.000000000000000E+000
  0.000000000000000E+000
  0.000000000000000E+000
  0.000000000000000E+000
  0.000000000000000E+000
  0.000000000000000E+000
  0.000000000000000E+000
  0.000000000000000E+000
  0.000000000000000E+000
  0.000000000000000E+000
  0.000000000000000E+000
  0.000000000000000E+000
  0.000000000000000E+000
  0.000000000000000E+000
  0.000000000000000E+000
  0.000000000000000E+000
  0.000000000000000E+000
  0.000000000000000E+000
  0.000000000000000E+000
  0.000000000000000E+000
  0.000000000000000E+000
  0.000000000000000E+000
  0.000000000000000E+000
  0.000000000000000E+000
  0.000000000000000E+000
  0.000000000000000E+000
  0.000000000000000E+000
  0.000000000000000E+000
  0.000000000000000E+000
  0.000000000000000E+000
  0.000000000000000E+000
  0.000000000000000E+000
  0.000000000000000E+000
  0.000000000000000E+000
  0.000000000000000E+000
  0.000000000000000E+000
  0.000000000000000E+000
  0.000000000000000E+000
  0.000000000000000E+000
  0.000000000000000E+000
  0.000000000000000E+000
  0.000000000000000E+000
  0.000000000000000E+000
  0.000000000000000E+000
  0.000000000000000E+000
  0.000000000000000E+000
  0.000000000000000E+000
  0.000000000000000E+000
  0.000000000000000E+000
  0.000000000000000E+000
  0.000000000000000E+000
  0.000000000000000E+000
  0.000000000000000E+000
  0.000000000000000E+000
  0.000000000000000E+000
  0.000000000000000E+000
  0.000000000000000E+000
  0.000000000000000E+000
  0.000000000000000E+000
  0.000000000000000E+000
  0.000000000000000E+000
  0.000000000000000E+000
  0.000000000000000E+000
  0.000000000000000E+000
  0.000000000000000E+000
  0.000000000000000E+000
  0.000000000000000E+000
  0.000000000000000E+000
  0.000000000000000E+000
  0.000000000000000E+000
  0.000000000000000E+000
  0.000000000000000E+000
  0.000000000000000E+000
  0.000000000000000E+000
  0.000000000000000E+000
  0.000000000000000E+000
  0.000000000000000E+000
  0.000000000000000E+000
  0.000000000000000E+000
  0.000000000000000E+000
  0.000000000000000E+000
  0.000000000000000E+000
  0.000000000000000E+000
  0.000000000000000E+000
  0.000000000000000E+000
  0.000000000000000E+000
  0.000000000000000E+000
  0.000000000000000E+000
  0.000000000000000E+000
  0.000000000000000E+000
  0.000000000000000E+000
  0.000000000000000E+000
  0.000000000000000E+000
  0.000000000000000E+000
  0.000000000000000E+000
  0.000000000000000E+000
  0.000000000000000E+000
  0.000000000000000E+000
  0.000000000000000E+000
  0.000000000000000E+000
  0.000000000000000E+000
  0.000000000000000E+000
  0.000000000000000E+000
  0.000000000000000E+000
  0.000000000000000E+000
  0.000000000000000E+000
  0.000000000000000E+000
  0.000000000000000E+000
  0.000000000000000E+000
  0.000000000000000E+000
  0.000000000000000E+000
  0.000000000000000E+000
  0.000000000000000E+000
  0.000000000000000E+000
  0.000000000000000E+000
  0.000000000000000E+000
  0.000000000000000E+000
  0.000000000000000E+000
  0.000000000000000E+000
  0.000000000000000E+000
  0.000000000000000E+000
  0.000000000000000E+000
  0.000000000000000E+000
  0.000000000000000E+000
  0.000000000000000E+000
  0.000000000000000E+000
  0.000000000000000E+000
  0.000000000000000E+000
  0.000000000000000E+000
  0.000000000000000E+000
  0.000000000000000E+000
  0.000000000000000E+000
  0.000000000000000E+000
  0.000000000000000E+000
  0.000000000000000E+000
  0.000000000000000E+000
  0.000000000000000E+000
  0.000000000000000E+000
  0.000000000000000E+000
  0.000000000000000E+000
  0.000000000000000E+000
  0.000000000000000E+000
  0.000000000000000E+000
  0.000000000000000E+000
  0.000000000000000E+000
  0.000000000000000E+000
  0.000000000000000E+000
  0.000000000000000E+000
  0.000000000000000E+000
  0.000000000000000E+000
  0.000000000000000E+000
  0.000000000000000E+000
  0.000000000000000E+000
  0.000000000000000E+000
  0.000000000000000E+000
  0.000000000000000E+000
  0.000000000000000E+000
  0.000000000000000E+000
  0.000000000000000E+000
  0.000000000000000E+000
  0.000000000000000E+000
  0.000000000000000E+000
  0.000000000000000E+000
  0.000000000000000E+000
  0.000000000000000E+000
  0.000000000000000E+000
  0.000000000000000E+000
  0.000000000000000E+000
  0.000000000000000E+000
  0.000000000000000E+000
  0.000000000000000E+000
  0.000000000000000E+000
  0.000000000000000E+000
  0.000000000000000E+000
  0.000000000000000E+000
  0.000000000000000E+000
  0.000000000000000E+000
  0.000000000000000E+000
  0.000000000000000E+000
  0.000000000000000E+000
  0.000000000000000E+000
  0.000000000000000E+000
  0.000000000000000E+000
  0.000000000000000E+000
  0.000000000000000E+000
  0.000000000000000E+000
  0.000000000000000E+000
  0.000000000000000E+000
  0.000000000000000E+000
  0.000000000000000E+000
  0.000000000000000E+000
  0.000000000000000E+000
  0.000000000000000E+000
  0.000000000000000E+000
  0.000000000000000E+000
  0.000000000000000E+000
  0.000000000000000E+000
  0.000000000000000E+000
  0.000000000000000E+000
  0.000000000000000E+000
  0.000000000000000E+000
  0.000000000000000E+000
  0.000000000000000E+000
  0.000000000000000E+000
  0.000000000000000E+000
  0.000000000000000E+000
  0.000000000000000E+000
  0.000000000000000E+000
  0.000000000000000E+000
  0.000000000000000E+000
  0.000000000000000E+000
  0.000000000000000E+000
  0.000000000000000E+000
  0.000000000000000E+000
  0.000000000000000E+000
  0.000000000000000E+000
  0.000000000000000E+000
  0.000000000000000E+000
  0.000000000000000E+000
  0.000000000000000E+000
  0.000000000000000E+000
  0.000000000000000E+000
  0.000000000000000E+000
  0.000000000000000E+000
  0.000000000000000E+000
  0.000000000000000E+000
  0.000000000000000E+000
  0.000000000000000E+000
  0.000000000000000E+000
  0.000000000000000E+000
  0.000000000000000E+000
  0.000000000000000E+000
  0.000000000000000E+000
  0.000000000000000E+000
  0.000000000000000E+000
  0.000000000000000E+000
  0.000000000000000E+000
  0.000000000000000E+000
  0.000000000000000E+000
  0.000000000000000E+000
  0.000000000000000E+000
  0.000000000000000E+000
  0.000000000000000E+000
  0.000000000000000E+000
  0.000000000000000E+000
  0.000000000000000E+000
  0.000000000000000E+000
  0.000000000000000E+000
  0.000000000000000E+000
  0.000000000000000E+000
  0.000000000000000E+000
  0.000000000000000E+000
  0.000000000000000E+000
  0.000000000000000E+000
  0.000000000000000E+000
  0.000000000000000E+000
  0.000000000000000E+000
  0.000000000000000E+000
  0.000000000000000E+000
  0.000000000000000E+000
  0.000000000000000E+000
  0.000000000000000E+000
  0.000000000000000E+000
  0.000000000000000E+000
  0.000000000000000E+000
  0.000000000000000E+000
  0.000000000000000E+000
  0.000000000000000E+000
  0.000000000000000E+000
  0.000000000000000E+000
  0.000000000000000E+000
  0.000000000000000E+000
  0.000000000000000E+000
  0.000000000000000E+000
  0.000000000000000E+000
  0.000000000000000E+000
  0.000000000000000E+000
  0.000000000000000E+000
  0.000000000000000E+000
  0.000000000000000E+000
  0.000000000000000E+000
  0.000000000000000E+000
  0.000000000000000E+000
  0.000000000000000E+000
  0.000000000000000E+000
  0.000000000000000E+000
  0.000000000000000E+000
  0.000000000000000E+000
  0.000000000000000E+000
  0.000000000000000E+000
  0.000000000000000E+000
  0.000000000000000E+000
  0.000000000000000E+000
  0.000000000000000E+000
  0.000000000000000E+000
  0.000000000000000E+000
  0.000000000000000E+000
  0.000000000000000E+000
  0.000000000000000E+000
  0.000000000000000E+000
  0.000000000000000E+000
  0.000000000000000E+000
  0.000000000000000E+000
  0.000000000000000E+000
  0.000000000000000E+000
  0.000000000000000E+000
  0.000000000000000E+000
  0.000000000000000E+000
  0.000000000000000E+000
  0.000000000000000E+000
  0.000000000000000E+000
  0.000000000000000E+000
  0.000000000000000E+000
  0.000000000000000E+000
  0.000000000000000E+000
  0.000000000000000E+000
  0.000000000000000E+000
  0.000000000000000E+000
  0.000000000000000E+000
  0.000000000000000E+000
  0.000000000000000E+000
  0.000000000000000E+000
  0.000000000000000E+000
  0.000000000000000E+000
  0.000000000000000E+000
  0.000000000000000E+000
  0.000000000000000E+000
  0.000000000000000E+000
  0.000000000000000E+000
  0.000000000000000E+000
  0.000000000000000E+000
  0.000000000000000E+000
  0.000000000000000E+000
  0.000000000000000E+000
  0.000000000000000E+000
  0.000000000000000E+000
  0.000000000000000E+000
  0.000000000000000E+000
  0.000000000000000E+000
  0.000000000000000E+000
  0.000000000000000E+000
  0.000000000000000E+000
  0.000000000000000E+000
  0.000000000000000E+000
  0.000000000000000E+000
  0.000000000000000E+000
  0.000000000000000E+000
  0.000000000000000E+000
  0.000000000000000E+000
  0.000000000000000E+000
  0.000000000000000E+000
  0.000000000000000E+000
  0.000000000000000E+000
  0.000000000000000E+000
  0.000000000000000E+000
  0.000000000000000E+000
  0.000000000000000E+000
  0.000000000000000E+000
  0.000000000000000E+000
  0.000000000000000E+000
  0.000000000000000E+000
  0.000000000000000E+000
  0.000000000000000E+000
  0.000000000000000E+000
  0.000000000000000E+000
  0.000000000000000E+000
  0.000000000000000E+000
  0.000000000000000E+000
  0.000000000000000E+000
  0.000000000000000E+000
  0.000000000000000E+000
  0.000000000000000E+000
  0.000000000000000E+000
  0.000000000000000E+000
  0.000000000000000E+000
  0.000000000000000E+000
  0.000000000000000E+000
  0.000000000000000E+000
  0.000000000000000E+000
  0.000000000000000E+000
  0.000000000000000E+000
  0.000000000000000E+000
  0.000000000000000E+000
  0.000000000000000E+000
  0.000000000000000E+000
  0.000000000000000E+000
  0.000000000000000E+000
  0.000000000000000E+000
  0.000000000000000E+000
  0.000000000000000E+000
  0.000000000000000E+000
  0.000000000000000E+000
  0.000000000000000E+000
  0.000000000000000E+000
  0.000000000000000E+000
  0.000000000000000E+000
  0.000000000000000E+000
  0.000000000000000E+000
  0.000000000000000E+000
  0.000000000000000E+000
  0.000000000000000E+000
  0.000000000000000E+000
  0.000000000000000E+000
  0.000000000000000E+000
  0.000000000000000E+000
  0.000000000000000E+000
  0.000000000000000E+000
  0.000000000000000E+000
  0.000000000000000E+000
  0.000000000000000E+000
  0.000000000000000E+000
  0.000000000000000E+000
  0.000000000000000E+000
  0.000000000000000E+000
  0.000000000000000E+000
  0.000000000000000E+000
  0.000000000000000E+000
  0.000000000000000E+000
  0.000000000000000E+000
  0.000000000000000E+000
  0.000000000000000E+000
  0.000000000000000E+000
  0.000000000000000E+000
  0.000000000000000E+000
  0.000000000000000E+000
  0.000000000000000E+000
  0.000000000000000E+000
  0.000000000000000E+000
  0.000000000000000E+000
  0.000000000000000E+000
  0.000000000000000E+000
  0.000000000000000E+000
  0.000000000000000E+000
  0.000000000000000E+000
  0.000000000000000E+000
  0.000000000000000E+000
  0.000000000000000E+000
  0.000000000000000E+000
  0.000000000000000E+000
  0.000000000000000E+000
  0.000000000000000E+000
  0.000000000000000E+000
  0.000000000000000E+000
  0.000000000000000E+000
  0.000000000000000E+000
  0.000000000000000E+000
  0.000000000000000E+000
  0.000000000000000E+000
  0.000000000000000E+000
  0.000000000000000E+000
  0.000000000000000E+000
  0.000000000000000E+000
  0.000000000000000E+000
  0.000000000000000E+000
  0.000000000000000E+000
  0.000000000000000E+000
  0.000000000000000E+000
  0.000000000000000E+000
  0.000000000000000E+000
  0.000000000000000E+000
  0.000000000000000E+000
  0.000000000000000E+000
  0.000000000000000E+000
  0.000000000000000E+000
  0.000000000000000E+000
  0.000000000000000E+000
  0.000000000000000E+000
  0.000000000000000E+000
  0.000000000000000E+000
  0.000000000000000E+000
  0.000000000000000E+000
  0.000000000000000E+000
  0.000000000000000E+000
  0.000000000000000E+000
  0.000000000000000E+000
  0.000000000000000E+000
  0.000000000000000E+000
  0.000000000000000E+000
  0.000000000000000E+000
  0.000000000000000E+000
  0.000000000000000E+000
  0.000000000000000E+000
  0.000000000000000E+000
  0.000000000000000E+000
  0.000000000000000E+000
  0.000000000000000E+000
  0.000000000000000E+000
  0.000000000000000E+000
  0.000000000000000E+000
  0.000000000000000E+000
  0.000000000000000E+000
  0.000000000000000E+000
  0.000000000000000E+000
  0.000000000000000E+000
  0.000000000000000E+000
  0.000000000000000E+000
  0.000000000000000E+000
  0.000000000000000E+000
  0.000000000000000E+000
  0.000000000000000E+000
  0.000000000000000E+000
  0.000000000000000E+000
  0.000000000000000E+000
  0.000000000000000E+000
  0.000000000000000E+000
  0.000000000000000E+000
  0.000000000000000E+000
  0.000000000000000E+000
  0.000000000000000E+000
  0.000000000000000E+000
  0.000000000000000E+000
  0.000000000000000E+000
  0.000000000000000E+000
  0.000000000000000E+000
  0.000000000000000E+000
  0.000000000000000E+000
  0.000000000000000E+000
  0.000000000000000E+000
  0.000000000000000E+000
  0.000000000000000E+000
  0.000000000000000E+000
  0.000000000000000E+000
  0.000000000000000E+000
  0.000000000000000E+000
  0.000000000000000E+000
  0.000000000000000E+000
  0.000000000000000E+000
  0.000000000000000E+000
  0.000000000000000E+000
  0.000000000000000E+000
  0.000000000000000E+000
  0.000000000000000E+000
  0.000000000000000E+000
  0.000000000000000E+000
  0.000000000000000E+000
  0.000000000000000E+000
  0.000000000000000E+000
  0.000000000000000E+000
  0.000000000000000E+000
  0.000000000000000E+000
  0.000000000000000E+000
  0.000000000000000E+000
  0.000000000000000E+000
  0.000000000000000E+000
  0.000000000000000E+000
  0.000000000000000E+000
  0.000000000000000E+000
  0.000000000000000E+000
  0.000000000000000E+000
  0.000000000000000E+000
  0.000000000000000E+000
  0.000000000000000E+000
  0.000000000000000E+000
  0.000000000000000E+000
  0.000000000000000E+000
  0.000000000000000E+000
  0.000000000000000E+000
  0.000000000000000E+000
  0.000000000000000E+000
  0.000000000000000E+000
  0.000000000000000E+000
  0.000000000000000E+000
  0.000000000000000E+000
  0.000000000000000E+000
  0.000000000000000E+000
  0.000000000000000E+000
  0.000000000000000E+000
  0.000000000000000E+000
  0.000000000000000E+000
  0.000000000000000E+000
  0.000000000000000E+000
  0.000000000000000E+000
  0.000000000000000E+000
  0.000000000000000E+000
  0.000000000000000E+000
  0.000000000000000E+000
  0.000000000000000E+000
  0.000000000000000E+000
  0.000000000000000E+000
  0.000000000000000E+000
  0.000000000000000E+000
  0.000000000000000E+000
  0.000000000000000E+000
  0.000000000000000E+000
  0.000000000000000E+000
  0.000000000000000E+000
  0.000000000000000E+000
  0.000000000000000E+000
  0.000000000000000E+000
  0.000000000000000E+000
  0.000000000000000E+000
  0.000000000000000E+000
  0.000000000000000E+000
  0.000000000000000E+000
  0.000000000000000E+000
  0.000000000000000E+000
  0.000000000000000E+000
  0.000000000000000E+000
  0.000000000000000E+000
  0.000000000000000E+000
  0.000000000000000E+000
  0.000000000000000E+000
  0.000000000000000E+000
  0.000000000000000E+000
  0.000000000000000E+000
  0.000000000000000E+000
  0.000000000000000E+000
  0.000000000000000E+000
  0.000000000000000E+000
  0.000000000000000E+000
  0.000000000000000E+000
  0.000000000000000E+000
  0.000000000000000E+000
  0.000000000000000E+000
  0.000000000000000E+000
  0.000000000000000E+000
  0.000000000000000E+000
  0.000000000000000E+000
  0.000000000000000E+000
  0.000000000000000E+000
  0.000000000000000E+000
  0.000000000000000E+000
  0.000000000000000E+000
  0.000000000000000E+000
  0.000000000000000E+000
  0.000000000000000E+000
  0.000000000000000E+000
  0.000000000000000E+000
  0.000000000000000E+000
  0.000000000000000E+000
  0.000000000000000E+000
  0.000000000000000E+000
  0.000000000000000E+000
  0.000000000000000E+000
  0.000000000000000E+000
  0.000000000000000E+000
  0.000000000000000E+000
  0.000000000000000E+000
  0.000000000000000E+000
  0.000000000000000E+000
  0.000000000000000E+000
  0.000000000000000E+000
  0.000000000000000E+000
  0.000000000000000E+000
  0.000000000000000E+000
  0.000000000000000E+000
  0.000000000000000E+000
  0.000000000000000E+000
  0.000000000000000E+000
  0.000000000000000E+000
  0.000000000000000E+000
  0.000000000000000E+000
  0.000000000000000E+000
  0.000000000000000E+000
  0.000000000000000E+000
  0.000000000000000E+000
  0.000000000000000E+000
  0.000000000000000E+000
  0.000000000000000E+000
  0.000000000000000E+000
  0.000000000000000E+000
  0.000000000000000E+000
  0.000000000000000E+000
  0.000000000000000E+000
  0.000000000000000E+000
  0.000000000000000E+000
  0.000000000000000E+000
  0.000000000000000E+000
  0.000000000000000E+000
  0.000000000000000E+000
  0.000000000000000E+000
  0.000000000000000E+000
  0.000000000000000E+000
  0.000000000000000E+000
  0.000000000000000E+000
  0.000000000000000E+000
  0.000000000000000E+000
  0.000000000000000E+000
  0.000000000000000E+000
  0.000000000000000E+000
  0.000000000000000E+000
  0.000000000000000E+000
  0.000000000000000E+000
  0.000000000000000E+000
  0.000000000000000E+000
  0.000000000000000E+000
  0.000000000000000E+000
  0.000000000000000E+000
  0.000000000000000E+000
  0.000000000000000E+000
  0.000000000000000E+000
  0.000000000000000E+000
  0.000000000000000E+000
  0.000000000000000E+000
  0.000000000000000E+000
  0.000000000000000E+000
  0.000000000000000E+000
  0.000000000000000E+000
  0.000000000000000E+000
  0.000000000000000E+000
  0.000000000000000E+000
  0.000000000000000E+000
  0.000000000000000E+000
  0.000000000000000E+000
  0.000000000000000E+000
  0.000000000000000E+000
  0.000000000000000E+000
  0.000000000000000E+000
  0.000000000000000E+000
  0.000000000000000E+000
  0.000000000000000E+000
  0.000000000000000E+000
  0.000000000000000E+000
  0.000000000000000E+000
  0.000000000000000E+000
  0.000000000000000E+000
SCALARS elementIsPlast double 
LOOKUP_TABLE default
   1.00000000000000     
   1.00000000000000     
   1.00000000000000     
   1.00000000000000     
   1.00000000000000     
  0.000000000000000E+000
  0.000000000000000E+000
  0.000000000000000E+000
  0.000000000000000E+000
  0.000000000000000E+000
  0.000000000000000E+000
  0.000000000000000E+000
  0.000000000000000E+000
  0.000000000000000E+000
  0.000000000000000E+000
  0.000000000000000E+000
  0.000000000000000E+000
  0.000000000000000E+000
  0.000000000000000E+000
  0.000000000000000E+000
  0.000000000000000E+000
  0.000000000000000E+000
  0.000000000000000E+000
  0.000000000000000E+000
  0.000000000000000E+000
  0.000000000000000E+000
  0.000000000000000E+000
  0.000000000000000E+000
  0.000000000000000E+000
  0.000000000000000E+000
  0.000000000000000E+000
  0.000000000000000E+000
  0.000000000000000E+000
  0.000000000000000E+000
  0.000000000000000E+000
  0.000000000000000E+000
  0.000000000000000E+000
  0.000000000000000E+000
  0.000000000000000E+000
  0.000000000000000E+000
  0.000000000000000E+000
  0.000000000000000E+000
  0.000000000000000E+000
  0.000000000000000E+000
  0.000000000000000E+000
  0.000000000000000E+000
  0.000000000000000E+000
  0.000000000000000E+000
  0.000000000000000E+000
  0.000000000000000E+000
  0.000000000000000E+000
  0.000000000000000E+000
  0.000000000000000E+000
  0.000000000000000E+000
  0.000000000000000E+000
  0.000000000000000E+000
  0.000000000000000E+000
  0.000000000000000E+000
  0.000000000000000E+000
  0.000000000000000E+000
  0.000000000000000E+000
  0.000000000000000E+000
  0.000000000000000E+000
  0.000000000000000E+000
  0.000000000000000E+000
  0.000000000000000E+000
  0.000000000000000E+000
  0.000000000000000E+000
  0.000000000000000E+000
  0.000000000000000E+000
  0.000000000000000E+000
  0.000000000000000E+000
  0.000000000000000E+000
  0.000000000000000E+000
  0.000000000000000E+000
  0.000000000000000E+000
  0.000000000000000E+000
  0.000000000000000E+000
  0.000000000000000E+000
  0.000000000000000E+000
  0.000000000000000E+000
  0.000000000000000E+000
  0.000000000000000E+000
  0.000000000000000E+000
  0.000000000000000E+000
  0.000000000000000E+000
  0.000000000000000E+000
  0.000000000000000E+000
  0.000000000000000E+000
  0.000000000000000E+000
  0.000000000000000E+000
  0.000000000000000E+000
  0.000000000000000E+000
  0.000000000000000E+000
  0.000000000000000E+000
  0.000000000000000E+000
  0.000000000000000E+000
  0.000000000000000E+000
  0.000000000000000E+000
  0.000000000000000E+000
  0.000000000000000E+000
  0.000000000000000E+000
  0.000000000000000E+000
  0.000000000000000E+000
  0.000000000000000E+000
  0.000000000000000E+000
  0.000000000000000E+000
  0.000000000000000E+000
  0.000000000000000E+000
  0.000000000000000E+000
  0.000000000000000E+000
  0.000000000000000E+000
  0.000000000000000E+000
  0.000000000000000E+000
  0.000000000000000E+000
  0.000000000000000E+000
  0.000000000000000E+000
  0.000000000000000E+000
  0.000000000000000E+000
  0.000000000000000E+000
  0.000000000000000E+000
  0.000000000000000E+000
  0.000000000000000E+000
  0.000000000000000E+000
  0.000000000000000E+000
  0.000000000000000E+000
  0.000000000000000E+000
  0.000000000000000E+000
  0.000000000000000E+000
  0.000000000000000E+000
  0.000000000000000E+000
  0.000000000000000E+000
  0.000000000000000E+000
  0.000000000000000E+000
  0.000000000000000E+000
  0.000000000000000E+000
  0.000000000000000E+000
  0.000000000000000E+000
  0.000000000000000E+000
  0.000000000000000E+000
  0.000000000000000E+000
  0.000000000000000E+000
  0.000000000000000E+000
  0.000000000000000E+000
  0.000000000000000E+000
  0.000000000000000E+000
  0.000000000000000E+000
  0.000000000000000E+000
  0.000000000000000E+000
  0.000000000000000E+000
  0.000000000000000E+000
  0.000000000000000E+000
  0.000000000000000E+000
  0.000000000000000E+000
  0.000000000000000E+000
  0.000000000000000E+000
  0.000000000000000E+000
  0.000000000000000E+000
  0.000000000000000E+000
  0.000000000000000E+000
  0.000000000000000E+000
  0.000000000000000E+000
  0.000000000000000E+000
  0.000000000000000E+000
  0.000000000000000E+000
  0.000000000000000E+000
  0.000000000000000E+000
  0.000000000000000E+000
  0.000000000000000E+000
  0.000000000000000E+000
  0.000000000000000E+000
  0.000000000000000E+000
  0.000000000000000E+000
  0.000000000000000E+000
  0.000000000000000E+000
  0.000000000000000E+000
  0.000000000000000E+000
  0.000000000000000E+000
  0.000000000000000E+000
  0.000000000000000E+000
  0.000000000000000E+000
  0.000000000000000E+000
  0.000000000000000E+000
  0.000000000000000E+000
  0.000000000000000E+000
  0.000000000000000E+000
  0.000000000000000E+000
  0.000000000000000E+000
  0.000000000000000E+000
  0.000000000000000E+000
  0.000000000000000E+000
  0.000000000000000E+000
  0.000000000000000E+000
  0.000000000000000E+000
  0.000000000000000E+000
  0.000000000000000E+000
  0.000000000000000E+000
  0.000000000000000E+000
  0.000000000000000E+000
  0.000000000000000E+000
  0.000000000000000E+000
  0.000000000000000E+000
  0.000000000000000E+000
  0.000000000000000E+000
  0.000000000000000E+000
  0.000000000000000E+000
  0.000000000000000E+000
  0.000000000000000E+000
  0.000000000000000E+000
  0.000000000000000E+000
  0.000000000000000E+000
  0.000000000000000E+000
  0.000000000000000E+000
  0.000000000000000E+000
  0.000000000000000E+000
  0.000000000000000E+000
  0.000000000000000E+000
  0.000000000000000E+000
  0.000000000000000E+000
  0.000000000000000E+000
  0.000000000000000E+000
  0.000000000000000E+000
  0.000000000000000E+000
  0.000000000000000E+000
  0.000000000000000E+000
  0.000000000000000E+000
  0.000000000000000E+000
  0.000000000000000E+000
  0.000000000000000E+000
  0.000000000000000E+000
  0.000000000000000E+000
  0.000000000000000E+000
  0.000000000000000E+000
  0.000000000000000E+000
  0.000000000000000E+000
  0.000000000000000E+000
  0.000000000000000E+000
  0.000000000000000E+000
  0.000000000000000E+000
  0.000000000000000E+000
  0.000000000000000E+000
  0.000000000000000E+000
  0.000000000000000E+000
  0.000000000000000E+000
  0.000000000000000E+000
  0.000000000000000E+000
  0.000000000000000E+000
  0.000000000000000E+000
  0.000000000000000E+000
  0.000000000000000E+000
  0.000000000000000E+000
  0.000000000000000E+000
  0.000000000000000E+000
  0.000000000000000E+000
  0.000000000000000E+000
  0.000000000000000E+000
  0.000000000000000E+000
  0.000000000000000E+000
  0.000000000000000E+000
  0.000000000000000E+000
  0.000000000000000E+000
  0.000000000000000E+000
  0.000000000000000E+000
  0.000000000000000E+000
  0.000000000000000E+000
  0.000000000000000E+000
  0.000000000000000E+000
  0.000000000000000E+000
  0.000000000000000E+000
  0.000000000000000E+000
  0.000000000000000E+000
  0.000000000000000E+000
  0.000000000000000E+000
  0.000000000000000E+000
  0.000000000000000E+000
  0.000000000000000E+000
  0.000000000000000E+000
  0.000000000000000E+000
  0.000000000000000E+000
  0.000000000000000E+000
  0.000000000000000E+000
  0.000000000000000E+000
  0.000000000000000E+000
  0.000000000000000E+000
  0.000000000000000E+000
  0.000000000000000E+000
  0.000000000000000E+000
  0.000000000000000E+000
  0.000000000000000E+000
  0.000000000000000E+000
  0.000000000000000E+000
  0.000000000000000E+000
  0.000000000000000E+000
  0.000000000000000E+000
  0.000000000000000E+000
  0.000000000000000E+000
  0.000000000000000E+000
  0.000000000000000E+000
  0.000000000000000E+000
  0.000000000000000E+000
  0.000000000000000E+000
  0.000000000000000E+000
  0.000000000000000E+000
  0.000000000000000E+000
  0.000000000000000E+000
  0.000000000000000E+000
  0.000000000000000E+000
  0.000000000000000E+000
  0.000000000000000E+000
  0.000000000000000E+000
  0.000000000000000E+000
  0.000000000000000E+000
  0.000000000000000E+000
  0.000000000000000E+000
  0.000000000000000E+000
  0.000000000000000E+000
  0.000000000000000E+000
  0.000000000000000E+000
  0.000000000000000E+000
  0.000000000000000E+000
  0.000000000000000E+000
  0.000000000000000E+000
  0.000000000000000E+000
  0.000000000000000E+000
  0.000000000000000E+000
  0.000000000000000E+000
  0.000000000000000E+000
  0.000000000000000E+000
  0.000000000000000E+000
  0.000000000000000E+000
  0.000000000000000E+000
  0.000000000000000E+000
  0.000000000000000E+000
  0.000000000000000E+000
  0.000000000000000E+000
  0.000000000000000E+000
  0.000000000000000E+000
  0.000000000000000E+000
  0.000000000000000E+000
  0.000000000000000E+000
  0.000000000000000E+000
  0.000000000000000E+000
  0.000000000000000E+000
  0.000000000000000E+000
  0.000000000000000E+000
  0.000000000000000E+000
  0.000000000000000E+000
  0.000000000000000E+000
  0.000000000000000E+000
  0.000000000000000E+000
  0.000000000000000E+000
  0.000000000000000E+000
  0.000000000000000E+000
  0.000000000000000E+000
  0.000000000000000E+000
  0.000000000000000E+000
  0.000000000000000E+000
  0.000000000000000E+000
  0.000000000000000E+000
  0.000000000000000E+000
  0.000000000000000E+000
  0.000000000000000E+000
  0.000000000000000E+000
  0.000000000000000E+000
  0.000000000000000E+000
  0.000000000000000E+000
  0.000000000000000E+000
  0.000000000000000E+000
  0.000000000000000E+000
  0.000000000000000E+000
  0.000000000000000E+000
  0.000000000000000E+000
  0.000000000000000E+000
  0.000000000000000E+000
  0.000000000000000E+000
  0.000000000000000E+000
  0.000000000000000E+000
  0.000000000000000E+000
  0.000000000000000E+000
  0.000000000000000E+000
  0.000000000000000E+000
  0.000000000000000E+000
  0.000000000000000E+000
  0.000000000000000E+000
  0.000000000000000E+000
  0.000000000000000E+000
  0.000000000000000E+000
  0.000000000000000E+000
  0.000000000000000E+000
  0.000000000000000E+000
  0.000000000000000E+000
  0.000000000000000E+000
  0.000000000000000E+000
  0.000000000000000E+000
  0.000000000000000E+000
  0.000000000000000E+000
  0.000000000000000E+000
  0.000000000000000E+000
  0.000000000000000E+000
  0.000000000000000E+000
  0.000000000000000E+000
  0.000000000000000E+000
  0.000000000000000E+000
  0.000000000000000E+000
  0.000000000000000E+000
  0.000000000000000E+000
  0.000000000000000E+000
  0.000000000000000E+000
  0.000000000000000E+000
  0.000000000000000E+000
  0.000000000000000E+000
  0.000000000000000E+000
  0.000000000000000E+000
  0.000000000000000E+000
  0.000000000000000E+000
  0.000000000000000E+000
  0.000000000000000E+000
  0.000000000000000E+000
  0.000000000000000E+000
  0.000000000000000E+000
  0.000000000000000E+000
  0.000000000000000E+000
  0.000000000000000E+000
  0.000000000000000E+000
  0.000000000000000E+000
  0.000000000000000E+000
  0.000000000000000E+000
  0.000000000000000E+000
  0.000000000000000E+000
  0.000000000000000E+000
  0.000000000000000E+000
  0.000000000000000E+000
  0.000000000000000E+000
  0.000000000000000E+000
  0.000000000000000E+000
  0.000000000000000E+000
  0.000000000000000E+000
  0.000000000000000E+000
  0.000000000000000E+000
  0.000000000000000E+000
  0.000000000000000E+000
  0.000000000000000E+000
  0.000000000000000E+000
  0.000000000000000E+000
  0.000000000000000E+000
  0.000000000000000E+000
  0.000000000000000E+000
  0.000000000000000E+000
  0.000000000000000E+000
  0.000000000000000E+000
  0.000000000000000E+000
  0.000000000000000E+000
  0.000000000000000E+000
  0.000000000000000E+000
  0.000000000000000E+000
  0.000000000000000E+000
  0.000000000000000E+000
  0.000000000000000E+000
  0.000000000000000E+000
  0.000000000000000E+000
  0.000000000000000E+000
  0.000000000000000E+000
  0.000000000000000E+000
  0.000000000000000E+000
  0.000000000000000E+000
  0.000000000000000E+000
  0.000000000000000E+000
  0.000000000000000E+000
  0.000000000000000E+000
  0.000000000000000E+000
  0.000000000000000E+000
  0.000000000000000E+000
  0.000000000000000E+000
  0.000000000000000E+000
  0.000000000000000E+000
  0.000000000000000E+000
  0.000000000000000E+000
  0.000000000000000E+000
  0.000000000000000E+000
  0.000000000000000E+000
  0.000000000000000E+000
  0.000000000000000E+000
  0.000000000000000E+000
  0.000000000000000E+000
  0.000000000000000E+000
  0.000000000000000E+000
  0.000000000000000E+000
  0.000000000000000E+000
  0.000000000000000E+000
  0.000000000000000E+000
  0.000000000000000E+000
  0.000000000000000E+000
  0.000000000000000E+000
  0.000000000000000E+000
  0.000000000000000E+000
  0.000000000000000E+000
  0.000000000000000E+000
  0.000000000000000E+000
  0.000000000000000E+000
  0.000000000000000E+000
  0.000000000000000E+000
  0.000000000000000E+000
  0.000000000000000E+000
  0.000000000000000E+000
  0.000000000000000E+000
  0.000000000000000E+000
  0.000000000000000E+000
  0.000000000000000E+000
  0.000000000000000E+000
  0.000000000000000E+000
  0.000000000000000E+000
  0.000000000000000E+000
  0.000000000000000E+000
  0.000000000000000E+000
  0.000000000000000E+000
  0.000000000000000E+000
  0.000000000000000E+000
  0.000000000000000E+000
  0.000000000000000E+000
  0.000000000000000E+000
  0.000000000000000E+000
  0.000000000000000E+000
  0.000000000000000E+000
  0.000000000000000E+000
  0.000000000000000E+000
  0.000000000000000E+000
  0.000000000000000E+000
  0.000000000000000E+000
  0.000000000000000E+000
  0.000000000000000E+000
  0.000000000000000E+000
  0.000000000000000E+000
  0.000000000000000E+000
  0.000000000000000E+000
  0.000000000000000E+000
  0.000000000000000E+000
  0.000000000000000E+000
  0.000000000000000E+000
  0.000000000000000E+000
  0.000000000000000E+000
  0.000000000000000E+000
  0.000000000000000E+000
  0.000000000000000E+000
  0.000000000000000E+000
  0.000000000000000E+000
  0.000000000000000E+000
  0.000000000000000E+000
  0.000000000000000E+000
  0.000000000000000E+000
  0.000000000000000E+000
  0.000000000000000E+000
  0.000000000000000E+000
  0.000000000000000E+000
  0.000000000000000E+000
  0.000000000000000E+000
  0.000000000000000E+000
  0.000000000000000E+000
  0.000000000000000E+000
  0.000000000000000E+000
  0.000000000000000E+000
  0.000000000000000E+000
  0.000000000000000E+000
  0.000000000000000E+000
  0.000000000000000E+000
  0.000000000000000E+000
  0.000000000000000E+000
  0.000000000000000E+000
  0.000000000000000E+000
  0.000000000000000E+000
  0.000000000000000E+000
  0.000000000000000E+000
  0.000000000000000E+000
  0.000000000000000E+000
  0.000000000000000E+000
  0.000000000000000E+000
  0.000000000000000E+000
  0.000000000000000E+000
  0.000000000000000E+000
  0.000000000000000E+000
  0.000000000000000E+000
  0.000000000000000E+000
  0.000000000000000E+000
  0.000000000000000E+000
  0.000000000000000E+000
  0.000000000000000E+000
  0.000000000000000E+000
  0.000000000000000E+000
  0.000000000000000E+000
  0.000000000000000E+000
  0.000000000000000E+000
  0.000000000000000E+000
  0.000000000000000E+000
  0.000000000000000E+000
  0.000000000000000E+000
  0.000000000000000E+000
  0.000000000000000E+000
  0.000000000000000E+000
  0.000000000000000E+000
  0.000000000000000E+000
  0.000000000000000E+000
  0.000000000000000E+000
  0.000000000000000E+000
  0.000000000000000E+000
  0.000000000000000E+000
  0.000000000000000E+000
  0.000000000000000E+000
  0.000000000000000E+000
  0.000000000000000E+000
  0.000000000000000E+000
  0.000000000000000E+000
  0.000000000000000E+000
  0.000000000000000E+000
  0.000000000000000E+000
  0.000000000000000E+000
  0.000000000000000E+000
  0.000000000000000E+000
  0.000000000000000E+000
  0.000000000000000E+000
  0.000000000000000E+000
  0.000000000000000E+000
  0.000000000000000E+000
  0.000000000000000E+000
  0.000000000000000E+000
  0.000000000000000E+000
  0.000000000000000E+000
  0.000000000000000E+000
  0.000000000000000E+000
  0.000000000000000E+000
  0.000000000000000E+000
  0.000000000000000E+000
  0.000000000000000E+000
  0.000000000000000E+000
  0.000000000000000E+000
  0.000000000000000E+000
  0.000000000000000E+000
  0.000000000000000E+000
  0.000000000000000E+000
  0.000000000000000E+000
  0.000000000000000E+000
  0.000000000000000E+000
  0.000000000000000E+000
  0.000000000000000E+000
  0.000000000000000E+000
  0.000000000000000E+000
  0.000000000000000E+000
  0.000000000000000E+000
  0.000000000000000E+000
  0.000000000000000E+000
  0.000000000000000E+000
  0.000000000000000E+000
  0.000000000000000E+000
  0.000000000000000E+000
  0.000000000000000E+000
  0.000000000000000E+000
  0.000000000000000E+000
  0.000000000000000E+000
  0.000000000000000E+000
  0.000000000000000E+000
  0.000000000000000E+000
  0.000000000000000E+000
  0.000000000000000E+000
  0.000000000000000E+000
  0.000000000000000E+000
  0.000000000000000E+000
  0.000000000000000E+000
  0.000000000000000E+000
  0.000000000000000E+000
  0.000000000000000E+000
  0.000000000000000E+000
  0.000000000000000E+000
  0.000000000000000E+000
  0.000000000000000E+000
  0.000000000000000E+000
  0.000000000000000E+000
  0.000000000000000E+000
  0.000000000000000E+000
  0.000000000000000E+000
  0.000000000000000E+000
  0.000000000000000E+000
  0.000000000000000E+000
  0.000000000000000E+000
  0.000000000000000E+000
  0.000000000000000E+000
  0.000000000000000E+000
  0.000000000000000E+000
  0.000000000000000E+000
  0.000000000000000E+000
  0.000000000000000E+000
  0.000000000000000E+000
  0.000000000000000E+000
  0.000000000000000E+000
  0.000000000000000E+000
  0.000000000000000E+000
  0.000000000000000E+000
  0.000000000000000E+000
  0.000000000000000E+000
  0.000000000000000E+000
  0.000000000000000E+000
  0.000000000000000E+000
  0.000000000000000E+000
  0.000000000000000E+000
  0.000000000000000E+000
  0.000000000000000E+000
  0.000000000000000E+000
  0.000000000000000E+000
  0.000000000000000E+000
  0.000000000000000E+000
  0.000000000000000E+000
  0.000000000000000E+000
  0.000000000000000E+000
  0.000000000000000E+000
  0.000000000000000E+000
  0.000000000000000E+000
  0.000000000000000E+000
  0.000000000000000E+000
  0.000000000000000E+000
  0.000000000000000E+000
  0.000000000000000E+000
  0.000000000000000E+000
  0.000000000000000E+000
  0.000000000000000E+000
  0.000000000000000E+000
  0.000000000000000E+000
  0.000000000000000E+000
  0.000000000000000E+000
  0.000000000000000E+000
  0.000000000000000E+000
  0.000000000000000E+000
  0.000000000000000E+000
  0.000000000000000E+000
  0.000000000000000E+000
  0.000000000000000E+000
  0.000000000000000E+000
  0.000000000000000E+000
  0.000000000000000E+000
  0.000000000000000E+000
  0.000000000000000E+000
  0.000000000000000E+000
  0.000000000000000E+000
  0.000000000000000E+000
  0.000000000000000E+000
  0.000000000000000E+000
  0.000000000000000E+000
  0.000000000000000E+000
  0.000000000000000E+000
  0.000000000000000E+000
  0.000000000000000E+000
  0.000000000000000E+000
  0.000000000000000E+000
  0.000000000000000E+000
  0.000000000000000E+000
  0.000000000000000E+000
  0.000000000000000E+000
  0.000000000000000E+000
  0.000000000000000E+000
  0.000000000000000E+000
  0.000000000000000E+000
  0.000000000000000E+000
  0.000000000000000E+000
  0.000000000000000E+000
  0.000000000000000E+000
  0.000000000000000E+000
  0.000000000000000E+000
  0.000000000000000E+000
  0.000000000000000E+000
  0.000000000000000E+000
  0.000000000000000E+000
  0.000000000000000E+000
  0.000000000000000E+000
  0.000000000000000E+000
  0.000000000000000E+000
  0.000000000000000E+000
  0.000000000000000E+000
  0.000000000000000E+000
  0.000000000000000E+000
  0.000000000000000E+000
  0.000000000000000E+000
  0.000000000000000E+000
  0.000000000000000E+000
  0.000000000000000E+000
  0.000000000000000E+000
  0.000000000000000E+000
  0.000000000000000E+000
  0.000000000000000E+000
  0.000000000000000E+000
  0.000000000000000E+000
  0.000000000000000E+000
  0.000000000000000E+000
  0.000000000000000E+000
  0.000000000000000E+000
  0.000000000000000E+000
  0.000000000000000E+000
  0.000000000000000E+000
  0.000000000000000E+000
  0.000000000000000E+000
  0.000000000000000E+000
  0.000000000000000E+000
  0.000000000000000E+000
  0.000000000000000E+000
  0.000000000000000E+000
  0.000000000000000E+000
  0.000000000000000E+000
  0.000000000000000E+000
  0.000000000000000E+000
  0.000000000000000E+000
  0.000000000000000E+000
  0.000000000000000E+000
  0.000000000000000E+000
  0.000000000000000E+000
  0.000000000000000E+000
  0.000000000000000E+000
  0.000000000000000E+000
  0.000000000000000E+000
  0.000000000000000E+000
  0.000000000000000E+000
  0.000000000000000E+000
  0.000000000000000E+000
  0.000000000000000E+000
  0.000000000000000E+000
  0.000000000000000E+000
  0.000000000000000E+000
  0.000000000000000E+000
  0.000000000000000E+000
  0.000000000000000E+000
  0.000000000000000E+000
  0.000000000000000E+000
  0.000000000000000E+000
  0.000000000000000E+000
  0.000000000000000E+000
  0.000000000000000E+000
  0.000000000000000E+000
  0.000000000000000E+000
  0.000000000000000E+000
  0.000000000000000E+000
  0.000000000000000E+000
  0.000000000000000E+000
  0.000000000000000E+000
  0.000000000000000E+000
  0.000000000000000E+000
  0.000000000000000E+000
  0.000000000000000E+000
  0.000000000000000E+000
  0.000000000000000E+000
  0.000000000000000E+000
  0.000000000000000E+000
  0.000000000000000E+000
  0.000000000000000E+000
  0.000000000000000E+000
  0.000000000000000E+000
  0.000000000000000E+000
  0.000000000000000E+000
  0.000000000000000E+000
  0.000000000000000E+000
  0.000000000000000E+000
  0.000000000000000E+000
  0.000000000000000E+000
  0.000000000000000E+000
  0.000000000000000E+000
  0.000000000000000E+000
  0.000000000000000E+000
  0.000000000000000E+000
  0.000000000000000E+000
  0.000000000000000E+000
  0.000000000000000E+000
  0.000000000000000E+000
  0.000000000000000E+000
  0.000000000000000E+000
  0.000000000000000E+000
  0.000000000000000E+000
  0.000000000000000E+000
  0.000000000000000E+000
  0.000000000000000E+000
  0.000000000000000E+000
  0.000000000000000E+000
  0.000000000000000E+000
  0.000000000000000E+000
  0.000000000000000E+000
  0.000000000000000E+000
  0.000000000000000E+000
  0.000000000000000E+000
  0.000000000000000E+000
  0.000000000000000E+000
  0.000000000000000E+000
  0.000000000000000E+000
  0.000000000000000E+000
  0.000000000000000E+000
  0.000000000000000E+000
  0.000000000000000E+000
  0.000000000000000E+000
  0.000000000000000E+000
  0.000000000000000E+000
  0.000000000000000E+000
  0.000000000000000E+000
  0.000000000000000E+000
  0.000000000000000E+000
  0.000000000000000E+000
  0.000000000000000E+000
  0.000000000000000E+000
  0.000000000000000E+000
  0.000000000000000E+000
  0.000000000000000E+000
  0.000000000000000E+000
  0.000000000000000E+000
  0.000000000000000E+000
  0.000000000000000E+000
  0.000000000000000E+000
  0.000000000000000E+000
  0.000000000000000E+000
  0.000000000000000E+000
  0.000000000000000E+000
  0.000000000000000E+000
  0.000000000000000E+000
  0.000000000000000E+000
  0.000000000000000E+000
  0.000000000000000E+000
  0.000000000000000E+000
  0.000000000000000E+000
  0.000000000000000E+000
  0.000000000000000E+000
  0.000000000000000E+000
  0.000000000000000E+000
  0.000000000000000E+000
  0.000000000000000E+000
  0.000000000000000E+000
  0.000000000000000E+000
  0.000000000000000E+000
  0.000000000000000E+000
  0.000000000000000E+000
  0.000000000000000E+000
  0.000000000000000E+000
  0.000000000000000E+000
  0.000000000000000E+000
  0.000000000000000E+000
  0.000000000000000E+000
  0.000000000000000E+000
  0.000000000000000E+000
  0.000000000000000E+000
  0.000000000000000E+000
  0.000000000000000E+000
  0.000000000000000E+000
  0.000000000000000E+000
  0.000000000000000E+000
  0.000000000000000E+000
  0.000000000000000E+000
  0.000000000000000E+000
  0.000000000000000E+000
  0.000000000000000E+000
  0.000000000000000E+000
  0.000000000000000E+000
  0.000000000000000E+000
  0.000000000000000E+000
  0.000000000000000E+000
  0.000000000000000E+000
  0.000000000000000E+000
  0.000000000000000E+000
  0.000000000000000E+000
  0.000000000000000E+000
  0.000000000000000E+000
  0.000000000000000E+000
  0.000000000000000E+000
  0.000000000000000E+000
  0.000000000000000E+000
  0.000000000000000E+000
  0.000000000000000E+000
  0.000000000000000E+000
  0.000000000000000E+000
  0.000000000000000E+000
  0.000000000000000E+000
  0.000000000000000E+000
  0.000000000000000E+000
  0.000000000000000E+000
  0.000000000000000E+000
  0.000000000000000E+000
  0.000000000000000E+000
  0.000000000000000E+000
  0.000000000000000E+000
  0.000000000000000E+000
  0.000000000000000E+000
  0.000000000000000E+000
  0.000000000000000E+000
  0.000000000000000E+000
  0.000000000000000E+000
  0.000000000000000E+000
  0.000000000000000E+000
  0.000000000000000E+000
  0.000000000000000E+000
  0.000000000000000E+000
  0.000000000000000E+000
  0.000000000000000E+000
  0.000000000000000E+000
  0.000000000000000E+000
  0.000000000000000E+000
  0.000000000000000E+000
  0.000000000000000E+000
  0.000000000000000E+000
  0.000000000000000E+000
  0.000000000000000E+000
  0.000000000000000E+000
  0.000000000000000E+000
  0.000000000000000E+000
  0.000000000000000E+000
  0.000000000000000E+000
  0.000000000000000E+000
  0.000000000000000E+000
  0.000000000000000E+000
  0.000000000000000E+000
  0.000000000000000E+000
  0.000000000000000E+000
  0.000000000000000E+000
  0.000000000000000E+000
  0.000000000000000E+000
  0.000000000000000E+000
  0.000000000000000E+000
  0.000000000000000E+000
  0.000000000000000E+000
  0.000000000000000E+000
  0.000000000000000E+000
  0.000000000000000E+000
  0.000000000000000E+000
  0.000000000000000E+000
  0.000000000000000E+000
  0.000000000000000E+000
  0.000000000000000E+000
  0.000000000000000E+000
  0.000000000000000E+000
  0.000000000000000E+000
  0.000000000000000E+000
  0.000000000000000E+000
  0.000000000000000E+000
  0.000000000000000E+000
  0.000000000000000E+000
  0.000000000000000E+000
  0.000000000000000E+000
  0.000000000000000E+000
  0.000000000000000E+000
  0.000000000000000E+000
  0.000000000000000E+000
  0.000000000000000E+000
  0.000000000000000E+000
  0.000000000000000E+000
  0.000000000000000E+000
  0.000000000000000E+000
  0.000000000000000E+000
  0.000000000000000E+000
  0.000000000000000E+000
  0.000000000000000E+000
  0.000000000000000E+000
  0.000000000000000E+000
  0.000000000000000E+000
  0.000000000000000E+000
  0.000000000000000E+000
  0.000000000000000E+000
  0.000000000000000E+000
  0.000000000000000E+000
  0.000000000000000E+000
  0.000000000000000E+000
  0.000000000000000E+000
  0.000000000000000E+000
  0.000000000000000E+000
  0.000000000000000E+000
  0.000000000000000E+000
  0.000000000000000E+000
  0.000000000000000E+000
  0.000000000000000E+000
  0.000000000000000E+000
  0.000000000000000E+000
  0.000000000000000E+000
  0.000000000000000E+000
  0.000000000000000E+000
  0.000000000000000E+000
  0.000000000000000E+000
  0.000000000000000E+000
  0.000000000000000E+000
  0.000000000000000E+000
  0.000000000000000E+000
  0.000000000000000E+000
  0.000000000000000E+000
  0.000000000000000E+000
  0.000000000000000E+000
  0.000000000000000E+000
  0.000000000000000E+000
  0.000000000000000E+000
  0.000000000000000E+000
  0.000000000000000E+000
  0.000000000000000E+000
  0.000000000000000E+000
  0.000000000000000E+000
  0.000000000000000E+000
  0.000000000000000E+000
  0.000000000000000E+000
  0.000000000000000E+000
  0.000000000000000E+000
  0.000000000000000E+000
  0.000000000000000E+000
  0.000000000000000E+000
  0.000000000000000E+000
  0.000000000000000E+000
  0.000000000000000E+000
  0.000000000000000E+000
  0.000000000000000E+000
  0.000000000000000E+000
  0.000000000000000E+000
  0.000000000000000E+000
  0.000000000000000E+000
  0.000000000000000E+000
  0.000000000000000E+000
  0.000000000000000E+000
  0.000000000000000E+000
  0.000000000000000E+000
  0.000000000000000E+000
  0.000000000000000E+000
  0.000000000000000E+000
  0.000000000000000E+000
  0.000000000000000E+000
  0.000000000000000E+000
  0.000000000000000E+000
  0.000000000000000E+000
  0.000000000000000E+000
  0.000000000000000E+000
  0.000000000000000E+000
  0.000000000000000E+000
  0.000000000000000E+000
  0.000000000000000E+000
  0.000000000000000E+000
  0.000000000000000E+000
  0.000000000000000E+000
  0.000000000000000E+000
  0.000000000000000E+000
  0.000000000000000E+000
  0.000000000000000E+000
  0.000000000000000E+000
  0.000000000000000E+000
  0.000000000000000E+000
  0.000000000000000E+000
  0.000000000000000E+000
  0.000000000000000E+000
  0.000000000000000E+000
  0.000000000000000E+000
  0.000000000000000E+000
  0.000000000000000E+000
  0.000000000000000E+000
  0.000000000000000E+000
  0.000000000000000E+000
  0.000000000000000E+000
  0.000000000000000E+000
  0.000000000000000E+000
  0.000000000000000E+000
  0.000000000000000E+000
  0.000000000000000E+000
  0.000000000000000E+000
  0.000000000000000E+000
  0.000000000000000E+000
  0.000000000000000E+000
  0.000000000000000E+000
  0.000000000000000E+000
  0.000000000000000E+000
  0.000000000000000E+000
  0.000000000000000E+000
  0.000000000000000E+000
  0.000000000000000E+000
  0.000000000000000E+000
  0.000000000000000E+000
  0.000000000000000E+000
  0.000000000000000E+000
  0.000000000000000E+000
  0.000000000000000E+000
  0.000000000000000E+000
  0.000000000000000E+000
  0.000000000000000E+000
  0.000000000000000E+000
  0.000000000000000E+000
  0.000000000000000E+000
  0.000000000000000E+000
  0.000000000000000E+000
  0.000000000000000E+000
  0.000000000000000E+000
  0.000000000000000E+000
  0.000000000000000E+000
  0.000000000000000E+000
  0.000000000000000E+000
  0.000000000000000E+000
  0.000000000000000E+000
  0.000000000000000E+000
  0.000000000000000E+000
  0.000000000000000E+000
  0.000000000000000E+000
  0.000000000000000E+000
  0.000000000000000E+000
  0.000000000000000E+000
  0.000000000000000E+000
  0.000000000000000E+000
  0.000000000000000E+000
  0.000000000000000E+000
  0.000000000000000E+000
  0.000000000000000E+000
  0.000000000000000E+000
  0.000000000000000E+000
  0.000000000000000E+000
  0.000000000000000E+000
  0.000000000000000E+000
  0.000000000000000E+000
  0.000000000000000E+000
  0.000000000000000E+000
  0.000000000000000E+000
  0.000000000000000E+000
  0.000000000000000E+000
  0.000000000000000E+000
  0.000000000000000E+000
  0.000000000000000E+000
  0.000000000000000E+000
  0.000000000000000E+000
  0.000000000000000E+000
  0.000000000000000E+000
  0.000000000000000E+000
  0.000000000000000E+000
  0.000000000000000E+000
  0.000000000000000E+000
  0.000000000000000E+000
  0.000000000000000E+000
  0.000000000000000E+000
  0.000000000000000E+000
  0.000000000000000E+000
  0.000000000000000E+000
  0.000000000000000E+000
  0.000000000000000E+000
  0.000000000000000E+000
  0.000000000000000E+000
  0.000000000000000E+000
  0.000000000000000E+000
  0.000000000000000E+000
  0.000000000000000E+000
  0.000000000000000E+000
  0.000000000000000E+000
  0.000000000000000E+000
  0.000000000000000E+000
  0.000000000000000E+000
  0.000000000000000E+000
  0.000000000000000E+000
  0.000000000000000E+000
  0.000000000000000E+000
  0.000000000000000E+000
  0.000000000000000E+000
  0.000000000000000E+000
  0.000000000000000E+000
  0.000000000000000E+000
  0.000000000000000E+000
  0.000000000000000E+000
  0.000000000000000E+000
  0.000000000000000E+000
  0.000000000000000E+000
  0.000000000000000E+000
  0.000000000000000E+000
  0.000000000000000E+000
  0.000000000000000E+000
  0.000000000000000E+000
  0.000000000000000E+000
  0.000000000000000E+000
  0.000000000000000E+000
  0.000000000000000E+000
  0.000000000000000E+000
  0.000000000000000E+000
  0.000000000000000E+000
  0.000000000000000E+000
  0.000000000000000E+000
  0.000000000000000E+000
  0.000000000000000E+000
  0.000000000000000E+000
  0.000000000000000E+000
  0.000000000000000E+000
  0.000000000000000E+000
  0.000000000000000E+000
  0.000000000000000E+000
  0.000000000000000E+000
  0.000000000000000E+000
  0.000000000000000E+000
  0.000000000000000E+000
  0.000000000000000E+000
  0.000000000000000E+000
  0.000000000000000E+000
  0.000000000000000E+000
  0.000000000000000E+000
  0.000000000000000E+000
  0.000000000000000E+000
  0.000000000000000E+000
  0.000000000000000E+000
  0.000000000000000E+000
  0.000000000000000E+000
  0.000000000000000E+000
  0.000000000000000E+000
  0.000000000000000E+000
  0.000000000000000E+000
  0.000000000000000E+000
  0.000000000000000E+000
  0.000000000000000E+000
  0.000000000000000E+000
  0.000000000000000E+000
  0.000000000000000E+000
  0.000000000000000E+000
  0.000000000000000E+000
  0.000000000000000E+000
  0.000000000000000E+000
  0.000000000000000E+000
  0.000000000000000E+000
  0.000000000000000E+000
  0.000000000000000E+000
  0.000000000000000E+000
  0.000000000000000E+000
  0.000000000000000E+000
  0.000000000000000E+000
  0.000000000000000E+000
  0.000000000000000E+000
  0.000000000000000E+000
  0.000000000000000E+000
  0.000000000000000E+000
  0.000000000000000E+000
  0.000000000000000E+000
  0.000000000000000E+000
  0.000000000000000E+000
  0.000000000000000E+000
  0.000000000000000E+000
  0.000000000000000E+000
  0.000000000000000E+000
  0.000000000000000E+000
  0.000000000000000E+000
  0.000000000000000E+000
  0.000000000000000E+000
  0.000000000000000E+000
  0.000000000000000E+000
  0.000000000000000E+000
  0.000000000000000E+000
  0.000000000000000E+000
  0.000000000000000E+000
  0.000000000000000E+000
  0.000000000000000E+000
  0.000000000000000E+000
  0.000000000000000E+000
  0.000000000000000E+000
  0.000000000000000E+000
  0.000000000000000E+000
  0.000000000000000E+000
  0.000000000000000E+000
  0.000000000000000E+000
  0.000000000000000E+000
  0.000000000000000E+000
  0.000000000000000E+000
  0.000000000000000E+000
  0.000000000000000E+000
  0.000000000000000E+000
  0.000000000000000E+000
  0.000000000000000E+000
  0.000000000000000E+000
  0.000000000000000E+000
  0.000000000000000E+000
  0.000000000000000E+000
  0.000000000000000E+000
  0.000000000000000E+000
  0.000000000000000E+000
  0.000000000000000E+000
  0.000000000000000E+000
  0.000000000000000E+000
  0.000000000000000E+000
  0.000000000000000E+000
  0.000000000000000E+000
  0.000000000000000E+000
  0.000000000000000E+000
  0.000000000000000E+000
  0.000000000000000E+000
  0.000000000000000E+000
  0.000000000000000E+000
  0.000000000000000E+000
  0.000000000000000E+000
  0.000000000000000E+000
  0.000000000000000E+000
  0.000000000000000E+000
  0.000000000000000E+000
  0.000000000000000E+000
  0.000000000000000E+000
  0.000000000000000E+000
  0.000000000000000E+000
  0.000000000000000E+000
  0.000000000000000E+000
  0.000000000000000E+000
  0.000000000000000E+000
  0.000000000000000E+000
  0.000000000000000E+000
  0.000000000000000E+000
  0.000000000000000E+000
  0.000000000000000E+000
  0.000000000000000E+000
  0.000000000000000E+000
  0.000000000000000E+000
  0.000000000000000E+000
  0.000000000000000E+000
  0.000000000000000E+000
  0.000000000000000E+000
  0.000000000000000E+000
  0.000000000000000E+000
  0.000000000000000E+000
  0.000000000000000E+000
  0.000000000000000E+000
  0.000000000000000E+000
  0.000000000000000E+000
  0.000000000000000E+000
  0.000000000000000E+000
  0.000000000000000E+000
  0.000000000000000E+000
  0.000000000000000E+000
  0.000000000000000E+000
  0.000000000000000E+000
  0.000000000000000E+000
  0.000000000000000E+000
  0.000000000000000E+000
  0.000000000000000E+000
  0.000000000000000E+000
  0.000000000000000E+000
  0.000000000000000E+000
  0.000000000000000E+000
  0.000000000000000E+000
  0.000000000000000E+000
  0.000000000000000E+000
  0.000000000000000E+000
  0.000000000000000E+000
  0.000000000000000E+000
  0.000000000000000E+000
  0.000000000000000E+000
  0.000000000000000E+000
  0.000000000000000E+000
  0.000000000000000E+000
  0.000000000000000E+000
  0.000000000000000E+000
  0.000000000000000E+000
  0.000000000000000E+000
  0.000000000000000E+000
  0.000000000000000E+000
  0.000000000000000E+000
  0.000000000000000E+000
  0.000000000000000E+000
  0.000000000000000E+000
  0.000000000000000E+000
  0.000000000000000E+000
  0.000000000000000E+000
  0.000000000000000E+000
  0.000000000000000E+000
  0.000000000000000E+000
  0.000000000000000E+000
  0.000000000000000E+000
  0.000000000000000E+000
  0.000000000000000E+000
  0.000000000000000E+000
  0.000000000000000E+000
  0.000000000000000E+000
  0.000000000000000E+000
  0.000000000000000E+000
  0.000000000000000E+000
  0.000000000000000E+000
  0.000000000000000E+000
  0.000000000000000E+000
  0.000000000000000E+000
  0.000000000000000E+000
  0.000000000000000E+000
  0.000000000000000E+000
  0.000000000000000E+000
  0.000000000000000E+000
  0.000000000000000E+000
  0.000000000000000E+000
  0.000000000000000E+000
  0.000000000000000E+000
  0.000000000000000E+000
  0.000000000000000E+000
  0.000000000000000E+000
  0.000000000000000E+000
  0.000000000000000E+000
  0.000000000000000E+000
  0.000000000000000E+000
  0.000000000000000E+000
  0.000000000000000E+000
  0.000000000000000E+000
  0.000000000000000E+000
  0.000000000000000E+000
  0.000000000000000E+000
  0.000000000000000E+000
  0.000000000000000E+000
  0.000000000000000E+000
  0.000000000000000E+000
  0.000000000000000E+000
  0.000000000000000E+000
  0.000000000000000E+000
  0.000000000000000E+000
  0.000000000000000E+000
  0.000000000000000E+000
  0.000000000000000E+000
  0.000000000000000E+000
  0.000000000000000E+000
  0.000000000000000E+000
  0.000000000000000E+000
  0.000000000000000E+000
  0.000000000000000E+000
  0.000000000000000E+000
  0.000000000000000E+000
  0.000000000000000E+000
  0.000000000000000E+000
  0.000000000000000E+000
  0.000000000000000E+000
  0.000000000000000E+000
  0.000000000000000E+000
  0.000000000000000E+000
  0.000000000000000E+000
  0.000000000000000E+000
  0.000000000000000E+000
  0.000000000000000E+000
  0.000000000000000E+000
  0.000000000000000E+000
  0.000000000000000E+000
  0.000000000000000E+000
  0.000000000000000E+000
  0.000000000000000E+000
  0.000000000000000E+000
  0.000000000000000E+000
  0.000000000000000E+000
  0.000000000000000E+000
  0.000000000000000E+000
  0.000000000000000E+000
  0.000000000000000E+000
  0.000000000000000E+000
  0.000000000000000E+000
  0.000000000000000E+000
  0.000000000000000E+000
  0.000000000000000E+000
  0.000000000000000E+000
  0.000000000000000E+000
  0.000000000000000E+000
  0.000000000000000E+000
  0.000000000000000E+000
  0.000000000000000E+000
  0.000000000000000E+000
  0.000000000000000E+000
  0.000000000000000E+000
  0.000000000000000E+000
  0.000000000000000E+000
  0.000000000000000E+000
  0.000000000000000E+000
  0.000000000000000E+000
  0.000000000000000E+000
  0.000000000000000E+000
  0.000000000000000E+000
  0.000000000000000E+000
  0.000000000000000E+000
  0.000000000000000E+000
  0.000000000000000E+000
  0.000000000000000E+000
  0.000000000000000E+000
  0.000000000000000E+000
  0.000000000000000E+000
  0.000000000000000E+000
  0.000000000000000E+000
  0.000000000000000E+000
  0.000000000000000E+000
  0.000000000000000E+000
  0.000000000000000E+000
  0.000000000000000E+000
  0.000000000000000E+000
  0.000000000000000E+000
  0.000000000000000E+000
  0.000000000000000E+000
  0.000000000000000E+000
  0.000000000000000E+000
  0.000000000000000E+000
  0.000000000000000E+000
  0.000000000000000E+000
  0.000000000000000E+000
  0.000000000000000E+000
  0.000000000000000E+000
  0.000000000000000E+000
  0.000000000000000E+000
  0.000000000000000E+000
  0.000000000000000E+000
  0.000000000000000E+000
  0.000000000000000E+000
  0.000000000000000E+000
  0.000000000000000E+000
  0.000000000000000E+000
  0.000000000000000E+000
  0.000000000000000E+000
  0.000000000000000E+000
  0.000000000000000E+000
  0.000000000000000E+000
  0.000000000000000E+000
  0.000000000000000E+000
  0.000000000000000E+000
  0.000000000000000E+000
  0.000000000000000E+000
  0.000000000000000E+000
  0.000000000000000E+000
  0.000000000000000E+000
  0.000000000000000E+000
  0.000000000000000E+000
  0.000000000000000E+000
  0.000000000000000E+000
  0.000000000000000E+000
  0.000000000000000E+000
  0.000000000000000E+000
  0.000000000000000E+000
  0.000000000000000E+000
  0.000000000000000E+000
  0.000000000000000E+000
  0.000000000000000E+000
  0.000000000000000E+000
  0.000000000000000E+000
  0.000000000000000E+000
  0.000000000000000E+000
  0.000000000000000E+000
  0.000000000000000E+000
  0.000000000000000E+000
  0.000000000000000E+000
  0.000000000000000E+000
  0.000000000000000E+000
  0.000000000000000E+000
  0.000000000000000E+000
  0.000000000000000E+000
  0.000000000000000E+000
  0.000000000000000E+000
  0.000000000000000E+000
  0.000000000000000E+000
  0.000000000000000E+000
  0.000000000000000E+000
  0.000000000000000E+000
  0.000000000000000E+000
  0.000000000000000E+000
  0.000000000000000E+000
  0.000000000000000E+000
  0.000000000000000E+000
  0.000000000000000E+000
  0.000000000000000E+000
  0.000000000000000E+000
  0.000000000000000E+000
  0.000000000000000E+000
  0.000000000000000E+000
  0.000000000000000E+000
  0.000000000000000E+000
  0.000000000000000E+000
  0.000000000000000E+000
  0.000000000000000E+000
  0.000000000000000E+000
  0.000000000000000E+000
  0.000000000000000E+000
  0.000000000000000E+000
  0.000000000000000E+000
  0.000000000000000E+000
  0.000000000000000E+000
  0.000000000000000E+000
  0.000000000000000E+000
  0.000000000000000E+000
  0.000000000000000E+000
  0.000000000000000E+000
  0.000000000000000E+000
  0.000000000000000E+000
  0.000000000000000E+000
  0.000000000000000E+000
  0.000000000000000E+000
  0.000000000000000E+000
  0.000000000000000E+000
  0.000000000000000E+000
  0.000000000000000E+000
  0.000000000000000E+000
  0.000000000000000E+000
  0.000000000000000E+000
  0.000000000000000E+000
  0.000000000000000E+000
  0.000000000000000E+000
  0.000000000000000E+000
  0.000000000000000E+000
  0.000000000000000E+000
  0.000000000000000E+000
  0.000000000000000E+000
  0.000000000000000E+000
  0.000000000000000E+000
  0.000000000000000E+000
  0.000000000000000E+000
  0.000000000000000E+000
  0.000000000000000E+000
  0.000000000000000E+000
  0.000000000000000E+000
  0.000000000000000E+000
  0.000000000000000E+000
  0.000000000000000E+000
  0.000000000000000E+000
  0.000000000000000E+000
  0.000000000000000E+000
  0.000000000000000E+000
  0.000000000000000E+000
  0.000000000000000E+000
  0.000000000000000E+000
  0.000000000000000E+000
  0.000000000000000E+000
  0.000000000000000E+000
  0.000000000000000E+000
  0.000000000000000E+000
  0.000000000000000E+000
  0.000000000000000E+000
  0.000000000000000E+000
  0.000000000000000E+000
  0.000000000000000E+000
  0.000000000000000E+000
  0.000000000000000E+000
  0.000000000000000E+000
  0.000000000000000E+000
  0.000000000000000E+000
  0.000000000000000E+000
  0.000000000000000E+000
  0.000000000000000E+000
  0.000000000000000E+000
  0.000000000000000E+000
  0.000000000000000E+000
  0.000000000000000E+000
  0.000000000000000E+000
  0.000000000000000E+000
  0.000000000000000E+000
  0.000000000000000E+000
  0.000000000000000E+000
  0.000000000000000E+000
  0.000000000000000E+000
  0.000000000000000E+000
  0.000000000000000E+000
  0.000000000000000E+000
  0.000000000000000E+000
  0.000000000000000E+000
  0.000000000000000E+000
  0.000000000000000E+000
  0.000000000000000E+000
  0.000000000000000E+000
  0.000000000000000E+000
  0.000000000000000E+000
  0.000000000000000E+000
  0.000000000000000E+000
  0.000000000000000E+000
  0.000000000000000E+000
  0.000000000000000E+000
  0.000000000000000E+000
  0.000000000000000E+000
  0.000000000000000E+000
  0.000000000000000E+000
  0.000000000000000E+000
  0.000000000000000E+000
  0.000000000000000E+000
  0.000000000000000E+000
  0.000000000000000E+000
  0.000000000000000E+000
  0.000000000000000E+000
  0.000000000000000E+000
  0.000000000000000E+000
  0.000000000000000E+000
  0.000000000000000E+000
  0.000000000000000E+000
  0.000000000000000E+000
  0.000000000000000E+000
  0.000000000000000E+000
  0.000000000000000E+000
  0.000000000000000E+000
  0.000000000000000E+000
  0.000000000000000E+000
  0.000000000000000E+000
  0.000000000000000E+000
  0.000000000000000E+000
  0.000000000000000E+000
  0.000000000000000E+000
  0.000000000000000E+000
  0.000000000000000E+000
  0.000000000000000E+000
  0.000000000000000E+000
  0.000000000000000E+000
  0.000000000000000E+000
  0.000000000000000E+000
  0.000000000000000E+000
  0.000000000000000E+000
  0.000000000000000E+000
  0.000000000000000E+000
  0.000000000000000E+000
  0.000000000000000E+000
  0.000000000000000E+000
  0.000000000000000E+000
  0.000000000000000E+000
  0.000000000000000E+000
  0.000000000000000E+000
  0.000000000000000E+000
  0.000000000000000E+000
  0.000000000000000E+000
  0.000000000000000E+000
  0.000000000000000E+000
  0.000000000000000E+000
  0.000000000000000E+000
  0.000000000000000E+000
  0.000000000000000E+000
  0.000000000000000E+000
  0.000000000000000E+000
  0.000000000000000E+000
  0.000000000000000E+000
  0.000000000000000E+000
  0.000000000000000E+000
  0.000000000000000E+000
  0.000000000000000E+000
  0.000000000000000E+000
  0.000000000000000E+000
  0.000000000000000E+000
  0.000000000000000E+000
  0.000000000000000E+000
  0.000000000000000E+000
  0.000000000000000E+000
  0.000000000000000E+000
  0.000000000000000E+000
  0.000000000000000E+000
  0.000000000000000E+000
  0.000000000000000E+000
  0.000000000000000E+000
  0.000000000000000E+000
  0.000000000000000E+000
  0.000000000000000E+000
  0.000000000000000E+000
  0.000000000000000E+000
  0.000000000000000E+000
  0.000000000000000E+000
  0.000000000000000E+000
  0.000000000000000E+000
  0.000000000000000E+000
  0.000000000000000E+000
  0.000000000000000E+000
  0.000000000000000E+000
  0.000000000000000E+000
  0.000000000000000E+000
  0.000000000000000E+000
  0.000000000000000E+000
  0.000000000000000E+000
  0.000000000000000E+000
  0.000000000000000E+000
  0.000000000000000E+000
  0.000000000000000E+000
  0.000000000000000E+000
  0.000000000000000E+000
  0.000000000000000E+000
  0.000000000000000E+000
  0.000000000000000E+000
  0.000000000000000E+000
  0.000000000000000E+000
  0.000000000000000E+000
  0.000000000000000E+000
  0.000000000000000E+000
  0.000000000000000E+000
  0.000000000000000E+000
  0.000000000000000E+000
  0.000000000000000E+000
  0.000000000000000E+000
  0.000000000000000E+000
  0.000000000000000E+000
  0.000000000000000E+000
  0.000000000000000E+000
  0.000000000000000E+000
  0.000000000000000E+000
  0.000000000000000E+000
  0.000000000000000E+000
  0.000000000000000E+000
  0.000000000000000E+000
  0.000000000000000E+000
  0.000000000000000E+000
  0.000000000000000E+000
  0.000000000000000E+000
  0.000000000000000E+000
  0.000000000000000E+000
  0.000000000000000E+000
  0.000000000000000E+000
  0.000000000000000E+000
  0.000000000000000E+000
  0.000000000000000E+000
  0.000000000000000E+000
  0.000000000000000E+000
  0.000000000000000E+000
  0.000000000000000E+000
  0.000000000000000E+000
  0.000000000000000E+000
  0.000000000000000E+000
  0.000000000000000E+000
  0.000000000000000E+000
  0.000000000000000E+000
  0.000000000000000E+000
  0.000000000000000E+000
  0.000000000000000E+000
  0.000000000000000E+000
  0.000000000000000E+000
  0.000000000000000E+000
  0.000000000000000E+000
  0.000000000000000E+000
  0.000000000000000E+000
  0.000000000000000E+000
  0.000000000000000E+000
  0.000000000000000E+000
  0.000000000000000E+000
  0.000000000000000E+000
  0.000000000000000E+000
  0.000000000000000E+000
  0.000000000000000E+000
  0.000000000000000E+000
  0.000000000000000E+000
  0.000000000000000E+000
  0.000000000000000E+000
  0.000000000000000E+000
  0.000000000000000E+000
  0.000000000000000E+000
  0.000000000000000E+000
  0.000000000000000E+000
  0.000000000000000E+000
  0.000000000000000E+000
  0.000000000000000E+000
  0.000000000000000E+000
  0.000000000000000E+000
  0.000000000000000E+000
  0.000000000000000E+000
  0.000000000000000E+000
  0.000000000000000E+000
  0.000000000000000E+000
  0.000000000000000E+000
  0.000000000000000E+000
  0.000000000000000E+000
  0.000000000000000E+000
  0.000000000000000E+000
  0.000000000000000E+000
  0.000000000000000E+000
  0.000000000000000E+000
  0.000000000000000E+000
  0.000000000000000E+000
  0.000000000000000E+000
  0.000000000000000E+000
  0.000000000000000E+000
  0.000000000000000E+000
  0.000000000000000E+000
  0.000000000000000E+000
  0.000000000000000E+000
  0.000000000000000E+000
  0.000000000000000E+000
  0.000000000000000E+000
  0.000000000000000E+000
  0.000000000000000E+000
  0.000000000000000E+000
  0.000000000000000E+000
  0.000000000000000E+000
  0.000000000000000E+000
  0.000000000000000E+000
  0.000000000000000E+000
  0.000000000000000E+000
  0.000000000000000E+000
  0.000000000000000E+000
  0.000000000000000E+000
  0.000000000000000E+000
  0.000000000000000E+000
  0.000000000000000E+000
  0.000000000000000E+000
  0.000000000000000E+000
  0.000000000000000E+000
  0.000000000000000E+000
  0.000000000000000E+000
  0.000000000000000E+000
  0.000000000000000E+000
  0.000000000000000E+000
  0.000000000000000E+000
  0.000000000000000E+000
  0.000000000000000E+000
  0.000000000000000E+000
  0.000000000000000E+000
  0.000000000000000E+000
  0.000000000000000E+000
  0.000000000000000E+000
  0.000000000000000E+000
  0.000000000000000E+000
  0.000000000000000E+000
  0.000000000000000E+000
  0.000000000000000E+000
  0.000000000000000E+000
  0.000000000000000E+000
  0.000000000000000E+000
  0.000000000000000E+000
  0.000000000000000E+000
  0.000000000000000E+000
  0.000000000000000E+000
  0.000000000000000E+000
  0.000000000000000E+000
  0.000000000000000E+000
  0.000000000000000E+000
  0.000000000000000E+000
  0.000000000000000E+000
  0.000000000000000E+000
  0.000000000000000E+000
  0.000000000000000E+000
  0.000000000000000E+000
  0.000000000000000E+000
  0.000000000000000E+000
  0.000000000000000E+000
  0.000000000000000E+000
  0.000000000000000E+000
  0.000000000000000E+000
  0.000000000000000E+000
  0.000000000000000E+000
  0.000000000000000E+000
  0.000000000000000E+000
  0.000000000000000E+000
  0.000000000000000E+000
  0.000000000000000E+000
  0.000000000000000E+000
  0.000000000000000E+000
  0.000000000000000E+000
  0.000000000000000E+000
  0.000000000000000E+000
  0.000000000000000E+000
  0.000000000000000E+000
  0.000000000000000E+000
  0.000000000000000E+000
  0.000000000000000E+000
  0.000000000000000E+000
  0.000000000000000E+000
  0.000000000000000E+000
  0.000000000000000E+000
  0.000000000000000E+000
  0.000000000000000E+000
  0.000000000000000E+000
  0.000000000000000E+000
  0.000000000000000E+000
  0.000000000000000E+000
  0.000000000000000E+000
  0.000000000000000E+000
  0.000000000000000E+000
  0.000000000000000E+000
  0.000000000000000E+000
  0.000000000000000E+000
  0.000000000000000E+000
  0.000000000000000E+000
  0.000000000000000E+000
  0.000000000000000E+000
  0.000000000000000E+000
  0.000000000000000E+000
  0.000000000000000E+000
  0.000000000000000E+000
  0.000000000000000E+000
  0.000000000000000E+000
  0.000000000000000E+000
  0.000000000000000E+000
  0.000000000000000E+000
  0.000000000000000E+000
  0.000000000000000E+000
  0.000000000000000E+000
  0.000000000000000E+000
  0.000000000000000E+000
  0.000000000000000E+000
  0.000000000000000E+000
  0.000000000000000E+000
  0.000000000000000E+000
  0.000000000000000E+000
  0.000000000000000E+000
  0.000000000000000E+000
  0.000000000000000E+000
  0.000000000000000E+000
  0.000000000000000E+000
  0.000000000000000E+000
  0.000000000000000E+000
  0.000000000000000E+000
  0.000000000000000E+000
  0.000000000000000E+000
  0.000000000000000E+000
  0.000000000000000E+000
  0.000000000000000E+000
  0.000000000000000E+000
  0.000000000000000E+000
  0.000000000000000E+000
  0.000000000000000E+000
  0.000000000000000E+000
  0.000000000000000E+000
  0.000000000000000E+000
  0.000000000000000E+000
  0.000000000000000E+000
  0.000000000000000E+000
  0.000000000000000E+000
  0.000000000000000E+000
  0.000000000000000E+000
  0.000000000000000E+000
  0.000000000000000E+000
  0.000000000000000E+000
  0.000000000000000E+000
  0.000000000000000E+000
  0.000000000000000E+000
  0.000000000000000E+000
  0.000000000000000E+000
  0.000000000000000E+000
  0.000000000000000E+000
  0.000000000000000E+000
  0.000000000000000E+000
  0.000000000000000E+000
  0.000000000000000E+000
  0.000000000000000E+000
  0.000000000000000E+000
  0.000000000000000E+000
  0.000000000000000E+000
  0.000000000000000E+000
  0.000000000000000E+000
  0.000000000000000E+000
  0.000000000000000E+000
  0.000000000000000E+000
  0.000000000000000E+000
  0.000000000000000E+000
  0.000000000000000E+000
  0.000000000000000E+000
  0.000000000000000E+000
  0.000000000000000E+000
  0.000000000000000E+000
  0.000000000000000E+000
  0.000000000000000E+000
  0.000000000000000E+000
  0.000000000000000E+000
  0.000000000000000E+000
  0.000000000000000E+000
  0.000000000000000E+000
  0.000000000000000E+000
  0.000000000000000E+000
  0.000000000000000E+000
  0.000000000000000E+000
  0.000000000000000E+000
  0.000000000000000E+000
  0.000000000000000E+000
  0.000000000000000E+000
  0.000000000000000E+000
  0.000000000000000E+000
  0.000000000000000E+000
  0.000000000000000E+000
  0.000000000000000E+000
  0.000000000000000E+000
  0.000000000000000E+000
  0.000000000000000E+000
  0.000000000000000E+000
  0.000000000000000E+000
  0.000000000000000E+000
  0.000000000000000E+000
  0.000000000000000E+000
  0.000000000000000E+000
  0.000000000000000E+000
  0.000000000000000E+000
  0.000000000000000E+000
  0.000000000000000E+000
  0.000000000000000E+000
  0.000000000000000E+000
  0.000000000000000E+000
  0.000000000000000E+000
  0.000000000000000E+000
  0.000000000000000E+000
  0.000000000000000E+000
  0.000000000000000E+000
  0.000000000000000E+000
  0.000000000000000E+000
  0.000000000000000E+000
  0.000000000000000E+000
  0.000000000000000E+000
  0.000000000000000E+000
  0.000000000000000E+000
  0.000000000000000E+000
  0.000000000000000E+000
  0.000000000000000E+000
  0.000000000000000E+000
  0.000000000000000E+000
  0.000000000000000E+000
  0.000000000000000E+000
  0.000000000000000E+000
  0.000000000000000E+000
  0.000000000000000E+000
  0.000000000000000E+000
  0.000000000000000E+000
  0.000000000000000E+000
  0.000000000000000E+000
  0.000000000000000E+000
  0.000000000000000E+000
  0.000000000000000E+000
  0.000000000000000E+000
  0.000000000000000E+000
  0.000000000000000E+000
  0.000000000000000E+000
  0.000000000000000E+000
  0.000000000000000E+000
  0.000000000000000E+000
  0.000000000000000E+000
  0.000000000000000E+000
  0.000000000000000E+000
  0.000000000000000E+000
  0.000000000000000E+000
  0.000000000000000E+000
  0.000000000000000E+000
  0.000000000000000E+000
  0.000000000000000E+000
  0.000000000000000E+000
  0.000000000000000E+000
  0.000000000000000E+000
  0.000000000000000E+000
  0.000000000000000E+000
  0.000000000000000E+000
  0.000000000000000E+000
  0.000000000000000E+000
  0.000000000000000E+000
  0.000000000000000E+000
  0.000000000000000E+000
  0.000000000000000E+000
  0.000000000000000E+000
  0.000000000000000E+000
  0.000000000000000E+000
  0.000000000000000E+000
  0.000000000000000E+000
  0.000000000000000E+000
  0.000000000000000E+000
  0.000000000000000E+000
  0.000000000000000E+000
  0.000000000000000E+000
  0.000000000000000E+000
  0.000000000000000E+000
  0.000000000000000E+000
  0.000000000000000E+000
  0.000000000000000E+000
  0.000000000000000E+000
  0.000000000000000E+000
  0.000000000000000E+000
  0.000000000000000E+000
  0.000000000000000E+000
  0.000000000000000E+000
  0.000000000000000E+000
  0.000000000000000E+000
  0.000000000000000E+000
  0.000000000000000E+000
  0.000000000000000E+000
  0.000000000000000E+000
  0.000000000000000E+000
  0.000000000000000E+000
  0.000000000000000E+000
  0.000000000000000E+000
  0.000000000000000E+000
  0.000000000000000E+000
  0.000000000000000E+000
  0.000000000000000E+000
  0.000000000000000E+000
  0.000000000000000E+000
  0.000000000000000E+000
  0.000000000000000E+000
  0.000000000000000E+000
  0.000000000000000E+000
  0.000000000000000E+000
  0.000000000000000E+000
  0.000000000000000E+000
  0.000000000000000E+000
  0.000000000000000E+000
  0.000000000000000E+000
  0.000000000000000E+000
  0.000000000000000E+000
  0.000000000000000E+000
  0.000000000000000E+000
  0.000000000000000E+000
  0.000000000000000E+000
  0.000000000000000E+000
  0.000000000000000E+000
  0.000000000000000E+000
  0.000000000000000E+000
  0.000000000000000E+000
  0.000000000000000E+000
  0.000000000000000E+000
  0.000000000000000E+000
  0.000000000000000E+000
  0.000000000000000E+000
  0.000000000000000E+000
  0.000000000000000E+000
  0.000000000000000E+000
  0.000000000000000E+000
  0.000000000000000E+000
  0.000000000000000E+000
  0.000000000000000E+000
  0.000000000000000E+000
  0.000000000000000E+000
  0.000000000000000E+000
  0.000000000000000E+000
  0.000000000000000E+000
  0.000000000000000E+000
  0.000000000000000E+000
  0.000000000000000E+000
  0.000000000000000E+000
  0.000000000000000E+000
  0.000000000000000E+000
  0.000000000000000E+000
  0.000000000000000E+000
  0.000000000000000E+000
  0.000000000000000E+000
  0.000000000000000E+000
  0.000000000000000E+000
  0.000000000000000E+000
  0.000000000000000E+000
  0.000000000000000E+000
  0.000000000000000E+000
  0.000000000000000E+000
  0.000000000000000E+000
  0.000000000000000E+000
  0.000000000000000E+000
  0.000000000000000E+000
  0.000000000000000E+000
  0.000000000000000E+000
  0.000000000000000E+000
  0.000000000000000E+000
  0.000000000000000E+000
  0.000000000000000E+000
  0.000000000000000E+000
  0.000000000000000E+000
  0.000000000000000E+000
  0.000000000000000E+000
  0.000000000000000E+000
  0.000000000000000E+000
  0.000000000000000E+000
  0.000000000000000E+000
  0.000000000000000E+000
  0.000000000000000E+000
  0.000000000000000E+000
  0.000000000000000E+000
  0.000000000000000E+000
  0.000000000000000E+000
  0.000000000000000E+000
  0.000000000000000E+000
  0.000000000000000E+000
  0.000000000000000E+000
  0.000000000000000E+000
  0.000000000000000E+000
  0.000000000000000E+000
  0.000000000000000E+000
  0.000000000000000E+000
  0.000000000000000E+000
  0.000000000000000E+000
  0.000000000000000E+000
  0.000000000000000E+000
  0.000000000000000E+000
  0.000000000000000E+000
  0.000000000000000E+000
  0.000000000000000E+000
  0.000000000000000E+000
  0.000000000000000E+000
  0.000000000000000E+000
  0.000000000000000E+000
  0.000000000000000E+000
  0.000000000000000E+000
  0.000000000000000E+000
  0.000000000000000E+000
  0.000000000000000E+000
  0.000000000000000E+000
  0.000000000000000E+000
  0.000000000000000E+000
  0.000000000000000E+000
  0.000000000000000E+000
  0.000000000000000E+000
  0.000000000000000E+000
  0.000000000000000E+000
  0.000000000000000E+000
  0.000000000000000E+000
  0.000000000000000E+000
  0.000000000000000E+000
  0.000000000000000E+000
  0.000000000000000E+000
  0.000000000000000E+000
  0.000000000000000E+000
  0.000000000000000E+000
  0.000000000000000E+000
  0.000000000000000E+000
  0.000000000000000E+000
  0.000000000000000E+000
  0.000000000000000E+000
  0.000000000000000E+000
  0.000000000000000E+000
  0.000000000000000E+000
  0.000000000000000E+000
  0.000000000000000E+000
  0.000000000000000E+000
  0.000000000000000E+000
  0.000000000000000E+000
  0.000000000000000E+000
  0.000000000000000E+000
  0.000000000000000E+000
  0.000000000000000E+000
  0.000000000000000E+000
  0.000000000000000E+000
  0.000000000000000E+000
  0.000000000000000E+000
  0.000000000000000E+000
  0.000000000000000E+000
  0.000000000000000E+000
  0.000000000000000E+000
  0.000000000000000E+000
  0.000000000000000E+000
  0.000000000000000E+000
  0.000000000000000E+000
  0.000000000000000E+000
  0.000000000000000E+000
  0.000000000000000E+000
  0.000000000000000E+000
  0.000000000000000E+000
  0.000000000000000E+000
  0.000000000000000E+000
  0.000000000000000E+000
  0.000000000000000E+000
  0.000000000000000E+000
  0.000000000000000E+000
  0.000000000000000E+000
  0.000000000000000E+000
  0.000000000000000E+000
  0.000000000000000E+000
  0.000000000000000E+000
  0.000000000000000E+000
  0.000000000000000E+000
  0.000000000000000E+000
  0.000000000000000E+000
  0.000000000000000E+000
  0.000000000000000E+000
  0.000000000000000E+000
  0.000000000000000E+000
  0.000000000000000E+000
  0.000000000000000E+000
  0.000000000000000E+000
  0.000000000000000E+000
  0.000000000000000E+000
  0.000000000000000E+000
  0.000000000000000E+000
  0.000000000000000E+000
  0.000000000000000E+000
  0.000000000000000E+000
  0.000000000000000E+000
  0.000000000000000E+000
  0.000000000000000E+000
  0.000000000000000E+000
  0.000000000000000E+000
  0.000000000000000E+000
  0.000000000000000E+000
  0.000000000000000E+000
  0.000000000000000E+000
  0.000000000000000E+000
  0.000000000000000E+000
  0.000000000000000E+000
  0.000000000000000E+000
  0.000000000000000E+000
  0.000000000000000E+000
  0.000000000000000E+000
  0.000000000000000E+000
  0.000000000000000E+000
  0.000000000000000E+000
  0.000000000000000E+000
  0.000000000000000E+000
  0.000000000000000E+000
  0.000000000000000E+000
  0.000000000000000E+000
  0.000000000000000E+000
  0.000000000000000E+000
  0.000000000000000E+000
  0.000000000000000E+000
  0.000000000000000E+000
  0.000000000000000E+000
  0.000000000000000E+000
  0.000000000000000E+000
  0.000000000000000E+000
  0.000000000000000E+000
  0.000000000000000E+000
  0.000000000000000E+000
  0.000000000000000E+000
  0.000000000000000E+000
  0.000000000000000E+000
  0.000000000000000E+000
  0.000000000000000E+000
  0.000000000000000E+000
  0.000000000000000E+000
  0.000000000000000E+000
  0.000000000000000E+000
  0.000000000000000E+000
  0.000000000000000E+000
  0.000000000000000E+000
  0.000000000000000E+000
  0.000000000000000E+000
  0.000000000000000E+000
  0.000000000000000E+000
  0.000000000000000E+000
  0.000000000000000E+000
  0.000000000000000E+000
  0.000000000000000E+000
  0.000000000000000E+000
  0.000000000000000E+000
  0.000000000000000E+000
  0.000000000000000E+000
  0.000000000000000E+000
  0.000000000000000E+000
  0.000000000000000E+000
  0.000000000000000E+000
  0.000000000000000E+000
  0.000000000000000E+000
  0.000000000000000E+000
  0.000000000000000E+000
  0.000000000000000E+000
  0.000000000000000E+000
  0.000000000000000E+000
  0.000000000000000E+000
  0.000000000000000E+000
  0.000000000000000E+000
  0.000000000000000E+000
  0.000000000000000E+000
  0.000000000000000E+000
  0.000000000000000E+000
  0.000000000000000E+000
  0.000000000000000E+000
  0.000000000000000E+000
  0.000000000000000E+000
  0.000000000000000E+000
  0.000000000000000E+000
  0.000000000000000E+000
  0.000000000000000E+000
  0.000000000000000E+000
  0.000000000000000E+000
  0.000000000000000E+000
  0.000000000000000E+000
  0.000000000000000E+000
  0.000000000000000E+000
  0.000000000000000E+000
  0.000000000000000E+000
  0.000000000000000E+000
  0.000000000000000E+000
  0.000000000000000E+000
  0.000000000000000E+000
  0.000000000000000E+000
  0.000000000000000E+000
  0.000000000000000E+000
  0.000000000000000E+000
  0.000000000000000E+000
  0.000000000000000E+000
  0.000000000000000E+000
  0.000000000000000E+000
  0.000000000000000E+000
  0.000000000000000E+000
  0.000000000000000E+000
  0.000000000000000E+000
  0.000000000000000E+000
  0.000000000000000E+000
  0.000000000000000E+000
  0.000000000000000E+000
  0.000000000000000E+000
  0.000000000000000E+000
  0.000000000000000E+000
  0.000000000000000E+000
  0.000000000000000E+000
  0.000000000000000E+000
  0.000000000000000E+000
  0.000000000000000E+000
  0.000000000000000E+000
  0.000000000000000E+000
  0.000000000000000E+000
  0.000000000000000E+000
  0.000000000000000E+000
  0.000000000000000E+000
  0.000000000000000E+000
  0.000000000000000E+000
  0.000000000000000E+000
  0.000000000000000E+000
  0.000000000000000E+000
  0.000000000000000E+000
  0.000000000000000E+000
  0.000000000000000E+000
  0.000000000000000E+000
  0.000000000000000E+000
  0.000000000000000E+000
  0.000000000000000E+000
  0.000000000000000E+000
  0.000000000000000E+000
  0.000000000000000E+000
  0.000000000000000E+000
  0.000000000000000E+000
  0.000000000000000E+000
  0.000000000000000E+000
  0.000000000000000E+000
  0.000000000000000E+000
  0.000000000000000E+000
  0.000000000000000E+000
  0.000000000000000E+000
  0.000000000000000E+000
  0.000000000000000E+000
  0.000000000000000E+000
  0.000000000000000E+000
  0.000000000000000E+000
  0.000000000000000E+000
  0.000000000000000E+000
  0.000000000000000E+000
  0.000000000000000E+000
  0.000000000000000E+000
  0.000000000000000E+000
  0.000000000000000E+000
  0.000000000000000E+000
  0.000000000000000E+000
  0.000000000000000E+000
  0.000000000000000E+000
  0.000000000000000E+000
  0.000000000000000E+000
  0.000000000000000E+000
  0.000000000000000E+000
  0.000000000000000E+000
  0.000000000000000E+000
  0.000000000000000E+000
  0.000000000000000E+000
  0.000000000000000E+000
  0.000000000000000E+000
  0.000000000000000E+000
  0.000000000000000E+000
  0.000000000000000E+000
  0.000000000000000E+000
  0.000000000000000E+000
  0.000000000000000E+000
  0.000000000000000E+000
  0.000000000000000E+000
  0.000000000000000E+000
  0.000000000000000E+000
  0.000000000000000E+000
  0.000000000000000E+000
  0.000000000000000E+000
  0.000000000000000E+000
  0.000000000000000E+000
  0.000000000000000E+000
  0.000000000000000E+000
  0.000000000000000E+000
  0.000000000000000E+000
  0.000000000000000E+000
  0.000000000000000E+000
  0.000000000000000E+000
  0.000000000000000E+000
  0.000000000000000E+000
  0.000000000000000E+000
  0.000000000000000E+000
  0.000000000000000E+000
  0.000000000000000E+000
  0.000000000000000E+000
  0.000000000000000E+000
  0.000000000000000E+000
  0.000000000000000E+000
  0.000000000000000E+000
  0.000000000000000E+000
  0.000000000000000E+000
  0.000000000000000E+000
  0.000000000000000E+000
  0.000000000000000E+000
  0.000000000000000E+000
  0.000000000000000E+000
  0.000000000000000E+000
  0.000000000000000E+000
  0.000000000000000E+000
  0.000000000000000E+000
  0.000000000000000E+000
  0.000000000000000E+000
  0.000000000000000E+000
  0.000000000000000E+000
  0.000000000000000E+000
  0.000000000000000E+000
  0.000000000000000E+000
  0.000000000000000E+000
  0.000000000000000E+000
  0.000000000000000E+000
  0.000000000000000E+000
  0.000000000000000E+000
  0.000000000000000E+000
  0.000000000000000E+000
  0.000000000000000E+000
  0.000000000000000E+000
  0.000000000000000E+000
  0.000000000000000E+000
  0.000000000000000E+000
  0.000000000000000E+000
  0.000000000000000E+000
  0.000000000000000E+000
  0.000000000000000E+000
  0.000000000000000E+000
  0.000000000000000E+000
  0.000000000000000E+000
  0.000000000000000E+000
  0.000000000000000E+000
  0.000000000000000E+000
  0.000000000000000E+000
  0.000000000000000E+000
  0.000000000000000E+000
  0.000000000000000E+000
  0.000000000000000E+000
  0.000000000000000E+000
  0.000000000000000E+000
  0.000000000000000E+000
  0.000000000000000E+000
  0.000000000000000E+000
  0.000000000000000E+000
  0.000000000000000E+000
  0.000000000000000E+000
  0.000000000000000E+000
  0.000000000000000E+000
  0.000000000000000E+000
  0.000000000000000E+000
  0.000000000000000E+000
  0.000000000000000E+000
  0.000000000000000E+000
  0.000000000000000E+000
  0.000000000000000E+000
  0.000000000000000E+000
  0.000000000000000E+000
  0.000000000000000E+000
  0.000000000000000E+000
  0.000000000000000E+000
  0.000000000000000E+000
  0.000000000000000E+000
  0.000000000000000E+000
  0.000000000000000E+000
  0.000000000000000E+000
  0.000000000000000E+000
  0.000000000000000E+000
  0.000000000000000E+000
  0.000000000000000E+000
  0.000000000000000E+000
  0.000000000000000E+000
  0.000000000000000E+000
  0.000000000000000E+000
  0.000000000000000E+000
  0.000000000000000E+000
  0.000000000000000E+000
  0.000000000000000E+000
  0.000000000000000E+000
  0.000000000000000E+000
  0.000000000000000E+000
  0.000000000000000E+000
  0.000000000000000E+000
  0.000000000000000E+000
  0.000000000000000E+000
  0.000000000000000E+000
  0.000000000000000E+000
  0.000000000000000E+000
  0.000000000000000E+000
  0.000000000000000E+000
  0.000000000000000E+000
  0.000000000000000E+000
  0.000000000000000E+000
  0.000000000000000E+000
  0.000000000000000E+000
  0.000000000000000E+000
  0.000000000000000E+000
  0.000000000000000E+000
  0.000000000000000E+000
  0.000000000000000E+000
  0.000000000000000E+000
  0.000000000000000E+000
  0.000000000000000E+000
  0.000000000000000E+000
  0.000000000000000E+000
  0.000000000000000E+000
  0.000000000000000E+000
  0.000000000000000E+000
  0.000000000000000E+000
  0.000000000000000E+000
  0.000000000000000E+000
  0.000000000000000E+000
  0.000000000000000E+000
  0.000000000000000E+000
  0.000000000000000E+000
  0.000000000000000E+000
  0.000000000000000E+000
  0.000000000000000E+000
  0.000000000000000E+000
  0.000000000000000E+000
  0.000000000000000E+000
  0.000000000000000E+000
  0.000000000000000E+000
  0.000000000000000E+000
  0.000000000000000E+000
  0.000000000000000E+000
  0.000000000000000E+000
  0.000000000000000E+000
  0.000000000000000E+000
  0.000000000000000E+000
  0.000000000000000E+000
  0.000000000000000E+000
  0.000000000000000E+000
  0.000000000000000E+000
  0.000000000000000E+000
  0.000000000000000E+000
  0.000000000000000E+000
  0.000000000000000E+000
  0.000000000000000E+000
  0.000000000000000E+000
  0.000000000000000E+000
  0.000000000000000E+000
  0.000000000000000E+000
  0.000000000000000E+000
  0.000000000000000E+000
  0.000000000000000E+000
  0.000000000000000E+000
  0.000000000000000E+000
  0.000000000000000E+000
  0.000000000000000E+000
  0.000000000000000E+000
  0.000000000000000E+000
  0.000000000000000E+000
  0.000000000000000E+000
  0.000000000000000E+000
  0.000000000000000E+000
  0.000000000000000E+000
  0.000000000000000E+000
  0.000000000000000E+000
  0.000000000000000E+000
  0.000000000000000E+000
  0.000000000000000E+000
  0.000000000000000E+000
  0.000000000000000E+000
  0.000000000000000E+000
  0.000000000000000E+000
  0.000000000000000E+000
  0.000000000000000E+000
  0.000000000000000E+000
  0.000000000000000E+000
  0.000000000000000E+000
  0.000000000000000E+000
  0.000000000000000E+000
  0.000000000000000E+000
  0.000000000000000E+000
  0.000000000000000E+000
  0.000000000000000E+000
  0.000000000000000E+000
  0.000000000000000E+000
  0.000000000000000E+000
  0.000000000000000E+000
  0.000000000000000E+000
  0.000000000000000E+000
  0.000000000000000E+000
  0.000000000000000E+000
  0.000000000000000E+000
  0.000000000000000E+000
  0.000000000000000E+000
  0.000000000000000E+000
  0.000000000000000E+000
  0.000000000000000E+000
  0.000000000000000E+000
  0.000000000000000E+000
  0.000000000000000E+000
  0.000000000000000E+000
  0.000000000000000E+000
  0.000000000000000E+000
  0.000000000000000E+000
  0.000000000000000E+000
  0.000000000000000E+000
  0.000000000000000E+000
  0.000000000000000E+000
  0.000000000000000E+000
  0.000000000000000E+000
  0.000000000000000E+000
  0.000000000000000E+000
  0.000000000000000E+000
  0.000000000000000E+000
  0.000000000000000E+000
  0.000000000000000E+000
  0.000000000000000E+000
  0.000000000000000E+000
  0.000000000000000E+000
  0.000000000000000E+000
  0.000000000000000E+000
  0.000000000000000E+000
  0.000000000000000E+000
  0.000000000000000E+000
  0.000000000000000E+000
  0.000000000000000E+000
  0.000000000000000E+000
  0.000000000000000E+000
  0.000000000000000E+000
  0.000000000000000E+000
  0.000000000000000E+000
  0.000000000000000E+000
  0.000000000000000E+000
  0.000000000000000E+000
  0.000000000000000E+000
  0.000000000000000E+000
  0.000000000000000E+000
  0.000000000000000E+000
  0.000000000000000E+000
  0.000000000000000E+000
  0.000000000000000E+000
  0.000000000000000E+000
  0.000000000000000E+000
  0.000000000000000E+000
  0.000000000000000E+000
  0.000000000000000E+000
  0.000000000000000E+000
  0.000000000000000E+000
  0.000000000000000E+000
  0.000000000000000E+000
  0.000000000000000E+000
  0.000000000000000E+000
  0.000000000000000E+000
  0.000000000000000E+000
  0.000000000000000E+000
  0.000000000000000E+000
  0.000000000000000E+000
  0.000000000000000E+000
  0.000000000000000E+000
  0.000000000000000E+000
  0.000000000000000E+000
  0.000000000000000E+000
  0.000000000000000E+000
  0.000000000000000E+000
  0.000000000000000E+000
  0.000000000000000E+000
  0.000000000000000E+000
  0.000000000000000E+000
  0.000000000000000E+000
  0.000000000000000E+000
  0.000000000000000E+000
  0.000000000000000E+000
  0.000000000000000E+000
  0.000000000000000E+000
  0.000000000000000E+000
  0.000000000000000E+000
  0.000000000000000E+000
  0.000000000000000E+000
  0.000000000000000E+000
  0.000000000000000E+000
  0.000000000000000E+000
  0.000000000000000E+000
  0.000000000000000E+000
  0.000000000000000E+000
  0.000000000000000E+000
  0.000000000000000E+000
  0.000000000000000E+000
  0.000000000000000E+000
  0.000000000000000E+000
  0.000000000000000E+000
  0.000000000000000E+000
  0.000000000000000E+000
  0.000000000000000E+000
  0.000000000000000E+000
  0.000000000000000E+000
  0.000000000000000E+000
  0.000000000000000E+000
  0.000000000000000E+000
  0.000000000000000E+000
  0.000000000000000E+000
  0.000000000000000E+000
  0.000000000000000E+000
  0.000000000000000E+000
  0.000000000000000E+000
  0.000000000000000E+000
  0.000000000000000E+000
  0.000000000000000E+000
  0.000000000000000E+000
  0.000000000000000E+000
  0.000000000000000E+000
  0.000000000000000E+000
  0.000000000000000E+000
  0.000000000000000E+000
  0.000000000000000E+000
  0.000000000000000E+000
  0.000000000000000E+000
  0.000000000000000E+000
  0.000000000000000E+000
  0.000000000000000E+000
  0.000000000000000E+000
  0.000000000000000E+000
  0.000000000000000E+000
  0.000000000000000E+000
  0.000000000000000E+000
  0.000000000000000E+000
  0.000000000000000E+000
  0.000000000000000E+000
  0.000000000000000E+000
  0.000000000000000E+000
  0.000000000000000E+000
  0.000000000000000E+000
  0.000000000000000E+000
  0.000000000000000E+000
  0.000000000000000E+000
  0.000000000000000E+000
  0.000000000000000E+000
  0.000000000000000E+000
  0.000000000000000E+000
  0.000000000000000E+000
  0.000000000000000E+000
  0.000000000000000E+000
  0.000000000000000E+000
  0.000000000000000E+000
  0.000000000000000E+000
  0.000000000000000E+000
  0.000000000000000E+000
  0.000000000000000E+000
  0.000000000000000E+000
  0.000000000000000E+000
  0.000000000000000E+000
  0.000000000000000E+000
  0.000000000000000E+000
  0.000000000000000E+000
  0.000000000000000E+000
  0.000000000000000E+000
  0.000000000000000E+000
  0.000000000000000E+000
  0.000000000000000E+000
  0.000000000000000E+000
  0.000000000000000E+000
  0.000000000000000E+000
  0.000000000000000E+000
  0.000000000000000E+000
  0.000000000000000E+000
  0.000000000000000E+000
  0.000000000000000E+000
  0.000000000000000E+000
  0.000000000000000E+000
  0.000000000000000E+000
  0.000000000000000E+000
  0.000000000000000E+000
  0.000000000000000E+000
  0.000000000000000E+000
  0.000000000000000E+000
  0.000000000000000E+000
  0.000000000000000E+000
  0.000000000000000E+000
  0.000000000000000E+000
  0.000000000000000E+000
  0.000000000000000E+000
  0.000000000000000E+000
  0.000000000000000E+000
  0.000000000000000E+000
  0.000000000000000E+000
  0.000000000000000E+000
  0.000000000000000E+000
  0.000000000000000E+000
  0.000000000000000E+000
  0.000000000000000E+000
  0.000000000000000E+000
  0.000000000000000E+000
  0.000000000000000E+000
  0.000000000000000E+000
  0.000000000000000E+000
  0.000000000000000E+000
  0.000000000000000E+000
  0.000000000000000E+000
  0.000000000000000E+000
  0.000000000000000E+000
  0.000000000000000E+000
  0.000000000000000E+000
  0.000000000000000E+000
  0.000000000000000E+000
  0.000000000000000E+000
  0.000000000000000E+000
  0.000000000000000E+000
  0.000000000000000E+000
  0.000000000000000E+000
  0.000000000000000E+000
  0.000000000000000E+000
  0.000000000000000E+000
  0.000000000000000E+000
  0.000000000000000E+000
  0.000000000000000E+000
  0.000000000000000E+000
  0.000000000000000E+000
  0.000000000000000E+000
  0.000000000000000E+000
  0.000000000000000E+000
  0.000000000000000E+000
  0.000000000000000E+000
  0.000000000000000E+000
  0.000000000000000E+000
  0.000000000000000E+000
  0.000000000000000E+000
  0.000000000000000E+000
  0.000000000000000E+000
  0.000000000000000E+000
  0.000000000000000E+000
  0.000000000000000E+000
  0.000000000000000E+000
  0.000000000000000E+000
  0.000000000000000E+000
  0.000000000000000E+000
  0.000000000000000E+000
  0.000000000000000E+000
  0.000000000000000E+000
  0.000000000000000E+000
  0.000000000000000E+000
  0.000000000000000E+000
  0.000000000000000E+000
  0.000000000000000E+000
  0.000000000000000E+000
  0.000000000000000E+000
  0.000000000000000E+000
  0.000000000000000E+000
  0.000000000000000E+000
  0.000000000000000E+000
  0.000000000000000E+000
  0.000000000000000E+000
  0.000000000000000E+000
  0.000000000000000E+000
  0.000000000000000E+000
  0.000000000000000E+000
  0.000000000000000E+000
  0.000000000000000E+000
  0.000000000000000E+000
  0.000000000000000E+000
  0.000000000000000E+000
  0.000000000000000E+000
  0.000000000000000E+000
  0.000000000000000E+000
  0.000000000000000E+000
  0.000000000000000E+000
  0.000000000000000E+000
  0.000000000000000E+000
  0.000000000000000E+000
  0.000000000000000E+000
  0.000000000000000E+000
  0.000000000000000E+000
  0.000000000000000E+000
  0.000000000000000E+000
  0.000000000000000E+000
  0.000000000000000E+000
  0.000000000000000E+000
  0.000000000000000E+000
  0.000000000000000E+000
  0.000000000000000E+000
  0.000000000000000E+000
  0.000000000000000E+000
  0.000000000000000E+000
  0.000000000000000E+000
  0.000000000000000E+000
  0.000000000000000E+000
  0.000000000000000E+000
  0.000000000000000E+000
  0.000000000000000E+000
  0.000000000000000E+000
  0.000000000000000E+000
  0.000000000000000E+000
  0.000000000000000E+000
  0.000000000000000E+000
  0.000000000000000E+000
  0.000000000000000E+000
  0.000000000000000E+000
  0.000000000000000E+000
  0.000000000000000E+000
  0.000000000000000E+000
  0.000000000000000E+000
  0.000000000000000E+000
  0.000000000000000E+000
  0.000000000000000E+000
  0.000000000000000E+000
  0.000000000000000E+000
  0.000000000000000E+000
  0.000000000000000E+000
  0.000000000000000E+000
  0.000000000000000E+000
  0.000000000000000E+000
  0.000000000000000E+000
  0.000000000000000E+000
  0.000000000000000E+000
  0.000000000000000E+000
  0.000000000000000E+000
  0.000000000000000E+000
  0.000000000000000E+000
  0.000000000000000E+000
  0.000000000000000E+000
  0.000000000000000E+000
  0.000000000000000E+000
  0.000000000000000E+000
  0.000000000000000E+000
  0.000000000000000E+000
  0.000000000000000E+000
  0.000000000000000E+000
  0.000000000000000E+000
  0.000000000000000E+000
  0.000000000000000E+000
  0.000000000000000E+000
  0.000000000000000E+000
  0.000000000000000E+000
  0.000000000000000E+000
  0.000000000000000E+000
  0.000000000000000E+000
  0.000000000000000E+000
  0.000000000000000E+000
  0.000000000000000E+000
  0.000000000000000E+000
  0.000000000000000E+000
  0.000000000000000E+000
  0.000000000000000E+000
  0.000000000000000E+000
  0.000000000000000E+000
  0.000000000000000E+000
  0.000000000000000E+000
  0.000000000000000E+000
  0.000000000000000E+000
  0.000000000000000E+000
  0.000000000000000E+000
  0.000000000000000E+000
  0.000000000000000E+000
  0.000000000000000E+000
  0.000000000000000E+000
  0.000000000000000E+000
  0.000000000000000E+000
  0.000000000000000E+000
  0.000000000000000E+000
  0.000000000000000E+000
  0.000000000000000E+000
  0.000000000000000E+000
  0.000000000000000E+000
  0.000000000000000E+000
  0.000000000000000E+000
  0.000000000000000E+000
  0.000000000000000E+000
  0.000000000000000E+000
  0.000000000000000E+000
  0.000000000000000E+000
  0.000000000000000E+000
  0.000000000000000E+000
  0.000000000000000E+000
  0.000000000000000E+000
  0.000000000000000E+000
  0.000000000000000E+000
  0.000000000000000E+000
  0.000000000000000E+000
  0.000000000000000E+000
  0.000000000000000E+000
  0.000000000000000E+000
  0.000000000000000E+000
  0.000000000000000E+000
  0.000000000000000E+000
  0.000000000000000E+000
  0.000000000000000E+000
  0.000000000000000E+000
  0.000000000000000E+000
  0.000000000000000E+000
  0.000000000000000E+000
  0.000000000000000E+000
  0.000000000000000E+000
  0.000000000000000E+000
  0.000000000000000E+000
  0.000000000000000E+000
  0.000000000000000E+000
  0.000000000000000E+000
  0.000000000000000E+000
  0.000000000000000E+000
  0.000000000000000E+000
  0.000000000000000E+000
  0.000000000000000E+000
  0.000000000000000E+000
  0.000000000000000E+000
  0.000000000000000E+000
  0.000000000000000E+000
  0.000000000000000E+000
  0.000000000000000E+000
  0.000000000000000E+000
  0.000000000000000E+000
  0.000000000000000E+000
  0.000000000000000E+000
  0.000000000000000E+000
  0.000000000000000E+000
  0.000000000000000E+000
  0.000000000000000E+000
  0.000000000000000E+000
  0.000000000000000E+000
  0.000000000000000E+000
  0.000000000000000E+000
  0.000000000000000E+000
  0.000000000000000E+000
  0.000000000000000E+000
  0.000000000000000E+000
  0.000000000000000E+000
  0.000000000000000E+000
  0.000000000000000E+000
  0.000000000000000E+000
  0.000000000000000E+000
  0.000000000000000E+000
  0.000000000000000E+000
  0.000000000000000E+000
  0.000000000000000E+000
  0.000000000000000E+000
  0.000000000000000E+000
  0.000000000000000E+000
  0.000000000000000E+000
  0.000000000000000E+000
  0.000000000000000E+000
  0.000000000000000E+000
  0.000000000000000E+000
  0.000000000000000E+000
  0.000000000000000E+000
  0.000000000000000E+000
  0.000000000000000E+000
  0.000000000000000E+000
  0.000000000000000E+000
  0.000000000000000E+000
  0.000000000000000E+000
  0.000000000000000E+000
  0.000000000000000E+000
  0.000000000000000E+000
  0.000000000000000E+000
  0.000000000000000E+000
  0.000000000000000E+000
  0.000000000000000E+000
  0.000000000000000E+000
  0.000000000000000E+000
  0.000000000000000E+000
  0.000000000000000E+000
  0.000000000000000E+000
  0.000000000000000E+000
  0.000000000000000E+000
  0.000000000000000E+000
  0.000000000000000E+000
  0.000000000000000E+000
  0.000000000000000E+000
  0.000000000000000E+000
  0.000000000000000E+000
  0.000000000000000E+000
  0.000000000000000E+000
  0.000000000000000E+000
  0.000000000000000E+000
  0.000000000000000E+000
  0.000000000000000E+000
  0.000000000000000E+000
  0.000000000000000E+000
  0.000000000000000E+000
  0.000000000000000E+000
  0.000000000000000E+000
  0.000000000000000E+000
  0.000000000000000E+000
  0.000000000000000E+000
  0.000000000000000E+000
  0.000000000000000E+000
  0.000000000000000E+000
  0.000000000000000E+000
  0.000000000000000E+000
  0.000000000000000E+000
  0.000000000000000E+000
  0.000000000000000E+000
  0.000000000000000E+000
  0.000000000000000E+000
  0.000000000000000E+000
  0.000000000000000E+000
  0.000000000000000E+000
  0.000000000000000E+000
  0.000000000000000E+000
  0.000000000000000E+000
  0.000000000000000E+000
  0.000000000000000E+000
  0.000000000000000E+000
  0.000000000000000E+000
  0.000000000000000E+000
  0.000000000000000E+000
  0.000000000000000E+000
  0.000000000000000E+000
  0.000000000000000E+000
  0.000000000000000E+000
  0.000000000000000E+000
  0.000000000000000E+000
  0.000000000000000E+000
  0.000000000000000E+000
  0.000000000000000E+000
  0.000000000000000E+000
  0.000000000000000E+000
  0.000000000000000E+000
  0.000000000000000E+000
  0.000000000000000E+000
  0.000000000000000E+000
  0.000000000000000E+000
  0.000000000000000E+000
  0.000000000000000E+000
  0.000000000000000E+000
  0.000000000000000E+000
  0.000000000000000E+000
  0.000000000000000E+000
  0.000000000000000E+000
  0.000000000000000E+000
  0.000000000000000E+000
  0.000000000000000E+000
  0.000000000000000E+000
  0.000000000000000E+000
  0.000000000000000E+000
  0.000000000000000E+000
  0.000000000000000E+000
  0.000000000000000E+000
  0.000000000000000E+000
  0.000000000000000E+000
  0.000000000000000E+000
  0.000000000000000E+000
  0.000000000000000E+000
  0.000000000000000E+000
  0.000000000000000E+000
  0.000000000000000E+000
  0.000000000000000E+000
  0.000000000000000E+000
  0.000000000000000E+000
  0.000000000000000E+000
  0.000000000000000E+000
  0.000000000000000E+000
  0.000000000000000E+000
  0.000000000000000E+000
  0.000000000000000E+000
  0.000000000000000E+000
  0.000000000000000E+000
  0.000000000000000E+000
  0.000000000000000E+000
  0.000000000000000E+000
  0.000000000000000E+000
  0.000000000000000E+000
  0.000000000000000E+000
  0.000000000000000E+000
  0.000000000000000E+000
  0.000000000000000E+000
  0.000000000000000E+000
  0.000000000000000E+000
  0.000000000000000E+000
  0.000000000000000E+000
  0.000000000000000E+000
  0.000000000000000E+000
  0.000000000000000E+000
  0.000000000000000E+000
  0.000000000000000E+000
  0.000000000000000E+000
  0.000000000000000E+000
  0.000000000000000E+000
  0.000000000000000E+000
  0.000000000000000E+000
  0.000000000000000E+000
  0.000000000000000E+000
  0.000000000000000E+000
  0.000000000000000E+000
  0.000000000000000E+000
  0.000000000000000E+000
  0.000000000000000E+000
  0.000000000000000E+000
  0.000000000000000E+000
  0.000000000000000E+000
  0.000000000000000E+000
  0.000000000000000E+000
  0.000000000000000E+000
  0.000000000000000E+000
  0.000000000000000E+000
  0.000000000000000E+000
  0.000000000000000E+000
  0.000000000000000E+000
  0.000000000000000E+000
  0.000000000000000E+000
  0.000000000000000E+000
  0.000000000000000E+000
  0.000000000000000E+000
  0.000000000000000E+000
  0.000000000000000E+000
  0.000000000000000E+000
  0.000000000000000E+000
  0.000000000000000E+000
  0.000000000000000E+000
  0.000000000000000E+000
  0.000000000000000E+000
  0.000000000000000E+000
  0.000000000000000E+000
  0.000000000000000E+000
  0.000000000000000E+000
  0.000000000000000E+000
  0.000000000000000E+000
  0.000000000000000E+000
  0.000000000000000E+000
  0.000000000000000E+000
  0.000000000000000E+000
  0.000000000000000E+000
  0.000000000000000E+000
  0.000000000000000E+000
  0.000000000000000E+000
  0.000000000000000E+000
  0.000000000000000E+000
  0.000000000000000E+000
  0.000000000000000E+000
  0.000000000000000E+000
  0.000000000000000E+000
  0.000000000000000E+000
  0.000000000000000E+000
  0.000000000000000E+000
  0.000000000000000E+000
  0.000000000000000E+000
  0.000000000000000E+000
  0.000000000000000E+000
  0.000000000000000E+000
  0.000000000000000E+000
  0.000000000000000E+000
  0.000000000000000E+000
  0.000000000000000E+000
  0.000000000000000E+000
  0.000000000000000E+000
  0.000000000000000E+000
  0.000000000000000E+000
  0.000000000000000E+000
  0.000000000000000E+000
  0.000000000000000E+000
  0.000000000000000E+000
  0.000000000000000E+000
  0.000000000000000E+000
  0.000000000000000E+000
  0.000000000000000E+000
  0.000000000000000E+000
  0.000000000000000E+000
  0.000000000000000E+000
  0.000000000000000E+000
  0.000000000000000E+000
  0.000000000000000E+000
  0.000000000000000E+000
  0.000000000000000E+000
  0.000000000000000E+000
  0.000000000000000E+000
  0.000000000000000E+000
  0.000000000000000E+000
  0.000000000000000E+000
  0.000000000000000E+000
  0.000000000000000E+000
  0.000000000000000E+000
  0.000000000000000E+000
  0.000000000000000E+000
  0.000000000000000E+000
  0.000000000000000E+000
  0.000000000000000E+000
  0.000000000000000E+000
  0.000000000000000E+000
  0.000000000000000E+000
  0.000000000000000E+000
  0.000000000000000E+000
  0.000000000000000E+000
  0.000000000000000E+000
  0.000000000000000E+000
  0.000000000000000E+000
  0.000000000000000E+000
  0.000000000000000E+000
  0.000000000000000E+000
  0.000000000000000E+000
  0.000000000000000E+000
  0.000000000000000E+000
  0.000000000000000E+000
  0.000000000000000E+000
  0.000000000000000E+000
  0.000000000000000E+000
  0.000000000000000E+000
  0.000000000000000E+000
  0.000000000000000E+000
  0.000000000000000E+000
  0.000000000000000E+000
  0.000000000000000E+000
  0.000000000000000E+000
  0.000000000000000E+000
  0.000000000000000E+000
  0.000000000000000E+000
  0.000000000000000E+000
  0.000000000000000E+000
  0.000000000000000E+000
  0.000000000000000E+000
  0.000000000000000E+000
  0.000000000000000E+000
  0.000000000000000E+000
  0.000000000000000E+000
  0.000000000000000E+000
  0.000000000000000E+000
  0.000000000000000E+000
  0.000000000000000E+000
  0.000000000000000E+000
  0.000000000000000E+000
  0.000000000000000E+000
  0.000000000000000E+000
  0.000000000000000E+000
  0.000000000000000E+000
  0.000000000000000E+000
  0.000000000000000E+000
  0.000000000000000E+000
  0.000000000000000E+000
  0.000000000000000E+000
  0.000000000000000E+000
  0.000000000000000E+000
  0.000000000000000E+000
  0.000000000000000E+000
  0.000000000000000E+000
  0.000000000000000E+000
  0.000000000000000E+000
  0.000000000000000E+000
  0.000000000000000E+000
  0.000000000000000E+000
  0.000000000000000E+000
  0.000000000000000E+000
  0.000000000000000E+000
  0.000000000000000E+000
  0.000000000000000E+000
  0.000000000000000E+000
  0.000000000000000E+000
  0.000000000000000E+000
  0.000000000000000E+000
  0.000000000000000E+000
  0.000000000000000E+000
  0.000000000000000E+000
  0.000000000000000E+000
  0.000000000000000E+000
  0.000000000000000E+000
  0.000000000000000E+000
  0.000000000000000E+000
  0.000000000000000E+000
  0.000000000000000E+000
  0.000000000000000E+000
  0.000000000000000E+000
  0.000000000000000E+000
  0.000000000000000E+000
  0.000000000000000E+000
  0.000000000000000E+000
  0.000000000000000E+000
  0.000000000000000E+000
  0.000000000000000E+000
  0.000000000000000E+000
  0.000000000000000E+000
  0.000000000000000E+000
  0.000000000000000E+000
  0.000000000000000E+000
  0.000000000000000E+000
  0.000000000000000E+000
  0.000000000000000E+000
  0.000000000000000E+000
  0.000000000000000E+000
  0.000000000000000E+000
  0.000000000000000E+000
  0.000000000000000E+000
  0.000000000000000E+000
  0.000000000000000E+000
  0.000000000000000E+000
  0.000000000000000E+000
  0.000000000000000E+000
  0.000000000000000E+000
  0.000000000000000E+000
  0.000000000000000E+000
  0.000000000000000E+000
  0.000000000000000E+000
  0.000000000000000E+000
  0.000000000000000E+000
  0.000000000000000E+000
  0.000000000000000E+000
  0.000000000000000E+000
  0.000000000000000E+000
  0.000000000000000E+000
  0.000000000000000E+000
  0.000000000000000E+000
  0.000000000000000E+000
  0.000000000000000E+000
  0.000000000000000E+000
  0.000000000000000E+000
  0.000000000000000E+000
  0.000000000000000E+000
  0.000000000000000E+000
  0.000000000000000E+000
  0.000000000000000E+000
  0.000000000000000E+000
  0.000000000000000E+000
  0.000000000000000E+000
  0.000000000000000E+000
  0.000000000000000E+000
  0.000000000000000E+000
  0.000000000000000E+000
  0.000000000000000E+000
  0.000000000000000E+000
  0.000000000000000E+000
  0.000000000000000E+000
  0.000000000000000E+000
  0.000000000000000E+000
  0.000000000000000E+000
  0.000000000000000E+000
  0.000000000000000E+000
  0.000000000000000E+000
  0.000000000000000E+000
  0.000000000000000E+000
  0.000000000000000E+000
  0.000000000000000E+000
  0.000000000000000E+000
  0.000000000000000E+000
  0.000000000000000E+000
  0.000000000000000E+000
  0.000000000000000E+000
  0.000000000000000E+000
  0.000000000000000E+000
  0.000000000000000E+000
  0.000000000000000E+000
  0.000000000000000E+000
  0.000000000000000E+000
  0.000000000000000E+000
  0.000000000000000E+000
  0.000000000000000E+000
  0.000000000000000E+000
  0.000000000000000E+000
  0.000000000000000E+000
  0.000000000000000E+000
  0.000000000000000E+000
  0.000000000000000E+000
  0.000000000000000E+000
  0.000000000000000E+000
  0.000000000000000E+000
  0.000000000000000E+000
  0.000000000000000E+000
  0.000000000000000E+000
  0.000000000000000E+000
  0.000000000000000E+000
  0.000000000000000E+000
  0.000000000000000E+000
  0.000000000000000E+000
  0.000000000000000E+000
  0.000000000000000E+000
  0.000000000000000E+000
  0.000000000000000E+000
  0.000000000000000E+000
  0.000000000000000E+000
  0.000000000000000E+000
  0.000000000000000E+000
  0.000000000000000E+000
  0.000000000000000E+000
  0.000000000000000E+000
  0.000000000000000E+000
  0.000000000000000E+000
  0.000000000000000E+000
  0.000000000000000E+000
  0.000000000000000E+000
  0.000000000000000E+000
  0.000000000000000E+000
  0.000000000000000E+000
  0.000000000000000E+000
  0.000000000000000E+000
  0.000000000000000E+000
  0.000000000000000E+000
  0.000000000000000E+000
  0.000000000000000E+000
  0.000000000000000E+000
  0.000000000000000E+000
  0.000000000000000E+000
  0.000000000000000E+000
  0.000000000000000E+000
  0.000000000000000E+000
  0.000000000000000E+000
  0.000000000000000E+000
  0.000000000000000E+000
  0.000000000000000E+000
  0.000000000000000E+000
  0.000000000000000E+000
  0.000000000000000E+000
  0.000000000000000E+000
  0.000000000000000E+000
  0.000000000000000E+000
  0.000000000000000E+000
  0.000000000000000E+000
  0.000000000000000E+000
  0.000000000000000E+000
  0.000000000000000E+000
  0.000000000000000E+000
  0.000000000000000E+000
  0.000000000000000E+000
  0.000000000000000E+000
  0.000000000000000E+000
  0.000000000000000E+000
  0.000000000000000E+000
  0.000000000000000E+000
  0.000000000000000E+000
  0.000000000000000E+000
  0.000000000000000E+000
  0.000000000000000E+000
  0.000000000000000E+000
  0.000000000000000E+000
  0.000000000000000E+000
  0.000000000000000E+000
  0.000000000000000E+000
  0.000000000000000E+000
  0.000000000000000E+000
  0.000000000000000E+000
  0.000000000000000E+000
  0.000000000000000E+000
  0.000000000000000E+000
  0.000000000000000E+000
  0.000000000000000E+000
  0.000000000000000E+000
  0.000000000000000E+000
  0.000000000000000E+000
  0.000000000000000E+000
  0.000000000000000E+000
  0.000000000000000E+000
  0.000000000000000E+000
  0.000000000000000E+000
  0.000000000000000E+000
  0.000000000000000E+000
  0.000000000000000E+000
  0.000000000000000E+000
  0.000000000000000E+000
  0.000000000000000E+000
  0.000000000000000E+000
  0.000000000000000E+000
  0.000000000000000E+000
  0.000000000000000E+000
  0.000000000000000E+000
  0.000000000000000E+000
  0.000000000000000E+000
  0.000000000000000E+000
  0.000000000000000E+000
  0.000000000000000E+000
  0.000000000000000E+000
  0.000000000000000E+000
  0.000000000000000E+000
  0.000000000000000E+000
  0.000000000000000E+000
  0.000000000000000E+000
  0.000000000000000E+000
  0.000000000000000E+000
  0.000000000000000E+000
  0.000000000000000E+000
  0.000000000000000E+000
  0.000000000000000E+000
  0.000000000000000E+000
  0.000000000000000E+000
  0.000000000000000E+000
  0.000000000000000E+000
  0.000000000000000E+000
  0.000000000000000E+000
  0.000000000000000E+000
  0.000000000000000E+000
  0.000000000000000E+000
  0.000000000000000E+000
  0.000000000000000E+000
  0.000000000000000E+000
  0.000000000000000E+000
  0.000000000000000E+000
  0.000000000000000E+000
  0.000000000000000E+000
  0.000000000000000E+000
  0.000000000000000E+000
  0.000000000000000E+000
  0.000000000000000E+000
  0.000000000000000E+000
  0.000000000000000E+000
  0.000000000000000E+000
  0.000000000000000E+000
  0.000000000000000E+000
  0.000000000000000E+000
  0.000000000000000E+000
  0.000000000000000E+000
  0.000000000000000E+000
  0.000000000000000E+000
  0.000000000000000E+000
  0.000000000000000E+000
  0.000000000000000E+000
  0.000000000000000E+000
  0.000000000000000E+000
  0.000000000000000E+000
  0.000000000000000E+000
  0.000000000000000E+000
  0.000000000000000E+000
  0.000000000000000E+000
  0.000000000000000E+000
  0.000000000000000E+000
  0.000000000000000E+000
  0.000000000000000E+000
  0.000000000000000E+000
  0.000000000000000E+000
  0.000000000000000E+000
  0.000000000000000E+000
  0.000000000000000E+000
  0.000000000000000E+000
  0.000000000000000E+000
  0.000000000000000E+000
  0.000000000000000E+000
  0.000000000000000E+000
  0.000000000000000E+000
  0.000000000000000E+000
  0.000000000000000E+000
  0.000000000000000E+000
  0.000000000000000E+000
  0.000000000000000E+000
  0.000000000000000E+000
  0.000000000000000E+000
  0.000000000000000E+000
  0.000000000000000E+000
  0.000000000000000E+000
  0.000000000000000E+000
  0.000000000000000E+000
  0.000000000000000E+000
  0.000000000000000E+000
  0.000000000000000E+000
  0.000000000000000E+000
  0.000000000000000E+000
  0.000000000000000E+000
  0.000000000000000E+000
  0.000000000000000E+000
  0.000000000000000E+000
  0.000000000000000E+000
  0.000000000000000E+000
  0.000000000000000E+000
  0.000000000000000E+000
  0.000000000000000E+000
  0.000000000000000E+000
  0.000000000000000E+000
  0.000000000000000E+000
  0.000000000000000E+000
  0.000000000000000E+000
  0.000000000000000E+000
  0.000000000000000E+000
  0.000000000000000E+000
  0.000000000000000E+000
  0.000000000000000E+000
  0.000000000000000E+000
  0.000000000000000E+000
  0.000000000000000E+000
  0.000000000000000E+000
  0.000000000000000E+000
  0.000000000000000E+000
  0.000000000000000E+000
  0.000000000000000E+000
  0.000000000000000E+000
  0.000000000000000E+000
  0.000000000000000E+000
  0.000000000000000E+000
  0.000000000000000E+000
  0.000000000000000E+000
  0.000000000000000E+000
  0.000000000000000E+000
  0.000000000000000E+000
  0.000000000000000E+000
  0.000000000000000E+000
  0.000000000000000E+000
  0.000000000000000E+000
  0.000000000000000E+000
  0.000000000000000E+000
  0.000000000000000E+000
  0.000000000000000E+000
  0.000000000000000E+000
  0.000000000000000E+000
  0.000000000000000E+000
  0.000000000000000E+000
  0.000000000000000E+000
  0.000000000000000E+000
  0.000000000000000E+000
  0.000000000000000E+000
  0.000000000000000E+000
  0.000000000000000E+000
  0.000000000000000E+000
  0.000000000000000E+000
  0.000000000000000E+000
  0.000000000000000E+000
  0.000000000000000E+000
  0.000000000000000E+000
  0.000000000000000E+000
  0.000000000000000E+000
  0.000000000000000E+000
  0.000000000000000E+000
  0.000000000000000E+000
  0.000000000000000E+000
  0.000000000000000E+000
  0.000000000000000E+000
  0.000000000000000E+000
  0.000000000000000E+000
  0.000000000000000E+000
  0.000000000000000E+000
  0.000000000000000E+000
  0.000000000000000E+000
  0.000000000000000E+000
  0.000000000000000E+000
  0.000000000000000E+000
  0.000000000000000E+000
  0.000000000000000E+000
  0.000000000000000E+000
  0.000000000000000E+000
  0.000000000000000E+000
  0.000000000000000E+000
  0.000000000000000E+000
  0.000000000000000E+000
  0.000000000000000E+000
  0.000000000000000E+000
  0.000000000000000E+000
  0.000000000000000E+000
  0.000000000000000E+000
  0.000000000000000E+000
  0.000000000000000E+000
  0.000000000000000E+000
  0.000000000000000E+000
  0.000000000000000E+000
  0.000000000000000E+000
  0.000000000000000E+000
  0.000000000000000E+000
  0.000000000000000E+000
  0.000000000000000E+000
  0.000000000000000E+000
  0.000000000000000E+000
  0.000000000000000E+000
  0.000000000000000E+000
  0.000000000000000E+000
  0.000000000000000E+000
  0.000000000000000E+000
  0.000000000000000E+000
  0.000000000000000E+000
  0.000000000000000E+000
  0.000000000000000E+000
  0.000000000000000E+000
  0.000000000000000E+000
  0.000000000000000E+000
  0.000000000000000E+000
  0.000000000000000E+000
  0.000000000000000E+000
  0.000000000000000E+000
  0.000000000000000E+000
  0.000000000000000E+000
  0.000000000000000E+000
  0.000000000000000E+000
  0.000000000000000E+000
  0.000000000000000E+000
  0.000000000000000E+000
  0.000000000000000E+000
  0.000000000000000E+000
  0.000000000000000E+000
  0.000000000000000E+000
  0.000000000000000E+000
  0.000000000000000E+000
  0.000000000000000E+000
  0.000000000000000E+000
  0.000000000000000E+000
  0.000000000000000E+000
  0.000000000000000E+000
  0.000000000000000E+000
  0.000000000000000E+000
  0.000000000000000E+000
  0.000000000000000E+000
  0.000000000000000E+000
  0.000000000000000E+000
  0.000000000000000E+000
  0.000000000000000E+000
  0.000000000000000E+000
  0.000000000000000E+000
  0.000000000000000E+000
  0.000000000000000E+000
  0.000000000000000E+000
  0.000000000000000E+000
  0.000000000000000E+000
  0.000000000000000E+000
  0.000000000000000E+000
  0.000000000000000E+000
  0.000000000000000E+000
  0.000000000000000E+000
  0.000000000000000E+000
  0.000000000000000E+000
  0.000000000000000E+000
  0.000000000000000E+000
  0.000000000000000E+000
  0.000000000000000E+000
  0.000000000000000E+000
  0.000000000000000E+000
  0.000000000000000E+000
  0.000000000000000E+000
  0.000000000000000E+000
  0.000000000000000E+000
  0.000000000000000E+000
  0.000000000000000E+000
  0.000000000000000E+000
  0.000000000000000E+000
  0.000000000000000E+000
  0.000000000000000E+000
  0.000000000000000E+000
  0.000000000000000E+000
  0.000000000000000E+000
  0.000000000000000E+000
  0.000000000000000E+000
  0.000000000000000E+000
  0.000000000000000E+000
  0.000000000000000E+000
  0.000000000000000E+000
  0.000000000000000E+000
  0.000000000000000E+000
  0.000000000000000E+000
  0.000000000000000E+000
  0.000000000000000E+000
  0.000000000000000E+000
  0.000000000000000E+000
  0.000000000000000E+000
  0.000000000000000E+000
  0.000000000000000E+000
  0.000000000000000E+000
  0.000000000000000E+000
  0.000000000000000E+000
  0.000000000000000E+000
  0.000000000000000E+000
  0.000000000000000E+000
  0.000000000000000E+000
  0.000000000000000E+000
  0.000000000000000E+000
  0.000000000000000E+000
  0.000000000000000E+000
  0.000000000000000E+000
  0.000000000000000E+000
  0.000000000000000E+000
  0.000000000000000E+000
  0.000000000000000E+000
  0.000000000000000E+000
  0.000000000000000E+000
  0.000000000000000E+000
  0.000000000000000E+000
  0.000000000000000E+000
  0.000000000000000E+000
  0.000000000000000E+000
  0.000000000000000E+000
  0.000000000000000E+000
  0.000000000000000E+000
  0.000000000000000E+000
  0.000000000000000E+000
  0.000000000000000E+000
  0.000000000000000E+000
  0.000000000000000E+000
  0.000000000000000E+000
  0.000000000000000E+000
  0.000000000000000E+000
  0.000000000000000E+000
  0.000000000000000E+000
  0.000000000000000E+000
  0.000000000000000E+000
  0.000000000000000E+000
  0.000000000000000E+000
  0.000000000000000E+000
  0.000000000000000E+000
  0.000000000000000E+000
  0.000000000000000E+000
  0.000000000000000E+000
  0.000000000000000E+000
  0.000000000000000E+000
  0.000000000000000E+000
  0.000000000000000E+000
  0.000000000000000E+000
  0.000000000000000E+000
  0.000000000000000E+000
  0.000000000000000E+000
  0.000000000000000E+000
  0.000000000000000E+000
  0.000000000000000E+000
  0.000000000000000E+000
  0.000000000000000E+000
  0.000000000000000E+000
  0.000000000000000E+000
  0.000000000000000E+000
  0.000000000000000E+000
  0.000000000000000E+000
  0.000000000000000E+000
  0.000000000000000E+000
  0.000000000000000E+000
  0.000000000000000E+000
  0.000000000000000E+000
  0.000000000000000E+000
  0.000000000000000E+000
  0.000000000000000E+000
  0.000000000000000E+000
  0.000000000000000E+000
  0.000000000000000E+000
  0.000000000000000E+000
  0.000000000000000E+000
  0.000000000000000E+000
  0.000000000000000E+000
  0.000000000000000E+000
  0.000000000000000E+000
  0.000000000000000E+000
  0.000000000000000E+000
  0.000000000000000E+000
  0.000000000000000E+000
  0.000000000000000E+000
  0.000000000000000E+000
  0.000000000000000E+000
  0.000000000000000E+000
  0.000000000000000E+000
  0.000000000000000E+000
  0.000000000000000E+000
  0.000000000000000E+000
  0.000000000000000E+000
  0.000000000000000E+000
  0.000000000000000E+000
  0.000000000000000E+000
  0.000000000000000E+000
  0.000000000000000E+000
  0.000000000000000E+000
  0.000000000000000E+000
  0.000000000000000E+000
  0.000000000000000E+000
  0.000000000000000E+000
  0.000000000000000E+000
  0.000000000000000E+000
  0.000000000000000E+000
  0.000000000000000E+000
  0.000000000000000E+000
  0.000000000000000E+000
  0.000000000000000E+000
  0.000000000000000E+000
  0.000000000000000E+000
  0.000000000000000E+000
  0.000000000000000E+000
  0.000000000000000E+000
  0.000000000000000E+000
  0.000000000000000E+000
  0.000000000000000E+000
  0.000000000000000E+000
  0.000000000000000E+000
  0.000000000000000E+000
  0.000000000000000E+000
  0.000000000000000E+000
  0.000000000000000E+000
  0.000000000000000E+000
  0.000000000000000E+000
  0.000000000000000E+000
  0.000000000000000E+000
  0.000000000000000E+000
  0.000000000000000E+000
  0.000000000000000E+000
  0.000000000000000E+000
  0.000000000000000E+000
  0.000000000000000E+000
  0.000000000000000E+000
  0.000000000000000E+000
  0.000000000000000E+000
  0.000000000000000E+000
  0.000000000000000E+000
  0.000000000000000E+000
  0.000000000000000E+000
  0.000000000000000E+000
  0.000000000000000E+000
  0.000000000000000E+000
  0.000000000000000E+000
  0.000000000000000E+000
  0.000000000000000E+000
  0.000000000000000E+000
  0.000000000000000E+000
  0.000000000000000E+000
  0.000000000000000E+000
  0.000000000000000E+000
  0.000000000000000E+000
  0.000000000000000E+000
  0.000000000000000E+000
  0.000000000000000E+000
  0.000000000000000E+000
  0.000000000000000E+000
  0.000000000000000E+000
  0.000000000000000E+000
  0.000000000000000E+000
  0.000000000000000E+000
  0.000000000000000E+000
  0.000000000000000E+000
  0.000000000000000E+000
  0.000000000000000E+000
  0.000000000000000E+000
  0.000000000000000E+000
  0.000000000000000E+000
  0.000000000000000E+000
  0.000000000000000E+000
  0.000000000000000E+000
  0.000000000000000E+000
  0.000000000000000E+000
  0.000000000000000E+000
  0.000000000000000E+000
  0.000000000000000E+000
  0.000000000000000E+000
  0.000000000000000E+000
  0.000000000000000E+000
  0.000000000000000E+000
  0.000000000000000E+000
  0.000000000000000E+000
  0.000000000000000E+000
  0.000000000000000E+000
  0.000000000000000E+000
  0.000000000000000E+000
  0.000000000000000E+000
  0.000000000000000E+000
  0.000000000000000E+000
  0.000000000000000E+000
  0.000000000000000E+000
  0.000000000000000E+000
  0.000000000000000E+000
  0.000000000000000E+000
  0.000000000000000E+000
  0.000000000000000E+000
  0.000000000000000E+000
  0.000000000000000E+000
  0.000000000000000E+000
  0.000000000000000E+000
  0.000000000000000E+000
  0.000000000000000E+000
  0.000000000000000E+000
  0.000000000000000E+000
  0.000000000000000E+000
  0.000000000000000E+000
  0.000000000000000E+000
  0.000000000000000E+000
  0.000000000000000E+000
  0.000000000000000E+000
  0.000000000000000E+000
  0.000000000000000E+000
  0.000000000000000E+000
  0.000000000000000E+000
  0.000000000000000E+000
  0.000000000000000E+000
  0.000000000000000E+000
  0.000000000000000E+000
  0.000000000000000E+000
  0.000000000000000E+000
  0.000000000000000E+000
  0.000000000000000E+000
  0.000000000000000E+000
  0.000000000000000E+000
  0.000000000000000E+000
  0.000000000000000E+000
  0.000000000000000E+000
  0.000000000000000E+000
  0.000000000000000E+000
  0.000000000000000E+000
  0.000000000000000E+000
  0.000000000000000E+000
  0.000000000000000E+000
  0.000000000000000E+000
  0.000000000000000E+000
  0.000000000000000E+000
  0.000000000000000E+000
  0.000000000000000E+000
  0.000000000000000E+000
  0.000000000000000E+000
  0.000000000000000E+000
  0.000000000000000E+000
  0.000000000000000E+000
  0.000000000000000E+000
  0.000000000000000E+000
  0.000000000000000E+000
  0.000000000000000E+000
  0.000000000000000E+000
  0.000000000000000E+000
  0.000000000000000E+000
  0.000000000000000E+000
  0.000000000000000E+000
  0.000000000000000E+000
  0.000000000000000E+000
  0.000000000000000E+000
  0.000000000000000E+000
  0.000000000000000E+000
  0.000000000000000E+000
  0.000000000000000E+000
  0.000000000000000E+000
  0.000000000000000E+000
  0.000000000000000E+000
  0.000000000000000E+000
  0.000000000000000E+000
  0.000000000000000E+000
  0.000000000000000E+000
  0.000000000000000E+000
  0.000000000000000E+000
  0.000000000000000E+000
  0.000000000000000E+000
  0.000000000000000E+000
  0.000000000000000E+000
  0.000000000000000E+000
  0.000000000000000E+000
  0.000000000000000E+000
  0.000000000000000E+000
  0.000000000000000E+000
  0.000000000000000E+000
  0.000000000000000E+000
  0.000000000000000E+000
  0.000000000000000E+000
  0.000000000000000E+000
  0.000000000000000E+000
  0.000000000000000E+000
  0.000000000000000E+000
  0.000000000000000E+000
  0.000000000000000E+000
  0.000000000000000E+000
  0.000000000000000E+000
  0.000000000000000E+000
  0.000000000000000E+000
  0.000000000000000E+000
  0.000000000000000E+000
  0.000000000000000E+000
  0.000000000000000E+000
  0.000000000000000E+000
  0.000000000000000E+000
  0.000000000000000E+000
  0.000000000000000E+000
  0.000000000000000E+000
  0.000000000000000E+000
  0.000000000000000E+000
  0.000000000000000E+000
  0.000000000000000E+000
  0.000000000000000E+000
  0.000000000000000E+000
  0.000000000000000E+000
  0.000000000000000E+000
  0.000000000000000E+000
  0.000000000000000E+000
  0.000000000000000E+000
  0.000000000000000E+000
  0.000000000000000E+000
  0.000000000000000E+000
  0.000000000000000E+000
  0.000000000000000E+000
  0.000000000000000E+000
  0.000000000000000E+000
  0.000000000000000E+000
  0.000000000000000E+000
  0.000000000000000E+000
  0.000000000000000E+000
  0.000000000000000E+000
  0.000000000000000E+000
  0.000000000000000E+000
  0.000000000000000E+000
  0.000000000000000E+000
  0.000000000000000E+000
  0.000000000000000E+000
  0.000000000000000E+000
  0.000000000000000E+000
  0.000000000000000E+000
  0.000000000000000E+000
  0.000000000000000E+000
  0.000000000000000E+000
  0.000000000000000E+000
  0.000000000000000E+000
  0.000000000000000E+000
  0.000000000000000E+000
  0.000000000000000E+000
  0.000000000000000E+000
  0.000000000000000E+000
  0.000000000000000E+000
  0.000000000000000E+000
  0.000000000000000E+000
  0.000000000000000E+000
  0.000000000000000E+000
  0.000000000000000E+000
  0.000000000000000E+000
  0.000000000000000E+000
  0.000000000000000E+000
  0.000000000000000E+000
  0.000000000000000E+000
  0.000000000000000E+000
  0.000000000000000E+000
  0.000000000000000E+000
  0.000000000000000E+000
  0.000000000000000E+000
  0.000000000000000E+000
  0.000000000000000E+000
  0.000000000000000E+000
  0.000000000000000E+000
  0.000000000000000E+000
  0.000000000000000E+000
  0.000000000000000E+000
  0.000000000000000E+000
  0.000000000000000E+000
  0.000000000000000E+000
  0.000000000000000E+000
  0.000000000000000E+000
  0.000000000000000E+000
  0.000000000000000E+000
  0.000000000000000E+000
  0.000000000000000E+000
  0.000000000000000E+000
  0.000000000000000E+000
  0.000000000000000E+000
  0.000000000000000E+000
  0.000000000000000E+000
  0.000000000000000E+000
  0.000000000000000E+000
  0.000000000000000E+000
  0.000000000000000E+000
  0.000000000000000E+000
  0.000000000000000E+000
  0.000000000000000E+000
  0.000000000000000E+000
  0.000000000000000E+000
  0.000000000000000E+000
  0.000000000000000E+000
  0.000000000000000E+000
  0.000000000000000E+000
  0.000000000000000E+000
  0.000000000000000E+000
  0.000000000000000E+000
  0.000000000000000E+000
  0.000000000000000E+000
  0.000000000000000E+000
  0.000000000000000E+000
  0.000000000000000E+000
  0.000000000000000E+000
  0.000000000000000E+000
  0.000000000000000E+000
  0.000000000000000E+000
  0.000000000000000E+000
  0.000000000000000E+000
  0.000000000000000E+000
  0.000000000000000E+000
  0.000000000000000E+000
  0.000000000000000E+000
  0.000000000000000E+000
  0.000000000000000E+000
  0.000000000000000E+000
  0.000000000000000E+000
  0.000000000000000E+000
  0.000000000000000E+000
  0.000000000000000E+000
  0.000000000000000E+000
  0.000000000000000E+000
  0.000000000000000E+000
  0.000000000000000E+000
  0.000000000000000E+000
  0.000000000000000E+000
  0.000000000000000E+000
  0.000000000000000E+000
  0.000000000000000E+000
  0.000000000000000E+000
  0.000000000000000E+000
  0.000000000000000E+000
  0.000000000000000E+000
  0.000000000000000E+000
  0.000000000000000E+000
  0.000000000000000E+000
  0.000000000000000E+000
  0.000000000000000E+000
  0.000000000000000E+000
  0.000000000000000E+000
  0.000000000000000E+000
  0.000000000000000E+000
  0.000000000000000E+000
  0.000000000000000E+000
  0.000000000000000E+000
  0.000000000000000E+000
  0.000000000000000E+000
  0.000000000000000E+000
  0.000000000000000E+000
  0.000000000000000E+000
  0.000000000000000E+000
  0.000000000000000E+000
  0.000000000000000E+000
  0.000000000000000E+000
  0.000000000000000E+000
  0.000000000000000E+000
  0.000000000000000E+000
  0.000000000000000E+000
  0.000000000000000E+000
  0.000000000000000E+000
  0.000000000000000E+000
  0.000000000000000E+000
  0.000000000000000E+000
  0.000000000000000E+000
  0.000000000000000E+000
  0.000000000000000E+000
  0.000000000000000E+000
  0.000000000000000E+000
  0.000000000000000E+000
  0.000000000000000E+000
  0.000000000000000E+000
  0.000000000000000E+000
  0.000000000000000E+000
  0.000000000000000E+000
  0.000000000000000E+000
  0.000000000000000E+000
  0.000000000000000E+000
  0.000000000000000E+000
  0.000000000000000E+000
  0.000000000000000E+000
  0.000000000000000E+000
  0.000000000000000E+000
  0.000000000000000E+000
  0.000000000000000E+000
  0.000000000000000E+000
  0.000000000000000E+000
  0.000000000000000E+000
  0.000000000000000E+000
  0.000000000000000E+000
  0.000000000000000E+000
  0.000000000000000E+000
  0.000000000000000E+000
  0.000000000000000E+000
  0.000000000000000E+000
  0.000000000000000E+000
  0.000000000000000E+000
  0.000000000000000E+000
  0.000000000000000E+000
  0.000000000000000E+000
  0.000000000000000E+000
  0.000000000000000E+000
  0.000000000000000E+000
  0.000000000000000E+000
  0.000000000000000E+000
  0.000000000000000E+000
  0.000000000000000E+000
  0.000000000000000E+000
  0.000000000000000E+000
  0.000000000000000E+000
  0.000000000000000E+000
  0.000000000000000E+000
  0.000000000000000E+000
  0.000000000000000E+000
  0.000000000000000E+000
  0.000000000000000E+000
  0.000000000000000E+000
  0.000000000000000E+000
  0.000000000000000E+000
  0.000000000000000E+000
  0.000000000000000E+000
  0.000000000000000E+000
  0.000000000000000E+000
  0.000000000000000E+000
  0.000000000000000E+000
  0.000000000000000E+000
  0.000000000000000E+000
  0.000000000000000E+000
  0.000000000000000E+000
  0.000000000000000E+000
  0.000000000000000E+000
  0.000000000000000E+000
  0.000000000000000E+000
  0.000000000000000E+000
  0.000000000000000E+000
  0.000000000000000E+000
  0.000000000000000E+000
  0.000000000000000E+000
  0.000000000000000E+000
  0.000000000000000E+000
  0.000000000000000E+000
  0.000000000000000E+000
  0.000000000000000E+000
  0.000000000000000E+000
  0.000000000000000E+000
  0.000000000000000E+000
  0.000000000000000E+000
  0.000000000000000E+000
  0.000000000000000E+000
  0.000000000000000E+000
  0.000000000000000E+000
  0.000000000000000E+000
  0.000000000000000E+000
  0.000000000000000E+000
  0.000000000000000E+000
  0.000000000000000E+000
  0.000000000000000E+000
  0.000000000000000E+000
  0.000000000000000E+000
  0.000000000000000E+000
  0.000000000000000E+000
  0.000000000000000E+000
  0.000000000000000E+000
  0.000000000000000E+000
  0.000000000000000E+000
  0.000000000000000E+000
  0.000000000000000E+000
  0.000000000000000E+000
  0.000000000000000E+000
  0.000000000000000E+000
  0.000000000000000E+000
  0.000000000000000E+000
  0.000000000000000E+000
  0.000000000000000E+000
  0.000000000000000E+000
  0.000000000000000E+000
  0.000000000000000E+000
  0.000000000000000E+000
  0.000000000000000E+000
  0.000000000000000E+000
  0.000000000000000E+000
  0.000000000000000E+000
  0.000000000000000E+000
  0.000000000000000E+000
  0.000000000000000E+000
  0.000000000000000E+000
  0.000000000000000E+000
  0.000000000000000E+000
  0.000000000000000E+000
  0.000000000000000E+000
  0.000000000000000E+000
  0.000000000000000E+000
  0.000000000000000E+000
  0.000000000000000E+000
  0.000000000000000E+000
  0.000000000000000E+000
  0.000000000000000E+000
  0.000000000000000E+000
  0.000000000000000E+000
  0.000000000000000E+000
  0.000000000000000E+000
  0.000000000000000E+000
  0.000000000000000E+000
  0.000000000000000E+000
  0.000000000000000E+000
  0.000000000000000E+000
  0.000000000000000E+000
  0.000000000000000E+000
  0.000000000000000E+000
  0.000000000000000E+000
  0.000000000000000E+000
  0.000000000000000E+000
  0.000000000000000E+000
  0.000000000000000E+000
  0.000000000000000E+000
  0.000000000000000E+000
  0.000000000000000E+000
  0.000000000000000E+000
  0.000000000000000E+000
  0.000000000000000E+000
  0.000000000000000E+000
  0.000000000000000E+000
  0.000000000000000E+000
  0.000000000000000E+000
  0.000000000000000E+000
  0.000000000000000E+000
  0.000000000000000E+000
  0.000000000000000E+000
  0.000000000000000E+000
  0.000000000000000E+000
  0.000000000000000E+000
  0.000000000000000E+000
  0.000000000000000E+000
  0.000000000000000E+000
  0.000000000000000E+000
  0.000000000000000E+000
  0.000000000000000E+000
  0.000000000000000E+000
  0.000000000000000E+000
  0.000000000000000E+000
  0.000000000000000E+000
  0.000000000000000E+000
  0.000000000000000E+000
  0.000000000000000E+000
  0.000000000000000E+000
  0.000000000000000E+000
  0.000000000000000E+000
  0.000000000000000E+000
  0.000000000000000E+000
  0.000000000000000E+000
  0.000000000000000E+000
  0.000000000000000E+000
  0.000000000000000E+000
  0.000000000000000E+000
  0.000000000000000E+000
  0.000000000000000E+000
  0.000000000000000E+000
  0.000000000000000E+000
  0.000000000000000E+000
  0.000000000000000E+000
  0.000000000000000E+000
  0.000000000000000E+000
  0.000000000000000E+000
  0.000000000000000E+000
  0.000000000000000E+000
  0.000000000000000E+000
  0.000000000000000E+000
  0.000000000000000E+000
  0.000000000000000E+000
  0.000000000000000E+000
  0.000000000000000E+000
  0.000000000000000E+000
  0.000000000000000E+000
  0.000000000000000E+000
  0.000000000000000E+000
  0.000000000000000E+000
  0.000000000000000E+000
  0.000000000000000E+000
  0.000000000000000E+000
  0.000000000000000E+000
  0.000000000000000E+000
  0.000000000000000E+000
  0.000000000000000E+000
  0.000000000000000E+000
  0.000000000000000E+000
  0.000000000000000E+000
  0.000000000000000E+000
  0.000000000000000E+000
  0.000000000000000E+000
  0.000000000000000E+000
  0.000000000000000E+000
  0.000000000000000E+000
  0.000000000000000E+000
  0.000000000000000E+000
  0.000000000000000E+000
  0.000000000000000E+000
  0.000000000000000E+000
  0.000000000000000E+000
  0.000000000000000E+000
  0.000000000000000E+000
  0.000000000000000E+000
  0.000000000000000E+000
  0.000000000000000E+000
  0.000000000000000E+000
  0.000000000000000E+000
  0.000000000000000E+000
  0.000000000000000E+000
  0.000000000000000E+000
  0.000000000000000E+000
  0.000000000000000E+000
  0.000000000000000E+000
  0.000000000000000E+000
  0.000000000000000E+000
  0.000000000000000E+000
  0.000000000000000E+000
  0.000000000000000E+000
  0.000000000000000E+000
  0.000000000000000E+000
  0.000000000000000E+000
  0.000000000000000E+000
  0.000000000000000E+000
  0.000000000000000E+000
  0.000000000000000E+000
  0.000000000000000E+000
  0.000000000000000E+000
  0.000000000000000E+000
  0.000000000000000E+000
  0.000000000000000E+000
  0.000000000000000E+000
  0.000000000000000E+000
  0.000000000000000E+000
  0.000000000000000E+000
  0.000000000000000E+000
  0.000000000000000E+000
  0.000000000000000E+000
  0.000000000000000E+000
  0.000000000000000E+000
  0.000000000000000E+000
  0.000000000000000E+000
  0.000000000000000E+000
  0.000000000000000E+000
  0.000000000000000E+000
  0.000000000000000E+000
  0.000000000000000E+000
  0.000000000000000E+000
  0.000000000000000E+000
  0.000000000000000E+000
  0.000000000000000E+000
  0.000000000000000E+000
  0.000000000000000E+000
  0.000000000000000E+000
  0.000000000000000E+000
  0.000000000000000E+000
  0.000000000000000E+000
  0.000000000000000E+000
  0.000000000000000E+000
  0.000000000000000E+000
  0.000000000000000E+000
  0.000000000000000E+000
  0.000000000000000E+000
  0.000000000000000E+000
  0.000000000000000E+000
  0.000000000000000E+000
  0.000000000000000E+000
  0.000000000000000E+000
  0.000000000000000E+000
  0.000000000000000E+000
  0.000000000000000E+000
  0.000000000000000E+000
  0.000000000000000E+000
  0.000000000000000E+000
  0.000000000000000E+000
  0.000000000000000E+000
  0.000000000000000E+000
  0.000000000000000E+000
  0.000000000000000E+000
  0.000000000000000E+000
  0.000000000000000E+000
  0.000000000000000E+000
  0.000000000000000E+000
  0.000000000000000E+000
  0.000000000000000E+000
  0.000000000000000E+000
  0.000000000000000E+000
  0.000000000000000E+000
  0.000000000000000E+000
  0.000000000000000E+000
  0.000000000000000E+000
  0.000000000000000E+000
  0.000000000000000E+000
  0.000000000000000E+000
  0.000000000000000E+000
  0.000000000000000E+000
  0.000000000000000E+000
  0.000000000000000E+000
  0.000000000000000E+000
  0.000000000000000E+000
  0.000000000000000E+000
  0.000000000000000E+000
  0.000000000000000E+000
  0.000000000000000E+000
  0.000000000000000E+000
  0.000000000000000E+000
  0.000000000000000E+000
  0.000000000000000E+000
  0.000000000000000E+000
  0.000000000000000E+000
  0.000000000000000E+000
  0.000000000000000E+000
  0.000000000000000E+000
  0.000000000000000E+000
  0.000000000000000E+000
  0.000000000000000E+000
  0.000000000000000E+000
  0.000000000000000E+000
  0.000000000000000E+000
  0.000000000000000E+000
  0.000000000000000E+000
  0.000000000000000E+000
  0.000000000000000E+000
  0.000000000000000E+000
  0.000000000000000E+000
  0.000000000000000E+000
  0.000000000000000E+000
  0.000000000000000E+000
  0.000000000000000E+000
  0.000000000000000E+000
  0.000000000000000E+000
  0.000000000000000E+000
  0.000000000000000E+000
  0.000000000000000E+000
  0.000000000000000E+000
  0.000000000000000E+000
  0.000000000000000E+000
  0.000000000000000E+000
  0.000000000000000E+000
  0.000000000000000E+000
  0.000000000000000E+000
  0.000000000000000E+000
  0.000000000000000E+000
  0.000000000000000E+000
  0.000000000000000E+000
  0.000000000000000E+000
  0.000000000000000E+000
  0.000000000000000E+000
  0.000000000000000E+000
  0.000000000000000E+000
  0.000000000000000E+000
  0.000000000000000E+000
  0.000000000000000E+000
  0.000000000000000E+000
  0.000000000000000E+000
  0.000000000000000E+000
  0.000000000000000E+000
  0.000000000000000E+000
  0.000000000000000E+000
  0.000000000000000E+000
  0.000000000000000E+000
  0.000000000000000E+000
  0.000000000000000E+000
  0.000000000000000E+000
  0.000000000000000E+000
  0.000000000000000E+000
  0.000000000000000E+000
  0.000000000000000E+000
  0.000000000000000E+000
  0.000000000000000E+000
  0.000000000000000E+000
  0.000000000000000E+000
  0.000000000000000E+000
  0.000000000000000E+000
  0.000000000000000E+000
  0.000000000000000E+000
  0.000000000000000E+000
  0.000000000000000E+000
  0.000000000000000E+000
  0.000000000000000E+000
  0.000000000000000E+000
  0.000000000000000E+000
  0.000000000000000E+000
  0.000000000000000E+000
  0.000000000000000E+000
  0.000000000000000E+000
  0.000000000000000E+000
  0.000000000000000E+000
  0.000000000000000E+000
  0.000000000000000E+000
  0.000000000000000E+000
  0.000000000000000E+000
  0.000000000000000E+000
  0.000000000000000E+000
  0.000000000000000E+000
  0.000000000000000E+000
  0.000000000000000E+000
  0.000000000000000E+000
  0.000000000000000E+000
  0.000000000000000E+000
  0.000000000000000E+000
  0.000000000000000E+000
  0.000000000000000E+000
  0.000000000000000E+000
  0.000000000000000E+000
  0.000000000000000E+000
  0.000000000000000E+000
  0.000000000000000E+000
  0.000000000000000E+000
  0.000000000000000E+000
  0.000000000000000E+000
  0.000000000000000E+000
  0.000000000000000E+000
  0.000000000000000E+000
  0.000000000000000E+000
  0.000000000000000E+000
  0.000000000000000E+000
  0.000000000000000E+000
  0.000000000000000E+000
  0.000000000000000E+000
  0.000000000000000E+000
  0.000000000000000E+000
  0.000000000000000E+000
  0.000000000000000E+000
  0.000000000000000E+000
  0.000000000000000E+000
  0.000000000000000E+000
  0.000000000000000E+000
  0.000000000000000E+000
  0.000000000000000E+000
  0.000000000000000E+000
  0.000000000000000E+000
  0.000000000000000E+000
  0.000000000000000E+000
  0.000000000000000E+000
  0.000000000000000E+000
  0.000000000000000E+000
  0.000000000000000E+000
  0.000000000000000E+000
  0.000000000000000E+000
  0.000000000000000E+000
  0.000000000000000E+000
  0.000000000000000E+000
  0.000000000000000E+000
